##TITLE=Library Entry 19324
##JCAMP-DX=Revision 4.10 
##DATA TYPE=MASS SPECTRUM
##SAMPLE DESCRIPTION=R.T.HOLMAN,UNIVERSITY OF MINNESOTA
##NAMES=HP
##CAS NAME=13-Octadecenoic acid, methyl ester
##MOLFORM=C19H36O2
##CAS REGISTRY NO=56554-47-3
##MP= -300
##BP= -300
##MW= 296
##$RETENTION INDEX=2098
##$CONDENSED SPECTRUM=NO
##NPOINTS= 240
##XYDATA=(XY..XY) 1 
    26          6
    27        100
    28         63
    29        200
    30          6
    31         11
    32          8
    33          3
    34          1
    35          2
    36          4
    37          2
    38          3
    39         80
    40         18
    41        630
    42        130
    43        390
    44         20
    45         24
    46          2
    47          2
    48          1
    50          2
    51          5
    52          4
    53         57
    54        170
    55        999
    56        210
    57        180
    58         12
    59        150
    60          7
    61          3
    62          1
    63          2
    64          2
    65         14
    66         13
    67        220
    68        140
    69        540
    70        140
    71         70
    72          7
    73         36
    74        510
    75         77
    76          6
    77         14
    78          6
    79         38
    80         24
    81        190
    82        140
    83        360
    84        260
    85         64
    86          6
    87        350
    88         32
    89          3
    90          2
    91         11
    92          4
    93         23
    94         27
    95        140
    96        240
    97        300
    98        200
    99         30
   100          7
   101         48
   102          6
   103          2
   104          1
   105          6
   106          4
   107         20
   108         19
   109         82
   110        130
   111        140
   112         45
   113         20
   114         28
   115         48
   116          9
   117          2
   118          2
   119         14
   120          6
   121         25
   122         13
   123         85
   124         70
   125         72
   126         15
   127         19
   128         34
   129         38
   130         11
   131          3
   132          1
   133         14
   134         12
   135         24
   136         10
   137         50
   138         57
   139         46
   140          9
   141         37
   142         11
   143         49
   144          6
   145          2
   146          2
   147         12
   148         10
   149         21
   150          8
   151         33
   152         42
   153         29
   154          6
   155         11
   156          3
   157          5
   158          4
   159          2
   160          1
   161          9
   162          5
   163         13
   164          8
   165         23
   166         34
   167         21
   168          4
   169         14
   170          3
   171         11
   172          3
   173          1
   174          1
   175          8
   176          3
   177          6
   178          4
   179         15
   180         63
   181         21
   182          5
   183          9
   184          2
   185          9
   186          3
   187          2
   189          6
   190          2
   191          4
   192          3
   193         12
   194         15
   195          7
   196          2
   197          3
   198          1
   199         10
   200          5
   201          2
   202          1
   203          4
   204          1
   205          2
   206          2
   207         11
   208         11
   209          5
   210          2
   211          2
   212          1
   213          7
   214          4
   215          1
   217          2
   218          1
   219          1
   220         24
   221         20
   222         90
   223         19
   224          2
   225          2
   226          1
   227          3
   228          3
   229          1
   231          1
   235         15
   236         14
   237          3
   238          1
   239          2
   240          1
   241          2
   242          1
   245          1
   246         10
   247          4
   248          1
   249          2
   250          1
   251          1
   252          1
   253          6
   254          2
   255          4
   256          1
   263          4
   264        210
   265        130
   266         22
   267          6
   268          1
   269          1
   270          1
   278          2
   279          1
   292          1
   294          1
   295          1
   296         35
   297          8
   298          9
   299          2
   300          1