##TITLE=Library Entry 50141
##JCAMP-DX=Revision 4.10 
##DATA TYPE=MASS SPECTRUM
##SAMPLE DESCRIPTION=R.T.HOLMAN,UNIVERSITY OF MINNESOTA
##NAMES=HP
##CAS NAME=7-Heptadecyne, 17-chloro-
##MOLFORM=C17H31Cl
##CAS REGISTRY NO=56554-75-7
##MP= -300
##BP= -300
##MW= 270
##$RETENTION INDEX=0
##$CONDENSED SPECTRUM=NO
##NPOINTS= 181
##XYDATA=(XY..XY) 1 
    26          8
    27        165
    28        152
    29        271
    30         10
    31          5
    32         33
    38          7
    39        144
    40         33
    41        703
    42         82
    43        364
    44         17
    45          5
    49         12
    50         10
    51         26
    52         57
    53        156
    54        652
    55        703
    56         77
    57        135
    58          9
    59          6
    60          5
    61          6
    62          5
    63         27
    64          7
    65         64
    66         69
    67        966
    68        347
    69        457
    70         50
    71         45
    72          5
    73          6
    74          5
    75         12
    76          5
    77         97
    78         26
    79        211
    80         83
    81        999
    82        533
    83        262
    84         27
    85         22
    87          5
    88          5
    89         11
    90          5
    91         71
    92         15
    93         77
    94         38
    95        830
    96        432
    97        127
    98         13
    99          5
   100          4
   101          5
   102          5
   103         15
   104         11
   105         23
   106          8
   107         33
   108         18
   109        491
   110        139
   111         30
   112          6
   113          4
   114          4
   115          7
   116          9
   117         18
   118          8
   119         14
   120          5
   121         18
   122         11
   123        139
   124         53
   125         18
   126          5
   127          6
   128          5
   129         16
   130         12
   131         16
   132          6
   133          9
   134          4
   135         16
   136          6
   137         35
   138         22
   139          7
   140          4
   141          8
   142          5
   143         22
   144         22
   145         18
   146         11
   147          6
   148          4
   149         13
   150          5
   151         33
   152         17
   153          5
   155         29
   156          5
   157         19
   158         19
   159         12
   160         10
   161          7
   162          5
   163          7
   164          5
   165         50
   166         29
   167          9
   168          4
   169         16
   170          4
   171         35
   172         43
   173         19
   174         16
   175          6
   176          4
   177          4
   179         11
   180          9
   183         16
   184          5
   185         46
   186         18
   187         18
   188         10
   189          4
   191          4
   193          5
   194          5
   195          5
   196          5
   197         16
   199         14
   200         11
   201         10
   202          7
   203          4
   211          8
   213          7
   214          5
   215          5
   216          5
   219          5
   227         12
   228          6
   229          7
   241         26
   242          7
   243         10
   244          5
   253         13
   254          4
   255          5
   270         10
   271          5
   272          5