##TITLE=Library Entry 48858
##JCAMP-DX=Revision 4.10 
##DATA TYPE=MASS SPECTRUM
##SAMPLE DESCRIPTION=R.T.HOLMAN,UNIVERSITY OF MINNESOTA
##NAMES=HP
##CAS NAME=Sulfuric acid, 5,8,11-heptadecatrienyl methyl ester
##MOLFORM=C18H32O3S
##CAS REGISTRY NO=56554-67-7
##MP= -300
##BP= -300
##MW= 328
##$RETENTION INDEX=0
##$CONDENSED SPECTRUM=NO
##NPOINTS= 261
##XYDATA=(XY..XY) 1 
    26         11
    27        140
    28         80
    29        230
    30          9
    31         27
    32          2
    35         14
    36         86
    37          7
    38         32
    39        170
    40         31
    41        670
    42         52
    43        260
    44         29
    45         17
    46          7
    47          3
    48          3
    49          5
    50          8
    51         36
    52         28
    53        170
    54        170
    55        370
    56         48
    57        110
    58          9
    59         10
    60          8
    61          8
    62          4
    63         17
    64          9
    65        100
    66        150
    67        800
    68        130
    69        230
    70         31
    71         74
    72          8
    73          9
    74         13
    75         14
    76          6
    77        270
    78        190
    79        999
    80        820
    81        750
    82        150
    83        100
    84         17
    85         47
    86          5
    87          9
    88          3
    89         10
    90          5
    91        400
    92        160
    93        550
    94        230
    95        260
    96        110
    97         42
    98         14
    99          6
   100          2
   101          5
   102          5
   103         19
   104         16
   105        150
   106         74
   107        150
   108        110
   109         80
   110         38
   111         13
   112          6
   113          4
   114          2
   115         20
   116         10
   117         31
   118         11
   119        110
   120         50
   121        260
   122        120
   123         34
   124         23
   125          7
   126          4
   127          5
   128          9
   129         11
   130          8
   131         15
   132          7
   133         66
   134         85
   135         65
   136         31
   137         24
   138         10
   139          4
   140          3
   141         15
   142          5
   143          8
   144          8
   145         10
   146          9
   147         66
   148         32
   149         36
   150        260
   151         38
   152         10
   153          4
   154          4
   155          9
   156          4
   157         15
   158          5
   159         10
   160          4
   161         61
   162         33
   163         52
   164         24
   165          8
   166          4
   167          3
   168          3
   169          6
   170         75
   171         13
   172         27
   173          6
   174          2
   175         25
   176          8
   177         13
   178         33
   179          6
   180          2
   181          2
   182          2
   183          9
   184          6
   185          6
   186          3
   187          2
   188          4
   189         12
   190         10
   191         12
   192          4
   193          2
   194          4
   195          2
   196          2
   197          9
   198          5
   199          5
   200          3
   201          2
   202          1
   203          7
   204          5
   205          6
   206          3
   207          2
   208          2
   209          2
   210          2
   211          5
   212          3
   213          3
   214          7
   215          2
   216          5
   217          3
   218          2
   219          3
   220          3
   221          2
   222          2
   223          2
   224          1
   225          3
   226          2
   227          2
   228          3
   229          2
   230          7
   231          4
   232        150
   233         29
   234          6
   235          2
   236          2
   237          1
   238          2
   239          3
   240          2
   241          1
   242          1
   243          1
   244          3
   245          2
   246          2
   247          1
   248          1
   249          2
   250          2
   251          1
   252          1
   253          1
   254          3
   255          2
   256          2
   257          1
   258          1
   259          2
   260          2
   261          3
   262          3
   263          3
   264          3
   265          1
   266          2
   267          2
   268         10
   269          4
   270          6
   271          3
   272          1
   273          1
   278          1
   279          1
   280          1
   281          2
   282          1
   286          2
   292          9
   293          3
   294          4
   295          2
   310          1
   312          1
   324          3
   328          9
   329          3