##TITLE=Library Entry 11549
##JCAMP-DX=Revision 4.10 
##DATA TYPE=MASS SPECTRUM
##SAMPLE DESCRIPTION=R.T.HOLMAN,UNIVERSITY OF MINNESOTA
##NAMES=HP
##CAS NAME=11,14-Octadecadiynoic acid, methyl ester
##MOLFORM=C19H30O2
##CAS REGISTRY NO=56554-58-6
##MP= -300
##BP= -300
##MW= 290
##$RETENTION INDEX=0
##$CONDENSED SPECTRUM=NO
##NPOINTS= 140
##XYDATA=(XY..XY) 1 
    26         20
    27        260
    28         90
    29        340
    30         10
    31         10
    32         10
    38         20
    39        260
    40         50
    41        800
    42        550
    43        999
    44         40
    45         20
    50         30
    51         80
    52         50
    53        120
    54         40
    55        530
    56        280
    57        580
    58         40
    59        130
    63         50
    64         30
    65        110
    66         50
    67        260
    68         50
    69        180
    70        110
    71        300
    72         20
    73         40
    74        110
    75         20
    76         20
    77        200
    78        270
    79        350
    80        110
    81        240
    82         70
    83         80
    84         30
    85         50
    86         60
    87         70
    88         10
    89         30
    90         20
    91        770
    92        270
    93        220
    94         70
    95        140
    96         30
    97         50
    98         20
    99         20
   101         10
   102         10
   103         80
   104         50
   105        820
   106        150
   107         90
   108         40
   109         40
   110         10
   111         20
   112         10
   113         10
   115        110
   116         50
   117        130
   118         40
   119        340
   120        940
   121        160
   122         40
   123         20
   125         10
   127         10
   128         50
   129         50
   130         20
   131        110
   132         30
   133        180
   134         80
   135         60
   136         20
   137         10
   139         10
   141         20
   142         20
   143         20
   144         10
   145        120
   146         30
   147        100
   148         30
   149         30
   150         10
   154         10
   155         10
   159         40
   160         10
   161         80
   162         20
   163         20
   164         50
   165         10
   171         10
   173         20
   175         40
   176         10
   177         30
   187         10
   189         30
   190         10
   191         10
   201         10
   205        730
   206        120
   207         10
   215         10
   219         10
   220        210
   221         30
   229         10
   247         10
   259         60
   260         10
   261         20
   275          2
   290          1