##TITLE=Library Entry 68273
##JCAMP-DX=Revision 4.10 
##DATA TYPE=MASS SPECTRUM
##SAMPLE DESCRIPTION=Chuck Anderson, Aldrich Chemical Co.
##NAMES=HP
##CAS NAME=Bicyclo[2.2.1]heptan-2-ol, 1,7,7-trimethyl-, acetate, (1S-endo)-
##MOLFORM=C12H20O2
##CAS REGISTRY NO=5655-61-8
##MP= -300
##BP= -300
##MW= 196
##$RETENTION INDEX=1284
##$CONDENSED SPECTRUM=NO
##NPOINTS= 106
##XYDATA=(XY..XY) 1 
    14          1
    15         18
    16          0
    26          1
    27         44
    28          7
    29         53
    30          1
    31          2
    36          0
    37          0
    38          1
    39         74
    40         14
    41        197
    42         19
    43        384
    44         10
    45          3
    50          1
    51          7
    52          3
    53         29
    54          5
    55         72
    56          6
    57         15
    58          1
    59          2
    60          0
    61          1
    62          0
    63          2
    64          0
    65         19
    66          6
    67         86
    68         22
    69         87
    70         15
    71         31
    72         18
    73          1
    77         41
    78          8
    79         65
    80        131
    81         68
    82         62
    83         55
    84         41
    85         11
    86          4
    87          1
    89          0
    91         68
    92        131
    93        450
    94         75
    95        999
    96         79
    97         20
    98          7
    99         11
   100          2
   101          0
   102          0
   103          3
   104          0
   105         28
   106          6
   107         69
   108        146
   109        115
   110        118
   111         58
   112          8
   113         24
   114          2
   115          1
   117          1
   119          9
   120          3
   121        423
   122         39
   123         17
   124          2
   125          9
   126          2
   127          1
   133          0
   134          1
   135          7
   136        351
   137         44
   138          3
   139         10
   140          1
   152          1
   153          5
   154         76
   155          8
   156          0
   181          0
   196         12
   197          1