##TITLE=Library Entry 41917
##JCAMP-DX=Revision 4.10 
##DATA TYPE=MASS SPECTRUM
##SAMPLE DESCRIPTION=R.T.HOLMAN,UNIVERSITY OF MINNESOTA
##NAMES=HP
##CAS NAME=2-Oleoylglycerol, 2TMS derivative
##MOLFORM=C27H56O4Si2
##CAS REGISTRY NO=56554-42-8
##MP= -300
##BP= -300
##MW= 500
##$RETENTION INDEX=2744
##$CONDENSED SPECTRUM=NO
##NPOINTS= 219
##XYDATA=(XY..XY) 1 
    26         20
    27        200
    28         80
    29        250
    30         10
    31         10
    32         10
    38         10
    39        140
    40         30
    41        610
    42        110
    43        340
    44         90
    45        100
    46         10
    47         40
    50         10
    51         20
    52         10
    53         80
    54        180
    55        570
    56        110
    57        240
    58         30
    59         90
    60         30
    61         40
    63         10
    65         40
    66         40
    67        510
    68        140
    69        230
    70         50
    71         80
    72         40
    73        999
    74        100
    75        430
    76         30
    77         80
    78         30
    79        230
    80        130
    81        450
    82        140
    83        160
    84         40
    85         50
    86         10
    87         20
    88         10
    89         40
    90         10
    91         70
    92         20
    93        130
    94         60
    95        240
    96         90
    97         70
    98         40
    99         40
   100         10
   101        110
   102         10
   103        870
   104         80
   105         80
   106         20
   107         60
   108         30
   109        160
   110         60
   111         40
   112         10
   113         30
   114         10
   115         30
   116         40
   117        110
   118         10
   119         40
   120         20
   121         60
   122         20
   123         60
   124         30
   125         20
   126         10
   127         50
   128         10
   129        720
   130        110
   131        370
   132         50
   133        150
   134         30
   135         60
   136         30
   137         40
   138         20
   139         10
   140         10
   141         10
   143         10
   145         30
   146         30
   147        420
   148         70
   149        160
   150         40
   151         30
   152         10
   153         10
   155         70
   156         10
   157         10
   159         10
   161         20
   162         10
   163         40
   164         30
   165         20
   166         10
   167         10
   169         10
   171         10
   172         10
   173         10
   174         10
   175         50
   176         10
   177         50
   178         20
   179         10
   180         10
   181         10
   183         10
   185         10
   187         10
   188         10
   189         30
   190         10
   191         60
   192         10
   193         10
   195         10
   199         10
   201         30
   202         40
   203        150
   204         30
   205         60
   206         10
   207         50
   208         10
   209         10
   211         10
   215         12
   217         40
   218         90
   219         50
   220         20
   221        100
   222         20
   223         20
   224         10
   225         10
   227         10
   229         10
   234         10
   237         10
   239         10
   243         10
   244         10
   245         10
   249         10
   251         10
   257         10
   259         10
   261         10
   262         60
   263         50
   264         10
   265         10
   267         10
   275         10
   276         10
   277         20
   278         10
   279         10
   280         10
   281         10
   291         10
   292         20
   293         10
   295         10
   297         10
   303         10
   305         10
   336         20
   337         40
   338         10
   339         10
   408         50
   409         20
   410         10
   411         40
   412         10
   413         10
   426         10
   427         10
   482         10
   483         10
   484         10
   485         10