##TITLE=Library Entry 25738
##JCAMP-DX=Revision 4.10 
##DATA TYPE=MASS SPECTRUM
##SAMPLE DESCRIPTION=R.T.HOLMAN,UNIVERSITY OF MINNESOTA
##NAMES=HP
##CAS NAME=Hexanoic acid, 3,5,5-trimethyl-, 1,2,3-propanetriyl ester
##MOLFORM=C30H56O6
##CAS REGISTRY NO=56554-53-1
##MP= -300
##BP= -300
##MW= 512
##$RETENTION INDEX=0
##$CONDENSED SPECTRUM=NO
##NPOINTS= 198
##XYDATA=(XY..XY) 1 
    26          4
    27         54
    28         42
    29        130
    30          5
    31         44
    32          7
    36          3
    37          2
    38          4
    39         59
    40         13
    41        250
    42         28
    43        140
    44         13
    45         60
    46          2
    47          2
    48          1
    49          1
    50          3
    51          5
    52          2
    53         15
    54          6
    55        130
    56        220
    57        999
    58         48
    59         90
    60        170
    61         15
    62          2
    63          3
    64          2
    65          3
    66          2
    67         11
    68          4
    69         59
    70          9
    71         42
    72          4
    73         18
    74         25
    75          2
    77          3
    78          1
    79          4
    80          1
    81          8
    82          7
    83        370
    84         29
    85         16
    86          2
    87         16
    88          6
    89          3
    91          3
    92          1
    93          2
    94          1
    95          4
    96          5
    97         45
    98         17
    99         19
   100          6
   101         49
   102         54
   103        140
   104          8
   105          2
   106          1
   107          3
   108          1
   109          6
   110          3
   111          5
   112          3
   113          3
   114          1
   115          2
   116          4
   117          2
   118          1
   119          1
   120          1
   121          1
   122          1
   123          3
   124          2
   125         53
   126         11
   127          7
   128          2
   129          3
   130          1
   131          1
   132          1
   133          1
   134          1
   135          2
   136          1
   137          1
   138          1
   139          1
   140          3
   141         66
   142          8
   143         39
   144          4
   145          2
   146          1
   147          1
   148          1
   149          2
   150          1
   151          1
   152          1
   153          1
   154          1
   155          1
   156          1
   157          1
   158         24
   159          4
   160          1
   161          1
   162          1
   163          1
   164          1
   165          1
   166          1
   167          1
   168          1
   169          1
   171          2
   172          2
   173          1
   175          1
   176          1
   177          1
   178          1
   179          1
   180          1
   181          1
   182          1
   183          1
   184          1
   185         11
   186          2
   187          1
   196          1
   197          1
   199         18
   200          5
   201          2
   205          1
   207          1
   208          1
   209          1
   213          2
   214          2
   215         17
   216          3
   217          1
   218          1
   219          1
   225          1
   227          3
   228          1
   233          3
   234          1
   241          4
   242          1
   243          1
   256          8
   257          5
   258          1
   260          1
   269          2
   270          1
   274         11
   275          1
   283          6
   284          2
   339          4
   340          3
   341          5
   342          1
   343          1
   355         61
   356         16
   357          3
   358          2