##TITLE=Library Entry 48503
##JCAMP-DX=Revision 4.10 
##DATA TYPE=MASS SPECTRUM
##SAMPLE DESCRIPTION=R.T.HOLMAN,UNIVERSITY OF MINNESOTA
##NAMES=HP
##CAS NAME=7,10,13-Hexadecatrienoic acid, methyl ester
##MOLFORM=C17H28O2
##CAS REGISTRY NO=56554-30-4
##MP= -300
##BP= -300
##MW= 264
##$RETENTION INDEX=2353
##$CONDENSED SPECTRUM=NO
##NPOINTS= 169
##XYDATA=(XY..XY) 1 
    26         13
    27        190
    28        120
    29        200
    30          8
    31         16
    37          7
    38         12
    39        290
    40         45
    41        720
    42         65
    43        210
    44         19
    45         32
    50         14
    51         51
    52         37
    53        210
    54        120
    55        500
    56         38
    57         40
    58         14
    59        230
    60         11
    61          6
    62          6
    63         19
    64          9
    65        130
    66        120
    67        680
    68        110
    69        130
    70         12
    71         28
    72          6
    73         47
    74         81
    75         16
    76          7
    77        310
    78        140
    79        999
    80        360
    81        310
    82         64
    83         68
    84         21
    85         41
    86          6
    87        140
    88         15
    89          9
    91        340
    92         75
    93        510
    94        210
    95        400
    96         52
    97         32
    98         14
    99         15
   100          5
   101         27
   102          8
   103         20
   104         14
   105        120
   106         49
   107        190
   108        290
   109         77
   110         16
   111         17
   112          5
   113         10
   114          5
   115         32
   116         12
   117         32
   118         11
   119         69
   120         37
   121        240
   122         89
   123         27
   124          7
   125         10
   126          5
   127         12
   128          9
   129         17
   130          9
   131         16
   132         14
   133         39
   134         36
   135        140
   136         69
   137         21
   138          6
   139          6
   140          7
   141         11
   143         11
   144          7
   145         32
   146          9
   147         32
   148         20
   149         51
   150         42
   151         11
   152          5
   153          6
   154          6
   155          6
   157          9
   158          7
   159         10
   161         27
   162         19
   163         57
   164         22
   165          7
   166          5
   167          6
   168          8
   169          5
   171         19
   172          5
   173          5
   175         20
   176         21
   177         12
   178          9
   179          6
   180          5
   181          5
   182          6
   185         12
   189         21
   190         10
   191          6
   193          5
   194          5
   195          6
   196         11
   197          7
   203         10
   204          6
   207          7
   208         51
   209         13
   210          7
   215         10
   221         13
   222          8
   223          5
   232          6
   233         27
   234          8
   235         16
   236          6
   264        220
   265         38
   266          9