##TITLE=Library Entry 7222
##JCAMP-DX=Revision 4.10 
##DATA TYPE=MASS SPECTRUM
##SAMPLE DESCRIPTION=R.T.HOLMAN,UNIVERSITY OF MINNESOTA
##NAMES=HP
##CAS NAME=2-Hexadecene, 2,6,10,14-tetramethyl-
##MOLFORM=C20H40
##CAS REGISTRY NO=56554-34-8
##MP= -300
##BP= -300
##MW= 280
##$RETENTION INDEX=1855
##$CONDENSED SPECTRUM=NO
##NPOINTS= 120
##XYDATA=(XY..XY) 1 
    26        140
    27        150
    28        320
    29          7
    31         31
    37          4
    38          3
    39        140
    40         30
    41        720
    42        150
    43        999
    44         31
    50          2
    51          8
    52          6
    53         80
    54         50
    55        890
    56        710
    57        810
    58         35
    59          1
    63          1
    65         10
    66          7
    67         90
    68         80
    69        500
    70        510
    71        450
    72         24
    73          1
    74          4
    75          2
    77          9
    78          2
    79         15
    80          4
    81         79
    82         53
    83         26
    84        120
    85        170
    86         11
    87          4
    91          5
    92          1
    93          4
    94          3
    95         44
    96         42
    97        180
    98         38
    99         25
   100          2
   105          2
   107          1
   108          1
   109         17
   110         13
   111        130
   112         42
   113         21
   114          1
   115          1
   118          1
   119          1
   121          1
   122          1
   123         10
   124         17
   125        130
   126        110
   127         28
   128          3
   129          1
   137          4
   138          2
   139         10
   140         74
   141         20
   142          2
   151          1
   152          1
   153          4
   154         10
   155          4
   156         10
   165          1
   166          1
   167          2
   168          3
   169          2
   179          1
   180          1
   181          3
   182          6
   183          3
   184          1
   193          1
   194          1
   195          2
   196         18
   197          4
   210          9
   211          2
   212          1
   222          1
   223          1
   224          4
   225          1
   238          1
   239          1
   240          2
   252          2
   270          1
   280         52
   281         12
   282          2