##TITLE=Library Entry 19247
##JCAMP-DX=Revision 4.10 
##DATA TYPE=MASS SPECTRUM
##SAMPLE DESCRIPTION=R.T.HOLMAN,UNIVERSITY OF MINNESOTA
##NAMES=HP
##CAS NAME=7-Heptadecene, 17-chloro-
##MOLFORM=C17H33Cl
##CAS REGISTRY NO=56554-79-1
##MP= -300
##BP= -300
##MW= 272
##$RETENTION INDEX=0
##$CONDENSED SPECTRUM=NO
##NPOINTS= 196
##XYDATA=(XY..XY) 1 
    26         11
    27        186
    28          6
    29        336
    30          9
    31          4
    32          1
    37          9
    38          8
    39        155
    40         31
    41        797
    42        176
    43        642
    44         40
    45         12
    49         14
    50         10
    51         18
    52         10
    53        109
    54        264
    55        999
    56        383
    57        414
    58         24
    59          2
    60          9
    61          5
    62          7
    63         31
    64          6
    65         32
    66         15
    67        295
    68        165
    69        792
    70        362
    71        176
    72         13
    73         17
    74          7
    75         11
    76          3
    77         27
    78         13
    79         53
    80         18
    81        191
    82        207
    83        595
    84        196
    85        108
    86         11
    87          8
    89          8
    90          9
    91         40
    92          7
    93         18
    94          6
    95         91
    96        125
    97        362
    98        103
    99         15
   100          3
   101          8
   103         14
   104         88
   105         27
   106         27
   107         13
   108          6
   109         77
   110         48
   111        160
   112         73
   113         15
   114          2
   115          8
   116         10
   117         27
   118         41
   119         20
   120         20
   121         10
   122          7
   123         41
   124         23
   125         83
   126         44
   127         11
   128          9
   129          4
   130          7
   131         41
   132         27
   133         27
   134          6
   135         16
   136          5
   137         27
   138         18
   139         23
   140         22
   141         19
   142          5
   143          3
   144         11
   145         38
   146         36
   147         30
   148          8
   149         10
   150          4
   151          8
   152          7
   153         16
   154          9
   155         11
   156          8
   157          5
   158         11
   159         29
   160         21
   161         13
   162         13
   163          4
   165          4
   166          4
   167          8
   168          9
   169          6
   170          4
   171          3
   172          7
   173         21
   174         14
   175         10
   176         12
   179          6
   180          7
   181          5
   182          9
   183          4
   184          4
   185          9
   186         12
   187         13
   188         16
   189          7
   190          6
   191          5
   192          3
   194          3
   195          4
   196          4
   197          5
   198          2
   199          3
   200          3
   201          5
   202         12
   203          5
   204          6
   205          2
   207          2
   208          3
   210          2
   214          3
   215         10
   216          6
   217          6
   218          6
   219          3
   220          3
   221          2
   228          3
   229          6
   230          5
   235          4
   236          5
   238          7
   240          3
   244         12
   245          2
   246          6
   247          3
   269          3
   271          5
   272        105
   273         19
   274         26
   275          8
   276          4