##TITLE=Library Entry 51208
##JCAMP-DX=Revision 4.10 
##DATA TYPE=MASS SPECTRUM
##SAMPLE DESCRIPTION=R.T.HOLMAN,UNIVERSITY OF MINNESOTA
##NAMES=HP
##CAS NAME=16-Octadecenal
##MOLFORM=C18H34O
##CAS REGISTRY NO=56554-87-1
##MP= -300
##BP= -300
##MW= 266
##$RETENTION INDEX=0
##$CONDENSED SPECTRUM=NO
##NPOINTS= 231
##XYDATA=(XY..XY) 1 
    14          4
    15          9
    16          3
    17          5
    18         15
    26          8
    27         87
    28         53
    29        250
    30         72
    31         26
    32          3
    38          5
    39         65
    40         25
    41        560
    42        230
    43        740
    44        490
    45        210
    46         10
    47          3
    48          3
    49          3
    50          4
    51          6
    52          4
    53         36
    54        140
    55        660
    56        300
    57        840
    58        330
    59        110
    60          8
    61          5
    62          3
    63          4
    64          2
    65          9
    66        100
    67        400
    68        590
    69        460
    70        250
    71        410
    72        240
    73        120
    74         15
    75          6
    76          3
    77          9
    78          6
    79         27
    80         38
    81        360
    82        999
    83        540
    84        210
    85        220
    86        140
    87         55
    88         11
    89          2
    90          1
    91          7
    92          4
    93         14
    94         30
    95        370
    96        630
    97        360
    98        160
    99        110
   100         48
   101         14
   102          6
   103          2
   104          2
   105          4
   106          2
   107          6
   108         14
   109        190
   110        190
   111        130
   112         82
   113         60
   114         31
   115         11
   116          4
   117          3
   118          2
   119          3
   120          2
   121          4
   122         13
   123        100
   124        100
   125         52
   126         44
   127         33
   128         21
   129          7
   130          3
   131          3
   132          2
   133          5
   134          2
   135          7
   136          9
   137         62
   138         53
   139         26
   140         26
   141         18
   142         17
   143          6
   144          2
   145          6
   146          2
   147         43
   148          8
   149         10
   150          3
   151         17
   152         23
   153         18
   154         19
   155         12
   156         13
   157          5
   158          3
   159          2
   160          1
   161          2
   162          1
   163          2
   164          2
   165          6
   166         12
   167         13
   168         18
   169         10
   170         15
   171          5
   172          2
   173          1
   174          1
   175          2
   176          1
   177          2
   178          1
   179          5
   180          8
   181         13
   182         17
   183         10
   184         16
   185          5
   186          1
   187          1
   188          1
   189          1
   190          1
   191          4
   192          2
   193          5
   194          9
   195         18
   196         24
   197          9
   198         11
   199          3
   200          2
   201          1
   202          1
   203          1
   205          4
   206          3
   207         34
   208         11
   209         13
   210         13
   211          4
   212          3
   213          3
   214          3
   215          1
   216          1
   217          1
   218          1
   219          3
   221         39
   222         14
   223         23
   224         51
   225         22
   226         46
   227         11
   228          3
   229          1
   230          1
   231          1
   232          1
   233          1
   234          1
   235          2
   236          2
   237          3
   238          2
   239          2
   240          2
   241          4
   242          7
   243          2
   247          1
   248          1
   249          2
   250          8
   251         30
   252         95
   253         21
   254          4
   255          2
   256          1
   257          1
   258          1
   259          1
   265          3
   266          2