##TITLE=Library Entry 51015
##JCAMP-DX=Revision 4.10 
##DATA TYPE=MASS SPECTRUM
##SAMPLE DESCRIPTION=R.T.HOLMAN,UNIVERSITY OF MINNESOTA
##NAMES=HP
##CAS NAME=13-Heptadecyn-1-ol
##MOLFORM=C17H32O
##CAS REGISTRY NO=56554-77-9
##MP= -300
##BP= -300
##MW= 252
##$RETENTION INDEX=0
##$CONDENSED SPECTRUM=NO
##NPOINTS= 207
##XYDATA=(XY..XY) 1 
    26         19
    27         78
    28        634
    29        107
    30         11
    31         55
    32         53
    35          5
    36         30
    37          7
    38         13
    39         71
    40         32
    41        384
    42         59
    43        192
    44        136
    45         21
    46          5
    50          7
    51         17
    52         25
    53         78
    54        219
    55        471
    56         75
    57        126
    58         17
    59          9
    60         21
    61          7
    62          5
    63          7
    64          5
    65         34
    66         32
    67        615
    68        150
    69        200
    70         48
    71         63
    72         13
    73         25
    74          9
    75          9
    76          5
    77         51
    78         19
    79        146
    80         73
    81        519
    82        999
    83        169
    84         36
    85         40
    86          7
    87         13
    88          5
    89          7
    90          5
    91         42
    92         13
    93         84
    94         46
    95        244
    96        461
    97         98
    98         32
    99         17
   100          7
   101         44
   102          7
   103          7
   104          9
   105         13
   106          5
   107         50
   108         21
   109        128
   110         59
   111         32
   112         21
   113         13
   114          7
   115         11
   116          9
   117          7
   118          5
   119         11
   120          7
   121         46
   122         23
   123         71
   124         34
   125         17
   126          9
   127          9
   128          7
   129         15
   130          5
   131          9
   132          7
   133          9
   134          7
   135         32
   136         15
   137         25
   138         15
   139         11
   140         11
   141         30
   142         11
   143          9
   145          7
   146          5
   147          7
   148          5
   149         28
   150          9
   151         15
   152         11
   153         11
   154          7
   155         15
   156          9
   157          7
   158          7
   159          7
   160          5
   161          7
   162          5
   163         11
   164          5
   165          9
   166          9
   167         11
   168          7
   169         13
   170          5
   171          5
   172          5
   173         11
   174          7
   175          5
   176          5
   177          7
   178          7
   179          7
   180          7
   181          7
   182          7
   183          7
   184          7
   185         11
   186          7
   187          5
   189          5
   190          3
   191         11
   192          5
   193          7
   194          5
   195          7
   196          9
   197          7
   198          5
   199          5
   200          5
   201          7
   202          5
   203          5
   204          5
   205          9
   206          5
   207         11
   208          5
   209          7
   210          7
   211          7
   213          5
   215          3
   216          3
   217         13
   218         13
   219         25
   220          7
   221          7
   222          5
   223          7
   224          5
   225          5
   226          5
   227          5
   228          5
   229          5
   230          5
   231          5
   232          5
   233          5
   234          7
   235          5
   236          7
   237          5
   238          5
   239          5
   240          5
   241          7