##TITLE=Library Entry 32767
##JCAMP-DX=Revision 4.10 
##DATA TYPE=MASS SPECTRUM
##SAMPLE DESCRIPTION=R.T.HOLMAN,UNIVERSITY OF MINNESOTA
##NAMES=HP
##CAS NAME=7,10-Octadecadienoic acid, methyl ester
##MOLFORM=C19H34O2
##CAS REGISTRY NO=56554-24-6
##MP= -300
##BP= -300
##MW= 294
##$RETENTION INDEX=2097
##$CONDENSED SPECTRUM=NO
##NPOINTS= 180
##XYDATA=(XY..XY) 1 
    26         20
    27        180
    28        140
    29        310
    30         20
    31         30
    32         20
    38         10
    39        150
    40         30
    41        720
    42        190
    43        630
    44         40
    45         40
    50         10
    51         20
    52         20
    53        130
    54        380
    55        700
    56        160
    57        300
    58         20
    59        180
    60         20
    61         10
    63         10
    65         70
    66         80
    67        999
    68        430
    69        380
    70         90
    71        150
    72         20
    73         60
    74        170
    75         20
    77        160
    78         80
    79        480
    80        320
    81        900
    82        540
    83        290
    84         80
    85        100
    86         20
    87        120
    88         20
    91        200
    92         60
    93        310
    94        400
    95        670
    96        450
    97        180
    98         50
    99         40
   100         10
   101         40
   102         10
   103         10
   104         10
   105         90
   106         60
   107        200
   108        210
   109        340
   110        240
   111         80
   112         20
   113         20
   114         10
   115         60
   116         10
   117         30
   118         10
   119         90
   120         50
   121        200
   122        150
   123        190
   124        170
   125         60
   126         20
   127         30
   128         20
   129         30
   130         10
   131         30
   132         20
   133         70
   134         30
   135        190
   136        190
   137        120
   138        120
   139         30
   140         30
   141         40
   142         10
   143         20
   144         10
   145         30
   146         10
   147         50
   148         20
   149        120
   150        190
   151         80
   152         60
   153         20
   154         30
   155         20
   156         10
   157         10
   158         10
   159         30
   160         10
   161         40
   162         20
   163         90
   164        110
   165         60
   166         30
   167         20
   168         40
   169         10
   171         10
   173         20
   175         20
   176         20
   177         50
   178         90
   179         40
   180         20
   181         20
   182         20
   183         10
   185         10
   187         10
   189         10
   191         20
   192         20
   193         20
   194         10
   195         20
   196         20
   197         10
   205         20
   206         20
   207         10
   208         20
   209         20
   210         20
   218         20
   219         10
   220         70
   221         20
   222         10
   223         10
   224         10
   233         10
   234         20
   235         10
   237         10
   238         10
   245         10
   251         10
   261         10
   262        100
   263        110
   264         30
   265         10
   292         10
   294        310
   295         70
   296         10