##TITLE=Library Entry 51207
##JCAMP-DX=Revision 4.10 
##DATA TYPE=MASS SPECTRUM
##SAMPLE DESCRIPTION=R.T.HOLMAN,UNIVERSITY OF MINNESOTA
##NAMES=HP
##CAS NAME=17-Octadecenal
##MOLFORM=C18H34O
##CAS REGISTRY NO=56554-86-0
##MP= -300
##BP= -300
##MW= 266
##$RETENTION INDEX=0
##$CONDENSED SPECTRUM=NO
##NPOINTS= 228
##XYDATA=(XY..XY) 1 
    14          4
    15          9
    16          3
    17          5
    18         20
    19          1
    20          1
    25          2
    26          7
    27         92
    28         62
    29        260
    30         59
    31         33
    32          6
    36          3
    37          3
    38          5
    39         68
    40         22
    41        580
    42        210
    43        740
    44        480
    45        230
    46          9
    47          3
    48          3
    50          4
    51          6
    52          4
    53         39
    54        150
    55        690
    56        290
    57        850
    58        310
    59        130
    60         10
    61          5
    62          3
    63          3
    64          2
    65          8
    66        110
    67        400
    68        590
    69        460
    70        260
    71        400
    72        240
    73        140
    74         17
    75          7
    76          3
    77         10
    78          5
    79         26
    80         38
    81        370
    82        999
    83        540
    84        190
    85        220
    86        130
    87         58
    88         11
    89          3
    90          2
    91         10
    92          4
    93         15
    94         30
    95        370
    96        610
    97        360
    98        130
    99        100
   100         47
   101         13
   102          7
   103          2
   104          3
   105          5
   106          2
   107          6
   108         13
   109        190
   110        180
   111        130
   112         73
   113         57
   114         31
   115         10
   116          5
   117          3
   118          2
   119          3
   120          2
   121          6
   122         12
   123        100
   124         95
   125         52
   126         40
   127         31
   128         19
   129          7
   130          3
   131          4
   132          2
   133          5
   134          2
   135          6
   136          9
   137         59
   138         50
   139         25
   140         26
   141         17
   142         15
   143          5
   144          2
   145          6
   146          2
   148          9
   149          9
   150          3
   151         16
   152         22
   153         16
   154         19
   155         11
   156         13
   157          5
   158          2
   159          2
   160          1
   161          2
   162          1
   163          2
   164          2
   165          7
   166         12
   167         12
   168         17
   169          9
   170         14
   171          5
   172          1
   173          2
   174          2
   175          2
   176          2
   177          3
   178          2
   179          4
   180          8
   181         10
   182         16
   183          8
   184         13
   185          4
   186          1
   187          1
   188          1
   189          1
   190          1
   191          4
   192          2
   193          6
   194          9
   195         15
   196         21
   197          7
   198         11
   199          4
   200          2
   201          1
   202          1
   203          1
   204          1
   205          3
   206          3
   208         11
   209         12
   210         12
   211          4
   212          2
   213          2
   214          2
   215          1
   216          1
   217          1
   218          1
   219          3
   222         16
   223         17
   224         51
   225         17
   226         43
   227          9
   228          2
   229          1
   231          1
   233          1
   235          2
   236          2
   237          3
   238          2
   239          2
   240          2
   241          3
   242          6
   243          2
   249          2
   250         13
   251         20
   252         82
   253         17
   254          3
   255          2
   265          3
   266          2
   268          3
   269          4
   270          9
   271          3