##TITLE=Library Entry 24442
##JCAMP-DX=Revision 4.10 
##DATA TYPE=MASS SPECTRUM
##SAMPLE DESCRIPTION=R.T.HOLMAN,UNIVERSITY OF MINNESOTA
##NAMES=HP
##CAS NAME=5-Octadecenal
##MOLFORM=C18H34O
##CAS REGISTRY NO=56554-88-2
##MP= -300
##BP= -300
##MW= 266
##$RETENTION INDEX=1975
##$CONDENSED SPECTRUM=NO
##NPOINTS= 226
##XYDATA=(XY..XY) 1 
    14          5
    15          6
    16          4
    17          8
    18         27
    26          8
    27         94
    28         78
    29        270
    30         58
    31         20
    32         13
    33          4
    36          5
    37          6
    38          6
    39         69
    40         28
    41        520
    42        270
    43        920
    44        410
    45        150
    46         33
    47          6
    48          4
    49          4
    50          6
    51          6
    52          6
    53         32
    54         91
    55        520
    56        470
    57        999
    58        330
    59         72
    60         12
    61          6
    63          5
    64          4
    65          8
    66         48
    67        240
    68        430
    69        650
    70        430
    71        480
    72        220
    73        160
    74         22
    75         10
    76          4
    77         10
    78          8
    79         16
    80         26
    81        160
    82        500
    83        780
    84        610
    85        330
    86        160
    87         50
    88          8
    89          3
    91          9
    92          5
    93         10
    94         15
    95        130
    96        370
    97        560
    98        420
    99        150
   100         51
   101         27
   102          6
   103          3
   104          3
   105          5
   106          4
   107          5
   108          9
   109         57
   110        160
   111        230
   112        160
   113         60
   114         27
   115         13
   116          4
   117          4
   118          3
   119          4
   120          3
   121          4
   122          6
   123         36
   124         87
   125        110
   126         78
   127         31
   128         17
   129          9
   130          3
   131          5
   132          3
   133          7
   134          3
   135          9
   136          5
   137         20
   138         53
   139         60
   140         45
   141         19
   142         11
   143          5
   144          2
   145          8
   146          3
   147         70
   148         13
   149         11
   150          4
   151         10
   152         23
   153         26
   154         24
   155         15
   156          8
   157          5
   158          2
   159          2
   160          1
   161          3
   162          2
   163          3
   164          2
   165          6
   166         16
   167         16
   168         18
   169         12
   170          7
   171          4
   172          3
   173          2
   174          2
   175          2
   176          2
   177          3
   178          2
   179          5
   180         13
   181         15
   182         14
   183         16
   184          6
   185          4
   186          2
   187          2
   189          2
   190          1
   191          5
   192          3
   193          7
   194         15
   195         19
   196         14
   197         10
   198          9
   199          3
   200          2
   201          2
   202          1
   203          2
   204          1
   205          5
   206          4
   207         49
   208         16
   209         17
   210          9
   211          4
   212          3
   213          4
   214          2
   215          2
   219          4
   221         63
   222         22
   223         35
   224         40
   225         31
   226         39
   227          9
   228          2
   229          1
   230          1
   231          2
   232          1
   233          1
   235          3
   236          3
   237          3
   238          2
   239          2
   240          2
   241          4
   242          7
   243          2
   244          1
   245          1
   246          1
   247          2
   248          2
   249          3
   250          7
   251         37
   252         75
   253         16
   254          4
   255          3
   256          2