##TITLE=Library Entry 32817
##JCAMP-DX=Revision 4.10 
##DATA TYPE=MASS SPECTRUM
##SAMPLE DESCRIPTION=R.T.HOLMAN,UNIVERSITY OF MINNESOTA
##NAMES=HP
##CAS NAME=10,13-Octadecadienoic acid, methyl ester
##MOLFORM=C19H34O2
##CAS REGISTRY NO=56554-62-2
##MP= -300
##BP= -300
##MW= 294
##$RETENTION INDEX=0
##$CONDENSED SPECTRUM=NO
##NPOINTS= 237
##XYDATA=(XY..XY) 1 
    26          6
    27        129
    28         45
    29        204
    30          6
    31         13
    32          9
    33          3
    38          4
    39        134
    40         23
    41        682
    42         86
    43        290
    44         16
    45         30
    46          1
    47          1
    48          1
    49          1
    50          4
    51         12
    52         13
    53        134
    54        510
    55        795
    56         86
    57        145
    58         10
    59        161
    60         22
    61          5
    62          2
    63          5
    64          2
    65         54
    66         61
    67        999
    68        494
    69        344
    70         45
    71         61
    72         12
    73         40
    74        161
    75         19
    76          3
    77        118
    78         39
    79        317
    80        209
    81        967
    82        548
    83        225
    84         46
    85         52
    86          4
    87        104
    88         11
    89          4
    90          1
    91         96
    92         23
    93        153
    94        123
    95        586
    96        494
    97        161
    98         34
    99         20
   100          6
   101         26
   102          4
   103          5
   104          5
   105         38
   106         15
   107         72
   108         69
   109        284
   110        241
   111         63
   112         11
   113         13
   114          9
   115         43
   116          6
   117          9
   118          4
   119         30
   120         18
   121         86
   122         60
   123        161
   124        129
   125         39
   126          9
   127         13
   128         10
   129         39
   130          5
   131         15
   132          5
   133         20
   134         15
   135         69
   136         96
   137         91
   138         59
   139         23
   140         13
   141         18
   142          5
   143         20
   144          4
   145         11
   146          6
   147         20
   148          9
   149         58
   150         96
   151         46
   152         30
   153         14
   154         14
   155         12
   156          4
   157         11
   158          2
   159          9
   160          4
   161         11
   162          4
   163         36
   164         60
   165         34
   166         20
   167         17
   168         14
   169          6
   170          3
   171          7
   172          3
   173         12
   174          4
   175          5
   176          2
   177         21
   178         50
   179         22
   180         10
   181         12
   182          9
   183          3
   184          2
   185          4
   186          2
   187         10
   188          3
   189          3
   190          2
   191         13
   192         21
   193          9
   194          4
   195         11
   196         10
   197          3
   198          1
   199          3
   200          1
   201          5
   202          2
   203          2
   204          1
   205         10
   206         10
   207          5
   208          3
   209          9
   210         11
   211          3
   212          1
   213          2
   214          1
   215          2
   216          1
   217          1
   218          4
   219          7
   220         30
   221          8
   222          1
   223          8
   224          8
   225          2
   227          2
   233          6
   234         16
   235          4
   236          1
   237          8
   238          4
   239          1
   240          1
   241          2
   242          1
   243          2
   244          1
   245          3
   246          1
   247          1
   248          1
   249          1
   250          4
   251          7
   252          3
   253          1
   259          2
   260          1
   261          4
   262         62
   263        123
   264         25
   265          7
   266          2
   267          1
   279          2
   280          1
   281          1
   282          1
   292          2
   293          3
   294        274
   295         54
   296          7
   297          1