##TITLE=Library Entry 19612
##JCAMP-DX=Revision 4.10 
##DATA TYPE=MASS SPECTRUM
##SAMPLE DESCRIPTION=R.T.HOLMAN,UNIVERSITY OF MINNESOTA
##NAMES=HP
##CAS NAME=8-Heptadecene, 1-chloro-
##MOLFORM=C17H33Cl
##CAS REGISTRY NO=56554-80-4
##MP= -300
##BP= -300
##MW= 272
##$RETENTION INDEX=0
##$CONDENSED SPECTRUM=NO
##NPOINTS= 208
##XYDATA=(XY..XY) 1 
    26         16
    27        257
    28          4
    29        373
    30         10
    31          2
    32          1
    34          3
    36          4
    37          5
    38         11
    39        199
    40         42
    41        929
    42        464
    43        962
    44         35
    45          4
    49         10
    50          8
    51         12
    52          8
    53         88
    54        257
    55        999
    56        448
    57        497
    58         24
    59          1
    60          2
    61          1
    62          5
    63         21
    64          2
    65         26
    66         19
    67        273
    68        157
    69        697
    70        398
    71        232
    72         50
    73         42
    74          4
    75          8
    76          4
    77         23
    78          5
    79         43
    80         19
    81        178
    82        182
    83        585
    84        215
    85         95
    86         10
    88          2
    89          6
    90          9
    91         58
    92          4
    93         20
    94          5
    95        116
    96        107
    97        398
    98        124
    99         22
   100          1
   101          1
   102          1
   103         10
   104         93
   105         32
   106         32
   107         11
   108          2
   109         68
   110         43
   111        203
   112         68
   113         13
   114          1
   115          1
   116          2
   117         25
   118         43
   119         29
   120         15
   121          8
   122          2
   123         51
   124         19
   125         72
   126         46
   127          6
   128          1
   129          2
   130          6
   131         31
   132         29
   133         28
   134         11
   135          6
   136          1
   137         24
   138         11
   139         23
   140         24
   141          5
   142          1
   143          1
   144          7
   145         29
   146         24
   147         33
   148          9
   149          5
   150          1
   151          8
   152          5
   153          9
   154         15
   155          4
   156          1
   157          1
   158          9
   159         23
   160         18
   161         13
   162          7
   163          2
   164          1
   165          3
   166          3
   167          7
   168          6
   169          1
   170          1
   171          1
   172          8
   173         16
   174         19
   175          9
   176          5
   177          2
   178          1
   179          1
   180          1
   181          4
   182          3
   183          1
   184          1
   185          1
   186          4
   187         11
   188         14
   189          5
   190          4
   191          1
   192          1
   193          2
   194          1
   195          2
   196          1
   197          1
   200          4
   201          6
   202          9
   203          4
   204          4
   205          4
   206          1
   207         14
   208          3
   209          2
   214          1
   215          3
   216          6
   217          2
   218          1
   219          1
   221         14
   222          3
   223          2
   228          1
   229          1
   230          4
   231          1
   232          1
   233          1
   236          2
   243          2
   244         12
   245          3
   246          4
   247          1
   265          1
   267          5
   268          1
   269          1
   270          2
   271          4
   272         96
   273         19
   274         31
   275          6
   276          1