##TITLE=Library Entry 5742
##JCAMP-DX=Revision 4.10 
##DATA TYPE=MASS SPECTRUM
##SAMPLE DESCRIPTION=R.T.HOLMAN,UNIVERSITY OF MINNESOTA
##NAMES=HP
##CAS NAME=3,6-Octadecadiynoic acid, methyl ester
##MOLFORM=C19H30O2
##CAS REGISTRY NO=56554-43-9
##MP= -300
##BP= -300
##MW= 290
##$RETENTION INDEX=0
##$CONDENSED SPECTRUM=NO
##NPOINTS= 86
##XYDATA=(XY..XY) 1 
    26        120
    27        840
    28        190
    29        600
    30         50
    31        230
    32        230
    35         10
    36         10
    37         30
    38         70
    39        590
    40         80
    41        890
    42        660
    43        999
    44         80
    45         30
    47         10
    48         10
    49         10
    50         40
    51         60
    52         30
    53         80
    54         30
    55        190
    56         90
    57        200
    58         10
    59         50
    60         10
    61         10
    62         10
    63         30
    64         20
    65         30
    66         20
    67         50
    68         10
    69         30
    70         40
    71        100
    72         30
    73         10
    74         10
    75         10
    76         10
    77         40
    78         20
    79         50
    80         10
    81         20
    82         10
    83         10
    84         10
    85         10
    86         10
    87         10
    89         10
    90         10
    91         70
    92         10
    93         10
    95         10
   103         20
   104         10
   105         30
   106         10
   107         20
   108         10
   109         10
   115         20
   116         10
   117         20
   118         10
   119         20
   121         10
   128         10
   130         20
   131         10
   132         10
   134         30
   145         10
   149         10
   150         10