##TITLE=Library Entry 19069
##JCAMP-DX=Revision 4.10 
##DATA TYPE=MASS SPECTRUM
##SAMPLE DESCRIPTION=R.T.HOLMAN,UNIVERSITY OF MINNESOTA
##NAMES=HP
##CAS NAME=15-Tetracosenoic acid, methyl ester
##MOLFORM=C25H48O2
##CAS REGISTRY NO=56554-33-7
##MP= -300
##BP= -300
##MW= 380
##$RETENTION INDEX=2699
##$CONDENSED SPECTRUM=NO
##NPOINTS= 132
##XYDATA=(XY..XY) 1 
    27        100
    28         70
    29        240
    31         25
    39         88
    40         10
    41        650
    42        130
    43        600
    44         29
    45         21
    53         58
    54        200
    55        999
    56        230
    57        350
    58         17
    59        140
    65         12
    66         17
    67        250
    68        140
    69        570
    70        150
    71        110
    72          8
    73         29
    74        500
    75         79
    77         17
    79         42
    80         25
    81        180
    82        130
    83        410
    84        160
    85         63
    87        250
    88         33
    91         12
    93         21
    94         17
    95        130
    96        160
    97        260
    98        130
    99         21
   101         38
   107         12
   108          8
   109         67
   110         71
   111        100
   112         33
   113         12
   114         12
   115         29
   121         17
   123         46
   124         38
   125         46
   126         12
   127         12
   128         21
   129         29
   130          8
   133          6
   135         17
   136          5
   137         25
   138         29
   139         29
   140          8
   141         22
   142          7
   143         25
   147          5
   149         12
   151         17
   152         21
   153         17
   154          5
   155          5
   157         10
   163          7
   165         12
   166         13
   167         12
   171          8
   177          6
   179          8
   180         12
   181          9
   185          8
   193          6
   194         11
   195          8
   199          7
   207          6
   208         12
   209          6
   213          6
   221          7
   222         12
   223          6
   227          5
   235          9
   236         13
   237          5
   242          5
   249         12
   250         17
   251          6
   263         12
   264         27
   265          8
   277         10
   278         10
   291          8
   292          7
   304          9
   305          9
   306         33
   307         10
   319          8
   320          8
   330          7
   348        280
   349        110
   350         21
   380         48
   381         15