##TITLE=Library Entry 24444
##JCAMP-DX=Revision 4.10 
##DATA TYPE=MASS SPECTRUM
##SAMPLE DESCRIPTION=R.T.HOLMAN,UNIVERSITY OF MINNESOTA
##NAMES=HP
##CAS NAME=4-Octadecenal
##MOLFORM=C18H34O
##CAS REGISTRY NO=56554-98-4
##MP= -300
##BP= -300
##MW= 266
##$RETENTION INDEX=0
##$CONDENSED SPECTRUM=NO
##NPOINTS= 226
##XYDATA=(XY..XY) 1 
    14          5
    15         15
    16          4
    17          8
    18         26
    19          1
    20          1
    25          2
    26          9
    27        110
    28         64
    29        320
    30         63
    31         24
    32          4
    36          3
    37          4
    38          6
    39         70
    40         30
    41        550
    42        270
    43        970
    44        310
    45        190
    46         59
    47         10
    50          5
    51          5
    52          4
    53         28
    54         90
    55        520
    56        430
    57        999
    58        270
    59         72
    60         10
    61          5
    62          4
    63          5
    64          3
    65          6
    66         30
    67        190
    68        330
    69        590
    70        480
    71        440
    72        200
    73        120
    74         17
    75          6
    76          3
    77          7
    78          6
    79         14
    80         23
    81        130
    82        420
    83        700
    84        560
    85        300
    86        100
    87         50
    88         14
    89          3
    90          1
    91          9
    92         27
    93          9
    94         21
    95        110
    96        320
    97        500
    98        360
    99        120
   100         42
   101         24
   102          5
   103          2
   104          2
   105          6
   106          5
   107         10
   108          8
   109         52
   110        130
   111        200
   112        130
   113         50
   114         21
   115         11
   116          3
   117          2
   118          1
   119          4
   120          4
   121          5
   122          6
   123         32
   124         74
   125        100
   126         70
   127         26
   128         12
   129          8
   130          2
   131          3
   132          2
   133          4
   134          3
   135          7
   136          4
   137         19
   138         46
   139         53
   140         41
   141         19
   142         10
   143          5
   144          1
   145          9
   146          2
   147         24
   148          6
   149          9
   150          4
   151         10
   152         21
   153         21
   154         24
   155         11
   156          5
   157          3
   158          3
   159          2
   160          1
   161          2
   162          2
   163          3
   164          2
   165          6
   166         15
   167         13
   168         16
   169         11
   170          5
   171          3
   172          2
   173          2
   175          2
   176          2
   177          3
   178          2
   179          5
   180         13
   181         11
   182         16
   183         10
   184          4
   185          2
   186          1
   187          1
   188          1
   189          2
   190          2
   191          4
   192          2
   193          8
   194         14
   195         15
   196         10
   197          8
   198          7
   199          3
   200          1
   203          1
   204          2
   205          3
   206          3
   207         23
   208         11
   209         12
   210          7
   211          3
   212          3
   213          2
   214          1
   215          1
   216          1
   217          1
   218          2
   219          3
   221         23
   222         14
   223         30
   224         30
   225         24
   226         27
   227          6
   228          2
   231          1
   232          1
   233          2
   234          1
   235          2
   236          2
   237          2
   238          1
   239          1
   240          1
   241          3
   242          6
   243          2
   244          1
   245          1
   246          2
   247          2
   248          1
   249          2
   250          7
   251         36
   252         65
   253         14
   254          3