##TITLE=Library Entry 4924
##JCAMP-DX=Revision 4.10 
##DATA TYPE=MASS SPECTRUM
##SAMPLE DESCRIPTION=A.A.Kutin, Moscow, Russia
##NAMES=HP
##CAS NAME=Ethanimidamide, N-cyano-
##MOLFORM=C3H5N3
##CAS REGISTRY NO=56563-07-6
##MP= -300
##BP= -300
##MW= 83
##$RETENTION INDEX=0
##$CONDENSED SPECTRUM=NO
##NPOINTS= 36
##XYDATA=(XY..XY) 1 
    37          0
    38         44
    39         74
    40        168
    41        225
    42        999
    43        291
    44         21
    45          3
    46          0
    51          3
    52          9
    53         33
    54          0
    55         25
    56          2
    57         14
    58          2
    60          0
    63          2
    65          1
    66         28
    67        473
    68        676
    69         32
    70          1
    71          4
    73          4
    77          1
    78          0
    79          0
    81          1
    82          7
    83        893
    84        154
    85         17