##TITLE=Library Entry 51402
##JCAMP-DX=Revision 4.10 
##DATA TYPE=MASS SPECTRUM
##SAMPLE DESCRIPTION=V.A.Korolev, Moscow, Russia
##NAMES=HP
##CAS NAME=2-(1H-Imidazol-1-yl)acetohydrazide
##MOLFORM=C5H8N4O
##CAS REGISTRY NO=56563-00-9
##MP= -300
##BP= -300
##MW= 140
##$RETENTION INDEX=0
##$CONDENSED SPECTRUM=NO
##NPOINTS= 44
##XYDATA=(XY..XY) 1 
    37         84
    38        322
    39         19
    40         72
    41         49
    42         43
    43         35
    44         49
    45         73
    46          1
    48          3
    51         13
    52         69
    53         46
    54        277
    55         53
    56          7
    57          4
    58          2
    59          3
    60          2
    64          2
    66          2
    67          4
    68         29
    69         75
    70          7
    73          6
    77          2
    79          4
    80          6
    81        744
    82        999
    83         27
    84          3
    95          3
    96          2
    98          1
   100          2
   109         30
   110          2
   113         16
   140        184
   141         15