##TITLE=Library Entry 68596
##JCAMP-DX=Revision 4.10 
##DATA TYPE=MASS SPECTRUM
##SAMPLE DESCRIPTION=W.T.RAINEY OAK RIDGE NATIONAL LABORATORY,OAK RIDGE,TN.U
SA
##NAMES=HP
##CAS NAME=Furoylglycine
##MOLFORM=C7H7NO4
##CAS REGISTRY NO=5657-19-2
##MP= -300
##BP= -300
##MW= 169
##$RETENTION INDEX=0
##$CONDENSED SPECTRUM=NO
##NPOINTS= 21
##XYDATA=(XY..XY) 1 
    39        453
    45         46
    56         32
    67         38
    68         24
    74          7
    81          9
    82          8
    95        999
    96         72
   105          1
   108          1
   109          2
   112          1
   124         96
   125        458
   126         31
   151          2
   152          2
   169         11
   170          5