##TITLE=Library Entry 55983
##JCAMP-DX=Revision 4.10 
##DATA TYPE=MASS SPECTRUM
##SAMPLE DESCRIPTION=Japan AIST/NIMC Database- Spectrum MS-IW- 365
##NAMES=HP
##CAS NAME=MMU
##MOLFORM=C6H13N3O2
##CAS REGISTRY NO=5657-22-7
##MP= -300
##BP= -300
##MW= 159
##$RETENTION INDEX=0
##$CONDENSED SPECTRUM=NO
##NPOINTS= 85
##XYDATA=(XY..XY) 1 
    12          1
    13          2
    14          5
    15         38
    16         29
    17         85
    18         51
    19          1
    25          1
    26         17
    27         80
    28        453
    29        647
    30        458
    31         28
    32          2
    38          1
    39          5
    40          9
    41         57
    42        219
    43        193
    44        457
    45         45
    46          4
    50          1
    52          3
    53          4
    54         25
    55         49
    56        439
    57        909
    58         78
    59         20
    60        119
    61         11
    67          4
    68          7
    69         30
    70         48
    71         55
    72        151
    73         50
    74         15
    75          1
    81          2
    82          3
    83          6
    84         14
    85         67
    86        999
    87        771
    88         69
    89          4
    95          1
    96          1
    97          6
    98         38
    99        308
   100        548
   101        136
   102          9
   109          1
   111          5
   112          4
   113         18
   114          9
   115         19
   116        146
   117          9
   125          1
   126          1
   127          2
   128         25
   129          5
   130         10
   131          2
   140          2
   141         31
   142          9
   143          1
   158          4
   159         26
   160         10
   161          1