##TITLE=Library Entry 82495
##JCAMP-DX=Revision 4.10 
##DATA TYPE=MASS SPECTRUM
##SAMPLE DESCRIPTION=Japan AIST/NIMC Database- Spectrum MS-IW-6399
##NAMES=HP
##CAS NAME=Nicoxamat
##MOLFORM=C6H6N2O2
##CAS REGISTRY NO=5657-61-4
##MP= -300
##BP= -300
##MW= 138
##$RETENTION INDEX=0
##$CONDENSED SPECTRUM=NO
##NPOINTS= 64
##XYDATA=(XY..XY) 1 
    17          4
    18         15
    25          2
    26         15
    27         13
    28         29
    29          2
    30          7
    31          1
    32          5
    36          2
    37         14
    38         28
    39         28
    40          6
    41          6
    42          1
    43          3
    44         14
    46          2
    48          2
    49         15
    50         99
    51        262
    52         47
    53         20
    54          2
    55          1
    60          2
    61          1
    62          3
    63          5
    64         15
    65         25
    66          9
    67          6
    68          1
    69          1
    74          2
    75         19
    76         38
    77         96
    78        720
    79         50
    80          2
    91          2
    92         22
    93          4
    94         14
    95          1
   103          7
   104        187
   105         23
   106        999
   107         74
   108          5
   120         97
   121          7
   122         75
   123         14
   124          1
   138        198
   139         14
   140          1