##TITLE=Library Entry 32605
##JCAMP-DX=Revision 4.10 
##DATA TYPE=MASS SPECTRUM
##SAMPLE DESCRIPTION=NIST Mass Spectrometry Data Center, 1998.
##NAMES=HP
##CAS NAME=5-Decen-1-ol, (E)-
##MOLFORM=C10H20O
##CAS REGISTRY NO=56578-18-8
##MP= -300
##BP= -300
##MW= 156
##$RETENTION INDEX=1247
##$CONDENSED SPECTRUM=NO
##NPOINTS= 82
##XYDATA=(XY..XY) 1 
    15          4
    26          8
    27        160
    28         31
    29        161
    30          7
    31        219
    32          2
    37          2
    38          7
    39        281
    40         47
    41        733
    42        131
    43        247
    44         67
    45         29
    46          1
    50         10
    51         34
    52         23
    53        200
    54        812
    55        992
    56        170
    57        304
    58         26
    59          5
    62          2
    63          8
    64          2
    65         67
    66         71
    67        999
    68        682
    69        239
    70         83
    71        104
    72         13
    73          5
    74          1
    75          1
    76          1
    77         59
    78         11
    79        149
    80         51
    81        796
    82        528
    83        112
    84         28
    85         17
    86          5
    87          1
    89          1
    91         24
    92          3
    93         42
    94         14
    95        482
    96        221
    97         47
    98          6
    99         12
   100          3
   105          1
   107          3
   108          3
   109        132
   110        191
   111         17
   112          8
   113          6
   114          1
   123          9
   124          1
   127          1
   128          5
   137          1
   138         87
   139          9
   156          6