##TITLE=Library Entry 98508
##JCAMP-DX=Revision 4.10 
##DATA TYPE=MASS SPECTRUM
##SAMPLE DESCRIPTION=CARL DJERASSI DEPT OF CHEM STANFORD UNIV STANFORD CALIF
 94305
##NAMES=HP
##CAS NAME=1,2-Naphthalenediol, 2-ethyl-1,2,3,4-tetrahydro-1-methyl-, cis-
##MOLFORM=C13H18O2
##CAS REGISTRY NO=56588-34-2
##MP= -300
##BP= -300
##MW= 206
##$RETENTION INDEX=0
##$CONDENSED SPECTRUM=NO
##NPOINTS= 110
##XYDATA=(XY..XY) 1 
    26         20
    27         80
    28         70
    29        230
    30         10
    31         40
    39         90
    40         10
    41         90
    42         10
    43        130
    44         20
    45         20
    47         10
    50         20
    51         80
    52         10
    53         50
    54         10
    55         20
    56         10
    57        290
    58         30
    59         50
    62         10
    63         50
    64         20
    65         70
    69         30
    71         10
    72         10
    73         20
    74         10
    75         20
    76         20
    77        120
    78         40
    79         60
    80         10
    81         10
    82         10
    83         10
    84         10
    85         10
    86         10
    87         60
    88         10
    89         40
    90         10
    91        350
    92         30
    93         20
   102         20
   103         90
   104         30
   105        140
   106        150
   107         20
   113         10
   114         10
   115        220
   116        110
   117        470
   118        999
   119        650
   120        200
   121         50
   122         10
   126         10
   127         60
   128        130
   129        160
   130        110
   131        780
   132        110
   133         60
   134         10
   141         80
   142         20
   143         50
   144         40
   145        110
   146         20
   147         50
   148         80
   149        150
   150         10
   151         10
   152         10
   153         30
   154         10
   155        120
   156         30
   157         20
   158         10
   159        530
   160         80
   161         10
   170         60
   171         10
   172         20
   173         70
   174         20
   177         10
   186         10
   188        230
   189         30
   190         10
   206        230
   207         30