##TITLE=Library Entry 100522
##JCAMP-DX=Revision 4.10 
##DATA TYPE=MASS SPECTRUM
##SAMPLE DESCRIPTION=CARL DJERASSI DEPT OF CHEM STANFORD UNIV STANFORD CALIF
 94305
##NAMES=HP
##CAS NAME=1,2-Naphthalenediol, 1,2,3,4-tetrahydro-1-methyl-, cis-
##MOLFORM=C11H14O2
##CAS REGISTRY NO=56588-36-4
##MP= -300
##BP= -300
##MW= 178
##$RETENTION INDEX=0
##$CONDENSED SPECTRUM=NO
##NPOINTS= 61
##XYDATA=(XY..XY) 1 
    41         20
    43        230
    44         10
    45         10
    50         20
    51         90
    52         20
    53         10
    55         10
    57         10
    58         10
    62         10
    63         50
    64         20
    65         70
    66         10
    74         10
    75         10
    76         10
    77        100
    78         20
    79         30
    89         30
    90         20
    91        290
    92         20
   102         20
   103         40
   104         10
   105         20
   107         10
   115        140
   116         50
   117        320
   118        270
   119        999
   120         90
   121        160
   122         20
   127         30
   128         50
   129         60
   130         40
   131         80
   132         30
   133         30
   134        280
   135         30
   141         30
   142         40
   143         20
   144         20
   145        170
   146         20
   147         10
   159         20
   160        410
   161         50
   163        170
   164         20
   178         30