##TITLE=Library Entry 77498
##JCAMP-DX=Revision 4.10 
##DATA TYPE=MASS SPECTRUM
##SAMPLE DESCRIPTION=CARL DJERASSI DEPT OF CHEM STANFORD UNIV STANFORD CALIF
 94305
##NAMES=HP
##CAS NAME=1H-Indene-1,2-diol, 2,3-dihydro-2-methyl-, cis-
##MOLFORM=C10H12O2
##CAS REGISTRY NO=56588-40-0
##MP= -300
##BP= -300
##MW= 164
##$RETENTION INDEX=0
##$CONDENSED SPECTRUM=NO
##NPOINTS= 68
##XYDATA=(XY..XY) 1 
    40         10
    41         30
    42         10
    43        490
    44         10
    45         20
    50         60
    51        170
    52         40
    53         20
    55         10
    57         10
    58        200
    59         70
    61         10
    62         40
    63        120
    64         40
    65        160
    66         10
    72         10
    74         30
    75         40
    76         40
    77        310
    78         90
    79        300
    80         20
    87         10
    89         80
    90         40
    91        450
    92         40
    93        110
    94         10
   101         10
   102         50
   103        250
   104        999
   105        110
   106         80
   107        970
   108         80
   114         10
   115        240
   116         70
   117        220
   118         80
   119        170
   120         80
   121         90
   122         10
   126         10
   127         30
   128         40
   129         60
   130         50
   131        270
   132         40
   133         10
   135         10
   144         20
   145        650
   146        280
   147         50
   162         10
   164        440
   165         50