##TITLE=Library Entry 15001
##JCAMP-DX=Revision 4.10 
##DATA TYPE=MASS SPECTRUM
##SAMPLE DESCRIPTION=CARL DJERASSI DEPT OF CHEM STANFORD UNIV STANFORD CALIF
 94305
##NAMES=HP
##CAS NAME=Estra-1,3,5(10),6-tetraene-3,17-diol, 1-methyl-, 17-acetate 3-(tr
ifluoroacetate), (17.beta.)-
##MOLFORM=C23H25F3O4
##CAS REGISTRY NO=56588-08-0
##MP= -300
##BP= -300
##MW= 422
##$RETENTION INDEX=0
##$CONDENSED SPECTRUM=NO
##NPOINTS= 135
##XYDATA=(XY..XY) 1 
    41        110
    42         10
    43        999
    44        330
    45         20
    47         40
    50         60
    51         40
    53         20
    55        110
    57         20
    59        210
    67         70
    69        330
    70         20
    71         20
    73         30
    77        200
    78        110
    79         90
    80         40
    81        130
    82         20
    83         20
    85         20
    91         50
    92         10
    93        130
    94         30
    95        200
    96         20
    97         30
   105         30
   106         30
   107         70
   108        230
   109         30
   110         20
   115         70
   116         30
   117         40
   119         20
   121         10
   122         20
   123         50
   127         30
   128        110
   129        130
   130         20
   131        130
   132         30
   137        370
   138         20
   139         20
   140         10
   141        140
   142         60
   143         20
   145         10
   151         40
   152         80
   153         70
   154         50
   155        110
   156         20
   157         10
   158         10
   159         70
   160         10
   165         90
   166         30
   167         50
   168         20
   169         20
   170         10
   171         30
   178         50
   179         60
   180         20
   181         30
   191         30
   192         20
   193         50
   194         20
   195         20
   215        120
   216         20
   217         20
   219         20
   221         20
   237         80
   238         20
   239         20
   241         20
   242         30
   243         20
   254        310
   255        110
   256         60
   257         10
   267        500
   268        310
   269         80
   270         10
   280        410
   281        130
   282         20
   283         10
   293         50
   294         30
   295         20
   305         30
   306         20
   307         50
   308         20
   309         20
   319         70
   320         30
   321         50
   322         10
   333        130
   334        200
   335         50
   336         10
   347        170
   348         40
   349         10
   361         40
   362        240
   363         60
   379         20
   380         30
   422        510
   423        120
   424         20