##TITLE=Library Entry 12768
##JCAMP-DX=Revision 4.10 
##DATA TYPE=MASS SPECTRUM
##SAMPLE DESCRIPTION=R.T.HOLMAN,UNIVERSITY OF MINNESOTA
##NAMES=HP
##CAS NAME=1,2-Propanediol, 3-[[2-(acetyloxy)hexadecyl]oxy]-, diacetate
##MOLFORM=C25H46O7
##CAS REGISTRY NO=56599-36-1
##MP= -300
##BP= -300
##MW= 458
##$RETENTION INDEX=0
##$CONDENSED SPECTRUM=NO
##NPOINTS= 183
##XYDATA=(XY..XY) 1 
    39          9
    40          3
    41         84
    42         27
    43        999
    44         39
    45         47
    53          6
    54         22
    55        102
    56         31
    57        129
    58         40
    59         10
    60          9
    61         24
    64          2
    65          4
    66          4
    67         44
    68         30
    69         84
    70         27
    71         52
    72         12
    73         53
    74          8
    75          8
    76          3
    77          4
    78          2
    79          9
    80          8
    81         41
    82         37
    83         79
    84         18
    85         29
    86         20
    87         32
    88          9
    89          9
    90          4
    91          7
    92          3
    93          6
    94          6
    95         39
    96         29
    97         72
    98         13
    99         40
   100         58
   101         18
   102          4
   103         34
   104          5
   105          5
   106          3
   107          4
   108          3
   109         22
   110         10
   111         32
   112          9
   113          9
   114          4
   115        215
   116         25
   117         77
   118          9
   119          5
   120          3
   121          5
   122          4
   123          9
   124          5
   125         16
   126          5
   127          6
   128          5
   129         29
   130         10
   131          7
   132          3
   133          4
   134          6
   135          7
   136          3
   137          6
   138          6
   139          9
   140          3
   141          6
   142          4
   143          3
   144          3
   145         13
   146          4
   147         29
   148          5
   149          6
   150          3
   151          4
   152          4
   153          5
   154          7
   155          4
   157         11
   158          7
   159        806
   160         67
   161         12
   162          3
   163          2
   165          4
   166          4
   167          4
   168          3
   169          4
   171          3
   172          8
   173          6
   175          3
   177          5
   178          3
   179          3
   180          4
   181          4
   182          4
   183          5
   184          4
   185          5
   189         96
   190         13
   191          5
   193          3
   194          3
   195          3
   196          4
   197          5
   198          3
   199          3
   200          2
   201          2
   202          2
   209          3
   210          2
   211          2
   219          4
   220          3
   221          4
   222         16
   223         16
   224          4
   225          3
   237          3
   239          5
   240          4
   241          5
   253          5
   255          4
   256          4
   283        236
   284         47
   285          7
   286          2
   293         39
   305         16
   312          9
   317          7
   319         16
   331         39
   343         24
   355          9
   367          7
   369          7
   381         24
   393         16
   405          9
   431         16
   443         13
   455          9