##TITLE=Library Entry 92563
##JCAMP-DX=Revision 4.10 
##DATA TYPE=MASS SPECTRUM
##SAMPLE DESCRIPTION=R.T.HOLMAN,UNIVERSITY OF MINNESOTA
##NAMES=HP
##CAS NAME=1,3-Dioxane, 4,5-dimethyl-2-pentadecyl-
##MOLFORM=C21H42O2
##CAS REGISTRY NO=56599-32-7
##MP= -300
##BP= -300
##MW= 326
##$RETENTION INDEX=0
##$CONDENSED SPECTRUM=NO
##NPOINTS= 222
##XYDATA=(XY..XY) 1 
    36          4
    37          4
    38          5
    39         39
    40         14
    41        250
    42        112
    43        290
    44         35
    45        177
    46          6
    47          3
    49          2
    50          4
    51          4
    52          4
    53         16
    54         24
    55        185
    56        104
    57        209
    58         18
    59          8
    60          5
    61          4
    62          2
    63          4
    64          2
    65          7
    66          8
    67         54
    68         39
    69        435
    70         54
    71        104
    72         11
    73          8
    74          8
    75          4
    76          4
    77          8
    78          4
    79         10
    80          8
    81         46
    82         36
    83        120
    84         25
    85         58
    86         30
    87         46
    88          8
    89          5
    90          2
    91          7
    92          4
    93          6
    94          5
    95         51
    96         23
    97        104
    98         24
    99         13
   100          4
   101          6
   102          4
   103         11
   104          5
   105          7
   106          3
   107          4
   108          4
   109         24
   110         10
   111         49
   112         12
   113          8
   114          4
   115        999
   116         70
   117          8
   118          3
   119          3
   120          3
   121          8
   122          6
   123         13
   124          8
   125         26
   126          8
   127          6
   128          8
   129          5
   130         29
   131          8
   132          4
   133          4
   134          3
   135          4
   136          4
   137          8
   138          6
   139         13
   140          5
   141         15
   142          4
   143          4
   147          3
   148          2
   149         17
   150          4
   151          4
   152          5
   153          8
   154          4
   155          4
   156          4
   157          4
   158          2
   159          2
   160          2
   161          2
   163          3
   165          4
   166          4
   167          5
   168          4
   169          4
   170          2
   171          3
   175          2
   176          2
   177          3
   178          3
   179          4
   180          3
   181          3
   182          4
   183          4
   184          2
   185          5
   186          2
   187          2
   189          2
   190          2
   191          2
   192          2
   193          2
   194          4
   195          4
   196          4
   197          4
   198          2
   199          3
   201          1
   202          2
   203          2
   204          3
   205          3
   206          2
   207          4
   208          3
   209          3
   210          4
   211          4
   212          3
   213          2
   215          2
   216          2
   217          4
   218          5
   219          1
   220          3
   221          1
   222          7
   223          1
   224          4
   225          3
   226          2
   227          4
   228          1
   229          1
   238         19
   239         25
   240          7
   241        161
   242         26
   243          4
   250          1
   251          1
   252          2
   253          2
   254          2
   255          1
   256          2
   257          3
   258          2
   263          5
   264          2
   265          1
   266          2
   267          2
   268          2
   269          2
   270          2
   271          1
   279          1
   281          3
   282          4
   283          2
   284          2
   285          3
   286          2
   290          1
   297          1
   298          2
   299          1
   308          1
   324          2
   325         29
   326          9
   327          3