##TITLE=Library Entry 77989
##JCAMP-DX=Revision 4.10 
##DATA TYPE=MASS SPECTRUM
##SAMPLE DESCRIPTION=R.T.HOLMAN,UNIVERSITY OF MINNESOTA
##NAMES=HP
##CAS NAME=Tetradecanoic acid, 2-phenyl-1,3-dioxan-5-yl ester
##MOLFORM=C24H38O4
##CAS REGISTRY NO=56599-86-1
##MP= -300
##BP= -300
##MW= 390
##$RETENTION INDEX=0
##$CONDENSED SPECTRUM=NO
##NPOINTS= 266
##XYDATA=(XY..XY) 1 
    25          2
    26         10
    27        142
    28        125
    29        386
    30         13
    31         34
    32         13
    33          2
    35          2
    36          3
    37          3
    38          6
    39         79
    40         19
    41        602
    42        142
    43        857
    44         50
    45         25
    46          2
    47          3
    49          2
    50         28
    51        107
    52         21
    53         31
    54         55
    55        505
    56        130
    57        636
    58         59
    59         15
    60         16
    61          7
    62          3
    63         11
    64          5
    65         17
    66          6
    67         73
    68         36
    69        238
    70         55
    71        244
    72         18
    73         30
    74         11
    75         11
    76         21
    77        357
    78        107
    79        227
    80         22
    81         68
    82         34
    83        130
    84         50
    85        142
    86         13
    87         10
    88          3
    89         21
    90         33
    91        255
    92         40
    93         18
    94          7
    95         56
    96         16
    97         85
    98         54
    99         31
   100        244
   101         31
   102          5
   103          9
   104         16
   105        999
   106        153
   107        164
   108         17
   109         47
   110          9
   111         49
   112         15
   113        215
   114         21
   115         10
   116        176
   117         28
   118         21
   119         24
   120         14
   121         17
   122         17
   123         29
   124          6
   125         18
   126          6
   127         26
   128          4
   129        130
   130         13
   131          5
   132          3
   133         10
   134          7
   135         13
   136          3
   137          9
   138          3
   139          9
   140          2
   141          9
   142          5
   143         11
   144         13
   145          5
   146          2
   147          4
   148          3
   149         56
   150          7
   151          5
   152          2
   153          5
   154          2
   155         25
   156          5
   157         31
   158          5
   159          2
   160          1
   161          3
   162        130
   163         62
   164          9
   165         35
   166          6
   167          6
   168          2
   169         73
   170         10
   171         16
   172          3
   173          2
   174          1
   175          1
   177          2
   178          7
   179         23
   180          5
   181          6
   182          2
   183         14
   184          3
   185         28
   186          5
   187          2
   189          4
   190          3
   191          7
   192          2
   193          3
   197          6
   198          2
   199          7
   200          2
   207          7
   208          3
   209          9
   210          3
   211        278
   212         44
   213         11
   214          2
   215          1
   216          1
   217          1
   218          2
   219          2
   220          7
   221          2
   222          1
   225         49
   226         10
   227         25
   228          6
   229          5
   230          1
   231          1
   232          1
   233         24
   234          5
   235          2
   236          1
   237          1
   238          1
   239         13
   240          4
   241         19
   242          5
   243          1
   247          5
   248          2
   249          1
   251          1
   253          3
   254          1
   255          9
   256          3
   257          1
   258          1
   259          1
   260          1
   261          7
   262          2
   263          1
   264          1
   268        170
   269         36
   270          5
   271          2
   275          7
   276          2
   277          1
   278          1
   279          1
   280          1
   281          2
   282          1
   283         21
   284         27
   285          6
   286          1
   287          1
   289          7
   290          2
   291          1
   297          1
   298          1
   299          2
   303          5
   304          2
   305          1
   311          1
   312          3
   313         50
   314         10
   315          2
   317          6
   318          3
   319          1
   331          1
   332          1
   333          1
   345          1
   346          1
   347          1
   361          2
   362          1
   389        142
   390        102
   391         22
   392          4