##TITLE=Library Entry 32766
##JCAMP-DX=Revision 4.10 
##DATA TYPE=MASS SPECTRUM
##SAMPLE DESCRIPTION=R.T.HOLMAN,UNIVERSITY OF MINNESOTA
##NAMES=HP
##CAS NAME=6,9-Octadecadienoic acid, methyl ester
##MOLFORM=C19H34O2
##CAS REGISTRY NO=56599-55-4
##MP= -300
##BP= -300
##MW= 294
##$RETENTION INDEX=0
##$CONDENSED SPECTRUM=NO
##NPOINTS= 159
##XYDATA=(XY..XY) 1 
    27        140
    28         80
    29        250
    30         10
    31         10
    32         10
    39        140
    40         30
    41        740
    42         90
    43        460
    44         20
    45         30
    51         20
    52         20
    53        140
    54        360
    55        640
    56         80
    57        220
    58         20
    59        200
    60         10
    61         10
    65         80
    66         90
    67        999
    68        360
    69        330
    70         60
    71         90
    72         10
    73         40
    74        160
    75         20
    77        170
    78         70
    79        550
    80        460
    81        820
    82        480
    83        260
    84         60
    85        100
    86         10
    87        100
    88         20
    91        180
    92         60
    93        310
    94        450
    95        560
    96        400
    97        170
    98         50
    99         40
   100         10
   101         50
   103         10
   104         10
   105         80
   106         60
   107        180
   108        190
   109        300
   110        200
   111         80
   112         20
   113         20
   114         10
   115         40
   116         10
   117         30
   118         20
   119         60
   120         40
   121        220
   122        160
   123        180
   124        150
   125         40
   126         20
   127         30
   128         10
   129         30
   131         40
   132         10
   133         30
   134         10
   135        180
   136        170
   137        100
   138        100
   139         20
   140         30
   141         50
   142         10
   143         20
   145         30
   146         10
   147         20
   148         10
   149        130
   150        200
   151         60
   152         70
   153         20
   154         60
   155         30
   157         10
   159         20
   160         10
   161         20
   162         10
   163         80
   164         90
   165         60
   166         40
   167         20
   168         30
   169         10
   173         20
   175         10
   177         40
   178         70
   179         30
   180         20
   181         20
   182         20
   183         10
   187         10
   191         20
   192         20
   193         20
   194         10
   195         20
   196         20
   205         10
   206         20
   207         10
   209         20
   210         10
   218         20
   219         10
   220        100
   221         20
   222         10
   223         10
   224         10
   234         30
   235         10
   245         20
   262        100
   263         80
   264         20
   265         10
   294        330
   295         70
   296         10