##TITLE=Library Entry 73901
##JCAMP-DX=Revision 4.10 
##DATA TYPE=MASS SPECTRUM
##SAMPLE DESCRIPTION=R.T.HOLMAN,UNIVERSITY OF MINNESOTA
##NAMES=HP
##CAS NAME=1,3-Dioxolane, 4-ethyl-2-pentadecyl-
##MOLFORM=C20H40O2
##CAS REGISTRY NO=56599-60-1
##MP= -300
##BP= -300
##MW= 312
##$RETENTION INDEX=0
##$CONDENSED SPECTRUM=NO
##NPOINTS= 137
##XYDATA=(XY..XY) 1 
    26          1
    27         10
    28         17
    29         30
    30          2
    31         13
    32          4
    38          1
    39          7
    40          2
    41         55
    42         17
    43        104
    44          5
    45          5
    46          1
    47          1
    50          1
    51          1
    52          1
    53          3
    54          7
    55        341
    56         26
    57         41
    58          5
    59          3
    60          1
    61          1
    65          1
    66          1
    67         10
    68          7
    69         21
    70          7
    71         19
    72          7
    73         12
    74          1
    75          1
    77          1
    79          1
    80          1
    81          7
    82         10
    83         14
    84          3
    85          7
    86          1
    87          2
    88          1
    89          1
    91          1
    93          1
    94          1
    95          7
    96          5
    97          9
    98          2
    99          2
   100          1
   101        999
   102         55
   103          5
   104          1
   105          1
   107          1
   108          1
   109          4
   110          2
   111          4
   112          1
   113          1
   114          1
   115          5
   116          2
   117          1
   121          1
   122          1
   123          2
   124          1
   125          2
   126          1
   127          4
   128          1
   129          1
   133          1
   135          1
   137          1
   138          1
   139          1
   140          1
   141          1
   142          1
   149          2
   150          1
   151          1
   152          1
   153          1
   154          1
   155          1
   165          1
   166          1
   167          1
   169          1
   179          1
   180          1
   181          1
   183          1
   185          1
   194          1
   195          1
   196          1
   197          1
   211          1
   221          1
   222          2
   223          2
   224          1
   225          1
   239          1
   240          1
   253          1
   254          1
   255          1
   257          1
   258          1
   263          1
   265          1
   266          1
   267          1
   283          2
   284          1
   285          1
   311          9
   312          2
   316          1