##TITLE=Library Entry 40756
##JCAMP-DX=Revision 4.10 
##DATA TYPE=MASS SPECTRUM
##SAMPLE DESCRIPTION=R.T.HOLMAN,UNIVERSITY OF MINNESOTA
##NAMES=HP
##CAS NAME=9-Octadecenoic acid, (2-phenyl-1,3-dioxolan-4-yl)methyl ester, ci
s-
##MOLFORM=C28H44O4
##CAS REGISTRY NO=56599-45-2
##MP= -300
##BP= -300
##MW= 444
##$RETENTION INDEX=0
##$CONDENSED SPECTRUM=NO
##NPOINTS= 290
##XYDATA=(XY..XY) 1 
    26         33
    27        128
    28        388
    29        288
    30         17
    31        128
    32          4
    33         31
    36         17
    37         11
    38         13
    39         62
    40         11
    41        255
    42         71
    43        666
    44        137
    45        844
    46         28
    47         33
    49          6
    50         44
    51         97
    52         20
    53         28
    54         60
    55        300
    56         88
    57        288
    58         31
    59         28
    60         31
    61        195
    62         11
    63         13
    64          4
    65         31
    66         15
    67        104
    68         53
    69        171
    70         77
    71        144
    72         20
    73        999
    74         77
    75         33
    76         17
    77        237
    78         42
    79         66
    80         22
    81         93
    82         68
    83        122
    84         66
    85         93
    86         17
    87         51
    88         22
    89         17
    90          8
    91        257
    92         35
    93         28
    94         22
    95         86
    96         53
    97         88
    98         88
    99         40
   100         22
   101         28
   102          6
   103         20
   104         13
   105        422
   106         75
   107        111
   108         22
   109         42
   110         31
   111         44
   112         37
   113         31
   114         11
   115         11
   116         28
   117         40
   118          6
   119         17
   120          8
   121         22
   122        137
   123         57
   124         24
   125         28
   126         17
   127         26
   128          6
   129         68
   130          6
   131          8
   132          4
   133         11
   134         15
   135        128
   136         22
   137         28
   138         15
   139         15
   140         11
   141         15
   142          4
   143         11
   144          6
   145          6
   146          4
   147         11
   148          8
   149         75
   150         22
   151         20
   152         17
   153         11
   154          8
   155         17
   156          4
   157         11
   158          6
   159          4
   160          6
   161          6
   162         17
   163         13
   164         11
   165         17
   166         11
   167          8
   168          6
   169         13
   170          4
   171         15
   172          6
   173          6
   175          6
   176          4
   177          6
   178          6
   179         40
   180         13
   181         11
   182          6
   183         11
   184          4
   185         24
   186          4
   187          4
   189          4
   190          2
   191          6
   192          4
   193          8
   194          6
   195          6
   196          6
   197         11
   198          4
   199          6
   200          4
   201          4
   202          2
   203          4
   204          2
   205          6
   206          4
   207          8
   208          4
   209          4
   210          4
   211          8
   212          6
   213          6
   214          4
   215          4
   216          2
   217          4
   218          4
   219          4
   220          6
   221         11
   222          6
   223          6
   224          4
   225          6
   226          2
   227          6
   228          4
   229          8
   230          4
   231          4
   233          4
   234          2
   235          4
   236          4
   237          4
   238          4
   239          6
   240          4
   241          6
   242          4
   243          4
   244          2
   245          4
   246          4
   247          4
   248          4
   249          4
   250          4
   251          4
   252          4
   253          8
   254          4
   255          6
   256          4
   257          4
   258          2
   259          4
   260          4
   261          4
   262         11
   263          6
   264         51
   265         33
   266          6
   267          6
   268          2
   269          4
   270          4
   271          2
   279          4
   280          4
   281          4
   282          4
   283          6
   284          4
   286          2
   288          2
   290          2
   291          2
   292          2
   293          2
   294          4
   295          4
   296          4
   297          2
   298          2
   299          2
   305          4
   309          4
   310          2
   311          2
   313          2
   323          4
   324          4
   325          6
   326          4
   327          4
   336          2
   337          4
   338         17
   339          8
   340          4
   341          2
   351          2
   352          4
   353          6
   354          4
   355          2
   356          2
   364          2
   365          2
   366          2
   367         15
   368          6
   369          4
   380          4
   381          6
   382          6
   383          4