##TITLE=Library Entry 90625
##JCAMP-DX=Revision 4.10 
##DATA TYPE=MASS SPECTRUM
##SAMPLE DESCRIPTION=R.T.HOLMAN,UNIVERSITY OF MINNESOTA
##NAMES=HP
##CAS NAME=Pyrrolidine, 1-(1-oxo-4-octadecenyl)-
##MOLFORM=C22H41NO
##CAS REGISTRY NO=56599-68-9
##MP= -300
##BP= -300
##MW= 335
##$RETENTION INDEX=0
##$CONDENSED SPECTRUM=NO
##NPOINTS= 101
##XYDATA=(XY..XY) 1 
    39         50
    40         16
    41        308
    42         83
    43        467
    44         38
    45         37
    51          5
    53         42
    54         60
    55        510
    56        140
    57        118
    58         15
    59          5
    60         26
    65         10
    66         11
    67        110
    68         57
    69        110
    70        360
    71        160
    72        148
    73         10
    75         15
    77         16
    78          5
    79         24
    80         11
    81         59
    82         21
    83         50
    84         30
    85        110
    86          8
    91          8
    93          9
    94          6
    95         40
    96         25
    97         32
    98        530
    99         42
   100          8
   105          7
   107          5
   109         12
   110         22
   111         26
   112         70
   113        999
   114        100
   115          8
   117          6
   123          5
   124         26
   125         10
   126        120
   127         31
   138         42
   139         50
   140         15
   150          9
   152        190
   153        126
   154         19
   165          8
   166        650
   167        170
   168         22
   180         90
   181         80
   182         13
   194         70
   195         37
   196          6
   208         90
   209         28
   210          5
   222        170
   223         39
   224          6
   236         80
   237         25
   238          6
   250         45
   251         16
   264         45
   265         20
   278         58
   279         16
   292         44
   293         14
   306         30
   307          8
   320         15
   334         40
   335        270
   336         60
   337         10