##TITLE=Library Entry 32810
##JCAMP-DX=Revision 4.10 
##DATA TYPE=MASS SPECTRUM
##SAMPLE DESCRIPTION=R.T.HOLMAN,UNIVERSITY OF MINNESOTA
##NAMES=HP
##CAS NAME=11,13-Eicosadienoic acid, methyl ester
##MOLFORM=C21H38O2
##CAS REGISTRY NO=56599-57-6
##MP= -300
##BP= -300
##MW= 322
##$RETENTION INDEX=2583
##$CONDENSED SPECTRUM=NO
##NPOINTS= 231
##XYDATA=(XY..XY) 1 
    26          4
    27         85
    28        108
    29        209
    30          6
    31         11
    32         24
    33          2
    38          3
    39         87
    40         19
    41        637
    42         67
    43        354
    44         16
    45         27
    50          3
    51          7
    52          8
    53        108
    54        403
    55        709
    56         70
    57         91
    58          6
    59        153
    60          8
    61          4
    63          3
    65         48
    66         66
    67        999
    68        467
    69        403
    70         34
    71         33
    72          5
    73         29
    74        145
    75         16
    77         96
    78         33
    79        322
    80        241
    81        814
    82        564
    83        241
    84         41
    85         35
    86          4
    87         87
    88          8
    89          2
    91         79
    92         20
    93        141
    94        141
    95        596
    96        451
    97        169
    98         32
    99         16
   100          4
   101         24
   102          2
   103          3
   104          4
   105         24
   106         14
   107         70
   108         70
   109        306
   110        233
   111         70
   112         12
   113         12
   114          8
   115         34
   116          6
   117          8
   118          4
   119         21
   120         14
   121         80
   122         62
   123        161
   124        161
   125         43
   126          8
   127         13
   128          9
   129         27
   130          5
   131         16
   132          5
   133         20
   134         12
   135         75
   136         80
   137         88
   138         88
   139         27
   140         12
   141         17
   142          5
   143         22
   144          3
   145         13
   146          8
   147         20
   148          9
   149          5
   150        104
   151         58
   152         50
   153         18
   154         17
   155         10
   156          3
   157         13
   158          3
   159         10
   160          5
   161         12
   162          4
   163         37
   164         67
   165         40
   166         32
   167         19
   168         12
   169          5
   170          2
   171          9
   172          2
   173         12
   174          4
   175          6
   176          3
   177         24
   178         49
   179         25
   180         18
   181         12
   182          9
   183          4
   184         16
   185          5
   186          2
   187         11
   188          4
   189          4
   190          2
   191         14
   192         31
   193         16
   194         10
   195         13
   196         11
   197          4
   199          4
   201          5
   202          3
   203          3
   205         12
   206         22
   207         12
   208          7
   209         12
   210         14
   211          4
   213          1
   215          4
   216          1
   217          2
   218          2
   219         10
   220         12
   221          7
   222          4
   223          9
   224         12
   225          2
   227          2
   229          2
   230          1
   233          6
   234          7
   235          4
   236          2
   237          9
   238          8
   239          2
   240          1
   241          1
   246          3
   247          4
   248         21
   249          5
   250          1
   251          8
   252          6
   253          2
   255          4
   261          5
   262         15
   263          6
   264          1
   265          5
   266          4
   267          1
   272          1
   273          3
   274          1
   275          1
   279          4
   280          2
   281          1
   290         65
   291         98
   292         22
   293          6
   294          9
   295          2
   296          1
   320          3
   321          3
   322        201
   323         41
   324          6
   325          2