##TITLE=Library Entry 44790
##JCAMP-DX=Revision 4.10 
##DATA TYPE=MASS SPECTRUM
##SAMPLE DESCRIPTION=R.T.HOLMAN,UNIVERSITY OF MINNESOTA
##NAMES=HP
##CAS NAME=3-Octadecenoic acid, methyl ester
##MOLFORM=C19H36O2
##CAS REGISTRY NO=56599-33-8
##MP= -300
##BP= -300
##MW= 296
##$RETENTION INDEX=0
##$CONDENSED SPECTRUM=NO
##NPOINTS= 252
##XYDATA=(XY..XY) 1 
    26          5
    27         28
    28         49
    29         96
    30          5
    31          5
    32         14
    33          3
    34          2
    35          3
    36          7
    37          3
    38          3
    39         45
    40         11
    41        341
    42         61
    43        445
    44         18
    45         19
    46          3
    47          3
    50          3
    51          5
    52          4
    53         50
    54        180
    55        490
    56        161
    57        387
    58         23
    59        219
    60         12
    61          6
    63          3
    64          2
    65         11
    66         19
    67        258
    68        258
    69        406
    70        148
    71        277
    72         47
    73         43
    74        999
    75        180
    76         10
    77         15
    78          6
    79         47
    80         50
    81        290
    82        277
    83        464
    84        451
    85        264
    86         23
    87        548
    88         58
    89          8
    90          1
    91         14
    92          7
    93         29
    94         47
    95        232
    96        548
    97        477
    98        316
    99         68
   100         29
   101        135
   102         14
   103          5
   104          5
   105         11
   106          7
   107         20
   108         29
   109        141
   110        232
   111        238
   112         90
   113        122
   114        193
   115        148
   116         20
   117          8
   118          5
   119         29
   120         10
   121         24
   122         17
   123        154
   124        129
   125        129
   126         43
   127         96
   128        109
   129         96
   130         21
   131          7
   132          3
   133         21
   134         25
   135         21
   136         12
   137         96
   138         96
   139         63
   140         21
   141         90
   142         23
   143        116
   144         12
   145          3
   146          5
   147         17
   148         16
   149         14
   150         10
   151         56
   152         72
   153         38
   154         13
   155         29
   156          9
   157         25
   158          5
   159          3
   160          2
   161         12
   162          5
   163         10
   164         11
   165         39
   166         68
   167         31
   168         12
   169         45
   170          9
   171         25
   172          5
   173          2
   174          1
   175          7
   176          3
   177          6
   178          7
   179         23
   180        187
   181         44
   182         11
   183         24
   184          6
   185         26
   186          8
   187          3
   188          2
   189          6
   190          3
   191          5
   192          4
   193         21
   194         45
   195         11
   196          7
   197          8
   198          3
   199         37
   200         12
   201          3
   203          4
   204          2
   205          4
   206          5
   207         16
   208         21
   209          9
   210          6
   211          9
   212          3
   213         40
   214         14
   215          3
   217          5
   218          3
   219          3
   220         83
   221         42
   222        367
   223         83
   224         14
   225         20
   226          5
   227         29
   228         12
   229          4
   230          3
   231          3
   232          1
   233          3
   234          3
   235         25
   236         41
   237         14
   238          3
   239         18
   240          5
   241         10
   242          8
   243          2
   244          2
   245          3
   246         28
   247          8
   249          5
   250          9
   251          6
   253         16
   254          5
   255          6
   256         31
   257          8
   258          3
   264        445
   265        103
   266         14
   267          9
   268          3
   270         32
   271          8
   272          1
   273          1
   278          8
   279          2
   280          1
   281          2
   282          3
   283          1
   284          1
   285          1
   290          1
   292          1
   293          1
   294          2
   295          3
   296         44
   297         11
   298          5
   299          1