##TITLE=Library Entry 19093
##JCAMP-DX=Revision 4.10 
##DATA TYPE=MASS SPECTRUM
##SAMPLE DESCRIPTION=R.T.HOLMAN,UNIVERSITY OF MINNESOTA
##NAMES=HP
##CAS NAME=2H-Pyran, 2-(7-heptadecynyloxy)tetrahydro-
##MOLFORM=C22H40O2
##CAS REGISTRY NO=56599-50-9
##MP= -300
##BP= -300
##MW= 336
##$RETENTION INDEX=0
##$CONDENSED SPECTRUM=NO
##NPOINTS= 261
##XYDATA=(XY..XY) 1 
    25          3
    26         25
    27        231
    28        185
    29        423
    30         13
    31         62
    32          7
    33          2
    34          4
    35          2
    36         11
    37          6
    38         13
    39        158
    40         31
    41        827
    42        152
    43        761
    44        139
    45         15
    46          2
    47          4
    48          3
    49          2
    50         21
    51         64
    52         23
    53         92
    54        119
    55        999
    56        245
    57        357
    58         23
    59          8
    60          5
    61          3
    62          7
    63         35
    64         18
    65        105
    66         47
    67        748
    68        112
    69        490
    70         59
    71        119
    72         12
    73          9
    74          8
    75         15
    76         46
    77        225
    78        231
    79        543
    80        205
    81        735
    82        251
    83        423
    84        145
    85        503
    86         30
    87          7
    88          5
    89         33
    90         18
    91        701
    92        198
    93        450
    94        198
    95        516
    96        105
    97         67
    98         13
    99          8
   100          8
   101         21
   102         13
   103         64
   104         47
   105        417
   106        132
   107        397
   108        119
   109        225
   110         57
   111         24
   112          6
   113          5
   114          4
   115         63
   116         31
   117        125
   118         41
   119        423
   120        139
   121        437
   122         99
   123         76
   124         25
   125          9
   126          3
   127         10
   128         20
   129         25
   130         13
   131         80
   132         27
   133        370
   134        145
   135        192
   136         64
   137         60
   138         45
   139          7
   140          2
   141         17
   142          7
   143          8
   144          6
   145         43
   146         17
   147        251
   148         99
   149        125
   150         74
   151         34
   152         11
   153          4
   154          3
   155          8
   156          5
   157          5
   158          3
   159         23
   160         11
   161        205
   162         60
   163         99
   164         43
   165         22
   166          5
   167          5
   168          3
   169          5
   170          3
   171          3
   172          2
   173         19
   174          8
   175        165
   176         34
   177         27
   178          8
   179          7
   180          4
   181          3
   182          3
   183          3
   184          2
   185          3
   186          2
   187         11
   188          7
   189         80
   190         35
   191         44
   192          9
   193         13
   194          5
   195          3
   196          3
   197          3
   198          2
   199          3
   200          2
   201          5
   202          3
   203         27
   204          8
   205          7
   206          4
   207         19
   208          6
   209          5
   210          1
   211          3
   212          1
   213          1
   215          4
   216          3
   217         30
   218          9
   219          7
   220          5
   221          5
   222          9
   223          4
   224          2
   225          2
   226          1
   227          1
   228          1
   229          4
   230          3
   231         80
   232         25
   233         11
   234          5
   235          6
   236          3
   237          1
   238          1
   239          1
   240          1
   241          1
   242          1
   243          4
   244          3
   245         29
   246          8
   247          3
   248          1
   249          1
   250          1
   251          1
   252          1
   253          1
   254          1
   255          1
   256          1
   257          3
   258          3
   259         27
   260          9
   261          5
   262          2
   263          7
   264          2
   265          7
   266          2
   267          1
   271          3
   272          2
   273         17
   274          6
   275          1
   280          3
   281          1
   285          3
   286          1
   287          3
   300          3
   301          3
   302          4
   303          3
   304          1
   305          5
   306          2
   334          7
   335          3