##TITLE=Library Entry 77990
##JCAMP-DX=Revision 4.10 
##DATA TYPE=MASS SPECTRUM
##SAMPLE DESCRIPTION=R.T.HOLMAN,UNIVERSITY OF MINNESOTA
##NAMES=HP
##CAS NAME=Hexadecanoic acid, 2-phenyl-1,3-dioxan-5-yl ester
##MOLFORM=C26H42O4
##CAS REGISTRY NO=56599-87-2
##MP= -300
##BP= -300
##MW= 418
##$RETENTION INDEX=0
##$CONDENSED SPECTRUM=NO
##NPOINTS= 193
##XYDATA=(XY..XY) 1 
    26         10
    27        130
    28         54
    29        380
    30         12
    31         29
    36          9
    38          7
    39         52
    40         19
    41        600
    42        140
    43        970
    44         45
    45         15
    50         14
    51         44
    52         14
    53         30
    54         68
    55        590
    56        150
    57        890
    58         85
    59         16
    60         19
    61          6
    63          9
    64          5
    65         11
    66          6
    67         87
    68         42
    69        300
    70         68
    71        360
    72         26
    73         31
    74          8
    75          7
    76          9
    77        170
    78         70
    79        180
    80         19
    81         95
    82         42
    83        200
    84         62
    85        230
    86         18
    87          9
    89         19
    90         22
    91        200
    92         29
    93         19
    94          9
    95        110
    96         25
    97        120
    98         68
    99         49
   100        310
   101         50
   102          6
   103          7
   104         12
   105        999
   106        180
   107        190
   108         21
   109         61
   110         14
   111         51
   112         22
   113        330
   114         31
   115         12
   116        290
   117         38
   118         29
   119         21
   120         13
   121         18
   122          8
   123         32
   124          8
   125         25
   126          7
   127         33
   128          6
   129        230
   130         22
   131          8
   133         16
   134          9
   135         14
   137         16
   138          6
   139         15
   140          5
   141         15
   142          7
   143         17
   144         15
   145          6
   147          6
   149         70
   150         10
   151         10
   152          5
   153         10
   155         38
   156          8
   157         27
   158          7
   160          8
   161          6
   162        220
   163        120
   164         16
   165          8
   167          7
   169         87
   170         13
   171         30
   172          6
   173          7
   179         32
   180          7
   181         11
   183          9
   185         49
   186          7
   195          5
   197         14
   199         10
   211         23
   212          6
   213         15
   216          5
   217          6
   219          7
   220          9
   221          6
   225         25
   226          5
   227         15
   228          5
   233         31
   234          8
   235         10
   236          8
   237         13
   238          7
   239        440
   240         80
   241         20
   247          6
   253         58
   254         13
   255         33
   256          8
   257          5
   261          5
   267         19
   268          5
   269         32
   270          6
   275          5
   281          5
   283         17
   284          5
   289          8
   296        290
   297         67
   298         11
   303          6
   311         45
   312         69
   313         17
   317          5
   327          8
   340          6
   341        120
   342         27
   343          6
   345          9
   417        310
   418        240
   419         56
   420         10