##TITLE=Library Entry 78240
##JCAMP-DX=Revision 4.10 
##DATA TYPE=MASS SPECTRUM
##SAMPLE DESCRIPTION=R.T.HOLMAN,UNIVERSITY OF MINNESOTA
##NAMES=HP
##CAS NAME=9,12-Octadecadienoic acid, (2-phenyl-1,3-dioxolan-4-yl)methyl est
er, cis-
##MOLFORM=C28H42O4
##CAS REGISTRY NO=56599-47-4
##MP= -300
##BP= -300
##MW= 442
##$RETENTION INDEX=0
##$CONDENSED SPECTRUM=NO
##NPOINTS= 391
##XYDATA=(XY..XY) 1 
    25          6
    26         24
    27        120
    28        259
    29        326
    30         16
    31         58
    32         20
    35          5
    36         28
    37          7
    38         14
    39        106
    40         24
    41        673
    42        100
    43        460
    44         69
    45         86
    46          7
    47          8
    50         20
    51         58
    52         19
    53        100
    54        333
    55        846
    56        113
    57        426
    58         30
    59         24
    60         26
    61         22
    62          8
    63         12
    64          8
    65         64
    66         60
    67        920
    68        279
    69        360
    70         67
    71        139
    72         14
    73        126
    74         27
    75         33
    76         14
    77        259
    78        106
    79        473
    80        293
    81        646
    82        253
    83        213
    84         56
    85         93
    86         13
    87         27
    88         11
    89         37
    90         46
    91        720
    92        113
    93        233
    94        120
    95        413
    96        186
    97        146
    98         79
    99         56
   100         20
   101         26
   102          6
   103         21
   104         55
   105        999
   106        139
   107        240
   108         75
   109        180
   110        126
   111         65
   112         24
   113         31
   114          9
   115         19
   116        126
   117         56
   118         16
   119         81
   120         58
   121        113
   122         65
   123        113
   124         68
   125         35
   126         14
   127         26
   128          8
   129        339
   130         32
   131         37
   132         12
   133         60
   134         32
   135        113
   136         51
   137         62
   138         31
   139         18
   140         10
   141         22
   142         10
   143         37
   144         13
   145         23
   146         12
   147         41
   148         23
   149        319
   150         77
   151         43
   152         21
   153         20
   154          9
   155         33
   156         11
   157         37
   158         10
   159         17
   160          8
   161         39
   162        100
   163        120
   164         69
   165         33
   166         14
   167         21
   168          9
   169         14
   170          6
   171         30
   172         17
   173         19
   174          8
   175         40
   176         12
   177         32
   178         26
   179        126
   180         22
   181         26
   182          9
   183         13
   184          4
   185         58
   186         14
   187         13
   188          5
   189         21
   190         11
   191         22
   192         13
   193         19
   194          8
   195         14
   196          7
   197         12
   198          4
   199         24
   200          7
   201          6
   202          4
   203         12
   204          6
   205         14
   206          9
   207         12
   208          6
   209         10
   210          6
   211         12
   212          4
   213         10
   214          5
   215          4
   216          4
   217          8
   218          9
   219         16
   220         53
   221         18
   222          6
   223          9
   224          5
   225         35
   226         10
   227         14
   228          5
   229          6
   231          7
   232          5
   233        139
   234         37
   235         15
   236          6
   237          6
   238          8
   239         33
   240         11
   241         13
   242          4
   243          7
   244          8
   245          9
   246          6
   247         34
   248          9
   249          4
   250          2
   251          8
   252          7
   253         13
   254          6
   255          5
   256          4
   257          4
   258          3
   259         26
   260         11
   261         29
   262        133
   263         86
   264         25
   265         17
   266          6
   267          8
   268          4
   269          8
   270          7
   271          2
   272          2
   273          3
   274          2
   275         18
   276          6
   277         11
   278          8
   279         62
   280         27
   281         10
   282          3
   283          5
   284          5
   285          2
   286          2
   287          2
   288          2
   289         25
   290          7
   291          4
   292          2
   293         16
   294          5
   295          6
   296          2
   297          2
   298          2
   299          2
   300          2
   301          2
   302          2
   303         12
   304          5
   305         12
   306          4
   307          6
   308          4
   309          4
   310          2
   311          2
   312          1
   313          2
   314          2
   315          3
   316          2
   317          9
   318          4
   319          3
   320          2
   321          5
   322          3
   323          4
   324          2
   325          2
   326          1
   327          1
   329          3
   330          2
   331         27
   332          9
   333          5
   334          8
   335         24
   336        319
   337         85
   338         22
   339          6
   340          2
   341          2
   342          2
   343          5
   344         14
   345          8
   346          2
   347          2
   348          2
   349          2
   350          4
   351        106
   352         30
   353         12
   354          8
   355          2
   356          1
   357         11
   358          4
   359          3
   360          2
   361          2
   362          2
   363          2
   364          3
   365         40
   366         11
   367          6
   368          3
   369          2
   371         14
   372          6
   373          2
   374          2
   375          1
   376          2
   377          2
   378          2
   379          3
   380          5
   381          3
   382          2
   383          2
   384          2
   385          9
   386          4
   387          2
   388          2
   389          2
   390          2
   391          2
   392          2
   393          2
   394          2
   395          1
   396          2
   397          2
   399          8
   400          4
   401          2
   402          1
   407          2
   408          2
   409          2
   413          4
   414          2
   415          3
   416          2
   417          2
   418          2
   419          1
   420          2
   421          2
   422          2
   427          2
   428          1
   440         13
   441         50
   442        146
   443         47
   444         11
   445          3