##TITLE=Library Entry 25388
##JCAMP-DX=Revision 4.10 
##DATA TYPE=MASS SPECTRUM
##SAMPLE DESCRIPTION=R.T.HOLMAN,UNIVERSITY OF MINNESOTA
##NAMES=HP
##CAS NAME=Hexadecanoic acid, 2-(octadecyloxy)-, tetradecyl ester
##MOLFORM=C48H96O3
##CAS REGISTRY NO=56599-98-5
##MP= -300
##BP= -300
##MW= 720
##$RETENTION INDEX=0
##$CONDENSED SPECTRUM=NO
##NPOINTS= 311
##XYDATA=(XY..XY) 1 
    26          8
    27         38
    28         76
    29         82
    30          4
    31          5
    32         12
    36          3
    37          3
    38          4
    39         33
    40         11
    41        215
    42         79
    43        646
    44         35
    45         10
    47          3
    48          2
    49          4
    50          3
    51          4
    52          2
    53         14
    54         49
    55        378
    56        159
    57        999
    58         56
    59          6
    60          7
    61          6
    63          3
    64          2
    65          4
    66         12
    67         92
    68         99
    69        371
    70        126
    71        706
    72         49
    73         30
    74          5
    75          3
    76          7
    77          7
    78          4
    79         13
    80         12
    81         92
    82        149
    83        374
    84         76
    85        517
    86         38
    87          8
    88          4
    89          5
    91          7
    92          3
    93          8
    94          8
    95         96
    96         82
    97        325
    98         63
    99        169
   100         17
   101          7
   102          2
   103          2
   104          2
   105          7
   106          9
   107         12
   108          8
   109         56
   110         30
   111        172
   112         32
   113        112
   114         11
   115          8
   116          4
   117          3
   118          2
   119          2
   120          2
   121          6
   122          4
   123         31
   124         17
   125         82
   126         18
   127         82
   128         11
   129         13
   130          2
   131          2
   132          1
   133          2
   134          3
   135         10
   136         10
   137         23
   138         14
   139         40
   140         11
   141         69
   142          9
   143          4
   144          2
   145          2
   146          1
   147          2
   148          2
   149          6
   150          3
   151          8
   152          7
   153         23
   154          8
   155         56
   156          7
   157          4
   158          2
   159          2
   160          1
   161          1
   162          1
   163          2
   164          1
   165          5
   166          6
   167         14
   168         11
   169         39
   170          7
   171          4
   172          1
   173          1
   174          1
   175          1
   176          1
   177          1
   178          1
   179          4
   180          4
   181          9
   182          3
   183         19
   184          4
   185          6
   186          2
   187          1
   188          1
   189          1
   190          1
   191          2
   192          2
   193          3
   194          6
   195          4
   196         18
   197         10
   198          3
   199          3
   200          1
   201          1
   202          1
   203          1
   204          1
   205          1
   206          1
   207          2
   208          3
   209          3
   210          3
   211          5
   212          2
   213          3
   214          2
   215          2
   216          1
   217          2
   218          2
   219          4
   220          2
   221          3
   222          6
   223          7
   224          8
   225        139
   226         25
   227          8
   228          2
   229          1
   230          1
   231          1
   232          1
   233          1
   234          1
   235          6
   236         16
   237          7
   238          2
   239          3
   240          1
   241         20
   242          4
   243          2
   244          1
   245          1
   246          1
   247          2
   248          1
   249          1
   250          1
   251          2
   252          2
   253         27
   254         11
   255        225
   256         44
   257          7
   258          1
   259          1
   263          2
   264          2
   265          3
   266          3
   267          5
   268          2
   269          6
   270          2
   271          2
   272          1
   279          1
   280          1
   281          7
   282          4
   283         10
   284         27
   285         43
   286          9
   287          2
   295          1
   296          1
   297          1
   298          1
   299          1
   300          3
   301          2
   302          1
   309          1
   310          1
   311          1
   312          1
   313          1
   323          1
   324          1
   325          1
   337          1
   338          1
   339          1
   340          1
   341          1
   342          1
   351          1
   352          1
   353          1
   378          1
   379          1
   380          1
   406          1
   407          1
   408          1
   420          1
   421          1
   422          1
   437          1
   438          1
   451          9
   452          5
   453          2
   461          2
   463          1
   464          1
   465          8
   466          2
   477          4
   478         11
   479        537
   480        315
   481         82
   482         14
   483          2
   493          4
   494          2
   495          3
   496          4
   497          2
   498          1
   507          8
   508          5
   509          2
   524          1
   720         12
   721          7
   722          3