##TITLE=Library Entry 93186
##JCAMP-DX=Revision 4.10 
##DATA TYPE=MASS SPECTRUM
##SAMPLE DESCRIPTION=R.T.HOLMAN,UNIVERSITY OF MINNESOTA
##NAMES=HP
##CAS NAME=1,3-Dioxolane, 4,4,5-trimethyl-2-pentadecyl-
##MOLFORM=C21H42O2
##CAS REGISTRY NO=56599-79-2
##MP= -300
##BP= -300
##MW= 326
##$RETENTION INDEX=0
##$CONDENSED SPECTRUM=NO
##NPOINTS= 145
##XYDATA=(XY..XY) 1 
    26          2
    27          8
    28         15
    29         16
    30          2
    31          2
    32          2
    39          9
    40          4
    41         60
    42         17
    43         78
    44          7
    45         19
    46          2
    50          2
    51          2
    52          2
    53          6
    54          9
    55         54
    56         18
    57         47
    58          5
    59         20
    60          2
    65          3
    66          3
    67         15
    68         18
    69        104
    70         21
    71         29
    72          8
    73          2
    74          2
    77          3
    78          2
    79          3
    80          2
    81         11
    82         18
    83         25
    84          8
    85         20
    86          6
    87        250
    88         15
    89          2
    90          2
    91          8
    92          3
    93          4
    94          2
    95         11
    96          9
    97         14
    98          5
    99          4
   100          2
   101          2
   103          2
   104          4
   105          4
   106          2
   107          2
   109          5
   110          4
   111          8
   112          4
   113          2
   114          2
   115        999
   116         68
   117          8
   118          2
   119          3
   120          2
   121          6
   122          2
   123          3
   124          3
   125          3
   126          2
   127          2
   128          2
   129          2
   130          2
   131          1
   132          1
   133          1
   134          1
   135          2
   136          1
   137          2
   138          2
   139          2
   140          2
   141          6
   142          2
   149         25
   150          4
   151          2
   152          2
   153          2
   154          2
   155          2
   159          2
   163          2
   164          2
   165          2
   166          2
   167          2
   168          2
   169          2
   179          1
   180          1
   181          1
   182          1
   183          1
   185          2
   192          1
   193          1
   194          2
   195          1
   196          2
   197          2
   210          1
   211          1
   217          1
   218          2
   219          3
   222          8
   223          3
   224          3
   225          2
   239          4
   240          2
   253          2
   267          2
   268          3
   311          4
   312          2
   325          9
   326          2