##TITLE=Library Entry 90018
##JCAMP-DX=Revision 4.10 
##DATA TYPE=MASS SPECTRUM
##SAMPLE DESCRIPTION=R.T.HOLMAN,UNIVERSITY OF MINNESOTA
##NAMES=HP
##CAS NAME=Pyrrolidine, 1-(1-oxo-13-octadecenyl)-
##MOLFORM=C22H41NO
##CAS REGISTRY NO=56599-73-6
##MP= -300
##BP= -300
##MW= 335
##$RETENTION INDEX=0
##$CONDENSED SPECTRUM=NO
##NPOINTS= 80
##XYDATA=(XY..XY) 1 
    39         23
    40          6
    41        160
    42         42
    43        160
    44         36
    45          5
    48          5
    49          5
    50          9
    53         18
    54         36
    55        380
    56         67
    57         35
    58          7
    65          5
    66          5
    67         51
    68         26
    69        110
    70        240
    71        110
    72         90
    73          7
    75          8
    77          8
    79         11
    81         26
    82         10
    83         32
    84         13
    85         74
    86          8
    95         18
    96         10
    97         13
    98        110
    99         20
   110          7
   111          8
   112         20
   113        999
   114         70
   126        360
   127         70
   140         58
   141         13
   151          5
   152          5
   154         22
   155          8
   168         46
   169         10
   182         36
   183          8
   196         30
   197          7
   210         24
   211          6
   224         25
   225          6
   238         40
   239         10
   250          5
   252         10
   264         10
   265          5
   278         25
   279          7
   292         83
   293         22
   306        100
   307         20
   320         10
   333          8
   334         18
   335        300
   336         70
   337         10