##TITLE=Library Entry 24542
##JCAMP-DX=Revision 4.10 
##DATA TYPE=MASS SPECTRUM
##SAMPLE DESCRIPTION=EP-1259
##NAMES=HP
##CAS NAME=Hexadecanoic acid, 2-[(1-oxododecyl)oxy]-1,3-propanediyl ester
##MOLFORM=C47H90O6
##CAS REGISTRY NO=56599-90-7
##MP= -300
##BP= -300
##MW= 750
##$RETENTION INDEX=0
##$CONDENSED SPECTRUM=NO
##NPOINTS= 488
##XYDATA=(XY..XY) 1 
    26          5
    27         57
    28         20
    29        183
    30          5
    31          8
    32          1
    36          1
    37          1
    38          2
    39         36
    40          9
    41        383
    42         87
    43        866
    44         30
    45         24
    46          1
    47          1
    48          1
    50          1
    51          2
    52          1
    53         17
    54         44
    55        526
    56        117
    57        999
    58         50
    59         21
    60        307
    61         77
    62          4
    63          1
    64          1
    65          3
    66          5
    67         97
    68         50
    69        353
    70         80
    71        539
    72         34
    73        353
    74         37
    75          6
    76          1
    77          3
    78          3
    79         22
    80         13
    81        127
    82         50
    83        283
    84        203
    85        377
    86         29
    87         57
    88          9
    89          2
    91          5
    92          2
    93         22
    94         12
    95        180
    96         47
    97        207
    98        323
    99         87
   100         38
   101         39
   102         12
   103          3
   104          1
   105          3
   106          2
   107         19
   108          8
   109        107
   110         26
   111         97
   112        110
   113         57
   114          9
   115         50
   116         45
   117         23
   118          2
   119          3
   120          2
   121         26
   122          6
   123         47
   124         14
   125         37
   126         28
   127         53
   128          5
   129        123
   130         13
   131          3
   132          1
   133          2
   134          3
   135         19
   136          6
   137         19
   138         15
   139         21
   140         14
   141         16
   142          5
   143         17
   144          4
   145          2
   146          1
   147          2
   148          1
   149          9
   150          3
   151          8
   152          8
   153         12
   154         14
   155         14
   156          5
   157         36
   158        137
   159         19
   160          3
   161          2
   162          1
   163          8
   164          3
   165          9
   166          6
   167          6
   168          8
   169         10
   170         10
   171        230
   172         35
   173          6
   174          1
   175          1
   176          1
   177          3
   178          2
   180          4
   181         11
   182         21
   183        666
   184         90
   185         67
   186         12
   187          3
   188          1
   189          1
   190          1
   191          2
   192          2
   193          2
   194          9
   195          6
   196          8
   197         11
   198          5
   199         23
   200          8
   201          5
   202          1
   203          1
   204          1
   205          1
   206          1
   207          2
   208          2
   209          5
   210          3
   211         10
   212          6
   213         77
   214         15
   215          3
   216          1
   217          1
   218          1
   219          5
   220          3
   221          5
   222          2
   223          2
   224          6
   225         13
   226          3
   227         83
   228         15
   229          3
   230          1
   231          1
   233          1
   234          1
   235          2
   236          8
   237         13
   238         43
   239        443
   240         83
   241         31
   242          7
   243          3
   244          1
   245          1
   246          1
   247          1
   248          1
   249          1
   250          1
   251          2
   252          5
   253         12
   254          6
   255         45
   256         39
   257        187
   258         34
   259          5
   260          1
   261          1
   262          1
   263          1
   264          1
   265          3
   266          2
   267         11
   268          4
   269         33
   270          8
   271          2
   273          1
   274          1
   275          6
   276          2
   277          1
   278          1
   279          1
   280         15
   281         13
   282          4
   283         21
   284          5
   285          2
   286          1
   287          1
   288          1
   289          1
   290          1
   291          1
   292          2
   293          2
   294          4
   295          7
   296          5
   297         22
   298         53
   299         42
   300          8
   301          1
   302          1
   303          1
   304          1
   305          1
   306          1
   307          4
   308          7
   309          6
   310        330
   311         80
   312        283
   313         60
   314         10
   315          2
   316          2
   317          1
   318          1
   319          1
   320          1
   321          1
   322          4
   323          2
   324         33
   325          9
   326          3
   327          1
   328          1
   329          1
   330          9
   331          2
   332          1
   333          1
   334          1
   335          1
   336          4
   337          3
   338         23
   339          7
   340          4
   341          1
   342          1
   349          1
   350          1
   351          2
   352          2
   353         38
   354         87
   355         53
   356         11
   357          3
   358          1
   359          1
   360          1
   363          1
   364          1
   365          6
   366          4
   367        666
   368        163
   369         28
   370          4
   371          1
   372          1
   373          2
   374          1
   375          1
   376          1
   377          1
   378          1
   379          2
   380          3
   381         45
   382         14
   383          3
   384          1
   385          1
   386          1
   391          1
   392          1
   393          4
   394          2
   395         34
   396         13
   397          3
   398          1
   399          1
   400          1
   401          1
   402          1
   403          1
   407          2
   408          2
   409         83
   410         27
   411          6
   412          2
   413          1
   414          2
   415          1
   419          1
   420          3
   421          4
   422          3
   423        143
   424         53
   425         11
   426          2
   427          1
   428          1
   435          1
   436          1
   437         33
   438         14
   439          4
   440          1
   441          1
   442          1
   443          1
   444          1
   445          1
   446          1
   447          1
   448          1
   449          2
   450          2
   451        117
   452         42
   453          9
   454          1
   455          1
   456          1
   463          1
   464          1
   465         57
   466         25
   467          7
   468          1
   469          1
   470          1
   476          1
   477          1
   478          1
   479         19
   480          8
   481         17
   482          6
   483          1
   484          1
   491          1
   492          3
   493         32
   494        117
   495        443
   496        153
   497         31
   498          5
   499          1
   507         31
   508         13
   509          4
   510          1
   511          1
   512          1
   513          1
   514          1
   521         13
   522          7
   523          3
   524          1
   535          3
   536          8
   537          3
   538          1
   539          6
   540          2
   541          1
   548          2
   549         14
   550         42
   551        140
   552         53
   553         13
   554          3
   555          1
   563          1
   564          4
   565          2
   566          1
   567          1
   577          1
   578          2
   579          1
   580          1
   592          9
   593          4
   594          1
   595          6
   596          3
   597          1
   605          1
   606          1
   607          1
   610          2
   611          1
   620          2
   621          1
   634          2
   635          1
   648          2
   649          1
   662          1
   663          1
   676          1
   677          1
   690          1
   732          2
   733          1
   734          1
   749          1
   750          1