##TITLE=Library Entry 24558
##JCAMP-DX=Revision 4.10 
##DATA TYPE=MASS SPECTRUM
##SAMPLE DESCRIPTION=R.T.HOLMAN,UNIVERSITY OF MINNESOTA
##NAMES=HP
##CAS NAME=9-Octadecenoic acid, 2-(octadecyloxy)ethyl ester
##MOLFORM=C38H74O3
##CAS REGISTRY NO=56599-42-9
##MP= -300
##BP= -300
##MW= 578
##$RETENTION INDEX=0
##$CONDENSED SPECTRUM=NO
##NPOINTS= 324
##XYDATA=(XY..XY) 1 
    26         15
    27         62
    28         55
    29        176
    30         10
    31         18
    32          2
    38          7
    39         51
    40         20
    41        493
    42        127
    43        935
    44         57
    45         96
    46          7
    50         12
    51         12
    52         12
    53         33
    54        132
    55        831
    56        246
    57        999
    58         49
    59         33
    60         20
    61         28
    63         33
    64          7
    65         18
    66         28
    67        290
    68        228
    69        727
    70        197
    71        584
    72         41
    73         44
    74         18
    75         15
    76          7
    77         18
    78         12
    79         70
    80         62
    81        290
    82        389
    83        623
    84        218
    85        402
    86         70
    87         64
    88         25
    89         12
    91         33
    92         15
    93         51
    94         57
    95        264
    96        259
    97        467
    98        584
    99        332
   100         41
   101         33
   102         15
   103         10
   104         20
   105         44
   106         20
   107         44
   108         54
   109        158
   110        140
   111        215
   112        223
   113         90
   114         23
   115         18
   116         10
   117         18
   118         10
   119         25
   120         20
   121         64
   122         31
   123        135
   124        103
   125         98
   126         67
   127         62
   128         23
   129         23
   130         10
   131         12
   132         10
   133         33
   134         31
   135         57
   136         25
   137        158
   138         90
   139         49
   140         28
   141         80
   142         72
   143         18
   144          7
   145         12
   146         12
   147         31
   148         23
   149         33
   150         18
   151        124
   152         93
   153         46
   154         28
   155        155
   156         25
   157         18
   158          7
   159          5
   160         10
   161         18
   162         12
   163         20
   164         20
   165         70
   166         96
   167         36
   168         20
   169         67
   170         18
   171         15
   172          7
   173         12
   175         15
   176         10
   177         12
   178         15
   179         36
   180         64
   181         31
   182         15
   183         57
   184         28
   185         20
   186         10
   187         10
   188          7
   189         12
   190          7
   191         12
   192         10
   193         28
   194         25
   195         20
   196         18
   197         49
   198         23
   199         31
   200         23
   201         12
   202          5
   203         10
   204          7
   205         12
   206         10
   207         44
   208         25
   209         36
   210         20
   211         46
   212         46
   213         15
   216         12
   217         15
   218         10
   219         12
   220         36
   221         70
   222         46
   223         36
   224         15
   225         20
   226         38
   227         18
   229          7
   230         10
   231          5
   233         10
   234          7
   235         36
   236         25
   237         23
   238         10
   239         15
   240         15
   241         12
   242          7
   243          7
   244          7
   245         15
   246         36
   247         25
   248         12
   249         15
   250         62
   251         23
   252         15
   253         80
   254         23
   255          7
   256          7
   257          7
   258          5
   259         12
   260          7
   262         28
   263         46
   264        935
   265        327
   266         51
   267         33
   268         10
   269          7
   272          5
   273          5
   276         10
   277         10
   278         10
   279         18
   280         18
   281         36
   282         25
   283         18
   284         18
   285         25
   286         12
   287          5
   292          7
   293         12
   294         10
   295         12
   296         25
   297         51
   298         18
   299          7
   300          7
   301          5
   302          5
   305          7
   306         10
   307         41
   308        246
   309        306
   310         98
   311        124
   312         31
   313         54
   314         20
   315         18
   316         10
   317          5
   321          5
   322          5
   323          5
   324          5
   325          7
   326         12
   327         28
   328         12
   329          7
   330          5
   333         12
   334          5
   336          5
   338          5
   339         25
   340         10
   341         10
   342          7
   343          5
   351          5
   352          7
   353          5
   356         10
   357          7
   358          5
   359          5
   360          5
   369         20
   370         10
   371          5
   380          5
   381          5
   382          5
   389          5
   396          7
   397          5
   398          5
   408          7
   409          5
   410          5
   422          5
   423          7
   424          7
   425          7
   426          5
   427          5
   496          7
   497          5
   498          5
   517          7
   518          5
   548          7
   549          7
   550          5
   578        155
   579         70
   580         20
   581         12