##TITLE=Library Entry 19242
##JCAMP-DX=Revision 4.10 
##DATA TYPE=MASS SPECTRUM
##SAMPLE DESCRIPTION=R.T.HOLMAN,UNIVERSITY OF MINNESOTA
##NAMES=HP
##CAS NAME=10-Nonadecenoic acid, methyl ester
##MOLFORM=C20H38O2
##CAS REGISTRY NO=56599-83-8
##MP= -300
##BP= -300
##MW= 310
##$RETENTION INDEX=2212
##$CONDENSED SPECTRUM=NO
##NPOINTS= 242
##XYDATA=(XY..XY) 1 
    26          5
    27        115
    28         57
    29        304
    30          9
    31         27
    32          8
    33          2
    38          2
    39        101
    40         21
    41        758
    42        140
    43        594
    44         26
    45         37
    46          3
    50          1
    51          4
    52          5
    53         77
    54        241
    55        999
    56        256
    57        338
    58         20
    59        188
    60          8
    61          4
    62          1
    63          1
    64          1
    65         18
    66         18
    67        309
    68        207
    69        652
    70        188
    71        115
    72         14
    73         57
    74        584
    75         91
    76          9
    77         18
    78          7
    79         62
    80         40
    81        265
    82        193
    83        507
    84        376
    85         91
    86          8
    87        386
    88         38
    89          7
    90          3
    91         17
    92          5
    93         33
    94         41
    95        207
    96        338
    97        405
    98        299
    99         43
   100         10
   101         67
   102         10
   103          3
   104          3
   105         10
   106          5
   107         27
   108         28
   109        115
   110        178
   111        183
   112         72
   113         29
   114         42
   115         72
   116         13
   117          4
   118          3
   119         23
   120          9
   121         32
   122         16
   123        120
   124         96
   125        111
   126         24
   127         29
   128         51
   129         48
   130         14
   131          3
   132          2
   133         22
   134         19
   135         35
   136         13
   137         77
   138         77
   139         72
   140         13
   141         57
   142         15
   143         44
   144          8
   145          3
   146          1
   147         17
   148         14
   149         25
   150          9
   151         46
   152         57
   153         38
   154          8
   155         13
   156          4
   157         17
   158          4
   159          2
   160          1
   161         14
   162          6
   163         13
   164          7
   165         30
   166         31
   167         23
   168          5
   169         11
   170          5
   171         15
   172          4
   173          1
   174          1
   175          9
   176          4
   177          8
   178          8
   179         21
   180         39
   181         17
   182          4
   183         19
   184          3
   185         11
   186          3
   187          1
   188          1
   189          5
   190          2
   191          4
   192          3
   193         14
   194         96
   195         24
   196          5
   197         13
   198          3
   199         10
   200          3
   201          1
   203          3
   204          1
   205          2
   206          2
   207         14
   208         18
   209          6
   210          2
   211          3
   212          1
   213          9
   214          6
   215          1
   217          1
   218          1
   219          1
   220          2
   221         14
   222         13
   223          6
   224          3
   225          2
   226          1
   227          8
   228          5
   229          1
   231          1
   232          1
   233          1
   234         35
   235         28
   236        130
   237         28
   238          3
   239          1
   240          1
   241          3
   242          4
   243          1
   249         19
   250         18
   251          4
   252          1
   253          1
   254          1
   255          1
   256          1
   259          1
   260         15
   261         10
   262          1
   263          2
   264          1
   265          1
   267          7
   268          1
   269          1
   270          1
   277          5
   278        323
   279        154
   280         27
   281          5
   282          1
   283          1
   284          1
   292          2
   293          1
   308          1
   309          1
   310         56
   311         12
   312          1