##TITLE=Library Entry 92626
##JCAMP-DX=Revision 4.10 
##DATA TYPE=MASS SPECTRUM
##SAMPLE DESCRIPTION=R.T.HOLMAN,UNIVERSITY OF MINNESOTA
##NAMES=HP
##CAS NAME=1,3-Dioxepane, 5-methyl-2-pentadecyl-
##MOLFORM=C21H42O2
##CAS REGISTRY NO=56599-34-9
##MP= -300
##BP= -300
##MW= 326
##$RETENTION INDEX=0
##$CONDENSED SPECTRUM=NO
##NPOINTS= 86
##XYDATA=(XY..XY) 1 
    27          4
    28          2
    29          8
    31          4
    39          4
    40          2
    41         41
    42          8
    43         32
    44          4
    45          7
    53          4
    54          4
    55         29
    56         49
    57         33
    58          4
    59          2
    60          2
    65          2
    66          2
    67         11
    68          8
    69        309
    70         22
    71         14
    72          2
    73          2
    74          1
    79          2
    80          2
    81          9
    82          8
    83         12
    84          7
    85        140
    86          9
    87         35
    88          5
    89          2
    93          2
    94          1
    95          8
    96          5
    97          8
    98          4
    99          2
   100          1
   101          2
   102          1
   103          5
   104          2
   105          2
   109          4
   110          2
   111          4
   112          1
   113          2
   114          1
   115        999
   116         76
   117          7
   121          1
   123          2
   124          2
   125          2
   126          1
   130          7
   131          2
   132          1
   137          2
   138          1
   222          2
   223          2
   239          3
   240          2
   241          2
   256          2
   257          1
   278          1
   284          1
   295          1
   296          1
   298          2
   325          4
   326          2