##TITLE=Library Entry 50101
##JCAMP-DX=Revision 4.10 
##DATA TYPE=MASS SPECTRUM
##SAMPLE DESCRIPTION=R.T.HOLMAN,UNIVERSITY OF MINNESOTA
##NAMES=HP
##CAS NAME=6-Heptadecyne, 1-chloro-
##MOLFORM=C17H31Cl
##CAS REGISTRY NO=56599-59-8
##MP= -300
##BP= -300
##MW= 270
##$RETENTION INDEX=0
##$CONDENSED SPECTRUM=NO
##NPOINTS= 156
##XYDATA=(XY..XY) 1 
    36          9
    38          8
    39        140
    40         32
    41        636
    42         80
    43        438
    44         19
    45          5
    49         13
    50          9
    51         30
    52         54
    53        165
    54        710
    55        619
    56         83
    57        165
    58         10
    59          4
    60         12
    61          9
    62          5
    63         28
    64          7
    65         77
    66         52
    67        925
    68        264
    69        388
    70         50
    71         49
    72          5
    73          8
    74          5
    75         18
    76          5
    77        107
    78         31
    79        239
    80         93
    81        999
    82        479
    83        272
    84         30
    85         23
    86          4
    87          6
    88         17
    89         17
    90          9
    91         99
    92         19
    93        128
    94         52
    95        702
    96        330
    97        107
    98         14
    99          4
   100          4
   101          9
   102         16
   103         23
   104         23
   105         37
   106         11
   107         59
   108         55
   109        297
   110         72
   111         28
   112          7
   113          4
   114          4
   115         15
   116         24
   117         21
   118         13
   119         11
   120          5
   121         25
   122         14
   123         78
   124         29
   125         12
   126          5
   127          4
   128          6
   129         52
   130         27
   131         24
   132         13
   133          7
   134          4
   135         26
   136          8
   137         26
   138         23
   139          8
   140          4
   141          6
   142          4
   143         50
   144         42
   145         27
   146         18
   147         24
   148          5
   149         27
   150          7
   151         36
   152         32
   153          7
   154          4
   155          9
   156          4
   157         28
   158         38
   159         14
   160         14
   161          4
   163          8
   164          5
   165         62
   166         19
   167          7
   171         66
   172         19
   173         25
   174          9
   175          4
   176          4
   177          4
   178          4
   179         11
   180          6
   181          4
   185        103
   186         58
   187         40
   188         20
   189          4
   193          5
   197          9
   199         23
   200         14
   201         12
   202          7
   213          6
   214          5
   215          4
   235          9
   270          8
   271          4
   272          6