##TITLE=Library Entry 27421
##JCAMP-DX=Revision 4.10 
##DATA TYPE=MASS SPECTRUM
##SAMPLE DESCRIPTION=R.T.HOLMAN,UNIVERSITY OF MINNESOTA
##NAMES=HP
##CAS NAME=9-Octadecene, 1-[2-(octadecyloxy)ethoxy]-
##MOLFORM=C38H76O2
##CAS REGISTRY NO=56599-41-8
##MP= -300
##BP= -300
##MW= 564
##$RETENTION INDEX=0
##$CONDENSED SPECTRUM=NO
##NPOINTS= 357
##XYDATA=(XY..XY) 1 
    25          5
    26         12
    27         39
    28        191
    29         93
    30          9
    31         12
    32         30
    33          8
    36         10
    38         12
    39         43
    40         19
    41        328
    42         71
    43        643
    44         68
    45         84
    46          6
    47          8
    48          6
    49          8
    50         10
    51         16
    52         12
    53         32
    54        149
    55        767
    56        198
    57        999
    58         56
    59         27
    60         38
    61         15
    63        205
    64         12
    65         19
    66         45
    67        356
    68        287
    69        712
    70        161
    71        684
    72         46
    73         43
    74          8
    75         36
    76          9
    77         24
    78         19
    79         69
    80         69
    81        397
    82        739
    83        767
    84        127
    85        547
    86         36
    87         15
    88         13
    89         15
    90          5
    91         36
    92         17
    93         46
    94         47
    95        424
    96        671
    97        630
    98        127
    99        184
   100         16
   101         32
   102         10
   103          9
   104          9
   105         23
   106         10
   107         50
   108         41
   109        301
   110        301
   111        342
   112         76
   113        117
   114         17
   115         26
   116         13
   117         19
   118          8
   119         19
   120         12
   121         52
   122         42
   123        205
   124        219
   125        134
   126         36
   127         98
   128         16
   129         24
   130         12
   131         12
   132         10
   133         15
   134          9
   135         69
   136         26
   137        149
   138        146
   139         69
   140         28
   141         84
   142         19
   143         15
   144          9
   145         10
   146          6
   147         10
   148         10
   149         61
   150         23
   151         69
   152         83
   153         45
   154         28
   155         64
   156         12
   157         16
   158          6
   159         10
   160          6
   161          8
   162          6
   163         17
   164         12
   165         49
   166         61
   167         41
   168         32
   169         61
   170         10
   171         12
   172          8
   173          9
   174          6
   175          6
   176          8
   177         12
   178         10
   179         30
   180         43
   181         28
   182         20
   183         50
   184         12
   185         36
   186          9
   187          8
   188          6
   189          9
   190          9
   191         16
   192         12
   193         35
   194         54
   195         38
   196         13
   197         35
   198         10
   199          9
   200          6
   201         10
   202         15
   203         15
   204         15
   205         12
   206         10
   207         28
   208         53
   209         21
   210         32
   211         26
   212          6
   213         10
   214          6
   215          9
   216          9
   217         26
   218         35
   219         83
   220         24
   221         20
   222         60
   223         20
   224         16
   225         10
   226          6
   227          9
   228          6
   229         10
   230          5
   231          6
   232          6
   233          6
   234          9
   235         10
   236         10
   237         10
   238          9
   239         13
   240          9
   241         12
   242          6
   243          6
   244          8
   245          6
   246          8
   247          6
   248         27
   249         34
   250        849
   251        219
   252         42
   253        121
   254         32
   255          9
   256          9
   257          8
   258          6
   259          6
   260          5
   261          6
   262          6
   263         20
   264         21
   265         13
   266         64
   267        246
   268         50
   269         24
   270          8
   271          5
   273          5
   274          5
   275          5
   276          5
   277          5
   278          9
   279         12
   280         10
   281         67
   282         17
   283         15
   284         12
   285          9
   286          6
   287          5
   288          5
   289          5
   290          5
   291          6
   292          6
   293          6
   294         10
   295          9
   296         10
   297         13
   298          6
   299          8
   300          5
   301          5
   303          5
   304          5
   305          5
   306          5
   307          5
   308          6
   309          9
   310          6
   311         17
   312         28
   313        452
   314        106
   315        232
   316         45
   317          9
   318          5
   319          5
   322          8
   323          6
   324          9
   325         71
   326         23
   327         12
   328          6
   329          5
   330          5
   333          4
   334          5
   335          5
   336          5
   337          6
   338          5
   339          6
   340          5
   341          9
   342          5
   343          4
   350          4
   351          4
   352          9
   353         17
   354          6
   355          4
   367          6
   368          5
   369          4
   370          4
   379          4
   380          6
   381          5
   382          4
   383          4
   384          4
   385          4
   389          5
   390          4
   391          4
   392          4
   393          6
   394          4
   395          5
   396          5
   397          4
   408          5
   409          4
   410          6
   411          5
   412          4
   423          6
   424          5
   425          4
   426          4
   469          6
   470          5
   480          4
   481          4
   495          8
   496          5
   502          6
   562          6
   563          5
   564         93
   565         36
   566         12
   567          5