##TITLE=Library Entry 90453
##JCAMP-DX=Revision 4.10 
##DATA TYPE=MASS SPECTRUM
##SAMPLE DESCRIPTION=R.T.HOLMAN,UNIVERSITY OF MINNESOTA
##NAMES=HP
##CAS NAME=Pyrrolidine, 1-(1-oxo-12-octadecenyl)-
##MOLFORM=C22H41NO
##CAS REGISTRY NO=56599-74-7
##MP= -300
##BP= -300
##MW= 335
##$RETENTION INDEX=0
##$CONDENSED SPECTRUM=NO
##NPOINTS= 82
##XYDATA=(XY..XY) 1 
    38          7
    39         52
    40         11
    41        271
    42        135
    43        290
    44         27
    49         11
    51          6
    53         25
    54         52
    55        414
    56        113
    57        101
    58          8
    65          6
    67         74
    68         37
    69        160
    70        286
    71        160
    72        125
    73          8
    75          9
    77         10
    79         14
    80          6
    81         38
    82         13
    83         37
    84         19
    85        101
    86          9
    91          5
    93          6
    95         21
    96         11
    97         18
    98        145
    99         23
   100          5
   109          7
   110          7
   111          8
   112         29
   113        999
   114         84
   115          6
   124          5
   126        465
   127        121
   128          9
   140         67
   141         16
   154         25
   155         11
   168         64
   169         11
   182         45
   183          8
   196         30
   197          6
   210         31
   211          6
   224         51
   225          9
   238         12
   250          9
   264         26
   265          8
   278        104
   279         25
   292        114
   293         26
   306         33
   307          8
   320          7
   333          8
   334         22
   335        352
   336         89
   337         11