##TITLE=Library Entry 7651
##JCAMP-DX=Revision 4.10 
##DATA TYPE=MASS SPECTRUM
##SAMPLE DESCRIPTION=R.T.HOLMAN,UNIVERSITY OF MINNESOTA
##NAMES=HP
##CAS NAME=Octadecanal, 2-bromo-
##MOLFORM=C18H35BrO
##CAS REGISTRY NO=56599-95-2
##MP= -300
##BP= -300
##MW= 346
##$RETENTION INDEX=0
##$CONDENSED SPECTRUM=NO
##NPOINTS= 312
##XYDATA=(XY..XY) 1 
    25          6
    26         30
    27        208
    28        404
    29        416
    30         13
    31         21
    32         13
    33          3
    34          2
    35          4
    36         14
    37          6
    38          8
    39        130
    40         33
    41        815
    42        190
    43        999
    44        125
    45         53
    46          5
    47          5
    48          4
    49          4
    50          5
    51         11
    52          8
    53         59
    54        119
    55        720
    56        208
    57        922
    58         63
    59         17
    60         14
    61         17
    62          4
    63          5
    64         13
    65         14
    66         44
    67        309
    68        220
    69        386
    70        226
    71        315
    72         46
    73         40
    74         10
    75          7
    76          3
    77         19
    78         10
    79         52
    80         59
    81        297
    82        357
    83        410
    84        125
    85        178
    86         39
    87         12
    88          7
    89          5
    90          2
    91         17
    92          6
    93         48
    94         35
    95        303
    96        250
    97        285
    98        142
    99         41
   100         27
   101          8
   102          5
   103          5
   104          4
   105         10
   106          8
   107         29
   108         25
   109        184
   110         89
   111        130
   112        107
   113         54
   114        113
   115         11
   116         30
   117          4
   118          3
   119          7
   120          5
   121         39
   122        119
   123        101
   124        119
   125         49
   126         23
   127         13
   128          9
   129         14
   130          3
   131          4
   132          2
   133          9
   134          5
   135         33
   136         18
   137         55
   138         35
   139         19
   140         13
   141         11
   142          6
   143          5
   144          2
   145          4
   146          4
   147         10
   148          5
   149         22
   150         10
   151         22
   152         22
   153         16
   154         11
   155          8
   156          2
   157          4
   158          1
   159          3
   160          4
   161          8
   162          5
   163         21
   164         10
   165         15
   166         23
   167         14
   168         13
   169          6
   170          4
   171          3
   172          2
   173          3
   174          3
   175          4
   176          4
   177         14
   178          6
   179         14
   180          1
   181         10
   182         12
   183          5
   184          4
   185          6
   186          2
   187          2
   188          2
   189          5
   190          4
   191         10
   192          4
   193         13
   194         14
   195          8
   196          9
   197          4
   198          2
   199          3
   200          2
   201          2
   202          2
   203          4
   204          4
   205          7
   206          4
   207         50
   208         15
   209          9
   210          8
   211          6
   212          4
   213          2
   214          2
   215          2
   216          3
   217          5
   218          6
   219         19
   220         10
   221          5
   222         29
   223         11
   224         54
   225         14
   226          3
   227          2
   228          2
   229          2
   230          3
   231          3
   232          2
   233          4
   234          3
   235          5
   236          4
   237          4
   238          4
   239          3
   240          5
   241          4
   242          1
   243          1
   244          2
   245          2
   246          3
   247          4
   248         23
   249         51
   250         44
   251         10
   252          3
   253          4
   254          2
   255          2
   256          2
   257          2
   258          4
   259          2
   260          4
   261          2
   262          2
   263          2
   264          5
   265          3
   266         21
   267         30
   268         10
   269          3
   270          5
   271          2
   272          2
   273          2
   274          4
   275          2
   276          2
   277          2
   278          2
   279          2
   280          2
   281         14
   282          7
   283          3
   284          5
   285          4
   286          2
   287          2
   288          2
   289          1
   290          2
   291          1
   292          1
   293          1
   294          1
   295          1
   296          1
   297          1
   298          2
   299          1
   300          1
   301          1
   302          1
   303          1
   304          1
   305          1
   306          1
   307          1
   308          1
   309          1
   310          1
   311          2
   312          2
   313          1
   314          2
   319          1
   320          1
   321          1
   326          2
   327          2
   328          4
   329          1
   330          3
   331          1
   332          1
   341          2
   342          1
   343          1
   344          1
   345          1
   346         15
   347          4
   348         14
   349          4
   350          1
   351          1
   352          1