##TITLE=Library Entry 47308
##JCAMP-DX=Revision 4.10 
##DATA TYPE=MASS SPECTRUM
##SAMPLE DESCRIPTION=NIST Mass Spectrometry Data Center
##NAMES=HP
##CAS NAME=Dimethylmalonyl chloride
##MOLFORM=C5H6Cl2O2
##CAS REGISTRY NO=5659-93-8
##MP= -300
##BP= -300
##MW= 168
##$RETENTION INDEX=915
##$CONDENSED SPECTRUM=NO
##NPOINTS= 63
##XYDATA=(XY..XY) 1 
    14          1
    15          5
    24          1
    25          4
    26         18
    27         38
    28          6
    29          6
    35         17
    36          6
    37         29
    38         43
    39        228
    40         50
    41        544
    42        160
    43         11
    47          6
    48          2
    49         34
    50         11
    51         17
    52          4
    53         32
    54          8
    55         13
    56          1
    59          1
    60          3
    61         22
    62          3
    63        148
    64          3
    65         45
    66          1
    67          1
    68          2
    69         41
    70        331
    71         16
    72          4
    73          4
    74          1
    75          8
    77        999
    78         38
    79        340
    80         11
    83         16
    84          1
    85          1
    87          1
    89          1
    97          4
    99          3
   103          1
   105          1
   117          1
   133        551
   134         32
   135        181
   136         10
   137          1