##TITLE=Library Entry 90448
##JCAMP-DX=Revision 4.10 
##DATA TYPE=MASS SPECTRUM
##SAMPLE DESCRIPTION=R.T.HOLMAN,UNIVERSITY OF MINNESOTA
##NAMES=HP
##CAS NAME=Pyrrolidine, 1-(1-oxo-15-octadecenyl)-
##MOLFORM=C22H41NO
##CAS REGISTRY NO=56599-71-4
##MP= -300
##BP= -300
##MW= 335
##$RETENTION INDEX=0
##$CONDENSED SPECTRUM=NO
##NPOINTS= 92
##XYDATA=(XY..XY) 1 
    39         30
    40          5
    41        220
    42         53
    43        180
    44         41
    45          5
    47          5
    49         11
    51          6
    53         22
    54         29
    55        330
    56         70
    57         43
    58          8
    65          6
    66          5
    67         58
    68         38
    69        157
    70        270
    71        130
    72        100
    73          6
    75          7
    77          7
    79         11
    80          6
    81         32
    82         17
    83         34
    84         18
    85         83
    86          9
    91          5
    93          5
    95         19
    96         11
    97         16
    98        120
    99         22
   100          6
   109          8
   110          8
   111         10
   112         29
   113        999
   114         88
   115          8
   116          6
   124          6
   125          5
   126        400
   127         86
   128         10
   140         65
   141         15
   152          5
   154         23
   155         11
   168         58
   182         36
   183         10
   196         26
   197          7
   210         35
   211          9
   224         44
   225          8
   238         26
   239          7
   252         29
   253          8
   264          5
   266         34
   267          9
   278          7
   280         11
   281          5
   292         15
   293          5
   306         28
   307          9
   320         33
   321         21
   322          6
   333          8
   334         22
   335        313
   336         85
   337         13