##TITLE=Library Entry 90550
##JCAMP-DX=Revision 4.10 
##DATA TYPE=MASS SPECTRUM
##SAMPLE DESCRIPTION=R.T.HOLMAN,UNIVERSITY OF MINNESOTA
##NAMES=HP
##CAS NAME=Pyrrolidine, 1-(1-oxo-14-octadecenyl)-
##MOLFORM=C22H41NO
##CAS REGISTRY NO=56599-72-5
##MP= -300
##BP= -300
##MW= 335
##$RETENTION INDEX=0
##$CONDENSED SPECTRUM=NO
##NPOINTS= 90
##XYDATA=(XY..XY) 1 
    39         25
    40        120
    41        170
    42         40
    43        140
    44         70
    45          7
    53         17
    54         33
    55        330
    56         70
    57         37
    58          8
    59          5
    65          5
    66          5
    67         56
    68         32
    69        120
    70        220
    71        110
    72         90
    73          6
    75         11
    77         13
    78          5
    79         13
    80          5
    81         32
    82         14
    83         37
    84         17
    85         80
    86          6
    91          7
    93          6
    95         20
    96         11
    97         17
    98        120
    99         18
   100          6
   105         10
   109          7
   110         16
   111         16
   112         33
   113        999
   114         80
   115          7
   116         10
   122          6
   124          5
   126        410
   127         90
   128          9
   140         63
   141         17
   152          5
   154         24
   155         12
   168         56
   169         12
   182         38
   183          8
   196         36
   197          8
   210         40
   211          9
   224         31
   225          7
   238         33
   239          8
   252         45
   253         11
   266         12
   278         11
   279          5
   280          6
   292         36
   293          9
   306        110
   307         25
   320         38
   321         11
   333         11
   334         27
   335        400
   336        100
   337         15