##TITLE=Library Entry 89917
##JCAMP-DX=Revision 4.10 
##DATA TYPE=MASS SPECTRUM
##SAMPLE DESCRIPTION=R.T.HOLMAN,UNIVERSITY OF MINNESOTA
##NAMES=HP
##CAS NAME=Pyrrolidine, 1-(1-oxo-8-octadecenyl)-
##MOLFORM=C22H41NO
##CAS REGISTRY NO=56599-75-8
##MP= -300
##BP= -300
##MW= 335
##$RETENTION INDEX=0
##$CONDENSED SPECTRUM=NO
##NPOINTS= 98
##XYDATA=(XY..XY) 1 
    38         10
    39         62
    40         30
    41        260
    42        110
    43        670
    44         50
    45          7
    49          8
    50          5
    51          8
    53         24
    54         46
    55        330
    56        110
    57         70
    58         10
    59          5
    64          5
    65          8
    66          6
    67         80
    68         50
    69        110
    70        600
    71        140
    72        150
    73         10
    75          8
    77         10
    79         18
    80          9
    81         36
    82         16
    83         33
    84         10
    85        180
    86         10
    87          6
    91          8
    93          9
    95         25
    96          8
    97         13
    98        160
    99         28
   100          7
   105          5
   110         17
   111         17
   112         40
   113        999
   114         80
   115          7
   116         10
   124         10
   125         10
   126        520
   127        110
   128         10
   140         50
   141         10
   151         10
   153         20
   154         10
   166         10
   168        130
   169         20
   180         10
   182         40
   194         10
   195          5
   208         40
   209         10
   210          5
   222         80
   223         20
   224          5
   236         60
   237         10
   238          6
   250         27
   251          6
   252          5
   264         16
   265          7
   266          5
   278         15
   279          5
   292         18
   293          6
   306         11
   320          6
   333          6
   334         17
   335        180
   336         43
   337          7