##TITLE=Library Entry 32771
##JCAMP-DX=Revision 4.10 
##DATA TYPE=MASS SPECTRUM
##SAMPLE DESCRIPTION=R.T.HOLMAN,UNIVERSITY OF MINNESOTA
##NAMES=HP
##CAS NAME=8,11-Octadecadienoic acid, methyl ester
##MOLFORM=C19H34O2
##CAS REGISTRY NO=56599-58-7
##MP= -300
##BP= -300
##MW= 294
##$RETENTION INDEX=2112
##$CONDENSED SPECTRUM=NO
##NPOINTS= 225
##XYDATA=(XY..XY) 1 
    26          9
    27        116
    28         88
    29        251
    30          9
    31         11
    38          7
    39        128
    40         29
    41        650
    42         92
    43        319
    44         30
    45         29
    46          3
    47          3
    48          5
    49          4
    50          4
    51         11
    52         14
    53        122
    54        411
    55        631
    56         67
    57        104
    58          9
    59        153
    60         12
    61          6
    62          4
    63          5
    64          6
    65         49
    66         59
    67        999
    68        460
    69        417
    70         49
    71         52
    72          6
    73         44
    74        128
    75         17
    76          3
    77        147
    78         52
    79        392
    80        251
    81        785
    82        447
    83        208
    84         42
    85         68
    86          5
    87         88
    88          9
    89          5
    90          4
    91        116
    92         23
    93        177
    94        184
    95        595
    96        355
    97        128
    98         42
    99         20
   100          8
   101         25
   102          7
   103          6
   104          9
   105         36
   106         26
   107        110
   108        153
   109        319
   110        220
   111         63
   112         14
   113         19
   114         12
   115         39
   116          7
   117         14
   118         11
   119         31
   120         22
   121        104
   122        104
   123        141
   124        141
   125         28
   126         11
   127         22
   128         14
   129         28
   130          7
   131         27
   132         13
   133         33
   134         13
   135        134
   136        104
   137        110
   138         74
   139         25
   140         17
   141         25
   142          6
   143         21
   144          3
   145         15
   146          9
   147         16
   148          6
   149         85
   150        159
   151         59
   152         44
   153         16
   154         17
   155         14
   156          4
   157          9
   158          3
   159         19
   160          9
   161         14
   162          4
   163         56
   164         98
   165         28
   166         28
   167         17
   168         22
   169          9
   170          3
   171          9
   172          3
   173         22
   174          4
   175          7
   176          5
   177         34
   178         54
   179         23
   180         13
   181         15
   182         16
   183          6
   184          3
   185          7
   186          3
   187         10
   188          6
   189          3
   190          3
   191         20
   192         11
   193         11
   194          6
   195         11
   196         11
   197          6
   198          3
   199          4
   200          2
   201          4
   203          3
   204          3
   205         11
   206          7
   207          7
   208          6
   209         15
   210         11
   211          4
   212          2
   213          3
   214          2
   215          3
   216          2
   217          2
   218          9
   219          9
   220         45
   221          9
   222          2
   223          9
   224          8
   225          3
   226          2
   227          3
   228          3
   229          3
   232          3
   233          9
   234         14
   235          6
   236          3
   237          7
   238          4
   244          3
   245          5
   246          3
   247          2
   248          2
   249          2
   250          2
   251          6
   252          3
   253          3
   259          4
   262         61
   263        110
   264         17
   265          6
   266          3
   293          3
   294        220
   295         46
   296          8
   297          2