##TITLE=Library Entry 32456
##JCAMP-DX=Revision 4.10 
##DATA TYPE=MASS SPECTRUM
##SAMPLE DESCRIPTION=R.T.HOLMAN,UNIVERSITY OF MINNESOTA
##NAMES=HP
##CAS NAME=11-Octadecynenitrile
##MOLFORM=C18H31N
##CAS REGISTRY NO=56599-92-9
##MP= -300
##BP= -300
##MW= 261
##$RETENTION INDEX=0
##$CONDENSED SPECTRUM=NO
##NPOINTS= 178
##XYDATA=(XY..XY) 1 
    26         12
    27        261
    28        128
    29        441
    30         29
    31          3
    36          2
    37          3
    38          6
    39        230
    40         57
    41        969
    42        153
    43        430
    44         25
    45          6
    50          9
    51         42
    52        102
    53        251
    54        876
    55        846
    56         97
    57         76
    58          8
    59          2
    60          3
    61          1
    62          2
    63         11
    64          7
    65         97
    66         87
    67        999
    68        784
    69        374
    70         50
    71         15
    72          3
    73          4
    74          3
    75          5
    76          3
    77        128
    78         35
    79        261
    80        112
    81        938
    82        605
    83        179
    84         25
    85          5
    86          1
    87          2
    88          1
    89          2
    90          1
    91         92
    92         15
    93        102
    94         71
    95        671
    96        389
    97         89
    98         13
    99          2
   101          2
   102          1
   103          5
   104          4
   105         26
   106         35
   107         66
   108         54
   109        266
   110        117
   111         16
   112          4
   113          2
   114          1
   115          4
   116          2
   117          8
   118          5
   119         15
   120         60
   121         46
   122         56
   123         71
   124        235
   125         23
   126          2
   127          1
   128          2
   129          3
   130          3
   131         11
   132          7
   133         12
   134        128
   135         50
   136         42
   137         27
   138         53
   139          6
   140          3
   141          2
   142          1
   143          2
   144          2
   145         13
   146          6
   147          9
   148        123
   149         48
   150         33
   151         15
   152          6
   153          2
   154          1
   155          1
   156          1
   157          1
   158          1
   159          9
   160          5
   161          5
   162        128
   163         38
   164         24
   165          8
   166          3
   167          1
   168          1
   173          3
   174          3
   175          3
   176         87
   177         20
   178          7
   179          3
   180          2
   186          1
   187          1
   188          2
   189          2
   190         41
   191         51
   192         13
   193          3
   194          1
   195          1
   201          1
   202          1
   203          1
   204         30
   205         76
   206         13
   207          3
   208          1
   209          1
   216          1
   217          1
   218         20
   219          5
   220          6
   221          2
   222          1
   223          1
   232         17
   233          5
   234          1
   246          3
   247          1
   260          3
   261          5
   262          2
   263          1