##TITLE=Library Entry 13798
##JCAMP-DX=Revision 4.10 
##DATA TYPE=MASS SPECTRUM
##SAMPLE DESCRIPTION=Exported from NIST MS Search
##NAMES=HP
##CAS NAME=Pregnane-11,20-dione, 3-hydroxy-, (3.beta.,5.beta.)-
##MOLFORM=C21H32O3
##CAS REGISTRY NO=566-00-7
##MP= -300
##BP= -300
##MW= 332
##$RETENTION INDEX=0
##$CONDENSED SPECTRUM=NO
##NPOINTS= 123
##XYDATA=(XY..XY) 1 
    41        271
    43        999
    44         34
    45         18
    53         89
    55        282
    57         50
    65         18
    66         10
    67        250
    68         71
    69        110
    71        110
    77        118
    78         21
    79        279
    80         60
    81        364
    82         42
    83         68
    84         63
    85        311
    86         10
    91        242
    92         42
    93        332
    94        131
    95        258
    96         63
    97         42
    98         21
   105        208
   106        100
   107        319
   108        406
   109        253
   110         31
   111         39
   117         26
   118        102
   119        121
   120         71
   121        184
   122        131
   123        118
   124         60
   125         31
   131         68
   132         10
   133        137
   134         50
   135        182
   136         60
   137         50
   138         13
   143         10
   144         10
   145         60
   146         21
   147        197
   148         71
   149         84
   150         10
   151         50
   157         31
   159        100
   160         31
   161         52
   162         13
   163         21
   165         21
   166         13
   171         10
   173         79
   174          7
   175         87
   176          7
   177        137
   178        211
   179         21
   185         13
   187         10
   188         42
   189         18
   190         21
   191        300
   192         31
   193        182
   194          7
   199          7
   201         21
   203         10
   204         21
   205          5
   206        269
   207         42
   208         21
   219        783
   220        118
   221         42
   229         18
   238         21
   239         10
   243         29
   244         10
   245         10
   247          7
   253        100
   254         15
   255         10
   259         21
   260         31
   261         18
   281         15
   296        158
   297         26
   299         47
   314         68
   315          7
   317         15
   332        432
   333         95
   334         21