##TITLE=Library Entry 14537
##JCAMP-DX=Revision 4.10 
##DATA TYPE=MASS SPECTRUM
##SAMPLE DESCRIPTION=DENNIS H SMITH DEPT OF CHEM STANFORD UNIV STANFORD CALI
F 9430
##NAMES=HP
##CAS NAME=21-Acetoxypregnenolone
##MOLFORM=C23H34O4
##CAS REGISTRY NO=566-78-9
##MP= -300
##BP= -300
##MW= 374
##$RETENTION INDEX=0
##$CONDENSED SPECTRUM=NO
##NPOINTS= 117
##XYDATA=(XY..XY) 1 
    41        208
    43        999
    53         56
    55        346
    57         63
    65         30
    67        220
    68         18
    69         68
    73        103
    77        118
    78         23
    79        237
    80         31
    81        392
    82         21
    83         55
    85         17
    87         20
    91        299
    92         58
    93        279
    94         51
    95        197
    96         14
    97         20
   101         81
   103         16
   104         18
   105        298
   106         58
   107        318
   108         58
   109        109
   111         14
   115         26
   116         21
   117         95
   118         33
   119        191
   120         91
   121        188
   122         35
   123         71
   125         26
   128         25
   129         61
   130         29
   131        153
   132         31
   133        312
   134         45
   135        169
   136         20
   137         40
   141         21
   143         99
   144         31
   145        325
   146         48
   147        288
   148         53
   149         77
   151         25
   153         18
   155         20
   157         83
   158         31
   159        321
   160         53
   161        137
   162         12
   163         80
   169         20
   170         15
   171         41
   173         70
   174         14
   175         62
   177         23
   183         21
   185         56
   187         25
   189         17
   197         18
   199         62
   201         13
   203         39
   211         34
   213        113
   214         21
   215         18
   221         23
   227         15
   229         13
   239         17
   253         12
   255        855
   262         15
   264         13
   271         13
   273         78
   281         40
   283         36
   289         59
   296         13
   299         29
   301        857
   302        194
   312         19
   314         15
   341         53
   356        139
   357         30
   359         20
   372         12
   374        263