##TITLE=Library Entry 7344
##JCAMP-DX=Revision 4.10 
##DATA TYPE=MASS SPECTRUM
##SAMPLE DESCRIPTION=LAC, NIDDK, NIH, Bethesda, MD 20892
##NAMES=HP
##CAS NAME=Allopregnane-3.beta.,7.alpha.-diol-20-one
##MOLFORM=C21H34O3
##CAS REGISTRY NO=566-20-1
##MP= -300
##BP= -300
##MW= 334
##$RETENTION INDEX=0
##$CONDENSED SPECTRUM=NO
##NPOINTS= 193
##XYDATA=(XY..XY) 1 
    41        123
    43        999
    45         52
    47          4
    48          2
    49         13
    51          8
    53         53
    55        157
    57         75
    58          9
    59          2
    65         15
    67         99
    68         20
    69         48
    70         10
    71         90
    72          1
    73          2
    77         45
    79        144
    81        153
    83         28
    84         49
    85         23
    86          3
    87          2
    91         97
    92          5
    93         80
    94         10
    95         90
    96          7
    97         18
    99         13
   100          1
   103          4
   104          0
   105         75
   106         23
   107         97
   108         50
   109         48
   110          1
   111          9
   113          0
   115          9
   117         32
   118          9
   119         38
   120         26
   121         35
   122         12
   123         20
   124          4
   125          7
   127          2
   128          2
   129          9
   130          4
   131         38
   132         27
   133         46
   134         19
   135         36
   136          1
   137         12
   138          5
   139          2
   141          5
   142          5
   143         19
   144         13
   145         39
   146          4
   147         36
   148          4
   149         15
   150          1
   151          8
   152          7
   153          1
   154          1
   155          3
   156          1
   157         16
   158          5
   159         28
   160          1
   161         40
   162          5
   163          8
   164          1
   165          2
   166          0
   169          3
   170          5
   171         15
   172          7
   173         13
   174          3
   175          7
   176          2
   177          0
   178         62
   179          1
   180          2
   181          2
   183          4
   184          1
   185         10
   186          4
   187         14
   189         10
   190         13
   191          5
   192          0
   193          0
   194          7
   195          2
   197          6
   198          1
   199         10
   200          1
   201          4
   202          2
   203          3
   204          3
   205          2
   207          3
   209          1
   211          2
   213         36
   214          7
   215         20
   216          2
   217          7
   218          8
   220          1
   221          0
   223          2
   225          6
   227          3
   228          9
   229          1
   230          3
   231         10
   232          7
   233         10
   235          1
   239          2
   240          3
   241          3
   243          6
   244          1
   246         13
   247          4
   249         10
   250          2
   251          3
   253          2
   255         15
   256          3
   257          3
   258         12
   259          4
   261          0
   264          9
   265          8
   269          2
   270          1
   271         32
   272          8
   273         12
   274          2
   276          2
   281          1
   283         15
   284          1
   288          0
   297          1
   298         13
   299          6
   301         18
   302          4
   315         17
   316         70
   317         15
   319          1
   332          2
   334          4
   335          1