##TITLE=Library Entry 12171
##JCAMP-DX=Revision 4.10 
##DATA TYPE=MASS SPECTRUM
##SAMPLE DESCRIPTION=H. Fales, LC, NHLBI, NIH, Bethesda, MD 20892
##NAMES=HP
##CAS NAME=Cholesta-4,6-dien-3-one
##MOLFORM=C27H42O
##CAS REGISTRY NO=566-93-8
##MP= -300
##BP= -300
##MW= 382
##$RETENTION INDEX=3161
##$CONDENSED SPECTRUM=NO
##NPOINTS= 203
##XYDATA=(XY..XY) 1 
    41        355
    43        999
    44         30
    51          4
    53         50
    55        325
    56         42
    57        272
    58         14
    65         27
    66         12
    67        136
    68         24
    69        149
    70         17
    71        120
    72          5
    77         64
    78         24
    79        130
    80         25
    81        220
    82         25
    83         95
    84          9
    85         28
    87          3
    90          3
    91        171
    92         25
    93        125
    94         27
    95        265
    96         26
    97         68
    98          4
    99          7
   102          4
   103         31
   104         26
   105        115
   106         24
   107        137
   108         30
   109        104
   110         14
   111         39
   112          3
   113          7
   115         79
   116         34
   117        107
   118         46
   119         72
   120         17
   121         74
   122         21
   123         36
   124         21
   125         17
   127         31
   128         61
   129         89
   130         36
   131        145
   132         56
   133        141
   134         33
   135         75
   136        467
   137         63
   138          8
   139          4
   141         43
   142         32
   143         73
   144         30
   145        108
   146         38
   147         88
   148         32
   149         46
   150          8
   151         14
   152         10
   153         18
   154         12
   155         50
   156         22
   157         51
   158         30
   159         79
   160        281
   161        146
   162         54
   163         53
   164          9
   165         22
   166         10
   167         19
   168         10
   169         30
   170         18
   171         42
   172         31
   173        102
   174        212
   175        157
   176         56
   177         20
   178          4
   179         12
   180          8
   181         20
   182          8
   183         27
   184         17
   185         38
   186         16
   187         39
   188         23
   189         20
   190         12
   191         16
   192          4
   193         35
   194         12
   195         18
   196          4
   197         15
   198         13
   199         27
   200         14
   201         32
   202         36
   203         11
   205          5
   206         15
   207         17
   208          3
   209         21
   210          4
   211         15
   212          9
   213         31
   214         20
   215         29
   216         11
   217          7
   219         21
   220          9
   223          4
   225         13
   226          8
   227         72
   228         27
   229         25
   230          8
   231          4
   237          3
   241         13
   242          5
   243          4
   244          3
   245          3
   246         21
   247        213
   248         43
   249          3
   251         14
   253          3
   254          3
   255         16
   256         37
   257         11
   258          8
   259         16
   260          3
   261         12
   267          3
   268          9
   269        152
   270         62
   271         12
   283          5
   297         24
   298          6
   311          4
   325          3
   326          3
   338         20
   339          9
   340          7
   354         15
   355          3
   364          4
   365          8
   367         58
   368         17
   381          4
   382        447
   383        138
   384         26