##TITLE=Library Entry 9780
##JCAMP-DX=Revision 4.10 
##DATA TYPE=MASS SPECTRUM
##SAMPLE DESCRIPTION=D.HENNEBERG, MAX-PLANCK INSTITUTE, MULHEIM, WEST GERMAN
Y
##NAMES=HP
##CAS NAME=5.alpha.-Dihydroprogesterone
##MOLFORM=C21H32O2
##CAS REGISTRY NO=566-65-4
##MP= -300
##BP= -300
##MW= 316
##$RETENTION INDEX=2665
##$CONDENSED SPECTRUM=NO
##NPOINTS= 250
##XYDATA=(XY..XY) 1 
    27         80
    28         24
    29        103
    30          2
    31          4
    36          2
    38          2
    39         74
    40          1
    41        377
    42         35
    43        999
    44         15
    45         32
    47          1
    50          0
    51         11
    52          8
    53        140
    54         35
    55        440
    56         25
    57         31
    58          9
    59          4
    63          3
    64          3
    65         62
    66         32
    67        327
    68        127
    69        159
    70         11
    71        281
    72         15
    73          3
    74          2
    75          5
    77        143
    78         27
    79        297
    80         92
    81        384
    82         46
    83         69
    84        605
    85        159
    86         14
    87          7
    88          2
    89          3
    90          3
    91        238
    92         42
    93        273
    94         96
    95        314
    96         36
    97         60
    98         17
    99         26
   100          3
   101         30
   102          6
   103         15
   104         13
   105        186
   106         60
   107        230
   108         64
   109        159
   110         41
   111         66
   112          9
   113          6
   115         17
   116         16
   117         51
   118         22
   119        142
   120         82
   121        198
   122        104
   123        177
   124        121
   125         31
   126          2
   127         12
   128         11
   129         23
   130         10
   131         64
   132         30
   133        105
   134         96
   135        165
   136         48
   137         51
   138         16
   139          4
   140          2
   141          6
   142          4
   143         27
   144         11
   145         64
   146         38
   147        170
   148         54
   149        100
   150         13
   151         13
   152          3
   153          5
   154          2
   155          5
   156          8
   157         29
   158         18
   159         82
   160         30
   161         81
   162         24
   163         98
   164         18
   165         16
   166          3
   167          4
   168          3
   169          7
   170          8
   171         26
   172         17
   173         64
   174         44
   175        100
   176         47
   177         23
   178          5
   179         11
   180          3
   181          4
   183         11
   184          3
   185         22
   186         12
   187         41
   188         23
   189         38
   190         16
   191         15
   192         15
   193         15
   194          6
   195          6
   197          7
   198          5
   199         25
   200         12
   201         31
   202         16
   203         36
   204         12
   205          4
   207          1
   208          3
   209          2
   210          3
   211         18
   212          7
   213         51
   214         12
   215         47
   216         21
   217         80
   218         18
   219          4
   223          4
   225         18
   226          7
   227         26
   228         18
   229         48
   230         34
   231        380
   232        115
   233        136
   234         29
   235          3
   236          2
   237          3
   238          5
   239          8
   240         14
   241         19
   242         14
   243         37
   244         38
   245         39
   246        114
   247         18
   251         10
   252          4
   253          7
   254          2
   255         62
   256         35
   257         25
   258        214
   259         58
   260         12
   261         10
   263          1
   264          1
   265          8
   266          5
   268          4
   269         82
   270         48
   271         85
   272        146
   273        116
   274         21
   275          2
   279          2
   281         16
   282          7
   283         79
   284         28
   285          7
   286          4
   287         31
   288         15
   289          1
   293          1
   296          2
   297          4
   298        312
   299         64
   300         17
   301         57
   302         66
   303         10
   304          2
   309          1
   315          3
   316        549
   317        142
   318         18
   319          4