##TITLE=Library Entry 14298
##JCAMP-DX=Revision 4.10 
##DATA TYPE=MASS SPECTRUM
##SAMPLE DESCRIPTION=LAC, NIDDK, NIH, Bethesda, MD 20892
##NAMES=HP
##CAS NAME=16-Allopregnen-3.beta.-ol-20-one
##MOLFORM=C21H32O2
##CAS REGISTRY NO=566-61-0
##MP= -300
##BP= -300
##MW= 316
##$RETENTION INDEX=0
##$CONDENSED SPECTRUM=NO
##NPOINTS= 232
##XYDATA=(XY..XY) 1 
    41        194
    43        999
    44         45
    47         10
    48          3
    49          5
    51          3
    52          6
    53         70
    55        192
    57         67
    58          2
    59          7
    63          2
    65         29
    66         11
    67        106
    68         16
    69         54
    70         11
    71         23
    73          3
    77         82
    78         23
    79        148
    80          9
    81        156
    83         38
    84         26
    85         16
    86         21
    87          4
    88          5
    89          2
    91        141
    92         21
    93        119
    94         28
    95         83
    96         14
    97         28
    98          9
    99         11
   100          6
   101          2
   103         12
   105        133
   106         36
   107        177
   108         40
   109         57
   110         11
   111         47
   112          3
   113          9
   114          4
   115         23
   116         11
   117         38
   118         10
   119         54
   120         17
   121         83
   122         28
   123         51
   124         21
   125         17
   126          5
   127          8
   128         12
   129         17
   130          8
   131         49
   132         14
   133         74
   134         25
   135         90
   136         25
   137         25
   138         11
   139         16
   140          4
   141         10
   142          9
   143         26
   144         10
   145         50
   146         12
   147         69
   148          8
   149         54
   150         13
   151         17
   152         10
   153          7
   154          3
   155          7
   156          2
   157         20
   159         70
   160         10
   161        159
   162         25
   163         23
   164          5
   165          9
   166          3
   167          4
   168          2
   169         10
   170          4
   171         20
   172          5
   173         26
   174          8
   175         33
   176          8
   177         20
   178          6
   179          6
   181          4
   183          7
   184          3
   185         17
   186          6
   187         42
   188         20
   189         30
   190          8
   191          7
   192          3
   193          3
   195          6
   197         10
   198          3
   199         16
   200          5
   201         18
   202          5
   203         14
   204          6
   205         13
   206         10
   207          3
   209          5
   211          6
   212          2
   213         16
   214          5
   215         18
   216          7
   217          9
   218          9
   219          6
   220          2
   221          2
   223          6
   225          7
   227          6
   228          2
   229          8
   230          5
   231          9
   232          9
   233          6
   234          3
   237          3
   239         11
   240          4
   241         11
   242          3
   243          6
   244          3
   245          3
   246          3
   247          3
   248          3
   249          3
   250          3
   251          4
   253          8
   255         64
   256         16
   257          9
   258          4
   259          7
   260          4
   261          3
   265         27
   266          6
   267          4
   269         19
   270          7
   271         36
   272          5
   273        212
   274         47
   275         11
   276          4
   277          4
   279          3
   281          9
   283         59
   284         15
   285         12
   286         11
   287         26
   288         15
   289         12
   290          4
   291          2
   295          3
   296          2
   297          9
   298          4
   299         19
   300          5
   301         71
   302         18
   303          9
   304          5
   305          5
   311          2
   312          8
   313         10
   314         37
   315         21
   316        159
   317         68
   318         15
   319          4
   320          2