##TITLE=Library Entry 78244
##JCAMP-DX=Revision 4.10 
##DATA TYPE=MASS SPECTRUM
##SAMPLE DESCRIPTION=Japan AIST/NIMC Database- Spectrum MS-NW-1609
##NAMES=HP
##CAS NAME=Cyclopentylmalonic acid
##MOLFORM=C8H12O4
##CAS REGISTRY NO=5660-81-1
##MP= -300
##BP= -300
##MW= 172
##$RETENTION INDEX=0
##$CONDENSED SPECTRUM=NO
##NPOINTS= 97
##XYDATA=(XY..XY) 1 
    12          4
    14          2
    15         12
    16         10
    17          5
    18         20
    26         19
    27        179
    28         44
    29         92
    30          3
    31         14
    32          1
    37          6
    38         18
    39        254
    40         65
    41        418
    42         93
    43        104
    44        267
    45         67
    46          3
    47          3
    49          2
    50         17
    51         31
    52         18
    53        142
    54        111
    55        108
    56         31
    57         32
    58         15
    59          4
    60        242
    61        150
    62          6
    63          6
    64          1
    65         19
    66         87
    67        388
    68        586
    69        167
    70         18
    71         14
    72          3
    73         40
    74          8
    75          1
    77         19
    78          4
    79         37
    80         22
    81        203
    82         53
    83         16
    84          7
    85         78
    86        140
    87        195
    88          7
    89          1
    91          2
    92          2
    93          1
    94          2
    95          8
    96          2
    97         34
    98         24
    99        103
   100         17
   101          1
   104        219
   105        999
   106         35
   107         13
   108         18
   109         24
   110         87
   111         52
   112          4
   113          9
   114          1
   124          1
   125         15
   126        151
   127         54
   128         44
   129        139
   130          8
   131          2
   136          2
   154          3
   155          4