##TITLE=Library Entry 90477
##JCAMP-DX=Revision 4.10 
##DATA TYPE=MASS SPECTRUM
##SAMPLE DESCRIPTION=R.T.HOLMAN,UNIVERSITY OF MINNESOTA
##NAMES=HP
##CAS NAME=Pyrrolidine, 1-(1-oxo-14,17-octadecadienyl)-
##MOLFORM=C22H39NO
##CAS REGISTRY NO=56600-13-6
##MP= -300
##BP= -300
##MW= 333
##$RETENTION INDEX=0
##$CONDENSED SPECTRUM=NO
##NPOINTS= 115
##XYDATA=(XY..XY) 1 
    39         32
    40         10
    41        200
    42         43
    43        170
    44         21
    51          6
    52          5
    53         57
    54         58
    55        330
    56         83
    57         31
    58          6
    59          5
    65         18
    66         17
    67        130
    68         78
    69         87
    70        370
    71        140
    72        160
    73         12
    77         22
    78          8
    79         68
    80         24
    81        130
    82         24
    83         26
    84         17
    85        110
    86          9
    91         12
    93         18
    94         12
    95         40
    96         15
    97         16
    98        130
    99         24
   100          6
   105          5
   107          7
   108          5
   109         16
   110          8
   111          8
   112         37
   113        999
   114         78
   115          8
   121          5
   123          5
   124          6
   125          5
   126        460
   127         88
   138          5
   139          5
   140         74
   141         18
   142          5
   149          5
   152          8
   153          5
   154         27
   155         14
   166          6
   168         65
   169         12
   178          6
   180          8
   182         44
   183         10
   194          6
   196         40
   197          8
   208          6
   210         32
   211          7
   220          5
   222          7
   224         26
   225          7
   234         10
   236          7
   238         23
   239          7
   248          7
   250          8
   252         54
   253         12
   262          8
   263          5
   264          8
   266          8
   276         10
   278         13
   279          5
   290         13
   291          5
   292         44
   293         11
   304         16
   305          7
   306          6
   318          9
   330          8
   331          8
   332         17
   333        350
   334         84
   335         16