##TITLE=Library Entry 90210
##JCAMP-DX=Revision 4.10 
##DATA TYPE=MASS SPECTRUM
##SAMPLE DESCRIPTION=R.T.HOLMAN,UNIVERSITY OF MINNESOTA
##NAMES=HP
##CAS NAME=Pyrrolidine, 1-[1-oxo-8-[2-[(2-pentylcyclopropyl)methyl]cycloprop
yl]octyl]-
##MOLFORM=C24H43NO
##CAS REGISTRY NO=56600-06-7
##MP= -300
##BP= -300
##MW= 361
##$RETENTION INDEX=0
##$CONDENSED SPECTRUM=NO
##NPOINTS= 190
##XYDATA=(XY..XY) 1 
    39         79
    40          5
    41        303
    42        113
    43        503
    44        166
    45         13
    47        126
    48         69
    49         25
    50         33
    51        246
    52         11
    53         46
    54        110
    55        450
    56        129
    57        100
    58         15
    59         10
    60         23
    61         40
    62         12
    63         19
    64          6
    65         18
    66         16
    67        176
    68        100
    69        203
    70        579
    71        163
    72        169
    73         17
    74          6
    75         12
    76         10
    77         31
    78         13
    79         60
    80         28
    81        123
    82         46
    83        110
    84        619
    85        166
    86        403
    87         19
    88         69
    89         11
    91         33
    92          9
    93         30
    94         16
    95         76
    96         37
    97         66
    98        193
    99         53
   100         15
   101         13
   102          5
   103          6
   104          7
   105         18
   106         12
   107         18
   108         11
   109         33
   110         23
   111         24
   112         50
   113        999
   114         86
   115         12
   116         14
   117         46
   118         22
   119         46
   120         12
   121         15
   122          8
   123         16
   124         14
   125         13
   126        486
   127        120
   128         15
   129         16
   130          7
   131         63
   132         11
   133         60
   134         12
   135         25
   136          8
   137         12
   138         11
   139         10
   140         66
   141         25
   142          6
   145          6
   146         15
   147         10
   148          6
   149         25
   150         10
   151         13
   152         22
   153         13
   154         43
   155         18
   156          4
   163          6
   165         14
   166         18
   167         11
   168         79
   169         18
   175         13
   176         16
   177          9
   178         50
   179         13
   180         16
   181          8
   182         56
   183         14
   184          5
   189          6
   191          7
   192         11
   193          6
   194         15
   195          6
   196         32
   197          8
   200          6
   201          5
   202         20
   203          6
   205          5
   206          6
   207          7
   208         22
   209         10
   210         29
   211          7
   220          7
   221          5
   222         30
   223         14
   224         88
   225         16
   234          9
   235          8
   236         58
   237         18
   238         14
   239          6
   248          7
   249          5
   250         55
   251         13
   252          9
   262         12
   263         20
   264         19
   265          8
   266         18
   267          5
   276         12
   277          6
   278         11
   279          6
   290         24
   291         36
   292         12
   304         31
   305          9
   306          6
   318         17
   319          7
   320          6
   332          9
   349         11
   360          7
   361         69
   362         19