##TITLE=Library Entry 90456
##JCAMP-DX=Revision 4.10 
##DATA TYPE=MASS SPECTRUM
##SAMPLE DESCRIPTION=R.T.HOLMAN,UNIVERSITY OF MINNESOTA
##NAMES=HP
##CAS NAME=Pyrrolidine, 1-[8-(2-hexylcyclopropyl)-1-oxooctyl]-
##MOLFORM=C21H39NO
##CAS REGISTRY NO=56600-05-6
##MP= -300
##BP= -300
##MW= 321
##$RETENTION INDEX=0
##$CONDENSED SPECTRUM=NO
##NPOINTS= 145
##XYDATA=(XY..XY) 1 
    39         46
    40        390
    41        250
    42         73
    43        250
    44         77
    45         12
    50          8
    51          9
    52          9
    53         32
    54         48
    55        410
    56        110
    57         48
    58         17
    59          8
    60         10
    63          8
    64         10
    65         16
    66         14
    67         75
    68         48
    69        140
    70        280
    71        120
    72        130
    73         31
    74         10
    75         10
    77         15
    78          8
    79         22
    80         12
    81         40
    82         18
    83         43
    84         26
    85        100
    86         10
    87          9
    88         10
    91         11
    92          9
    93         14
    94          8
    95         31
    96         18
    97         27
    98        160
    99         26
   100         11
   103          6
   104          8
   105         13
   106          8
   107         11
   108          8
   109         15
   110         24
   111         27
   112         42
   113        999
   114         76
   115         15
   116         17
   119         10
   120          7
   121          7
   123         12
   124         11
   125         12
   126        580
   127        110
   128         18
   129         10
   131          9
   132          9
   133          9
   134          8
   135         11
   136         10
   137          9
   138         14
   139         12
   140         78
   141         26
   142         10
   145         10
   147         10
   149         13
   152         22
   153         11
   154         34
   155         22
   156         10
   166         20
   167         10
   168         92
   169         23
   170         11
   180         17
   181         11
   182         59
   183         18
   184          8
   194         26
   195         12
   196         38
   197         15
   198          7
   199          7
   200          7
   201          7
   202          8
   208         40
   209         13
   210         22
   211         10
   222         44
   223         24
   224         33
   225         12
   236         75
   237         23
   238         12
   250        130
   251         50
   252         14
   264         38
   265         15
   266         10
   278         32
   279         13
   280          9
   292         28
   293         13
   294          8
   306         23
   307         11
   320         21
   321        150
   322         42
   323         13