##TITLE=Library Entry 89989
##JCAMP-DX=Revision 4.10 
##DATA TYPE=MASS SPECTRUM
##SAMPLE DESCRIPTION=R.T.HOLMAN,UNIVERSITY OF MINNESOTA
##NAMES=HP
##CAS NAME=Pyrrolidine, 1-(1-oxo-6-octadecynyl)-
##MOLFORM=C22H39NO
##CAS REGISTRY NO=56600-12-5
##MP= -300
##BP= -300
##MW= 333
##$RETENTION INDEX=0
##$CONDENSED SPECTRUM=NO
##NPOINTS= 130
##XYDATA=(XY..XY) 1 
    39         29
    40          7
    41        170
    42         41
    43        220
    44         21
    47          5
    49         19
    51         10
    52         11
    53         30
    54         20
    55        310
    56         92
    57         97
    58          8
    59          6
    65         21
    66         13
    67         87
    68         27
    69         74
    70        310
    71        160
    72         21
    73         14
    77         34
    78         12
    79         81
    80         31
    81         61
    82         16
    83         39
    84         25
    85        130
    86         13
    91         35
    92          8
    93         43
    94          1
    95          4
    96          1
    97         12
    98         38
    99          5
   100          1
   105         10
   106          5
   107         18
   108         10
   109         20
   110         87
   111         38
   112         41
   113        999
   114         72
   115          7
   119          7
   120          5
   121         18
   122          9
   123         29
   124         20
   125         10
   126        160
   127         88
   128         11
   133          5
   134          6
   135         16
   136         29
   137         94
   138         36
   139         18
   140         65
   141         18
   149          8
   150         27
   151         33
   152         20
   153          9
   154         22
   155         12
   163          5
   164         23
   165         11
   166         12
   167          7
   168         11
   169          7
   176          5
   178         73
   179         27
   180          8
   181          5
   182          5
   183          5
   192        160
   193         81
   194         17
   195          5
   197          5
   206         58
   207         15
   208          7
   220         24
   221          7
   234         36
   235         14
   236          7
   248         31
   249         11
   250          5
   262         24
   263         10
   264          5
   276         18
   277          6
   290         14
   291          6
   292          5
   304         18
   305          8
   306          5
   316         11
   318          7
   332         13
   333         84
   334         25
   335          6