##TITLE=Library Entry 89915
##JCAMP-DX=Revision 4.10 
##DATA TYPE=MASS SPECTRUM
##SAMPLE DESCRIPTION=R.T.HOLMAN,UNIVERSITY OF MINNESOTA
##NAMES=HP
##CAS NAME=Pyrrolidine, 1-(6-methyl-1-oxooctadecyl)-
##MOLFORM=C23H45NO
##CAS REGISTRY NO=56600-07-8
##MP= -300
##BP= -300
##MW= 351
##$RETENTION INDEX=0
##$CONDENSED SPECTRUM=NO
##NPOINTS= 54
##XYDATA=(XY..XY) 1 
    39         17
    40          6
    41         82
    42         34
    43        210
    44         19
    53          7
    54          6
    55        140
    56         44
    57         57
    67         12
    68         15
    69         44
    70        180
    71         90
    72         52
    81          8
    83         16
    84          9
    85         65
    86          5
    95          7
    96          5
    97          9
    98         64
    99         10
   109          5
   111          6
   112         12
   113        999
   114         75
   115          7
   126        150
   127         38
   128          5
   139         24
   140         27
   154         54
   155         14
   182         34
   183          9
   196         28
   197          5
   210          8
   224          7
   238          6
   252          5
   294          5
   308          6
   336         10
   350         13
   351         28
   352         10