##TITLE=Library Entry 90455
##JCAMP-DX=Revision 4.10 
##DATA TYPE=MASS SPECTRUM
##SAMPLE DESCRIPTION=R.T.HOLMAN,UNIVERSITY OF MINNESOTA
##NAMES=HP
##CAS NAME=Pyrrolidine, 1-[1-oxo-5-(2-undecylcyclopropyl)pentyl]-
##MOLFORM=C23H43NO
##CAS REGISTRY NO=56600-03-4
##MP= -300
##BP= -300
##MW= 349
##$RETENTION INDEX=0
##$CONDENSED SPECTRUM=NO
##NPOINTS= 88
##XYDATA=(XY..XY) 1 
    39         22
    40         13
    41        160
    42         35
    43        210
    44         20
    49          7
    53         18
    54         29
    55        270
    56         73
    57         68
    58          6
    65          5
    66          5
    67         62
    68         31
    69         80
    70        220
    71         87
    72        110
    73          6
    77          7
    79         16
    80          7
    81         36
    82         11
    83         30
    84         17
    85         81
    86          6
    91          7
    93          8
    95         26
    96         12
    97         38
    98        170
    99         24
   100          6
   109          9
   110         26
   111         16
   112         24
   113        999
   114         87
   115          7
   116         10
   123          7
   124         14
   125          7
   126        560
   127        110
   128          9
   138         20
   139         10
   140         34
   141         13
   152         12
   153         11
   154         18
   155          7
   166         34
   167         22
   168         17
   180         33
   181         15
   182          9
   194         98
   195         45
   196          8
   208        170
   209         28
   222         19
   223          6
   236         16
   250         17
   264         37
   265          8
   278         18
   279          8
   292         17
   306         21
   307          6
   320         18
   321          6
   348         14
   349         73
   350         19