##TITLE=Library Entry 90476
##JCAMP-DX=Revision 4.10 
##DATA TYPE=MASS SPECTRUM
##SAMPLE DESCRIPTION=R.T.HOLMAN,UNIVERSITY OF MINNESOTA
##NAMES=HP
##CAS NAME=Pyrrolidine, 1-(1-oxo-9,12,15-octadecatrienyl)-
##MOLFORM=C22H37NO
##CAS REGISTRY NO=56600-08-9
##MP= -300
##BP= -300
##MW= 331
##$RETENTION INDEX=0
##$CONDENSED SPECTRUM=NO
##NPOINTS= 182
##XYDATA=(XY..XY) 1 
    39         51
    40         15
    41        310
    42         49
    43        206
    44         27
    49          8
    51         12
    52          9
    53         58
    54         37
    55        443
    56        117
    57         33
    58          8
    63          6
    64          5
    65         31
    66         28
    67        240
    68         56
    69        109
    70        510
    71        133
    72        373
    73         22
    77        100
    78         37
    79        220
    80         69
    81         97
    82         20
    83         19
    84         18
    85        120
    86         11
    87          5
    89          5
    90          6
    91        121
    92         27
    93        112
    94         33
    95        143
    96         24
    97         14
    98        248
    99         38
   100          9
   101          5
   103         10
   104          9
   105         50
   106         18
   107         42
   108         30
   109         22
   110         11
   111         10
   112         42
   113        999
   114         83
   115         17
   116          7
   117         17
   118          8
   119         23
   120         11
   121         26
   122         14
   123          9
   124         11
   125          7
   126        620
   127        117
   128         18
   129          8
   130          5
   131         11
   133         14
   134          8
   135         20
   136         10
   137          5
   138          9
   139          9
   140         91
   141         45
   142          9
   145          7
   147         11
   148          6
   149         17
   150          9
   151          5
   152         16
   153         11
   154         50
   155         23
   156          6
   161          7
   162          6
   163          9
   164          7
   165          6
   166         20
   167          9
   168         78
   169         17
   170          5
   175          5
   176          5
   177          5
   178          5
   179          5
   180         25
   181          8
   182         82
   183         17
   184          5
   193          6
   194         25
   195         10
   196         33
   197          9
   204          6
   205          5
   206         11
   207          6
   208         26
   209         17
   210         20
   211          6
   218          5
   220         18
   221         10
   222         53
   223         18
   224         31
   225          8
   232         10
   233          5
   234         27
   235          8
   236         51
   237         24
   238         14
   239          5
   246         12
   247          5
   248         27
   249         12
   250         26
   251         10
   252          7
   260         20
   261         11
   262         77
   263         23
   264         10
   274         28
   275         11
   276         29
   277         11
   286          5
   288         35
   289          9
   290          6
   300         12
   301          5
   302         31
   303          8
   314          6
   316         13
   317          6
   327          9
   328         11
   329         24
   330         58
   331        404
   332         95
   333         20