##TITLE=Library Entry 37292
##JCAMP-DX=Revision 4.10 
##DATA TYPE=MASS SPECTRUM
##SAMPLE DESCRIPTION=TNO Volatile Compounds in Food - Chemical Concepts
##NAMES=HP
##CAS NAME=1-Decen-3-one
##MOLFORM=C10H18O
##CAS REGISTRY NO=56606-79-2
##MP= -300
##BP= -300
##MW= 154
##$RETENTION INDEX=1485
##$CONDENSED SPECTRUM=NO
##NPOINTS= 46
##XYDATA=(XY..XY) 1 
    20          2
    26         11
    27        240
    29        150
    31          2
    33          2
    39         58
    41        199
    42         63
    43        173
    44          7
    45          0
    53         10
    54          8
    55        708
    56         51
    57        170
    58          6
    60          2
    67         18
    68          2
    69         15
    70        999
    71        106
    72          5
    73          3
    77          2
    79          5
    81          8
    82         11
    83        104
    84         17
    85          2
    88          0
    93          1
    95          1
    96          5
    97         59
    98         35
   107          5
   111         40
   112          4
   125         53
   126          6
   127         12
   139          2