##TITLE=Library Entry 90451
##JCAMP-DX=Revision 4.10 
##DATA TYPE=MASS SPECTRUM
##SAMPLE DESCRIPTION=R.T.HOLMAN,UNIVERSITY OF MINNESOTA
##NAMES=HP
##CAS NAME=Pyrrolidine, 1-(1-oxo-10-octadecenyl)-
##MOLFORM=C22H41NO
##CAS REGISTRY NO=56600-00-1
##MP= -300
##BP= -300
##MW= 335
##$RETENTION INDEX=0
##$CONDENSED SPECTRUM=NO
##NPOINTS= 95
##XYDATA=(XY..XY) 1 
    39         32
    40          9
    41        190
    42         52
    43        240
    44         27
    49         13
    51          7
    53         20
    54         50
    55        360
    56         88
    57         45
    58          7
    65          6
    66          7
    67         68
    68         36
    69        130
    70        280
    71        120
    72        120
    73         10
    77          8
    78          5
    79         17
    80          7
    81         41
    82         12
    83         38
    84         20
    85         90
    86         10
    91          6
    93          6
    95         23
    96         12
    97         18
    98        150
    99         25
   100          7
   109          8
   110          8
   111         10
   112         28
   113        999
   114         85
   115          8
   116          6
   124          6
   125          5
   126        460
   127        110
   128         10
   140         72
   141         23
   152          8
   154         28
   155         13
   166          7
   168         58
   169         12
   180          6
   182         53
   183         14
   194          7
   196         74
   197         13
   208         10
   210         20
   211          5
   222         17
   223          5
   224          7
   236         33
   237          9
   238          5
   250        100
   251         24
   252          6
   264        100
   265         24
   266          6
   278         33
   279          9
   292         21
   293          7
   306         17
   307          5
   320          9
   333          6
   334         21
   335        300
   336         80
   337         12