##TITLE=Library Entry 71773
##JCAMP-DX=Revision 4.10 
##DATA TYPE=MASS SPECTRUM
##SAMPLE DESCRIPTION=NIST Mass Spectrometry Data Center, 1994
##NAMES=HP
##CAS NAME=Cyclopropane, isothiocyanato-
##MOLFORM=C4H5NS
##CAS REGISTRY NO=56601-42-4
##MP= -300
##BP= -300
##MW= 99
##$RETENTION INDEX=0
##$CONDENSED SPECTRUM=NO
##NPOINTS= 63
##XYDATA=(XY..XY) 1 
    12          9
    13         11
    14         23
    15         37
    16          2
    24          2
    25         19
    26        122
    27        188
    28          9
    29         10
    30          6
    33          6
    34          6
    36         10
    37         75
    38        154
    39        867
    40        116
    41        968
    42         34
    43          6
    44        234
    45        115
    46         32
    47          6
    48          5
    49          3
    50          6
    51         27
    52         23
    53          3
    54         30
    55          3
    56          7
    57         33
    58         69
    59         90
    60         38
    61          4
    62          4
    63          6
    64          9
    66          4
    67         23
    68          6
    69         22
    70        217
    71        373
    72        353
    73         32
    74         16
    82          5
    83          9
    84         22
    85          3
    94          3
    96          3
    98        119
    99        999
   100         60
   101         49
   102          2