##TITLE=Library Entry 90547
##JCAMP-DX=Revision 4.10 
##DATA TYPE=MASS SPECTRUM
##SAMPLE DESCRIPTION=R.T.HOLMAN,UNIVERSITY OF MINNESOTA
##NAMES=HP
##CAS NAME=Pyrrolidine, 1-(1-oxo-13,16-octadecadienyl)-
##MOLFORM=C22H39NO
##CAS REGISTRY NO=56600-15-8
##MP= -300
##BP= -300
##MW= 333
##$RETENTION INDEX=0
##$CONDENSED SPECTRUM=NO
##NPOINTS= 159
##XYDATA=(XY..XY) 1 
    39         42
    40         12
    41        210
    42         48
    43        190
    47          5
    48          6
    49         12
    51          8
    52          6
    53         54
    54         38
    55        430
    56        103
    57         45
    58          7
    59          5
    65         18
    66         14
    67        160
    68        100
    69        100
    70        420
    71        160
    72        190
    73         11
    74          9
    75          6
    77         42
    78         12
    79         89
    80         29
    81        130
    82         42
    83         38
    84         24
    85        120
    86         10
    87          9
    89          5
    91         34
    92          8
    93         34
    94         21
    95         86
    96         24
    97         22
    98        160
    99         34
   100          8
   105         13
   106          6
   107         15
   108         11
   109         21
   110         12
   111         16
   112         42
   113        999
   114         84
   115         11
   116          6
   117          5
   119          6
   121          8
   122          5
   123          9
   124          9
   125          8
   126        510
   127        120
   128         12
   129          6
   133          5
   135          8
   136          6
   137          6
   138          6
   139          6
   140         74
   141         25
   142          6
   143          5
   149          9
   150          5
   151          5
   152         14
   153          7
   154         30
   155         15
   156          5
   165          6
   166         11
   167          7
   168         67
   169         15
   170          5
   176          5
   178          7
   179          5
   180          8
   181          6
   182         57
   183         12
   192          7
   194          8
   196         48
   197         10
   206          6
   207          5
   208          9
   209          6
   210         35
   211         10
   220          9
   221          8
   222         12
   223          6
   224         32
   225          9
   234         12
   236         12
   237          5
   238         52
   239         12
   248          9
   249          5
   250         10
   251          5
   252         19
   253          8
   262          9
   263          6
   264         15
   265          6
   266          9
   276         12
   277          6
   278         66
   279         22
   280          7
   288         16
   289          6
   290         35
   291         10
   302          5
   304         18
   305          8
   316          9
   318         12
   319          7
   329          6
   330         25
   331         23
   332         21
   333        430
   334        100
   335         16
   336          5