##TITLE=Library Entry 39648
##JCAMP-DX=Revision 4.10 
##DATA TYPE=MASS SPECTRUM
##SAMPLE DESCRIPTION=CARL DJERASSI DEPT OF CHEM STANFORD UNIV STANFORD CALIF
 94305
##NAMES=HP
##CAS NAME=1,3-Dioxolane, 4,4,5,5-tetramethyl-
##MOLFORM=C7H14O2
##CAS REGISTRY NO=5660-63-9
##MP= -300
##BP= -300
##MW= 130
##$RETENTION INDEX=0
##$CONDENSED SPECTRUM=NO
##NPOINTS= 18
##XYDATA=(XY..XY) 1 
    41        220
    42        460
    43        240
    44         10
    55         50
    57        210
    58         10
    59         40
    69         20
    72        999
    73         30
    83         50
    84         10
    85        190
    86         10
   101         30
   115         60
   129         10