##TITLE=Library Entry 90708
##JCAMP-DX=Revision 4.10 
##DATA TYPE=MASS SPECTRUM
##SAMPLE DESCRIPTION=R.T.HOLMAN,UNIVERSITY OF MINNESOTA
##NAMES=HP
##CAS NAME=Pyrrolidine, 1-(1-oxo-15-tetracosenyl)-
##MOLFORM=C28H53NO
##CAS REGISTRY NO=56600-17-0
##MP= -300
##BP= -300
##MW= 419
##$RETENTION INDEX=0
##$CONDENSED SPECTRUM=NO
##NPOINTS= 166
##XYDATA=(XY..XY) 1 
    39          9
    40          3
    41         33
    42         15
    43         91
    44         89
    45          1
    47         13
    48          7
    49         78
    50          3
    51         26
    52          1
    53          3
    54          8
    55         50
    56         16
    57         24
    58          2
    59          9
    60          1
    61          2
    62          0
    63          1
    64          0
    65          1
    66          1
    67         14
    68         14
    69         31
    70         80
    71         22
    72          9
    73          1
    74          1
    75          3
    76          0
    77          2
    78          0
    79          2
    80          1
    81         11
    82         15
    83         22
    84         64
    85         27
    86         42
    87          1
    88          7
    89          0
    91          1
    92          0
    93          1
    94          1
    95          8
    96         11
    97         15
    98        149
    99         36
   100          8
   101         12
   104          5
   105         16
   106          6
   107          9
   108         13
   109         48
   110         44
   111         70
   112         64
   113        999
   114         84
   115         13
   116          7
   117         22
   119         22
   121          8
   122          5
   123         26
   124         25
   125         32
   126        254
   127         64
   128         10
   129          7
   131         30
   132          5
   133         29
   134          6
   135         37
   136          7
   137         17
   138         17
   139         16
   140         48
   141         30
   142         10
   143          5
   151          9
   152         15
   153         11
   154         22
   155         17
   165          7
   166         11
   167          9
   168         40
   169         12
   178         10
   179          6
   180          8
   181          5
   182         28
   183          8
   194          6
   195         11
   196         22
   197          7
   202          7
   208          6
   210         26
   211          7
   222          5
   224         31
   225          9
   236          5
   238         26
   239          7
   250          5
   252         26
   253          8
   264          7
   266         28
   267         10
   278          7
   280         13
   281          5
   292         12
   293          5
   294          7
   306         34
   307         12
   308         10
   320         78
   321         23
   322          7
   334         80
   335         24
   336          8
   348         47
   349         19
   350          6
   352          5
   362         18
   363          6
   376         15
   377          5
   380          9
   390         12
   391          5
   404          5
   417         20
   418         40
   419        411
   420        129
   421         22