##TITLE=Library Entry 32844
##JCAMP-DX=Revision 4.10 
##DATA TYPE=MASS SPECTRUM
##SAMPLE DESCRIPTION=R.T.HOLMAN,UNIVERSITY OF MINNESOTA
##NAMES=HP
##CAS NAME=5-Heptadecene, 1-bromo-
##MOLFORM=C17H33Br
##CAS REGISTRY NO=56600-21-6
##MP= -300
##BP= -300
##MW= 316
##$RETENTION INDEX=0
##$CONDENSED SPECTRUM=NO
##NPOINTS= 211
##XYDATA=(XY..XY) 1 
    26          3
    27         45
    28         96
    29         96
    30          3
    31          1
    32         25
    35          1
    36          5
    37          1
    38          3
    39         74
    40         14
    41        342
    42         42
    43        188
    44         33
    45          2
    46          1
    47          1
    48          1
    49          1
    50          4
    51         13
    52         10
    53         92
    54         87
    55        311
    56         57
    57         92
    58          4
    59          1
    60          2
    61          1
    62          1
    63          4
    64          2
    65         52
    66         87
    67        999
    68        197
    69        149
    70         36
    71         33
    72          3
    73          2
    74          2
    75          1
    76          2
    77         83
    78         23
    79        271
    80        100
    81        855
    82        728
    83        271
    84         30
    85         16
    86          2
    87          1
    88          1
    89          1
    90          1
    91         57
    92         11
    93         78
    94         52
    95        390
    96        596
    97        206
    98         21
    99          3
   100          1
   101          1
   102          1
   103          3
   104          2
   105          8
   106          3
   107         14
   108         17
   109        140
   110         57
   111         28
   112         13
   113          7
   114         17
   115          4
   116          5
   117          3
   118          2
   119          3
   120          2
   121          9
   122         12
   123         65
   124         65
   125         14
   126          4
   127          2
   128          3
   129          2
   130          1
   131          2
   132          1
   133          2
   134          1
   135          7
   136          7
   137         39
   138         44
   139          7
   140          6
   141         10
   142          3
   143          1
   144          1
   145          1
   146          1
   147          1
   148          1
   149          2
   150          2
   151         11
   152         20
   153          4
   154          6
   155          5
   156          2
   157          1
   158          1
   159          1
   160          1
   161          1
   162          1
   163          1
   164          1
   165          6
   166          8
   167          3
   168          2
   169          2
   170          1
   171          1
   172          1
   173          1
   174          1
   175          1
   176          1
   177          1
   178          1
   179         10
   180         18
   181          3
   182          1
   183          1
   184          1
   185          1
   186          1
   187          1
   188          1
   189          1
   190          1
   191          2
   192          1
   193          6
   194          7
   195          2
   196          1
   197          1
   198          1
   199          1
   200          1
   201          1
   202          1
   203          1
   204          1
   205          1
   206          2
   207          6
   208         25
   209          4
   210          1
   211          1
   212          1
   213          1
   215          1
   216          1
   217          1
   218          1
   219          1
   220          1
   221          1
   222          3
   223          1
   224          1
   225          1
   226          1
   227          1
   228          1
   229          1
   230          1
   231          1
   232          1
   233          1
   234          4
   235          1
   236        155
   237         30
   238          3
   239          1