##TITLE=Library Entry 82322
##JCAMP-DX=Revision 4.10 
##DATA TYPE=MASS SPECTRUM
##SAMPLE DESCRIPTION=NIST Mass Spectrometry Data Center
##NAMES=HP
##CAS NAME=(R)-(-)-2-Phenylglycinol
##MOLFORM=C8H11NO
##CAS REGISTRY NO=56613-80-0
##MP= -300
##BP= -300
##MW= 137
##$RETENTION INDEX=0
##$CONDENSED SPECTRUM=NO
##NPOINTS= 65
##XYDATA=(XY..XY) 1 
    13          1
    14          2
    15         15
    16          3
    17          5
    18          9
    19          1
    26          9
    27         47
    28        506
    29         66
    30         40
    31        127
    32          2
    37          6
    38         14
    39         64
    40         10
    41         18
    42         25
    43          8
    44          1
    45          1
    50         56
    51        116
    52         44
    53         29
    54          8
    55          1
    58          2
    59          3
    60          9
    61          4
    62         11
    63         24
    64          6
    65         31
    66          4
    67          3
    73          2
    74         16
    75          8
    77        219
    78         56
    79        407
    80         31
    81          1
    86          2
    87          1
    89         13
    90          7
    91         44
    92          4
    93          3
   100          1
   102          4
   104         52
   106        999
   107         73
   108          2
   117          4
   118          6
   119          3
   120          2
   121          1