##TITLE=Library Entry 76285
##JCAMP-DX=Revision 4.10 
##DATA TYPE=MASS SPECTRUM
##SAMPLE DESCRIPTION=L.E. Slivon, Battelle Columbus Laboratories, Columbus,
 Ohio 43201
##NAMES=HP
##CAS NAME=Decanoic acid, 3-hydroxy-, methyl ester
##MOLFORM=C11H22O3
##CAS REGISTRY NO=56618-58-7
##MP= -300
##BP= -300
##MW= 202
##$RETENTION INDEX=1430
##$CONDENSED SPECTRUM=NO
##NPOINTS= 129
##XYDATA=(XY..XY) 1 
    41        389
    42        176
    43        942
    45         42
    46          1
    47          0
    48          0
    49          0
    50          2
    51          6
    52          3
    53         30
    54         36
    55        256
    56        111
    57        210
    58         39
    59        151
    60          8
    61        258
    62          7
    63          2
    64          0
    65          6
    66          8
    67         70
    68         52
    69        246
    70         36
    71        469
    72         32
    73         17
    74        455
    75         62
    76          4
    77          5
    78          3
    79         13
    80          5
    81         63
    82         46
    83         38
    84         90
    85         51
    86         10
    87         59
    88         10
    89          1
    90          0
    91          3
    92          1
    93          4
    94          3
    95         28
    96         44
    97         25
    98         12
    99         13
   100         21
   101         54
   102         26
   103        999
   104         48
   105          9
   106          1
   107          2
   108          6
   109         16
   110         55
   111         36
   112          5
   113         26
   114         14
   115          8
   116         16
   117          6
   118          2
   119          1
   120          1
   121          0
   122          0
   123         14
   124          8
   125          2
   126          1
   127         31
   128          9
   129         13
   130          2
   131          0
   132          0
   133          1
   134          4
   135         11
   136          2
   137          2
   138          0
   139          0
   141          4
   142          1
   143          1
   144          1
   145          0
   147          0
   148          0
   149          0
   150          0
   151          1
   152         16
   153         20
   154          2
   155          2
   156          0
   157          0
   159          0
   164          0
   165          0
   166          0
   167          0
   168          0
   169          1
   170          0
   171          1
   173          0
   174          0
   175          0
   184          1
   185          0
   201          1