##TITLE=Library Entry 50130
##JCAMP-DX=Revision 4.10 
##DATA TYPE=MASS SPECTRUM
##SAMPLE DESCRIPTION=Chemical Concepts
##NAMES=HP
##CAS NAME=Bicyclo[5.3.0]decane
##MOLFORM=C10H18
##CAS REGISTRY NO=5661-80-3
##MP= -300
##BP= -300
##MW= 138
##$RETENTION INDEX=1095
##$CONDENSED SPECTRUM=NO
##NPOINTS= 85
##XYDATA=(XY..XY) 1 
    25          0
    26          6
    27        135
    29        116
    30          3
    36          0
    37          1
    38          5
    39        234
    40         38
    41        478
    42         45
    43         36
    44          0
    45          1
    46          1
    50          6
    51         29
    52         20
    53        143
    54        271
    55        376
    56         47
    57         13
    58          1
    59          0
    62          1
    63          7
    64          2
    65         44
    66         68
    67        795
    68        279
    69        141
    70         17
    71          8
    72          0
    74          0
    75          0
    76          0
    77         58
    78         15
    79        105
    80         81
    81        999
    82        785
    83        104
    84          5
    85          1
    89          0
    90          0
    91         29
    92          3
    93         32
    94         20
    95        461
    96        737
    97         83
    98          4
    99          0
   102          0
   103          2
   104          0
   105          2
   106          0
   107          4
   108          9
   109        203
   110        545
   111         47
   112          1
   113          0
   115          1
   117          0
   119          0
   121          1
   123          8
   124          0
   127          0
   128          0
   136          0
   137          3
   138        227
   139         23
   140          1