##TITLE=Library Entry 97658
##JCAMP-DX=Revision 4.10 
##DATA TYPE=MASS SPECTRUM
##SAMPLE DESCRIPTION=MM VESTLING RL OGREN STATE UNIV., BROCKPORT, NY, USA
##NAMES=HP
##CAS NAME=4-Thiazolidinecarboxylic acid, 5,5-dimethyl-2-phenyl-
##MOLFORM=C12H15NO2S
##CAS REGISTRY NO=56614-75-6
##MP= -300
##BP= -300
##MW= 237
##$RETENTION INDEX=0
##$CONDENSED SPECTRUM=NO
##NPOINTS= 87
##XYDATA=(XY..XY) 1 
    34         47
    39        140
    41        110
    42         24
    43         62
    44        100
    45         86
    47         20
    50         29
    51         80
    52         22
    53         47
    54         19
    55         75
    56         33
    57         29
    59        120
    63         39
    64         23
    65         36
    69         25
    70         32
    71         32
    74         36
    75         93
    76         21
    77        120
    78         52
    79         57
    81         30
    82        100
    83         30
    87         55
    89        110
    90        200
    91        230
    92         60
   101         47
   104         18
   105         35
   106         75
   107         22
   114         18
   115         36
   116         91
   117        999
   118        320
   119         57
   120         16
   121        140
   122         20
   123         21
   128         17
   130         15
   131         15
   137        510
   138         72
   139         30
   143         51
   144         60
   145        250
   146        240
   147         24
   156         15
   158        210
   159        270
   160         96
   161         20
   162        106
   163        590
   164         70
   176         19
   178         26
   185         32
   186         15
   190         23
   191         18
   192        110
   193         23
   195         48
   203         15
   204        230
   205         34
   236         62
   237        360
   238         67
   239         23