##TITLE=Library Entry 67784
##JCAMP-DX=Revision 4.10 
##DATA TYPE=MASS SPECTRUM
##SAMPLE DESCRIPTION=CARL DJERASSI DEPT OF CHEM STANFORD UNIV STANFORD CALIF
 94305
##NAMES=HP
##CAS NAME=Bicyclo[2.2.1]heptane-2,3-diol, 1,7,7-trimethyl-, (2-exo,3-endo)-
##MOLFORM=C10H18O2
##CAS REGISTRY NO=56614-58-5
##MP= -300
##BP= -300
##MW= 170
##$RETENTION INDEX=0
##$CONDENSED SPECTRUM=NO
##NPOINTS= 74
##XYDATA=(XY..XY) 1 
    39        207
    40          9
    41        594
    42         29
    43        604
    44          9
    45         19
    51         19
    53        128
    54         19
    55        376
    56         59
    57        217
    58         29
    59         99
    60        297
    61          9
    65         39
    66          9
    67        297
    68         59
    69        435
    70        168
    71        178
    72        128
    77         59
    78          9
    79        118
    80        108
    81        485
    82        306
    83        198
    84        277
    85        257
    86         29
    87         99
    88         29
    91         69
    92          9
    93         79
    94        168
    95        999
    96        158
    97         89
    98         19
    99        178
   100         79
   101          9
   105         19
   107         79
   108         79
   109        257
   110         89
   111        356
   112         89
   113         19
   119         59
   120          9
   121        198
   122          9
   123        217
   124         49
   125          9
   126          9
   127          9
   134         29
   137        198
   138          9
   139         79
   140          9
   152        267
   153         19
   155         19
   170          9