##TITLE=Library Entry 67782
##JCAMP-DX=Revision 4.10 
##DATA TYPE=MASS SPECTRUM
##SAMPLE DESCRIPTION=CARL DJERASSI DEPT OF CHEM STANFORD UNIV STANFORD CALIF
 94305
##NAMES=HP
##CAS NAME=Bicyclo[2.2.1]heptane-2,3-diol, 1,7,7-trimethyl-, (exo,exo)-
##MOLFORM=C10H18O2
##CAS REGISTRY NO=56614-57-4
##MP= -300
##BP= -300
##MW= 170
##$RETENTION INDEX=0
##$CONDENSED SPECTRUM=NO
##NPOINTS= 62
##XYDATA=(XY..XY) 1 
    39        220
    40         60
    41        580
    42         60
    43        680
    44        120
    45         30
    51         20
    53        120
    54         10
    55        380
    56         50
    57        180
    58         80
    59        120
    60        280
    65         30
    67        240
    68         40
    69        420
    70        180
    71        130
    72         70
    77         60
    79        120
    80        100
    81        400
    82        200
    83        220
    84        280
    85        160
    86         10
    87         40
    91         60
    93         70
    94        210
    95        999
    96        120
    97         80
    98         10
    99        110
   100         30
   105         10
   107         40
   108         40
   109        210
   110         60
   111        300
   112         60
   119         30
   121        120
   122         10
   123        120
   124         20
   134         20
   137        100
   138         10
   139         30
   152        130
   153         10
   155         20
   170          2