##TITLE=Library Entry 26617
##JCAMP-DX=Revision 4.10 
##DATA TYPE=MASS SPECTRUM
##SAMPLE DESCRIPTION=ORMSBG,10(3)196(1975); D. V. RAMANA
##NAMES=HP
##CAS NAME=Propanamide, N-(3-methoxyphenyl)-2,2-dimethyl-
##MOLFORM=C12H17NO2
##CAS REGISTRY NO=56619-93-3
##MP= -300
##BP= -300
##MW= 207
##$RETENTION INDEX=0
##$CONDENSED SPECTRUM=NO
##NPOINTS= 51
##XYDATA=(XY..XY) 1 
    40         10
    41        230
    42         30
    43         50
    50         10
    51         20
    52         30
    53         20
    55         50
    56         20
    57        999
    58         50
    63         20
    64         20
    65         30
    66         10
    67         10
    69         30
    70         10
    71         30
    76         10
    77         50
    78         30
    79         20
    80         20
    81         10
    83         20
    85         60
    91         30
    92         30
    93         70
    94        110
    95         40
    96         10
    97         10
   104         10
   105         20
   106         10
   107         40
   111         10
   120         10
   122         40
   123        300
   124         30
   149         30
   150         30
   151         20
   161         10
   164         30
   207        290
   208         40