##TITLE=Library Entry 48996
##JCAMP-DX=Revision 4.10 
##DATA TYPE=MASS SPECTRUM
##SAMPLE DESCRIPTION=Chemical Concepts
##NAMES=HP
##CAS NAME=Dibenzo[a,h]cyclotetradecene, 2,3,11,12-tetraethenyl-1,2,3,4,5,6,
7,8,9,10,11,12,13,14,15,16,17,18-octadecahydro-, (2R*,3S*,4Z,9Z,11R*,12S*)-
##MOLFORM=C30H44
##CAS REGISTRY NO=56613-34-4
##MP= -300
##BP= -300
##MW= 404
##$RETENTION INDEX=0
##$CONDENSED SPECTRUM=NO
##NPOINTS= 263
##XYDATA=(XY..XY) 1 
    26          2
    27         97
    28          0
    29        134
    30          6
    37         10
    38          8
    39        109
    41        565
    42         12
    43         81
    44          6
    50          9
    51         32
    52         35
    53        131
    54         26
    55        422
    56         29
    57         47
    59          1
    62          1
    63          7
    64         13
    65        152
    66         40
    67        636
    68         58
    69        166
    70          0
    71         12
    72          3
    75          4
    76         10
    77        425
    78        136
    79        999
    80        385
    81        486
    82         38
    83         56
    84          1
    85          0
    89          6
    90         11
    91        992
    92        214
    93        580
    94        121
    95        369
    96         24
    97         39
    99          5
   101          0
   102         14
   103         82
   104         77
   105        652
   106        213
   107        285
   108         77
   109        125
   110         18
   111          7
   113          0
   114          5
   115        146
   116         84
   117        565
   118        155
   119        438
   120        146
   121        261
   122         54
   123         50
   124          2
   126          6
   127         19
   128         81
   129        233
   130        140
   131        519
   132        162
   133        393
   134        122
   135        152
   136         37
   137         20
   138         10
   139         10
   140          1
   141         69
   142         76
   143        272
   144        129
   145        485
   146        191
   147        250
   148         78
   149         98
   150         15
   151         16
   152          8
   153          0
   154         17
   155         83
   156         46
   157        233
   158         85
   159        305
   160        126
   161        169
   162         41
   163         38
   164         15
   165          6
   166         13
   167         31
   168         12
   169         95
   170         46
   171        220
   172         80
   173        206
   174         74
   175         91
   176         34
   177         17
   178          8
   179         14
   180          7
   181         33
   182         17
   183        106
   184         52
   185        226
   186         83
   187        150
   188         48
   189         77
   190         17
   191         16
   192          8
   193         13
   194          6
   195         35
   196         15
   197         83
   198         40
   199        143
   200         43
   201         86
   202         37
   203         55
   204         17
   205         16
   206          6
   207         14
   208          8
   209         33
   210         16
   211         61
   212         29
   213         81
   214         38
   215         46
   216         15
   217         15
   218         14
   219          9
   220          6
   221         14
   222         12
   223         26
   224         15
   225         54
   226         16
   227         40
   228         20
   229         20
   230         16
   231         16
   232          6
   233         11
   235          7
   236          7
   237         16
   238         18
   239         43
   240         17
   241         37
   242         16
   243         18
   244         15
   245         10
   247          7
   249          6
   252         14
   253         32
   254         18
   255         18
   256         14
   257         13
   258          9
   259          5
   263         13
   264          6
   265         17
   266         16
   267         34
   268         17
   269         17
   270         15
   271         11
   272          9
   277         14
   278         12
   279         32
   280         15
   281         18
   282         16
   283         14
   284         15
   285         12
   291         16
   292         11
   293         42
   294         17
   295         26
   296         19
   297         15
   298          5
   299         11
   305         16
   306         10
   307         20
   308          5
   309         26
   310         16
   311          6
   319         14
   321         19
   322         17
   323         12
   324         15
   325         11
   333         16
   336         16
   337         14
   347         16
   349         44
   350         78
   351         27
   352         10
   361         16
   362         15
   363         26
   375         27
   376         16
   389         19
   404        424
   405        147
   406         36