##TITLE=Library Entry 25864
##JCAMP-DX=Revision 4.10 
##DATA TYPE=MASS SPECTRUM
##SAMPLE DESCRIPTION=ORMSBG,10(3)196(1975); D. V. RAMANA
##NAMES=HP
##CAS NAME=Propanamide, 2,2-dimethyl-N-(4-nitrophenyl)-
##MOLFORM=C11H14N2O3
##CAS REGISTRY NO=56619-95-5
##MP= -300
##BP= -300
##MW= 222
##$RETENTION INDEX=0
##$CONDENSED SPECTRUM=NO
##NPOINTS= 35
##XYDATA=(XY..XY) 1 
    40         10
    41        140
    42         30
    43         10
    50         10
    51         10
    52         10
    53         10
    55         20
    56         20
    57        999
    58         40
    63         20
    64         20
    65         30
    69         10
    70         10
    75         50
    76         10
    80         10
    85        260
    86         10
    90         10
    91         10
    92         20
    93         10
   107         10
   108         30
   122         10
   138         40
   165         10
   179         10
   193         10
   222         80
   223         10