##TITLE=Library Entry 14703
##JCAMP-DX=Revision 4.10 
##DATA TYPE=MASS SPECTRUM
##SAMPLE DESCRIPTION=CARL DJERASSI DEPT OF CHEM STANFORD UNIV STANFORD CALIF
 94305
##NAMES=HP
##CAS NAME=Pregnane-3,20-diol, bis(trifluoroacetate), (3.beta.,5.alpha.)-
##MOLFORM=C25H34F6O4
##CAS REGISTRY NO=56614-55-2
##MP= -300
##BP= -300
##MW= 512
##$RETENTION INDEX=0
##$CONDENSED SPECTRUM=NO
##NPOINTS= 216
##XYDATA=(XY..XY) 1 
    41        440
    42         30
    43        999
    44        420
    45        620
    46         10
    47         20
    48         10
    49         30
    50        170
    51        200
    52         30
    53        170
    54         80
    55        500
    56         30
    57         30
    59         10
    60         30
    61         10
    62         10
    63         20
    64         10
    65         70
    66         40
    67        450
    68        270
    69        530
    70         20
    71         20
    73         40
    74         30
    75         10
    76         10
    77        200
    78         80
    79        500
    80        160
    81        630
    82        120
    83        100
    84         10
    85         20
    86         20
    87         10
    89         10
    91        480
    92        130
    93        560
    94        210
    95        500
    96         50
    97         50
    98        140
    99         20
   100         20
   101         10
   102         20
   103         70
   104         40
   105        380
   106        240
   107        650
   108        330
   109        340
   110         50
   111         60
   112         10
   113         30
   114         20
   115        220
   116         30
   117         80
   118         40
   119        230
   120        160
   121        490
   122        390
   123        270
   124         30
   126         30
   127         40
   128         50
   129         30
   130         20
   131         90
   132         30
   133        200
   134        100
   135        230
   136         50
   137         30
   139         20
   140         40
   141         20
   142         20
   143         30
   144         20
   145        140
   146         40
   147        300
   148        120
   149        190
   150         40
   151         20
   155         10
   157        130
   158         30
   159        110
   160         60
   161        260
   162         90
   163         70
   164         20
   165         20
   167         20
   168         20
   169         30
   170         20
   171         20
   172         20
   173         80
   174         40
   175        120
   176        110
   177         90
   178         20
   185         20
   186         20
   187         50
   188         40
   189         60
   190         30
   191         30
   199         40
   200         50
   201         80
   202         40
   203         60
   204         20
   213         30
   214         30
   215        380
   216        120
   217         80
   218         20
   227         40
   228         20
   229         40
   230        160
   231         40
   232         30
   241         20
   242         50
   243         30
   244         20
   245         20
   255        210
   256         60
   257         30
   258         20
   261         60
   262         50
   263         20
   270        300
   271         80
   272         30
   274         20
   275         20
   282         20
   283         20
   284        340
   285        200
   286         60
   287         30
   288         40
   289         20
   290         60
   291         60
   292         20
   300         20
   301         30
   302         60
   303         30
   304         30
   315         70
   316         30
   317         30
   327         30
   328         40
   329        660
   330        290
   331         50
   341         40
   342         40
   343         40
   344        460
   345        110
   346         30
   355         30
   356         30
   369        120
   370         50
   371         30
   383        240
   384         70
   385         30
   397         30
   398        300
   399        110
   400         40
   497         80
   498         30
   512        310
   513         80
   514         10