##TITLE=Library Entry 109489
##JCAMP-DX=Revision 4.10 
##DATA TYPE=MASS SPECTRUM
##SAMPLE DESCRIPTION=Philip Morris R&D
##NAMES=HP
##CAS NAME=Cyclopentathiazole
##MOLFORM=C6H7NS
##CAS REGISTRY NO=5661-10-9
##MP= -300
##BP= -300
##MW= 125
##$RETENTION INDEX=1551
##$CONDENSED SPECTRUM=NO
##NPOINTS= 68
##XYDATA=(XY..XY) 1 
    36          4
    37         26
    38         34
    39        123
    40         19
    41          9
    42          1
    44          8
    45        167
    46          9
    47         16
    48          4
    49         15
    50         20
    51         35
    52         32
    53         68
    54         23
    55          3
    56          3
    57         16
    58        144
    59         34
    60         10
    61          6
    62          9
    63         22
    64         13
    65        101
    66         22
    67          8
    68          8
    69        119
    70        122
    71         63
    72         20
    73          2
    75          0
    76          0
    78          0
    79          1
    80         34
    81         29
    82          6
    83         15
    84          8
    85          3
    87          0
    88          0
    90          0
    91          5
    92        128
    93         18
    94          3
    95         11
    96         15
    97        475
    98        248
    99         61
   100         11
   101          1
   110         10
   123          2
   124        619
   125        999
   126        103
   127         42
   128          0