##TITLE=Library Entry 33120
##JCAMP-DX=Revision 4.10 
##DATA TYPE=MASS SPECTRUM
##SAMPLE DESCRIPTION=V.A. KOPTYUG, VOL5, ATLAS OF MS OF ORGANIC COMPOUNDS
##NAMES=HP
##CAS NAME=5-Amino-2-methylsulfonylpyrimidine
##MOLFORM=C5H7N3O2S
##CAS REGISTRY NO=56621-92-2
##MP= -300
##BP= -300
##MW= 173
##$RETENTION INDEX=0
##$CONDENSED SPECTRUM=NO
##NPOINTS= 95
##XYDATA=(XY..XY) 1 
    36         18
    38         29
    39        100
    40        469
    41        327
    42         81
    43         70
    44         19
    45         57
    46         21
    47         16
    48         30
    49          3
    50          3
    51         11
    52         43
    53         76
    54         28
    55        149
    56         55
    57         15
    58          2
    59          4
    60          8
    62          2
    63         57
    64        104
    65         21
    66        171
    67        999
    68         80
    69         21
    70          7
    71          9
    72          6
    73          3
    74          5
    75          6
    76          3
    77          9
    78          2
    79         53
    80          9
    81         13
    82        214
    83        490
    84         28
    85          5
    87          4
    90          2
    91          2
    93          8
    94        541
    95         63
    96          8
    97          5
    98          3
    99          5
   102          4
   103          4
   104          6
   106          6
   108         11
   109         40
   110        867
   111        949
   112         61
   113          5
   115         14
   120          2
   122          5
   123          2
   124         10
   125          4
   126          5
   136          2
   137          2
   138          2
   139         20
   140          3
   141          4
   142         10
   145          3
   149         18
   150          2
   152          2
   153          3
   158         33
   159          2
   160          2
   167          4
   173        592
   174         67
   175         37
   176          4