##TITLE=Library Entry 16537
##JCAMP-DX=Revision 4.10 
##DATA TYPE=MASS SPECTRUM
##SAMPLE DESCRIPTION=V.A. KOPTYUG, VOL5, ATLAS OF MS OF ORGANIC COMPOUNDS
##NAMES=HP
##CAS NAME=2-Methylsulfonyl-5-dimethylaminomethyleneaiminopyrimidine
##MOLFORM=C8H12N4O2S
##CAS REGISTRY NO=56622-05-0
##MP= -300
##BP= -300
##MW= 228
##$RETENTION INDEX=0
##$CONDENSED SPECTRUM=NO
##NPOINTS= 110
##XYDATA=(XY..XY) 1 
    38          3
    39          5
    40         12
    41         26
    42        258
    43         30
    44        999
    45         49
    46         14
    47          3
    48          7
    51         17
    52         42
    53         16
    54         22
    55         10
    56         41
    57        134
    58          7
    63         13
    64          9
    65          5
    66          9
    67         21
    68         12
    69         10
    70          3
    71         16
    74          5
    76          2
    77         29
    78         26
    79         80
    80         18
    81         38
    82          8
    83         23
    84          6
    91          1
    92          2
    93          9
    94         13
    95         49
    96          7
    97          4
   104          2
   105          5
   106         17
   107         26
   108         80
   109         19
   110         18
   111          4
   119          3
   120         11
   121         22
   122         97
   123         12
   124         31
   125          2
   126          2
   132         13
   133         11
   134         19
   135          6
   136          8
   137          5
   138         70
   139          5
   147         12
   148         63
   149        348
   150         37
   151          6
   154          2
   158          5
   160          2
   163         11
   164          8
   165        161
   166         16
   170          2
   172         21
   173          3
   174          1
   181          2
   184          6
   185          2
   186          4
   187         34
   188          3
   189          2
   196          8
   197          4
   198         34
   199          6
   200         43
   201         13
   202          3
   211          3
   212         61
   213         39
   214          7
   215          2
   226         10
   227        295
   228        787
   229        134
   230         48
   231          5