##TITLE=Library Entry 32982
##JCAMP-DX=Revision 4.10 
##DATA TYPE=MASS SPECTRUM
##SAMPLE DESCRIPTION=Japan AIST/NIMC Database- Spectrum MS-IW- 616
##NAMES=HP
##CAS NAME=3,3-Tetramethyleneglutaric anhydride
##MOLFORM=C9H12O3
##CAS REGISTRY NO=5662-95-3
##MP= -300
##BP= -300
##MW= 168
##$RETENTION INDEX=0
##$CONDENSED SPECTRUM=NO
##NPOINTS= 57
##XYDATA=(XY..XY) 1 
    15          2
    26          3
    27         37
    28         20
    29         14
    37          1
    38          4
    39         78
    40         23
    41         80
    42         20
    43         44
    44          2
    45          2
    46          3
    47          1
    50          5
    51          9
    52          7
    53         34
    54        122
    55         27
    56          3
    57          2
    63          2
    65          9
    66         44
    67        999
    68         80
    69          4
    71          1
    77          8
    78          3
    79         20
    80         59
    81         95
    82        468
    83         34
    84          1
    91          3
    93          1
    94          1
    95        117
    96        213
    97         15
    98          1
    99          2
   106         50
   107          4
   109          3
   123          1
   124         63
   125          8
   127          1
   168         15
   169         22
   170          2