##TITLE=Library Entry 89995
##JCAMP-DX=Revision 4.10 
##DATA TYPE=MASS SPECTRUM
##SAMPLE DESCRIPTION=R.T.HOLMAN,UNIVERSITY OF MINNESOTA
##NAMES=HP
##CAS NAME=Pyrrolidine, 1-(1-oxo-12-octadecynyl)-
##MOLFORM=C22H39NO
##CAS REGISTRY NO=56630-90-1
##MP= -300
##BP= -300
##MW= 333
##$RETENTION INDEX=0
##$CONDENSED SPECTRUM=NO
##NPOINTS= 160
##XYDATA=(XY..XY) 1 
    39        105
    40         25
    41        521
    42         90
    43        369
    44         41
    45         15
    50          5
    51         19
    52         32
    53        115
    54        322
    55        663
    56        123
    57        159
    58         10
    59         86
    60          5
    63          6
    65         47
    66         34
    67        507
    68        307
    69        304
    70        333
    71        202
    72        166
    73         25
    74         94
    75         11
    76          5
    77         65
    78         17
    79        137
    80         65
    81        539
    82        278
    83        144
    84         39
    85        141
    86          9
    87         54
    88          5
    91         54
    92         12
    93         79
    94         47
    95        380
    96        155
    97        101
    98        152
    99         39
   100          6
   101         10
   104          5
   105         22
   106          8
   107         47
   108         26
   109        144
   110        311
   111         76
   112         33
   113        999
   114         86
   115         21
   117          7
   119         15
   120          7
   121         33
   122         19
   123         50
   124         97
   125         28
   126        282
   127         76
   128         13
   129         16
   131          9
   133         17
   134          6
   135         43
   136         21
   137         30
   138         14
   139         15
   140         50
   141         22
   142          6
   143         10
   145          8
   147         12
   149         65
   150         23
   151         23
   152         15
   153         21
   154         28
   155         15
   157          6
   159          8
   161          6
   163         14
   164         18
   165         15
   166         11
   167          8
   168         54
   169         14
   170          7
   171          6
   173          8
   177         11
   178         18
   179         11
   180         10
   181          7
   182         32
   183         10
   185          9
   191          9
   192          7
   193          6
   194          7
   195          7
   196         19
   197          6
   205          6
   206         12
   207          7
   208          9
   209          9
   210         31
   211          7
   220         16
   221          7
   222          7
   223          9
   224         59
   225         11
   234          9
   235          4
   236          6
   238         14
   239          5
   248          9
   250          5
   252         13
   253          5
   262         19
   263         33
   264          9
   276         19
   277          7
   290         19
   291          6
   304          7
   332          4
   333         57
   334         14