##TITLE=Library Entry 20988
##JCAMP-DX=Revision 4.10 
##DATA TYPE=MASS SPECTRUM
##SAMPLE DESCRIPTION=J.M.WHITE GEN. MILLS RES. LAB., MINNEAPOLIS, MINN., USA
##NAMES=HP
##CAS NAME=Pregnan-20-one, 5,6-epoxy-3,17-dihydroxy-16-methyl-, (3.beta.,5.a
lpha.,6.alpha.,16.alpha.)-
##MOLFORM=C22H34O4
##CAS REGISTRY NO=56630-87-6
##MP= -300
##BP= -300
##MW= 362
##$RETENTION INDEX=0
##$CONDENSED SPECTRUM=NO
##NPOINTS= 290
##XYDATA=(XY..XY) 1 
    50         32
    51         22
    52         28
    53        462
    54        100
    55        999
    56         88
    57        425
    58         57
    59         54
    60          8
    61          8
    62          5
    63         32
    64         14
    65        177
    66         85
    67        532
    68        135
    69        337
    70         46
    71        262
    72        255
    73         28
    74          8
    75         18
    76          8
    77        400
    78        105
    79        538
    80         94
    81        487
    82         88
    83        292
    84         45
    85        360
    86         43
    87         24
    88          4
    89         19
    90         15
    91        554
    92        114
    93        465
    94        172
    95        505
    96         84
    97         97
    98         44
    99         45
   100         18
   101        265
   102         27
   103         55
   104         38
   105        400
   106        102
   107        385
   108        148
   109        236
   110         61
   111         93
   112         16
   113         16
   114         18
   115         97
   116         46
   117        135
   118         98
   119        290
   120        193
   121        283
   122        226
   123        263
   124         67
   125         48
   126         13
   127         44
   128         90
   129        106
   130         43
   131        164
   132         61
   133        208
   134         78
   135        139
   136         74
   137         85
   138         65
   139         89
   140         27
   141         98
   142         49
   143        135
   144         53
   145        193
   146         62
   147        162
   148         73
   149        118
   150         41
   151         48
   152         22
   153         23
   154         22
   155         70
   156         38
   157        167
   158        122
   159        223
   160         70
   161        211
   162         59
   163         90
   164         25
   165         39
   166         12
   167         27
   168         12
   169         50
   170         24
   171        104
   172         48
   173        132
   174         57
   175        153
   176         68
   177         98
   178         36
   179         33
   180         13
   181         23
   182         12
   183         52
   184         32
   185        129
   186         56
   187        108
   188         44
   189         94
   190         38
   191         71
   192         20
   193         24
   194         18
   195         36
   196         20
   197         67
   198         38
   199        106
   200         62
   201         99
   202         39
   203         60
   204         18
   205         22
   206         13
   207         19
   208         10
   209         42
   210         23
   211        214
   212         52
   213        129
   214         50
   215         85
   216         42
   217         92
   218         75
   219         26
   220          8
   221         12
   222          6
   223         23
   224         22
   225         93
   226        117
   227        111
   228         38
   229        203
   230         52
   231        146
   232         54
   233         27
   234         18
   235         20
   236          5
   237         16
   238          5
   239         30
   240         10
   241         52
   242         42
   243        145
   244        310
   245        177
   246         37
   247        108
   248         20
   249         19
   250          6
   251         14
   252          6
   253         14
   254         10
   255         47
   256         12
   257         34
   258          8
   259         38
   260         49
   261        148
   262         78
   263         88
   264         13
   265         93
   266         19
   267         23
   268          8
   269         22
   270         13
   271         19
   272         55
   273         70
   274         13
   275         30
   276          6
   277          5
   278         20
   279          8
   280         12
   281         15
   282         12
   283        266
   284         59
   285         33
   286         10
   287         19
   288         13
   289          8
   290          8
   291         18
   292          2
   293         24
   294          3
   295          8
   296          6
   297         19
   298         41
   299         28
   300         25
   301        213
   302         53
   303         12
   304          2
   305          2
   308         21
   309          8
   310         12
   311         47
   312         12
   313         14
   314         15
   315         24
   316        101
   317         27
   318          3
   319         60
   320         12
   326        130
   327         38
   328         36
   329         42
   330         10
   331          8
   332          7
   333         18
   334         82
   335         16
   336          2
   342          8
   344        144
   345         37
   346         39
   347         13
   358          3
   360         13
   362        330
   363         81
   364         13