##TITLE=Library Entry 39711
##JCAMP-DX=Revision 4.10 
##DATA TYPE=MASS SPECTRUM
##SAMPLE DESCRIPTION=R.T.HOLMAN,UNIVERSITY OF MINNESOTA
##NAMES=HP
##CAS NAME=9-Octadecenamide, N,N-dipropyl-
##MOLFORM=C24H47NO
##CAS REGISTRY NO=56630-40-1
##MP= -300
##BP= -300
##MW= 365
##$RETENTION INDEX=0
##$CONDENSED SPECTRUM=NO
##NPOINTS= 114
##XYDATA=(XY..XY) 1 
    39         21
    40          6
    41        188
    42         48
    43        327
    44         30
    53         19
    54         49
    55        243
    56         56
    57         88
    58         56
    59          5
    60         11
    65          5
    66          7
    67         88
    68         27
    69        120
    70         50
    71         23
    72        999
    73         71
    74          5
    75          5
    77          8
    79         21
    80         11
    81         56
    82         17
    83         63
    84         22
    85         13
    86         82
    87         13
    91         17
    93         13
    94          5
    95         35
    96         11
    97         30
    98         24
    99         11
   100         88
   101        138
   102         47
   103          6
   107          6
   109         16
   110          6
   111         12
   112          9
   113          6
   114        291
   115         49
   121          6
   123          7
   124          5
   125          5
   126          7
   127          5
   128         90
   129         11
   130          5
   135          9
   140          6
   141          5
   142         17
   143        270
   144         31
   149          5
   154          6
   156        315
   157         54
   158          6
   168          5
   170         60
   171         13
   182          6
   184         22
   185          6
   196          8
   198         45
   199         11
   210         10
   212         98
   213         18
   224          8
   226         18
   238         20
   239          6
   240          6
   252         28
   253          9
   265         10
   266         86
   267         20
   268          5
   280         70
   281         16
   294         24
   295          7
   308         14
   309          6
   322         15
   323          7
   336         23
   337         10
   350          9
   363          8
   364         30
   365        290
   366         82
   367         14