##TITLE=Library Entry 98468
##JCAMP-DX=Revision 4.10 
##DATA TYPE=MASS SPECTRUM
##SAMPLE DESCRIPTION=Asinex Ltd, Moscow, Russia
##NAMES=HP
##CAS NAME=Indoline-1-carbothioamide
##MOLFORM=C9H10N2S
##CAS REGISTRY NO=56632-37-2
##MP= -300
##BP= -300
##MW= 178
##$RETENTION INDEX=0
##$CONDENSED SPECTRUM=NO
##NPOINTS= 106
##XYDATA=(XY..XY) 1 
    33          4
    34          0
    36          0
    37          3
    38         12
    39         73
    40          0
    41         13
    42          2
    43          0
    44         10
    45          5
    46          1
    50         18
    51         45
    52         15
    53          4
    54          0
    55          0
    56          0
    57          0
    58          2
    59         25
    60        108
    61          6
    62         13
    63         35
    64         14
    65         43
    66          7
    67          0
    69          3
    70          0
    71          1
    72          4
    73          2
    74          5
    75         12
    76         12
    77         40
    78         11
    79          1
    80          0
    81          1
    82          0
    83          0
    84          0
    86          1
    87          3
    88          8
    89        136
    90         93
    91        244
    92         19
    93          4
    95          0
    96          1
    97          0
    98          0
   101          9
   102         14
   103          8
   104          8
   105          0
   106         13
   107          0
   108          0
   109          4
   110          0
   111          0
   114          2
   115          4
   116         52
   117        213
   118        999
   119        483
   120         38
   121          4
   122          0
   123          1
   124          0
   127          0
   128         40
   129          4
   130          0
   131          0
   132          0
   133          0
   134          2
   135          2
   136          0
   142          2
   143         43
   144         65
   145         21
   146          1
   148          0
   150          8
   151         14
   160          0
   161          0
   177          6
   178        444
   179         55
   180         24
   181          0