##TITLE=Library Entry 81318
##JCAMP-DX=Revision 4.10 
##DATA TYPE=MASS SPECTRUM
##SAMPLE DESCRIPTION=R.T.HOLMAN,UNIVERSITY OF MINNESOTA
##NAMES=HP
##CAS NAME=Decanoic acid, 2-phenyl-1,3-dioxan-5-yl ester
##MOLFORM=C20H30O4
##CAS REGISTRY NO=56630-72-9
##MP= -300
##BP= -300
##MW= 334
##$RETENTION INDEX=0
##$CONDENSED SPECTRUM=NO
##NPOINTS= 134
##XYDATA=(XY..XY) 1 
    26          6
    27        117
    28         41
    29        270
    30          8
    31         28
    39         68
    40         16
    41        410
    42         91
    43        560
    44         24
    45         12
    50         15
    51         55
    52         17
    53         24
    54         41
    55        315
    56         78
    57        450
    58         42
    59         11
    60         13
    61          6
    63          9
    65         11
    67         51
    68         30
    69        160
    70         29
    71        390
    72         25
    73         21
    74         16
    75          7
    76         10
    77        207
    78         75
    79        175
    80         16
    81         79
    82         23
    83         63
    84         32
    85        250
    86         18
    87         12
    89         20
    90         29
    91        220
    92         30
    93         10
    95         87
    96         10
    97         34
    98         29
    99         15
   100        370
   101         34
   103          8
   104         11
   105        999
   106        161
   107        156
   108         17
   109         10
   110          6
   111         22
   112         11
   113        200
   114         18
   115          7
   116        270
   117         29
   118         24
   119         20
   120         12
   121          6
   122          8
   123          6
   125          6
   127         25
   129        156
   130         17
   131          6
   133         11
   134          6
   135         16
   137         19
   141          6
   143         19
   144         13
   149         73
   150          8
   151          6
   153         23
   154          5
   155        855
   156         95
   157         26
   162        160
   163         86
   164         13
   169         84
   170         12
   171         43
   172          6
   173          8
   179         29
   180          6
   181          6
   183         16
   185         52
   186          7
   199         17
   212        220
   213         52
   214          6
   220          6
   227         34
   228         34
   229          9
   233         19
   234          5
   247          6
   257        150
   258         24
   261         25
   262          6
   333        440
   334        276
   335         52
   336          8