##TITLE=Library Entry 56702
##JCAMP-DX=Revision 4.10 
##DATA TYPE=MASS SPECTRUM
##SAMPLE DESCRIPTION=R.T.HOLMAN,UNIVERSITY OF MINNESOTA
##NAMES=HP
##CAS NAME=9-Octadecenamide, N,N-dibutyl-
##MOLFORM=C26H51NO
##CAS REGISTRY NO=56630-41-2
##MP= -300
##BP= -300
##MW= 393
##$RETENTION INDEX=0
##$CONDENSED SPECTRUM=NO
##NPOINTS= 122
##XYDATA=(XY..XY) 1 
    39         19
    40          5
    41        196
    42         49
    43        158
    44         81
    45          6
    53         16
    54         42
    55        238
    56         58
    57        242
    58         19
    60          7
    65          6
    67         73
    68         29
    69        118
    70         40
    71         23
    72         41
    73         37
    74         10
    75          5
    77          9
    79         19
    80          9
    81         57
    82         17
    83         62
    84         40
    85         15
    86        999
    87         88
    88          7
    91          9
    93         11
    94          5
    95         36
    96         13
    97         29
    98         28
    99         11
   100         92
   101         15
   105          5
   107          8
   109         14
   110          7
   111         12
   112         15
   113          8
   114         71
   115         73
   116         12
   121          8
   123          7
   126          9
   127          8
   128        388
   129         78
   130         31
   131          5
   134          5
   135          6
   140         12
   141          7
   142         50
   143         12
   149          6
   154         11
   155          6
   156        297
   157         30
   158          6
   168          7
   170         11
   171         23
   172          5
   182          7
   184        252
   185         36
   186          5
   196          5
   198         44
   199          8
   210          7
   212         19
   224          7
   226         34
   227          8
   238         12
   240         81
   241         15
   252          8
   254         14
   265         11
   266         17
   267          6
   268          5
   280         24
   281          8
   294         66
   295         19
   296          5
   308         55
   309         14
   322         19
   323          6
   336         13
   337         10
   338          5
   350         27
   351         12
   364         18
   365          7
   378         10
   391          9
   392         32
   393        272
   394         80
   395         14