##TITLE=Library Entry 23992
##JCAMP-DX=Revision 4.10 
##DATA TYPE=MASS SPECTRUM
##SAMPLE DESCRIPTION=R.T.HOLMAN,UNIVERSITY OF MINNESOTA
##NAMES=HP
##CAS NAME=Octanamide, N-(2-mercaptoethyl)-
##MOLFORM=C10H21NOS
##CAS REGISTRY NO=56630-30-9
##MP= -300
##BP= -300
##MW= 203
##$RETENTION INDEX=0
##$CONDENSED SPECTRUM=NO
##NPOINTS= 182
##XYDATA=(XY..XY) 1 
    26        110
    27        570
    28        600
    29        520
    30        800
    31         28
    32         51
    33         25
    34         57
    35         69
    36         84
    37         17
    38         34
    39        270
    40         67
    41        840
    42        250
    43        960
    44        390
    45         78
    46         25
    47         79
    48         19
    49         12
    50         18
    51         28
    52         18
    53         74
    54        100
    55        580
    56        140
    57        999
    58         76
    59        200
    60        350
    61        230
    62         18
    63         20
    64          6
    65         18
    66         13
    67         90
    68         51
    69        160
    70         71
    71         89
    72        190
    73         81
    74         49
    75         14
    76         38
    77         92
    78         56
    79         31
    80         17
    81         55
    82         60
    83        110
    84         57
    85        600
    86         73
    87         84
    88         54
    89         10
    90          6
    91         22
    92          8
    93         13
    94         11
    95         33
    96         42
    97         63
    98        250
    99         65
   100         40
   101        100
   102         26
   103         12
   104         12
   105         20
   106          7
   107         12
   108          8
   109         43
   110         27
   111         26
   112         60
   113         21
   114         34
   115         30
   116         17
   117         12
   118          5
   119        270
   120         23
   121         20
   122          6
   123         12
   124         12
   125         16
   126         36
   127        360
   128         42
   129         27
   130          8
   131          6
   132        110
   133         17
   134         11
   135         10
   136          5
   137          8
   138          9
   139          8
   140         48
   141         31
   142         15
   143         12
   144        760
   145         72
   146         23
   147         11
   148          4
   149         26
   150          5
   151          5
   152          6
   153          8
   154         13
   155         16
   156         70
   157         15
   158          5
   159          5
   160         14
   161         22
   162          6
   163          7
   164          4
   165          7
   166          5
   167         15
   168         15
   169         22
   170         31
   171         12
   172          4
   173          4
   174         16
   175          5
   176          4
   177          4
   178          5
   179          6
   180          4
   181          4
   182          4
   183          5
   184          4
   185         21
   186          7
   187          5
   188          5
   189          6
   190          4
   191          5
   192          4
   193          6
   194          5
   195          6
   196          5
   197          5
   198          4
   199          5
   200          5
   201          4
   202         11
   203        160
   204         21
   205         12
   206          5
   207          5