##TITLE=Library Entry 90478
##JCAMP-DX=Revision 4.10 
##DATA TYPE=MASS SPECTRUM
##SAMPLE DESCRIPTION=R.T.HOLMAN,UNIVERSITY OF MINNESOTA
##NAMES=HP
##CAS NAME=Pyrrolidine, 1-(1-oxo-8,11-octadecadienyl)-
##MOLFORM=C22H39NO
##CAS REGISTRY NO=56630-35-4
##MP= -300
##BP= -300
##MW= 333
##$RETENTION INDEX=0
##$CONDENSED SPECTRUM=NO
##NPOINTS= 171
##XYDATA=(XY..XY) 1 
    39         48
    40         12
    41        280
    42         53
    43        250
    44         31
    45          5
    50          5
    51          6
    52          7
    53         49
    54         60
    55        460
    56        110
    57         40
    58          9
    59          7
    60          5
    63          5
    64          5
    65         24
    66         20
    67        230
    68         62
    69        120
    70        470
    71        130
    72        300
    73         18
    75          7
    77         58
    78         19
    79        130
    80         60
    81        130
    82         25
    83         29
    84         21
    85        140
    86         10
    91         60
    92         14
    93         56
    94         19
    95         69
    96         22
    97         18
    98        240
    99         38
   100         10
   103          6
   104          5
   105         22
   106          7
   107         25
   108         10
   109         22
   110         15
   111         14
   112         43
   113        999
   114         83
   115          9
   116          5
   117          6
   118          5
   119         12
   120          5
   121         14
   122          6
   123         11
   124         12
   125          8
   126        720
   127        130
   128         15
   129          5
   131          6
   133          8
   135         20
   136          7
   137          7
   138         11
   139          8
   140         78
   141         28
   142          5
   145          6
   147          5
   149          9
   150          9
   151          5
   152         27
   153         10
   154         58
   155         21
   156          5
   161          5
   163          6
   164          6
   165          5
   166         23
   167          8
   168        150
   169         23
   175          5
   177          5
   178          8
   179          6
   180         29
   181         10
   182         54
   183         10
   192          8
   193          5
   194         29
   195          9
   196         23
   197          7
   206         16
   207          7
   208        150
   209         37
   210         27
   211          7
   220         24
   221          9
   222         74
   223         18
   224         12
   225          5
   234         32
   235         10
   236         17
   237          7
   238          7
   246         12
   248         31
   249          9
   250         12
   251          7
   252          5
   260         17
   261          7
   262         41
   263         15
   264          7
   265          5
   266          5
   274          7
   275          5
   276         32
   277          9
   278          8
   279          5
   290         20
   291          7
   292          7
   293          5
   304         17
   305         12
   318          8
   328          5
   329          5
   330         13
   331         23
   332         19
   333        430
   334        110
   335         18
   336          5