##TITLE=Library Entry 6006
##JCAMP-DX=Revision 4.10 
##DATA TYPE=MASS SPECTRUM
##SAMPLE DESCRIPTION=DR. DUANE F ZINKEL
##NAMES=HP
##CAS NAME=1H-Naphtho[2,1-b]pyran-7-carboxylic acid, 3-ethyldodecahydro-3,4a
,7,10a-tetramethyl-, methyl ester, [3S-(3.alpha.,4a.beta.,6a.alpha.,7.beta.,
10a.beta.,10b.alpha.)]-
##MOLFORM=C21H36O3
##CAS REGISTRY NO=56630-93-4
##MP= -300
##BP= -300
##MW= 336
##$RETENTION INDEX=0
##$CONDENSED SPECTRUM=NO
##NPOINTS= 198
##XYDATA=(XY..XY) 1 
    26          7
    27        129
    28         65
    29        311
    30         10
    31         16
    32          5
    33          6
    38          2
    39         93
    40         24
    41        477
    42         45
    43        999
    44        103
    45         43
    48          3
    50          2
    51         10
    52          7
    53        124
    54         26
    55        475
    56         30
    57        187
    58         27
    59        105
    60          6
    61          5
    64         10
    65         36
    66         20
    67        227
    68         52
    69        162
    70         27
    71         84
    72         10
    73         40
    74          4
    75         10
    77         85
    78         23
    79        154
    80         35
    81        332
    82         85
    83        137
    84         14
    85         39
    87         10
    88         13
    89         26
    90         11
    91        111
    92         21
    93        132
    94         31
    95        149
    96         93
    97         35
    98          5
    99         49
   100          3
   101         39
   102          7
   103         36
   104          7
   105         92
   106         24
   107        163
   108         33
   109        138
   110         21
   111         21
   112         16
   113         25
   114         21
   115         13
   116         23
   117         19
   118          8
   119         84
   120         28
   121        311
   122         50
   123         91
   124         23
   125         43
   126          5
   127         15
   128          8
   129          8
   130          7
   131         20
   132          7
   133         57
   134         15
   135         73
   136         17
   137         23
   138          7
   139        116
   140         15
   141          6
   142          2
   143          4
   144          0
   145         21
   146          7
   147         49
   148         18
   149         10
   150          7
   151         15
   152          4
   153         37
   154          4
   155          3
   156          0
   157          3
   158          0
   159         20
   160          5
   161         47
   162          9
   163         20
   164          4
   165         21
   166          4
   167         12
   169         21
   170          3
   173         36
   174          7
   175         35
   176         54
   177         96
   178         14
   179         14
   180          8
   181         51
   182          9
   187         16
   188          8
   189         70
   190         12
   191         23
   192          4
   193          6
   195          3
   201          6
   203          6
   204         14
   205         19
   206          5
   207         12
   208          3
   209          3
   213          8
   215          5
   217          8
   219         14
   221         12
   229        182
   230         35
   231          9
   233          9
   235         17
   236         49
   237         21
   243         54
   244         13
   247        217
   248         44
   249         12
   251          5
   257         22
   258          6
   259         11
   261         63
   262         12
   275         91
   276         23
   277         47
   278         13
   289        210
   290         44
   291          7
   303         26
   304          8
   307        425
   308         88
   309         11
   319         11
   321        121
   322         26
   336          5