##TITLE=Library Entry 48463
##JCAMP-DX=Revision 4.10 
##DATA TYPE=MASS SPECTRUM
##SAMPLE DESCRIPTION=R.T.HOLMAN,UNIVERSITY OF MINNESOTA
##NAMES=HP
##CAS NAME=5-Nonynoic acid
##MOLFORM=C9H14O2
##CAS REGISTRY NO=56630-34-3
##MP= -300
##BP= -300
##MW= 154
##$RETENTION INDEX=0
##$CONDENSED SPECTRUM=NO
##NPOINTS= 71
##XYDATA=(XY..XY) 1 
    14         20
    15        120
    17         10
    18         30
    26        130
    27        940
    28        150
    29        540
    30         10
    31         50
    37         20
    38         90
    39        960
    40        410
    41        900
    42        150
    43        680
    44         20
    45        500
    50        210
    51        470
    52        460
    53        520
    54         70
    55        490
    56        200
    57         50
    58         50
    59        100
    60        190
    61         20
    62         40
    63        130
    64         20
    65        280
    66        160
    67        860
    68         70
    69         70
    70        130
    71         20
    73         20
    75         10
    77        400
    78         90
    79        999
    80        180
    81        370
    82         20
    83        500
    84         70
    85        110
    88         20
    91        100
    92         10
    93        180
    94        160
    95        160
    96         10
    97         90
    98         20
   107         20
   108         10
   109         10
   111         10
   112        350
   113         10
   121         10
   125         10
   126         30
   154         30