##TITLE=Library Entry 57907
##JCAMP-DX=Revision 4.10 
##DATA TYPE=MASS SPECTRUM
##SAMPLE DESCRIPTION=Exported from NIST MS Search
##NAMES=HP
##CAS NAME=2-Docosenoic acid, 2,4,21-trimethyl-, methyl ester, (Z)-
##MOLFORM=C26H50O2
##CAS REGISTRY NO=56630-81-0
##MP= -300
##BP= -300
##MW= 394
##$RETENTION INDEX=0
##$CONDENSED SPECTRUM=NO
##NPOINTS= 255
##XYDATA=(XY..XY) 1 
    12         10
    13         16
    15         36
    16         40
    24         10
    26         14
    27         20
    28        200
    29        200
    30         14
    31         20
    34         16
    37         30
    38         14
    39         84
    40         24
    41        450
    42        180
    43        869
    44         40
    45         30
    48         10
    51          2
    52         10
    53         60
    54         70
    55        629
    56        220
    57        629
    58         24
    59        130
    65         36
    66         14
    67        350
    68        130
    69        923
    70        100
    71        260
    72         40
    73         56
    74         16
    75         14
    76          4
    79         70
    80         40
    81        340
    82        210
    83        979
    84         76
    85        240
    86         20
    87         36
    88        999
    89         60
    90          2
    92         14
    93         40
    94         20
    95        470
    96        130
    97        380
    98         60
    99         80
   100         14
   101        759
   102         40
   103          4
   104          4
   105         30
   107         24
   108         20
   109        400
   110        224
   111        396
   112         64
   113         90
   114         40
   115         60
   116          4
   117          4
   119         10
   121         20
   122         24
   123        110
   124        160
   125        130
   126         40
   127        559
   128        200
   129         80
   131          4
   134          2
   135         10
   136          4
   137         50
   138         30
   139         60
   141         20
   142        739
   143        110
   144         16
   145         10
   146          2
   147          4
   148         10
   149         16
   150         14
   151         14
   152         14
   153         16
   154          2
   155         16
   156         20
   157         10
   158         14
   159         10
   160          4
   164         10
   165          2
   166         10
   167         44
   168         20
   169         40
   171          2
   172          4
   179         10
   180          2
   181          2
   182         16
   183         10
   184         16
   186          4
   190          4
   193          2
   194         14
   195          4
   196         10
   197          4
   199          4
   200         10
   201          4
   202          4
   203         10
   204          4
   205          4
   207         50
   210          2
   211         10
   213         14
   214         10
   215          4
   216          4
   217          4
   218          4
   220         14
   221         10
   222          4
   223         14
   225          4
   226          4
   227         14
   229         10
   231         20
   232          4
   234         14
   236         14
   237         10
   238         10
   240         14
   241         20
   242          4
   245         10
   246          4
   247         10
   249         10
   250         14
   251          4
   252         10
   253         10
   255          4
   257          4
   259          4
   260         10
   261          4
   262         10
   264          2
   265          4
   266          4
   269         20
   275          4
   276          2
   277         10
   280         10
   283         20
   284         10
   285         10
   288         10
   289          4
   290          4
   291         16
   292          4
   293          2
   294         14
   296         10
   298         14
   299          4
   301         10
   302          4
   304          4
   305         20
   306         30
   307         40
   308         10
   309         14
   312         14
   313          4
   319         20
   320         20
   321         10
   323          4
   325         40
   326         14
   332          4
   333         24
   334         24
   335         16
   336          4
   337         14
   338          4
   341          4
   342          4
   343          4
   345          4
   346          4
   347         14
   351         10
   352         14
   353          4
   355         10
   357          4
   360          2
   361         10
   362         54
   363        156
   364         40
   365         16
   377          2
   378         96
   379         10
   380          4
   392         16
   393         34
   394        759
   395         44
   396          4