##TITLE=Library Entry 89979
##JCAMP-DX=Revision 4.10 
##DATA TYPE=MASS SPECTRUM
##SAMPLE DESCRIPTION=R.T.HOLMAN,UNIVERSITY OF MINNESOTA
##NAMES=HP
##CAS NAME=Pyrrolidine, 1-(1-oxo-10-octadecynyl)-
##MOLFORM=C22H39NO
##CAS REGISTRY NO=56630-91-2
##MP= -300
##BP= -300
##MW= 333
##$RETENTION INDEX=0
##$CONDENSED SPECTRUM=NO
##NPOINTS= 118
##XYDATA=(XY..XY) 1 
    39         65
    40         17
    41        311
    42         69
    43        318
    44         23
    45          6
    51         11
    52         19
    53         62
    54         98
    55        428
    56        106
    57         69
    58          6
    59         28
    65         27
    66         19
    67        223
    68        106
    69        131
    70        304
    71        150
    72        175
    73         14
    74         28
    75          5
    77         40
    78         12
    79         87
    80         34
    81        190
    82         76
    83         62
    84         21
    85        117
    86          7
    87         16
    91         31
    92          6
    93         47
    94         24
    95        117
    96         65
    97         43
    98        146
    99         24
   100          5
   105         10
   106          4
   107         23
   108         14
   109         51
   110         43
   111         20
   112         28
   113        999
   114         98
   115         11
   119          7
   121         20
   122          9
   123         23
   124         16
   125         12
   126        256
   127         65
   128          6
   133          5
   135         16
   136         14
   137         12
   138         30
   139          8
   140         54
   141         13
   149         23
   150         18
   151          9
   152         15
   153          6
   154         31
   155          8
   163          7
   164          6
   165          6
   166          7
   168         32
   169          6
   178         10
   179          5
   180          6
   181          5
   182         31
   183          6
   192         10
   194          8
   196         58
   197          9
   206          6
   208          6
   210          8
   220          9
   222          5
   224          8
   234         16
   235          5
   236          5
   248         19
   249          6
   250          4
   262         17
   263         12
   276          6
   290          6
   304          6
   333         37
   334          9