##TITLE=Library Entry 89886
##JCAMP-DX=Revision 4.10 
##DATA TYPE=MASS SPECTRUM
##SAMPLE DESCRIPTION=R.T.HOLMAN,UNIVERSITY OF MINNESOTA
##NAMES=HP
##CAS NAME=Pyrrolidine, 1-(1-oxopentadecyl)-
##MOLFORM=C19H37NO
##CAS REGISTRY NO=56630-55-8
##MP= -300
##BP= -300
##MW= 295
##$RETENTION INDEX=0
##$CONDENSED SPECTRUM=NO
##NPOINTS= 94
##XYDATA=(XY..XY) 1 
    35         12
    36          7
    37          8
    38          6
    39         45
    40         16
    41        270
    42         89
    43        390
    44         24
    45          5
    47         11
    48          8
    49         50
    50          6
    51         19
    52          7
    53         19
    54         19
    55        250
    56         79
    57         84
    58         13
    59          7
    60          7
    64          5
    65          5
    66          5
    67         19
    68         21
    69         55
    70        210
    71        150
    72         71
    73          9
    77          5
    79          8
    80          5
    81         10
    82         10
    83         19
    84         28
    85         84
    86         19
    87          5
    88          6
    95          5
    96         14
    97         20
    98         98
    99         19
   100          8
   109          5
   110         12
   111         12
   112         22
   113        999
   114         70
   115          9
   124         10
   125          8
   126        190
   127         45
   128          8
   138         10
   139          6
   140         37
   141         10
   152          8
   154         20
   155         12
   166          6
   168         31
   169         10
   180          5
   182         18
   183          6
   194          5
   196         14
   197          7
   210         11
   211          6
   224         11
   225          6
   238         11
   239          6
   252         12
   253          5
   266         10
   267          5
   280          8
   294         12
   295         22
   296         10