##TITLE=Library Entry 89897
##JCAMP-DX=Revision 4.10 
##DATA TYPE=MASS SPECTRUM
##SAMPLE DESCRIPTION=R.T.HOLMAN,UNIVERSITY OF MINNESOTA
##NAMES=HP
##CAS NAME=Pyrrolidine, 1-(1-oxoheptadecyl)-
##MOLFORM=C21H41NO
##CAS REGISTRY NO=56630-54-7
##MP= -300
##BP= -300
##MW= 323
##$RETENTION INDEX=0
##$CONDENSED SPECTRUM=NO
##NPOINTS= 83
##XYDATA=(XY..XY) 1 
    35         15
    36          5
    37          5
    38          5
    39         25
    40          9
    41        220
    42         64
    43        380
    44         20
    47         14
    48         10
    49         53
    50          6
    51         18
    53         15
    54         14
    55        240
    56         75
    57         92
    58         10
    65          6
    66          5
    67         16
    68         16
    69         56
    70        170
    71        130
    72         66
    73          9
    79          5
    81         11
    82          6
    83         18
    84         32
    85         73
    86         20
    88          6
    95          7
    96          7
    97         10
    98         88
    99         16
   100          6
   109          5
   110          5
   111          6
   112         20
   113        999
   114         76
   115          9
   126        190
   127         43
   128          6
   140         34
   141         10
   142          5
   154         20
   155         10
   168         30
   169          8
   182         18
   183          6
   196         11
   197          5
   210         10
   211          5
   224         10
   225          5
   238          9
   239          5
   252          8
   253          5
   266          8
   267          5
   280         11
   281          5
   294          9
   295          5
   308          5
   322         14
   323         23
   324          8