##TITLE=Library Entry 24554
##JCAMP-DX=Revision 4.10 
##DATA TYPE=MASS SPECTRUM
##SAMPLE DESCRIPTION=O A MAMER, MCGILL UNIVERSITY, MONTRE
##NAMES=HP
##CAS NAME=3-Hydroxypropyl palmitate, TMS derivative
##MOLFORM=C22H46O3Si
##CAS REGISTRY NO=56630-48-9
##MP= -300
##BP= -300
##MW= 386
##$RETENTION INDEX=0
##$CONDENSED SPECTRUM=NO
##NPOINTS= 165
##XYDATA=(XY..XY) 1 
    16         12
    17         19
    18         78
    26         22
    27         83
    28         52
    29        232
    30          7
    31         10
    38          5
    39         53
    40         15
    41        484
    42        126
    43        868
    44         30
    45         62
    46          5
    47         23
    52          6
    53         21
    54         45
    55        509
    56        122
    57        999
    58         76
    59         75
    60         20
    61         48
    66          5
    67        114
    68         50
    69        299
    70         76
    71        604
    72         56
    73        688
    74         70
    75        469
    76         34
    77         36
    78          5
    79         26
    80         12
    81        146
    82         40
    83        263
    84        242
    85        382
    86         32
    87         40
    88         18
    89         23
    91         16
    93         22
    94         10
    95        218
    96         34
    97        172
    98        203
    99        104
   100        286
   101         80
   102         15
   103        232
   104         24
   105         91
   106          9
   107         18
   108          6
   109        129
   110         19
   111         68
   112         51
   113        220
   114         26
   115        205
   116         43
   117        108
   118         13
   119          8
   121         20
   122          5
   123         67
   124         10
   125         30
   126         11
   127         30
   128          6
   129        110
   130        526
   131        201
   132         42
   133        257
   134         31
   135         30
   136          5
   137         34
   138          6
   139         14
   140          9
   141         17
   142          5
   143          7
   145          8
   147         56
   148          8
   149        188
   150         25
   151         21
   153          5
   154         12
   155         27
   156         13
   157          8
   159          5
   160          5
   165          8
   168          5
   169         35
   170         10
   171          7
   173         15
   174          7
   182          7
   183          9
   185          6
   187         35
   188          5
   190        206
   191         32
   192         12
   197          9
   199          5
   203         38
   204          9
   205          5
   207         22
   208          5
   209          5
   211         14
   221         15
   225          8
   238         16
   239        763
   240        140
   241         17
   253         22
   267         11
   281         10
   283          6
   295         16
   296         35
   297         11
   311          5
   313         57
   314         14
   329         49
   330         14
   355          7
   371        171
   372         49
   373         14
   386          9
   387          3