##TITLE=Library Entry 89971
##JCAMP-DX=Revision 4.10 
##DATA TYPE=MASS SPECTRUM
##SAMPLE DESCRIPTION=R.T.HOLMAN,UNIVERSITY OF MINNESOTA
##NAMES=HP
##CAS NAME=Pyrrolidine, 1-(12-methyl-1-oxotetradecyl)-
##MOLFORM=C19H37NO
##CAS REGISTRY NO=56630-61-6
##MP= -300
##BP= -300
##MW= 295
##$RETENTION INDEX=0
##$CONDENSED SPECTRUM=NO
##NPOINTS= 73
##XYDATA=(XY..XY) 1 
    39         38
    40         13
    41        280
    42         63
    43        280
    44         17
    47          5
    49          7
    51          7
    53         18
    54         14
    55        290
    56         94
    57        170
    58         11
    59          5
    67         20
    68         22
    69         58
    70        200
    71        140
    72         64
    73          8
    79          6
    81         10
    82          6
    83         18
    84         16
    85         86
    86          8
    95          6
    96          6
    97         10
    98         95
    99         17
   100          6
   109          5
   110          6
   111          7
   112         22
   113        999
   114         76
   115          8
   124          5
   125          5
   126        190
   127         48
   128          8
   138          5
   140         38
   141         10
   152          5
   154         19
   155          9
   168         31
   169          8
   182         16
   183          7
   196         13
   210         10
   224          9
   225          6
   238         18
   239          6
   252          6
   253          5
   266         23
   267          7
   280         14
   281          6
   294          9
   295         22
   296          8