##TITLE=Library Entry 90447
##JCAMP-DX=Revision 4.10 
##DATA TYPE=MASS SPECTRUM
##SAMPLE DESCRIPTION=R.T.HOLMAN,UNIVERSITY OF MINNESOTA
##NAMES=HP
##CAS NAME=Pyrrolidine, 1-(1-oxo-10,13-octadecadienyl)-
##MOLFORM=C22H39NO
##CAS REGISTRY NO=56630-38-7
##MP= -300
##BP= -300
##MW= 333
##$RETENTION INDEX=0
##$CONDENSED SPECTRUM=NO
##NPOINTS= 155
##XYDATA=(XY..XY) 1 
    39         43
    40          9
    41        260
    42         48
    43        200
    44         27
    45          5
    47          5
    48          5
    49         11
    51          7
    53         42
    54         68
    55        450
    56        110
    57         40
    58          8
    59          5
    60         20
    61          5
    65         23
    66         20
    67        270
    68         63
    69        110
    70        410
    71        130
    72        250
    73         24
    75          5
    77         43
    78         15
    79         95
    80         46
    81        150
    82         28
    83         30
    84         18
    85        120
    86         10
    87          6
    91         37
    92          8
    93         40
    94         15
    95         64
    96         21
    97         16
    98        220
    99         28
   100          7
   101          6
   105         11
   106          6
   107         18
   108          8
   109         18
   110         12
   111         10
   112         38
   113        999
   114         76
   115         12
   116          6
   117          6
   119          6
   120          5
   121         14
   122          5
   123         10
   124         11
   125          7
   126        580
   127        120
   128         12
   129          8
   131          5
   133          5
   135          9
   136          7
   137          7
   138          6
   139          5
   140         86
   141         25
   142          5
   143          6
   149          7
   150          6
   151          5
   152         16
   153          5
   154         44
   155         14
   163          6
   165          5
   166         13
   167          6
   168         68
   169         15
   175          5
   176          5
   177          5
   178          6
   179          5
   180         15
   181          6
   182         64
   183         14
   194         14
   195          5
   196         76
   197         13
   202          5
   206          9
   208         18
   209          5
   210         24
   211          6
   220         12
   221          5
   222         19
   224         16
   234         19
   235          5
   236         78
   237         26
   238         22
   239          5
   248         15
   249          7
   250         68
   251         25
   252          8
   262         17
   263          9
   264         14
   265          5
   274          6
   276         23
   277          8
   278          8
   288          7
   290         35
   291         13
   292          7
   304         32
   305         10
   318          7
   330          7
   331         15
   332         18
   333        400
   334         95
   335         18