##TITLE=Library Entry 6011
##JCAMP-DX=Revision 4.10 
##DATA TYPE=MASS SPECTRUM
##SAMPLE DESCRIPTION=R.T.HOLMAN,UNIVERSITY OF MINNESOTA
##NAMES=HP
##CAS NAME=13-Docosenoic acid, methyl ester
##MOLFORM=C23H44O2
##CAS REGISTRY NO=56630-69-4
##MP= -300
##BP= -300
##MW= 352
##$RETENTION INDEX=2499
##$CONDENSED SPECTRUM=NO
##NPOINTS= 238
##XYDATA=(XY..XY) 1 
    26         80
    27        270
    28         80
    29        340
    30         10
    31         19
    32         17
    33          2
    35          2
    36         10
    37         30
    38         40
    39        200
    40         40
    41        720
    42        170
    43        999
    44         30
    45         20
    46          1
    47          3
    48          1
    49          1
    50          5
    51         10
    52         10
    53         80
    54        150
    55        620
    56        160
    57        240
    58         80
    59        150
    60         10
    61          3
    62          2
    63          6
    64          2
    65         20
    66         20
    67        190
    68         80
    69        310
    70        100
    71         60
    72          4
    73         30
    74        300
    75         30
    76          3
    77         20
    78          6
    79         50
    80         20
    81        110
    82         60
    83        180
    84         70
    85         30
    86          3
    87        110
    88         10
    89          2
    90          1
    91         10
    92          5
    93         20
    94         10
    95         70
    96         70
    97        110
    98         60
    99         10
   100          2
   101         20
   102          2
   103          2
   104          2
   105         10
   106          3
   107         10
   108         10
   109         30
   110         30
   111         40
   112         10
   113         10
   114          6
   115         10
   116          3
   117          2
   118          1
   119          7
   120          4
   121         10
   122          5
   123         20
   124         20
   125         20
   126         10
   127         10
   128         10
   129         10
   130          4
   131          2
   132          1
   133          5
   134          5
   135         10
   136          4
   137         10
   138         10
   139         10
   140          5
   141         10
   142          4
   143         10
   144          2
   145          1
   147          3
   148          4
   149          7
   150          4
   151         10
   152         10
   153         10
   154          3
   155          4
   156          2
   157          4
   158          1
   159          1
   161          3
   162          2
   163          5
   164          2
   165          6
   166          7
   167          7
   168          2
   169          3
   170          1
   171          3
   172          1
   173          1
   175          3
   176          2
   177          3
   178          2
   179          4
   180          5
   181          5
   182          2
   183          2
   184          1
   185          4
   186          2
   189          2
   190          1
   191          2
   192          1
   193          4
   194          5
   195          3
   196          2
   197          2
   199          3
   200          2
   201          1
   203          2
   204          1
   205          1
   206          1
   207          4
   208          6
   209          3
   210          2
   211          2
   212          1
   213          3
   214          1
   219          1
   220          2
   221          4
   222         10
   223          4
   224          2
   225          2
   226          1
   227          2
   228          1
   235          4
   236         13
   237          3
   238          4
   239          2
   240          2
   241          1
   242          2
   243          1
   249          5
   250          4
   251          2
   252          2
   253          2
   254          1
   255          2
   256          2
   263          4
   264          4
   265          2
   266          2
   267          1
   268          1
   269          2
   270          2
   271          1
   276          5
   277          5
   278         13
   279          4
   280          2
   281          2
   291          3
   292          4
   293          2
   302          4
   303          2
   309          2
   320         80
   321         30
   322          5
   323          2
   324          1
   326          2
   352         13
   353          3
   354          2