##TITLE=Library Entry 9448
##JCAMP-DX=Revision 4.10 
##DATA TYPE=MASS SPECTRUM
##SAMPLE DESCRIPTION=R.T.HOLMAN,UNIVERSITY OF MINNESOTA
##NAMES=HP
##CAS NAME=6,9,12-Octadecatrien-1-ol
##MOLFORM=C18H32O
##CAS REGISTRY NO=56630-94-5
##MP= -300
##BP= -300
##MW= 264
##$RETENTION INDEX=0
##$CONDENSED SPECTRUM=NO
##NPOINTS= 118
##XYDATA=(XY..XY) 1 
    39        161
    40         33
    41        736
    42        210
    43        999
    44         49
    45        666
    46         15
    51         21
    52         19
    53        103
    54        171
    55        491
    56         71
    57        170
    58         22
    59         24
    60        438
    61         22
    63         10
    65         66
    66        152
    67        824
    68        182
    69        189
    70         64
    71         91
    72         15
    73         14
    74         19
    75         15
    77        171
    78        178
    79        754
    80        842
    81        456
    82        161
    83         85
    84         54
    85         82
    86         14
    91        421
    92        128
    93        456
    94        263
    95        280
    96        135
    97         82
    98        210
    99         33
   103         12
   104         21
   105        140
   106         73
   107        157
   108         71
   109         94
   110         61
   111         61
   112         35
   113         12
   115         15
   116          8
   117         21
   118         12
   119         89
   120         36
   121        100
   122         54
   123         45
   124         42
   125         19
   126         12
   131         12
   133         47
   134         17
   135         78
   136         33
   137         64
   138         24
   139         12
   140         12
   147         21
   148         19
   149         35
   150        298
   151         50
   152         14
   153         12
   154         10
   161         26
   162         17
   163         47
   164         29
   165         17
   166         98
   167         22
   175         15
   177         33
   178         24
   179         19
   180         14
   189         10
   191         17
   192         12
   193         19
   194         15
   205         10
   207         14
   208         12
   209          8
   210         14
   221          8
   222          7
   223          8
   264         96
   265         26
   266         10