##TITLE=Library Entry 73754
##JCAMP-DX=Revision 4.10 
##DATA TYPE=MASS SPECTRUM
##SAMPLE DESCRIPTION=R.T.HOLMAN,UNIVERSITY OF MINNESOTA
##NAMES=HP
##CAS NAME=9-Octadecenamide, N-(1-methylethyl)-
##MOLFORM=C21H41NO
##CAS REGISTRY NO=56630-50-3
##MP= -300
##BP= -300
##MW= 323
##$RETENTION INDEX=0
##$CONDENSED SPECTRUM=NO
##NPOINTS= 198
##XYDATA=(XY..XY) 1 
    39        130
    40         38
    41        810
    42        190
    43        990
    44        890
    45         28
    46         10
    47        120
    48         65
    49        590
    50         31
    51        170
    52          8
    53         74
    54        140
    55        690
    56        150
    57        330
    58        230
    59         54
    60        160
    61          8
    63          5
    64          5
    65         19
    66         15
    67        230
    68         62
    69        310
    70         97
    71         68
    72         96
    73         59
    74         17
    75          8
    76          6
    77         23
    78          9
    79         47
    80         23
    81        130
    82         39
    83        140
    84        310
    85         43
    86        320
    87         32
    88         41
    89          6
    90          5
    91         21
    92          8
    93         22
    94         11
    95         76
    96         27
    97         65
    98         48
    99         19
   100         57
   101        999
   102         70
   103          9
   104          6
   105         13
   106          6
   107         13
   108          8
   109         31
   110         14
   111         28
   112         17
   113         12
   114        890
   115        140
   116         12
   117          7
   118          5
   119         10
   120          6
   121         14
   122          9
   123         21
   124         11
   125         11
   126         13
   127         11
   128        110
   129         35
   130          7
   131          5
   133          8
   134          6
   135         11
   136          8
   137         14
   138         10
   139          9
   140         18
   141         10
   142         51
   143         26
   144          7
   145          6
   146          5
   147         11
   148          5
   149         14
   150          7
   151          8
   152          7
   153          7
   154         34
   155         12
   156        110
   157         26
   158          6
   159          6
   161          5
   163          5
   164          5
   165          7
   166          8
   167          6
   168         61
   169         15
   170        120
   171         24
   172          6
   173          5
   175          5
   176          5
   177          5
   178          7
   179          6
   180          6
   181          5
   182         37
   183         12
   184         36
   185         12
   186          5
   187          5
   189          6
   192          5
   193          6
   194          5
   195          5
   196         51
   197         14
   198         17
   199          8
   206          6
   207          5
   208          5
   209          5
   210         43
   211         14
   212         12
   213          5
   220          5
   221          8
   222          6
   223          5
   224         62
   225         15
   226         11
   227          7
   234          7
   238         51
   239         15
   240         11
   241          6
   252         35
   253         11
   254          7
   263          5
   264          6
   265          9
   266         26
   267         10
   268         10
   269          5
   280         30
   281         11
   282          6
   283          5
   294         20
   295          9
   296          5
   308         11
   309          6
   321          8
   322         15
   323        300
   324         66
   325         10