##TITLE=Library Entry 90546
##JCAMP-DX=Revision 4.10 
##DATA TYPE=MASS SPECTRUM
##SAMPLE DESCRIPTION=R.T.HOLMAN,UNIVERSITY OF MINNESOTA
##NAMES=HP
##CAS NAME=Pyrrolidine, 1-(1-oxo-9,12-octadecadienyl)-
##MOLFORM=C22H39NO
##CAS REGISTRY NO=56630-36-5
##MP= -300
##BP= -300
##MW= 333
##$RETENTION INDEX=0
##$CONDENSED SPECTRUM=NO
##NPOINTS= 159
##XYDATA=(XY..XY) 1 
    39         42
    40         12
    41        257
    42         53
    43        204
    44         26
    45          5
    48          5
    49         11
    51          7
    52          8
    53         45
    54         67
    55        444
    56        108
    57         35
    58          9
    63          6
    64          5
    65         24
    66         20
    67        253
    68         56
    69        106
    70        402
    71        112
    72        283
    73         17
    77         51
    78         18
    79        123
    80         70
    81        133
    82         25
    83         27
    84         18
    85        112
    86         10
    91         41
    92         12
    93         51
    94         18
    95         63
    96         21
    97         18
    98        210
    99         32
   100          9
   103          5
   105         15
   106          7
   107         22
   108          9
   109         22
   110         14
   111         11
   112         36
   113        999
   114         74
   115          9
   116          6
   117          6
   119          7
   121         15
   122          6
   123          9
   124         12
   125          8
   126        682
   127        138
   128         13
   129          5
   131          5
   133          7
   135         13
   136          7
   137          6
   138          9
   139          8
   140         89
   141         24
   142          7
   145          6
   147          5
   149          9
   150          8
   151          6
   152         21
   153          9
   154         49
   155         15
   163          7
   164          7
   165          5
   166         14
   167          8
   168         81
   169         18
   170          5
   177          5
   178          6
   179          6
   180         21
   181          7
   182        103
   183         18
   192          6
   193          5
   194         18
   195          6
   196         34
   197          8
   206         11
   207          7
   208         28
   209          9
   210         19
   211          6
   216          7
   220         19
   221          6
   222        100
   223         33
   224         24
   225          6
   234         27
   235          9
   236         68
   237         22
   238         11
   248         24
   249          7
   250         14
   251          6
   252          6
   260          9
   262         31
   263         12
   264          8
   274         10
   275          5
   276         35
   277         14
   278          9
   279          6
   288          5
   290         32
   291         10
   292          6
   304         20
   305          6
   318          7
   329          6
   330         10
   331         18
   332         18
   333        470
   334        112
   335         19