##TITLE=Library Entry 89902
##JCAMP-DX=Revision 4.10 
##DATA TYPE=MASS SPECTRUM
##SAMPLE DESCRIPTION=R.T.HOLMAN,UNIVERSITY OF MINNESOTA
##NAMES=HP
##CAS NAME=Pyrrolidine, 1-(3,6-dimethyl-1-oxopentadecyl)-
##MOLFORM=C21H41NO
##CAS REGISTRY NO=56630-62-7
##MP= -300
##BP= -300
##MW= 323
##$RETENTION INDEX=0
##$CONDENSED SPECTRUM=NO
##NPOINTS= 42
##XYDATA=(XY..XY) 1 
    39         28
    40          8
    41        210
    42         61
    43        310
    44         14
    53         12
    54          8
    55        260
    56         80
    57        100
    58          6
    67         12
    68         14
    69         75
    70        140
    71        110
    72         53
    81          9
    83         16
    84          9
    85         85
    95          6
    96          5
    97         10
    98        140
    99         11
   111          6
   112         23
   113        999
   114         80
   126         14
   140        190
   141         33
   154         29
   155          7
   168         21
   196         18
   210         11
   308         14
   322          5
   323         11