##TITLE=Library Entry 49539
##JCAMP-DX=Revision 4.10 
##DATA TYPE=MASS SPECTRUM
##SAMPLE DESCRIPTION=R.T.HOLMAN,UNIVERSITY OF MINNESOTA
##NAMES=HP
##CAS NAME=4,7-Octadecadienoic acid, methyl ester
##MOLFORM=C19H34O2
##CAS REGISTRY NO=56630-29-6
##MP= -300
##BP= -300
##MW= 294
##$RETENTION INDEX=0
##$CONDENSED SPECTRUM=NO
##NPOINTS= 236
##XYDATA=(XY..XY) 1 
    26          6
    27        128
    28         60
    29        277
    30          8
    31          9
    32         11
    33          6
    38          4
    39        121
    40         23
    41        547
    42         69
    43        486
    44         22
    45         23
    46          2
    47          1
    49          2
    50          4
    51         16
    52         15
    53         93
    54        168
    55        445
    56         64
    57        209
    58         14
    59        141
    60          8
    61          6
    62          2
    63          6
    64          4
    65         55
    66        101
    67        560
    68        162
    69        219
    70         40
    71        101
    72         10
    73         10
    74        155
    75         20
    76          4
    77        195
    78        155
    79        695
    80        999
    81        520
    82        314
    83        202
    84         84
    85        141
    86         10
    87         37
    88         11
    89          6
    90          4
    91        222
    92         66
    93        540
    94        418
    95        317
    96        331
    97        148
    98         83
    99         22
   100          6
   101         19
   102          4
   103          9
   104         10
   105         62
   106         58
   107        162
   108        108
   109        162
   110        108
   111         61
   112         15
   113         20
   114         15
   115         25
   116          5
   117         14
   118          8
   119         30
   120         20
   121        155
   122        128
   123         86
   124         60
   125         27
   126         32
   127         43
   128         17
   129         20
   130          4
   131         19
   132          6
   133         17
   134         10
   135        175
   136        118
   137         52
   138         50
   139         14
   140        128
   141         26
   142          6
   143          8
   144          2
   145         10
   146          5
   147         10
   148          6
   149         70
   150         74
   151         33
   152         43
   153         16
   154        114
   155         19
   156          4
   157          5
   158          2
   159          8
   160          6
   161          6
   162          3
   163         35
   164         39
   165         29
   166         62
   167         23
   168         25
   169          7
   170          2
   171          4
   172          1
   173          8
   174          2
   175          4
   176          2
   177         21
   178         47
   179         24
   180         22
   181         14
   182         10
   183          4
   184          1
   185          3
   186          1
   187          4
   188          2
   189          2
   190          2
   191         12
   192          8
   193         10
   194          6
   195         14
   196          8
   197          2
   198          1
   199          2
   200          1
   201          2
   202          2
   203          2
   204          2
   205          7
   206         13
   207          8
   208          6
   209         10
   210          6
   211          2
   212          2
   213          2
   214          2
   215          2
   216          2
   217          2
   218          6
   219          8
   220        567
   221        108
   222          9
   223          5
   224          3
   225          1
   226          2
   227          2
   228          2
   233          8
   234         30
   235          8
   236          2
   237          4
   238          2
   239          2
   240          2
   241          2
   242          1
   243          2
   244          3
   245         12
   246          3
   247          2
   248          1
   249          1
   250          1
   251          3
   252          2
   253          1
   261          4
   262         82
   263        128
   264         25
   265          5
   266          3
   267          2
   268          1
   278          1
   279          1
   280          2
   281          2
   282          1
   294        283
   295         59
   296          8
   297          2