##TITLE=Library Entry 11292
##JCAMP-DX=Revision 4.10 
##DATA TYPE=MASS SPECTRUM
##SAMPLE DESCRIPTION=R.T.HOLMAN,UNIVERSITY OF MINNESOTA
##NAMES=HP
##CAS NAME=9-Octadecenamide, N-propyl-
##MOLFORM=C21H41NO
##CAS REGISTRY NO=56630-49-0
##MP= -300
##BP= -300
##MW= 323
##$RETENTION INDEX=0
##$CONDENSED SPECTRUM=NO
##NPOINTS= 184
##XYDATA=(XY..XY) 1 
    38         12
    39        110
    40         22
    41        700
    42        130
    43        999
    44        135
    45         12
    50         10
    51         15
    52         12
    53         62
    54        150
    55        580
    56        140
    57        240
    58        100
    59         40
    60        230
    61         18
    65         20
    66         20
    67        185
    68         65
    69        240
    70         60
    71         40
    72         72
    73        100
    74         18
    75         20
    76         18
    77         30
    78         18
    79         55
    80         30
    81        110
    82         35
    83        115
    84         50
    85         30
    86        215
    87         20
    88         11
    91         20
    92         15
    93         30
    94         20
    95         65
    96         30
    97         55
    98         50
    99         20
   100         30
   101        780
   102         75
   103         15
   104         20
   105         20
   107         25
   108         15
   109         35
   110         30
   111         25
   112         20
   113         13
   114        820
   115        115
   116         20
   119         15
   120         10
   121         20
   122         30
   123         25
   124         15
   125         15
   126         15
   127         12
   128        100
   129         40
   130         10
   131         10
   133         15
   135         18
   136         20
   137         20
   138         15
   139         10
   140         20
   141         20
   142         45
   143         22
   144         12
   145         12
   147         12
   148         12
   149         30
   150         15
   151         12
   152         12
   153         12
   154         32
   155         15
   156         88
   157         30
   158         12
   160         20
   161         10
   162         10
   163         15
   164         18
   165         15
   166         15
   167         15
   168         55
   169         20
   170         95
   171         25
   172         12
   174         12
   178         14
   180         10
   181         10
   182         30
   183         15
   184         32
   185         10
   186         10
   189         10
   190         10
   191         10
   192         10
   193         12
   194         10
   196         45
   197         20
   198         20
   200         12
   201         11
   202         11
   204         10
   206         10
   208         10
   210         35
   211         20
   212         20
   213         10
   220         11
   221         12
   222         10
   223         12
   224         50
   225         20
   226         20
   234         12
   235         10
   236         10
   238         40
   239         20
   240         20
   241         10
   252         30
   253         15
   254         15
   255         15
   262         10
   263         12
   264         12
   265         25
   266         28
   267         12
   268         12
   280         35
   281         15
   282         15
   294         50
   295         20
   308         15
   309         10
   321         15
   322         20
   323        210
   324         50
   325         15