##TITLE=Library Entry 2023
##JCAMP-DX=Revision 4.10 
##DATA TYPE=MASS SPECTRUM
##SAMPLE DESCRIPTION=R.T.HOLMAN,UNIVERSITY OF MINNESOTA
##NAMES=HP
##CAS NAME=3-Nonynoic acid
##MOLFORM=C9H14O2
##CAS REGISTRY NO=56630-33-2
##MP= -300
##BP= -300
##MW= 154
##$RETENTION INDEX=0
##$CONDENSED SPECTRUM=NO
##NPOINTS= 121
##XYDATA=(XY..XY) 1 
    12         11
    14         11
    15         51
    16         11
    18         11
    26        100
    27        910
    28        140
    29        730
    30         18
    31         18
    32          3
    36          2
    37         29
    38         98
    39        820
    40        130
    41        999
    42        220
    43        230
    44         84
    45        270
    48          2
    49         11
    50        150
    51        310
    52        300
    53        340
    54        120
    55        440
    56        140
    57        130
    58         18
    59          7
    60         25
    61         18
    62         29
    63         73
    64         18
    65        140
    66         80
    67        340
    68         91
    69        130
    70        370
    71         51
    72          5
    73         18
    74         11
    75          7
    76          4
    77        120
    78         33
    79        320
    80         55
    81        250
    82         65
    83        100
    84         55
    85         11
    86         25
    87          5
    88          1
    90          1
    91         44
    92         11
    93        140
    94        250
    95        160
    96         15
    97        210
    98        130
    99         84
   100         15
   101          3
   102          3
   103          3
   104          1
   105          6
   106          3
   107         29
   108         76
   109         51
   110          7
   111         29
   112         18
   113          5
   114          1
   115          1
   116          1
   117          2
   118          1
   119          2
   120          1
   121         18
   122          3
   123          3
   124          3
   125         20
   126          7
   127          4
   128          2
   129          1
   131          1
   133          1
   135          3
   136          3
   137          4
   138          2
   139         15
   140          2
   141          1
   142          1
   149          1
   150          1
   151          1
   152          1
   153          2
   154          4
   155          3
   156          1