##TITLE=Library Entry 77651
##JCAMP-DX=Revision 4.10 
##DATA TYPE=MASS SPECTRUM
##SAMPLE DESCRIPTION=Exported from NIST MS Search
##NAMES=HP
##CAS NAME=Oxiranecarboxylic acid, 2-ethyl-3-methyl-3-phenyl-, ethyl ester
##MOLFORM=C14H18O3
##CAS REGISTRY NO=56630-76-3
##MP= -300
##BP= -300
##MW= 234
##$RETENTION INDEX=0
##$CONDENSED SPECTRUM=NO
##NPOINTS= 57
##XYDATA=(XY..XY) 1 
    41         48
    43        620
    44         24
    50         41
    51        135
    52         48
    53         17
    55         24
    57        480
    58         13
    63         39
    64          4
    65         33
    76         26
    77        315
    78        276
    79         41
    89         24
    90          7
    91        167
    92         11
   102         63
   103        452
   104        999
   105        263
   106          7
   115         22
   116          4
   117         15
   119         20
   120          7
   121        500
   122         48
   128         17
   129         20
   130          4
   131         22
   132         63
   133         39
   145        150
   146        200
   147         98
   148          7
   149        700
   150         85
   159         20
   160        261
   161        152
   162         22
   173         11
   174         13
   188         15
   205          4
   219         17
   233          7
   234         46
   235          2