##TITLE=Library Entry 2208
##JCAMP-DX=Revision 4.10 
##DATA TYPE=MASS SPECTRUM
##SAMPLE DESCRIPTION=R.T.HOLMAN,UNIVERSITY OF MINNESOTA
##NAMES=HP
##CAS NAME=6-Nonynoic acid
##MOLFORM=C9H14O2
##CAS REGISTRY NO=56630-31-0
##MP= -300
##BP= -300
##MW= 154
##$RETENTION INDEX=0
##$CONDENSED SPECTRUM=NO
##NPOINTS= 127
##XYDATA=(XY..XY) 1 
    12          4
    13          3
    14         17
    15         77
    16          9
    17         21
    18         64
    19          5
    25          3
    26         72
    27        550
    28        110
    29        180
    30          7
    31         51
    32          9
    33          1
    34          1
    35          1
    36          1
    37         26
    38         94
    39        940
    40        180
    41        999
    42        150
    43        190
    44         17
    45        470
    46         13
    47          6
    48          2
    49          9
    50        120
    51        240
    52        160
    53        340
    54         81
    55        240
    56         55
    57         30
    58         13
    59         13
    60         60
    61         17
    62         43
    63        110
    64         26
    65        200
    66        130
    67        570
    68        150
    69         55
    70         43
    71         26
    72          3
    73         30
    74         21
    75         13
    76          7
    77        210
    78         55
    79        790
    80        110
    81        230
    82         43
    83         77
    84         47
    85         16
    86          9
    87         13
    88          2
    89          6
    90          3
    91         89
    92         17
    93        170
    94        430
    95        170
    96         17
    97         38
    98         21
    99          9
   100          5
   101          2
   102          1
   103          4
   104          1
   105          7
   106          2
   107         21
   108         43
   109         26
   110          5
   111         13
   112         26
   113          4
   114          1
   115          1
   116          1
   117          4
   118          3
   119          2
   120          1
   121         26
   122          3
   123          2
   124          2
   125          9
   126          5
   127          2
   128          1
   129          1
   134          2
   135          5
   136         13
   137          4
   138          1
   139          5
   140          1
   144          1
   151          1
   152          1
   153          7
   154         17
   155          2
   156          1