##TITLE=Library Entry 89904
##JCAMP-DX=Revision 4.10 
##DATA TYPE=MASS SPECTRUM
##SAMPLE DESCRIPTION=R.T.HOLMAN,UNIVERSITY OF MINNESOTA
##NAMES=HP
##CAS NAME=Pyrrolidine, 1-(3,7,11,15-tetramethyl-1-oxohexadecyl)-
##MOLFORM=C24H47NO
##CAS REGISTRY NO=56630-63-8
##MP= -300
##BP= -300
##MW= 365
##$RETENTION INDEX=0
##$CONDENSED SPECTRUM=NO
##NPOINTS= 61
##XYDATA=(XY..XY) 1 
    39         23
    40         16
    41        200
    42         58
    43        360
    44         18
    53         13
    54          9
    55        260
    56         78
    57        160
    58         12
    59          7
    67         17
    68         16
    69        110
    70        130
    71        150
    72         54
    73          7
    74         21
    75         11
    81         12
    82          6
    83         23
    84         10
    85         73
    86          6
    95          9
    96          7
    97         18
    98        130
    99         11
   101         32
   109          6
   111          9
   112         22
   113        999
   114         80
   115          7
   124          5
   126         21
   127          6
   139          5
   140        160
   141         34
   154         35
   155          5
   168         10
   169          6
   182         42
   183          6
   210         10
   224         12
   252          9
   280          6
   294          6
   322          5
   350         21
   364          8
   365         13