##TITLE=Library Entry 26201
##JCAMP-DX=Revision 4.10 
##DATA TYPE=MASS SPECTRUM
##SAMPLE DESCRIPTION=R.T.HOLMAN,UNIVERSITY OF MINNESOTA
##NAMES=HP
##CAS NAME=9-Octadecenamide, N-cyclopropyl-
##MOLFORM=C21H39NO
##CAS REGISTRY NO=56630-45-6
##MP= -300
##BP= -300
##MW= 321
##$RETENTION INDEX=0
##$CONDENSED SPECTRUM=NO
##NPOINTS= 166
##XYDATA=(XY..XY) 1 
    39         42
    40         13
    41        393
    42         50
    43        182
    44         48
    45          6
    51          7
    52          6
    53         40
    54         75
    55        337
    56        178
    57        999
    58        363
    59         24
    60          9
    65         10
    66          9
    67        123
    68         39
    69        161
    70         37
    71         32
    72         14
    73         11
    74          5
    75          7
    77         18
    78          6
    79         30
    80        210
    81        146
    82         37
    83         99
    84        103
    85         21
    86         11
    87          8
    91         12
    92          5
    93         26
    94         55
    95         64
    96         33
    97         62
    98         87
    99        462
   100         37
   101         11
   105          8
   106         16
   107         15
   108         13
   109         32
   110         18
   111         22
   112        363
   113         46
   114         17
   115          5
   116          7
   118          5
   119          8
   120         11
   121         18
   122         18
   123         21
   124         11
   125          8
   126         46
   127         10
   128          5
   129          5
   133          7
   134          8
   135         16
   136         14
   137         14
   138         14
   139          8
   140         26
   141         12
   142          6
   143          5
   147          6
   148          7
   149         13
   150         14
   151         10
   152         17
   153          8
   154         45
   155         12
   156          6
   161          5
   162          6
   163          6
   164          9
   165          7
   166         30
   167          8
   168         45
   169         10
   170          5
   176          6
   177          5
   178          7
   179          5
   180         20
   181          6
   182         16
   183          5
   190          7
   192          5
   194         25
   195          7
   196         10
   200          5
   202          6
   204          9
   206          6
   207          5
   208         21
   209          7
   210          9
   218          9
   219          5
   220          7
   221          5
   222         29
   223         10
   224          9
   232          6
   236         25
   237          9
   238          9
   246          6
   247          6
   250         15
   251          5
   252          5
   260          7
   261          5
   262          5
   263          6
   264         17
   265         22
   266          8
   274          5
   278         17
   279          6
   280          6
   292         14
   293          5
   294          5
   302          6
   303         35
   304         14
   306          7
   307          5
   319          5
   320          9
   321        142
   322         36
   323          9