##TITLE=Library Entry 3647
##JCAMP-DX=Revision 4.10 
##DATA TYPE=MASS SPECTRUM
##SAMPLE DESCRIPTION=NIST Mass Spectrometry Data Center
##NAMES=HP
##CAS NAME=2-Octynoic acid
##MOLFORM=C8H12O2
##CAS REGISTRY NO=5663-96-7
##MP= -300
##BP= -300
##MW= 140
##$RETENTION INDEX=0
##$CONDENSED SPECTRUM=NO
##NPOINTS= 83
##XYDATA=(XY..XY) 1 
    12          6
    15         13
    16         18
    22          2
    25          2
    26         41
    27        388
    28         29
    29        598
    30         15
    31          1
    36          1
    37         32
    38         88
    39        621
    40        156
    41        999
    42        115
    43         72
    44        699
    45         26
    46          3
    47          1
    49          9
    50         86
    51        132
    52         68
    53        242
    54        300
    55        565
    56        238
    57        237
    58         12
    59          1
    60          1
    61          9
    62         21
    63         36
    64          6
    65         98
    66         99
    67        442
    68        259
    69         29
    70         20
    71          7
    73          3
    74          6
    75          2
    76          1
    77         52
    78         10
    79        190
    80         41
    81        947
    82         69
    83         24
    84         85
    85         22
    86         28
    87          2
    89          1
    91         14
    92          2
    93         29
    94         15
    95        178
    96         14
    97         45
    98         11
    99          5
   105          1
   107         12
   108          1
   111         37
   112          8
   121          5
   122          3
   123          7
   125         19
   126          1
   139          4
   140          1