##TITLE=Library Entry 90548
##JCAMP-DX=Revision 4.10 
##DATA TYPE=MASS SPECTRUM
##SAMPLE DESCRIPTION=R.T.HOLMAN,UNIVERSITY OF MINNESOTA
##NAMES=HP
##CAS NAME=Pyrrolidine, 1-(1-oxo-12,15-octadecadienyl)-
##MOLFORM=C22H39NO
##CAS REGISTRY NO=56630-44-5
##MP= -300
##BP= -300
##MW= 333
##$RETENTION INDEX=0
##$CONDENSED SPECTRUM=NO
##NPOINTS= 145
##XYDATA=(XY..XY) 1 
    39         44
    40         10
    41        220
    42         48
    43        208
    44         20
    47          5
    48          6
    49         16
    51         11
    52          6
    53         47
    54         58
    55        400
    56         93
    57         59
    58         17
    59          5
    63          5
    64          5
    65         22
    66         15
    67        270
    68         65
    69        106
    70        413
    71        126
    72        212
    73         12
    77         39
    78         14
    79         91
    80         39
    81        108
    82         42
    83         29
    84         22
    85        123
    86         10
    88          5
    91         28
    92          8
    93         34
    94         17
    95         90
    96         24
    97         19
    98        170
    99         43
   100          8
   105         12
   106          5
   107         15
   108          9
   109         28
   110         12
   111         11
   112         42
   113        999
   114         82
   115          8
   116          5
   119          6
   121         10
   122          7
   123          8
   124          8
   125          6
   126        560
   127        129
   128         13
   135          7
   136          6
   137          5
   138          5
   139          6
   140         79
   141         23
   142          5
   149          5
   150          5
   152         12
   153          5
   154         38
   155         13
   165          5
   166          8
   167          5
   168         75
   169         14
   178          6
   180          9
   182         56
   183         13
   194         10
   196         44
   197         10
   206          7
   208         11
   209          6
   210         40
   211          9
   220          9
   221          6
   222         14
   224         58
   225         11
   234         11
   235          5
   236         10
   237          5
   238         24
   239          7
   248         12
   249          5
   250         13
   251          7
   252         16
   253          5
   262         12
   263          7
   264         59
   265         27
   266         14
   276         14
   277          7
   278         70
   279         19
   290         22
   291          7
   292         10
   302          6
   304         30
   305          9
   316          6
   318         16
   319          5
   321          6
   329          5
   330         10
   331         13
   332         20
   333        450
   334        104
   335         23