##TITLE=Library Entry 77991
##JCAMP-DX=Revision 4.10 
##DATA TYPE=MASS SPECTRUM
##SAMPLE DESCRIPTION=R.T.HOLMAN,UNIVERSITY OF MINNESOTA
##NAMES=HP
##CAS NAME=Dodecanoic acid, 2-phenyl-1,3-dioxan-5-yl ester
##MOLFORM=C22H34O4
##CAS REGISTRY NO=56630-70-7
##MP= -300
##BP= -300
##MW= 362
##$RETENTION INDEX=0
##$CONDENSED SPECTRUM=NO
##NPOINTS= 292
##XYDATA=(XY..XY) 1 
    26         15
    27        170
    28         90
    29        430
    30         15
    31         40
    32          5
    33          4
    34          2
    35          3
    36         10
    37          5
    38          8
    39        110
    40         25
    41        650
    42        150
    43        870
    44         65
    45         27
    46          4
    47          5
    48          4
    49          3
    50         20
    51         65
    52         20
    53         40
    54         65
    55        580
    56        150
    57        860
    58         74
    59         24
    60         43
    61         14
    62          5
    63         13
    64          6
    65         18
    66          8
    67         76
    68         45
    69        230
    70        100
    71        350
    72         29
    73         53
    74         17
    75         11
    76         15
    77        210
    78         83
    79        190
    80         24
    81         81
    82         45
    83        180
    84         79
    85        210
    86         20
    87         26
    88          6
    89         20
    90         30
    91        220
    92         34
    93         16
    94          6
    95        110
    96         21
    97        100
    98         64
    99         44
   100        360
   101         67
   102         10
   103          9
   104         12
   105        999
   106        160
   107        170
   108         22
   109         62
   110         15
   111         46
   112         64
   113        250
   114         27
   115         18
   116        280
   117         36
   118         27
   119         27
   120         15
   121         15
   122         11
   123         26
   124          7
   125         15
   126          8
   127         28
   128         17
   129        310
   130         28
   131          8
   132          4
   133         13
   134          8
   135          8
   136          4
   137          6
   138          6
   139         14
   140          7
   141         95
   142         20
   143         19
   144         14
   145          7
   146          5
   147         26
   148          4
   149         89
   150         10
   151          5
   152          5
   153          7
   154          9
   155         65
   156         15
   157         35
   158          7
   159          4
   160          5
   161          6
   162        180
   163        100
   164         15
   165         11
   166          3
   167          7
   168          5
   169         69
   170         13
   171         27
   172          6
   173          4
   174          3
   175          2
   176          1
   177          4
   178          4
   179         35
   180         10
   181         21
   182          7
   183        580
   184         80
   185         41
   186          8
   187          3
   188          1
   189          1
   190          1
   191          2
   192          1
   193          1
   194          1
   195          1
   196          1
   197         46
   198         10
   199         40
   200          8
   201          6
   202          1
   203          1
   204          1
   205          3
   206          2
   207          3
   208          2
   209          2
   210          2
   211         22
   212         10
   213         31
   214          6
   215          3
   216          2
   217          2
   218          2
   219          2
   220          7
   221          4
   222          3
   223          4
   224          3
   225          7
   226          3
   227         18
   228          6
   229          2
   230          1
   231          1
   232          1
   233         22
   234          6
   235          3
   236          1
   237          1
   238          2
   239          5
   240        270
   241         66
   242         10
   243          4
   244          1
   245          1
   246          1
   247          6
   248          3
   249          2
   250          2
   251          1
   252          1
   253          5
   254          4
   255         24
   256         48
   257         12
   258          5
   259         11
   260          4
   261          6
   262          3
   263          2
   264          2
   265          1
   266          1
   267          3
   268          2
   269          2
   270          2
   271          4
   272          3
   273          2
   274          2
   275          6
   276          4
   277          2
   278          2
   279          3
   280          2
   281          4
   282          3
   283          2
   284          6
   285        120
   286         22
   287          5
   288          2
   289         19
   290          6
   291          3
   295          4
   296          3
   299          4
   300          2
   303          3
   304          2
   305          1
   317          2
   318          2
   319          1
   324          7
   325          4
   327         12
   328          5
   333          5
   334          4
   352         15
   353          6
   354          2
   360         10
   361        340
   362        250
   363         54
   364         10
   365          3
   366          2