##TITLE=Library Entry 89972
##JCAMP-DX=Revision 4.10 
##DATA TYPE=MASS SPECTRUM
##SAMPLE DESCRIPTION=R.T.HOLMAN,UNIVERSITY OF MINNESOTA
##NAMES=HP
##CAS NAME=Pyrrolidine, 1-(1-oxo-9-octadecynyl)-
##MOLFORM=C22H39NO
##CAS REGISTRY NO=56630-92-3
##MP= -300
##BP= -300
##MW= 333
##$RETENTION INDEX=0
##$CONDENSED SPECTRUM=NO
##NPOINTS= 121
##XYDATA=(XY..XY) 1 
    39         76
    40         20
    41        352
    42         65
    43        312
    44         24
    45         10
    51         12
    52         25
    53         76
    54        142
    55        468
    56        104
    57         93
    58          6
    59         52
    65         32
    66         23
    67        284
    68        163
    69        159
    70        284
    71        142
    72        187
    73         16
    74         52
    75          6
    77         52
    78         14
    79        125
    80         55
    81        267
    82        131
    83         79
    84         23
    85        119
    86          7
    87         24
    91         45
    92          9
    93         72
    94         45
    95        170
    96         86
    97         52
    98        156
    99         26
   100          5
   101          6
   105         14
   106          5
   107         46
   108         27
   109         72
   110         55
   111         31
   112         31
   113        999
   114         93
   115         12
   119         10
   120         10
   121         45
   122         36
   123         38
   124         38
   125         10
   126        267
   127         60
   128          6
   129          6
   131          5
   133          6
   135         31
   136         41
   137         20
   138         15
   139          7
   140         48
   141         14
   143          5
   149         23
   150         18
   151         13
   152         38
   153          8
   154         23
   155          5
   163          8
   164         33
   165          9
   166         15
   167          6
   168         31
   169          6
   178         26
   179          6
   180          8
   181          5
   182         60
   183          8
   192          7
   194          5
   196         14
   206          7
   208          5
   210         15
   220         18
   221          6
   234         27
   235          7
   248         16
   249          6
   250          5
   262          9
   263          8
   276          8
   290          7
   304          4
   333         29
   334          7