##TITLE=Library Entry 20289
##JCAMP-DX=Revision 4.10 
##DATA TYPE=MASS SPECTRUM
##SAMPLE DESCRIPTION=R.T.HOLMAN,UNIVERSITY OF MINNESOTA
##NAMES=HP
##CAS NAME=3,5,9-Trioxa-5-phosphaheptacos-18-en-1-aminium, 4-hydroxy-N,N,N-t
rimethyl-10-oxo-7-[(1-oxo-9-octadecenyl)oxy]-, hydroxide, inner salt, 4-oxid
e, (R)-
##MOLFORM=C44H84NO8P
##CAS REGISTRY NO=56648-95-4
##MP= -300
##BP= -300
##MW= 785
##$RETENTION INDEX=0
##$CONDENSED SPECTRUM=NO
##NPOINTS= 408
##XYDATA=(XY..XY) 1 
    26         12
    27         53
    28        111
    29         95
    30         14
    31         28
    32         30
    35          7
    36         12
    37          8
    38          9
    39         74
    40         30
    41        422
    42        152
    43        422
    44         84
    45         53
    46          7
    47         15
    48          5
    49          7
    50         11
    51         15
    52         11
    53         50
    54        169
    55        999
    56        267
    57        408
    58        136
    59         54
    60         45
    61         26
    62          7
    63         11
    64          9
    65         42
    66         35
    67        380
    68        163
    69        676
    70        225
    71        309
    72         40
    73         78
    74         22
    75         16
    76         11
    77         38
    78         26
    79        119
    80         63
    81        408
    82        197
    83        549
    84        176
    85        112
    86         23
    87         42
    88         21
    89         23
    90          7
    91         66
    92         25
    93        100
    94         60
    95        352
    96        169
    97        352
    98        267
    99         67
   100         29
   101         46
   102         14
   103         12
   104         15
   105         53
   106         19
   107         76
   108         73
   109        173
   110         81
   111        170
   112         94
   113         74
   114         29
   115         66
   116         43
   117         33
   118         12
   119         50
   120         22
   121         90
   122         35
   123        102
   124         66
   125         76
   126         36
   127         50
   128         22
   129        118
   130         16
   131         26
   132          9
   133         54
   134         33
   135         90
   136         26
   137         78
   138         53
   139         43
   140         19
   141         36
   142         15
   143         29
   144         12
   145         21
   146          7
   147         43
   148         21
   149         78
   150         25
   151         61
   152         38
   153         35
   154         16
   155         32
   156         12
   157         21
   158         52
   159         33
   160         12
   161         28
   162         11
   163         35
   164         18
   165         46
   166         33
   167         26
   168         21
   169        239
   170         26
   171         92
   172         26
   173         16
   174          8
   175         16
   176          9
   177         16
   178         14
   179         32
   180         23
   181         18
   182         14
   183         52
   184         15
   185         84
   186         16
   187         12
   188          9
   189         16
   190          9
   191         19
   192         11
   193         19
   194         14
   195         16
   196          9
   197         38
   198         11
   199         21
   200          5
   201          9
   202          8
   203          8
   204          5
   205         12
   206          9
   207         21
   208         14
   209         15
   210         19
   211         21
   212          8
   213         28
   214          9
   215         11
   216          7
   217         16
   218         18
   219         38
   220         45
   221         28
   222         21
   223         39
   224          8
   225         18
   226          8
   227         49
   228         12
   229         11
   230          7
   231          9
   232          7
   233          8
   234          9
   235         14
   236         14
   237          9
   238          7
   239         30
   240         18
   241         28
   242         14
   243          8
   244          7
   245         15
   246         42
   247         36
   248         12
   249         11
   250          7
   251          7
   252          7
   253         22
   254         11
   255         18
   256         15
   257         11
   258          8
   259         12
   260          9
   261          9
   262         23
   263         28
   264        135
   265        156
   266         32
   267         21
   268          9
   269         11
   270          7
   271          5
   272          4
   273          7
   274          7
   275         15
   276          8
   277          7
   278          5
   279         21
   280         15
   281         23
   282         14
   283         22
   284         11
   285          8
   286          5
   287          4
   288          4
   289          4
   290          4
   291          4
   292          4
   293          7
   294          7
   295         26
   296          9
   297         11
   298          7
   299          5
   300          4
   301         11
   302          5
   303          4
   304          4
   305          4
   306          4
   307          9
   308          5
   309         15
   310          7
   311          8
   312          5
   313         14
   314          8
   315          7
   316          5
   317          5
   318          4
   319          5
   320          5
   321         11
   322         18
   323         54
   324         16
   325         16
   326          9
   327          8
   328          2
   336          9
   337         22
   338         67
   339        197
   340         46
   341         18
   342          7
   349          5
   350          5
   351          9
   352          7
   353         14
   354          7
   355          7
   356          5
   357          7
   358          5
   363          4
   364          2
   365          7
   366          5
   367          9
   368         14
   369          8
   370          5
   371          8
   372          4
   373          4
   378          5
   379          5
   380          9
   381         14
   382          4
   383          4
   384          4
   386         12
   387          5
   388          4
   389          4
   391          9
   393        309
   394         80
   395         18
   396          8
   397          7
   398          2
   399          2
   405          4
   406          4
   407         19
   408          8
   409          2
   410          4
   419         14
   421          7
   422          5
   423          5
   432          7
   433          7
   434          4
   435         18
   436          9
   447          9
   449        149
   450         50
   451         14
   452          5
   461          5
   462          4
   463         11
   464          4
   469         30
   470         18
   471          9
   472          4
   473          4
   475          8
   477          5
   489          7
   490          5
   491          5
   492          7
   493          7
   501          2
   503         29
   504         16
   505         14
   506          8
   507          4
   517         15
   518          8
   519          5
   531          5
   532          4
   534          2
   545          7
   546          5
   559         21
   560         11
   561          4
   573          7
   587          5
   588          5
   601         19
   602        112
   603         59
   604         21