##TITLE=Library Entry 66119
##JCAMP-DX=Revision 4.10 
##DATA TYPE=MASS SPECTRUM
##SAMPLE DESCRIPTION=Chemical Concepts
##NAMES=HP
##CAS NAME=Cyclohexane,ethenylidene-
##MOLFORM=C8H12
##CAS REGISTRY NO=5664-20-0
##MP= -300
##BP= -300
##MW= 108
##$RETENTION INDEX=0
##$CONDENSED SPECTRUM=NO
##NPOINTS= 73
##XYDATA=(XY..XY) 1 
    26         24
    27        180
    28         28
    29         63
    30          5
    31          3
    35          2
    36          7
    37          7
    38         33
    39        339
    40         94
    41        289
    42         43
    43         36
    44         33
    45          8
    46          3
    47          3
    48          3
    49          6
    50        109
    51        192
    52        196
    53        159
    54        158
    55        101
    56         17
    57         17
    58         11
    59          2
    60          3
    61         11
    62         34
    63         76
    64         27
    65        194
    66        138
    67        341
    68         65
    69         31
    70         17
    71         10
    72          4
    73         10
    74         19
    75         11
    76         11
    77        573
    78        161
    79        948
    80        281
    81        127
    82         31
    83         22
    84          9
    85          5
    86          4
    87          4
    88          2
    89          7
    90          3
    91        497
    92         71
    93        999
    94         89
    95         10
   105         56
   106         18
   107        110
   108        887
   109         91
   110         10