##TITLE=Library Entry 98449
##JCAMP-DX=Revision 4.10 
##DATA TYPE=MASS SPECTRUM
##SAMPLE DESCRIPTION=V.A. MASHENKOV, BELORUSS. STATE UNIV., MINSK, USSR
##NAMES=HP
##CAS NAME=3-Hydroxy-3-methyl-6-phenyl-4-piperidone, cis
##MOLFORM=C12H15NO2
##CAS REGISTRY NO=56642-36-5
##MP= -300
##BP= -300
##MW= 205
##$RETENTION INDEX=0
##$CONDENSED SPECTRUM=NO
##NPOINTS= 14
##XYDATA=(XY..XY) 1 
    91        480
   103        200
   104        790
   105        650
   106        440
   118        999
   119        810
   120        150
   133        310
   134        140
   162        140
   187        350
   188        190
   205        390