##TITLE=Library Entry 69408
##JCAMP-DX=Revision 4.10 
##DATA TYPE=MASS SPECTRUM
##SAMPLE DESCRIPTION=R.C. DOUGHERTY
##NAMES=HP
##CAS NAME=1,4-Dioxane, 2-(2-furanyl)-
##MOLFORM=C8H10O3
##CAS REGISTRY NO=56666-97-8
##MP= -300
##BP= -300
##MW= 154
##$RETENTION INDEX=0
##$CONDENSED SPECTRUM=NO
##NPOINTS= 27
##XYDATA=(XY..XY) 1 
    27         40
    28          2
    29         60
    32          0
    38        140
    39        125
    40         40
    41         40
    43         20
    50         20
    51         35
    52         35
    53         45
    65         50
    66         40
    68         40
    81         95
    82         20
    94        150
    95        450
    96        999
    97        125
    98         50
   110         40
   124         10
   154        340
   155         30