##TITLE=Library Entry 33075
##JCAMP-DX=Revision 4.10 
##DATA TYPE=MASS SPECTRUM
##SAMPLE DESCRIPTION=A.FRIGERIO INST. OF PHARM. RES., MARIO NEGRI, MILAN, IT
ALY
##NAMES=HP
##CAS NAME=5(4H)-Isoxazolone, 4-[(4,5-dihydro-3-methyl-5-oxo-1-phenyl-1H-pyr
azol-4-yl)azo]-3-phenyl-
##MOLFORM=C19H15N5O3
##CAS REGISTRY NO=56666-64-9
##MP= -300
##BP= -300
##MW= 361
##$RETENTION INDEX=0
##$CONDENSED SPECTRUM=NO
##NPOINTS= 79
##XYDATA=(XY..XY) 1 
    51        430
    52        100
    53         30
    54         30
    55         40
    61         30
    62         50
    63        100
    64        140
    65         60
    66         50
    67        999
    68         80
    69         50
    73         30
    74         80
    75        100
    76        190
    77        880
    78        130
    79         10
    87         30
    88         20
    89         60
    90         50
    91        340
    92         70
    93        180
    94         20
   100         50
   101         20
   102         60
   103        910
   104        230
   105        330
   106         60
   107         10
   115         30
   116         50
   117         50
   118         40
   119        160
   120         20
   129        110
   130         40
   131         20
   132         90
   133         30
   144         40
   145         80
   146         40
   160         20
   161        410
   162         50
   172         10
   173         20
   174        360
   175         60
   176         10
   186         20
   187        110
   188         10
   199         20
   200        540
   201         80
   202         20
   213         30
   214         20
   215         30
   228         20
   229         10
   230         20
   242         40
   243         20
   244         30
   255         20
   270         20
   317         50
   318         20