##TITLE=Library Entry 46815
##JCAMP-DX=Revision 4.10 
##DATA TYPE=MASS SPECTRUM
##SAMPLE DESCRIPTION=R.C. DOUGHERTY
##NAMES=HP
##CAS NAME=Tricyclo[2.2.1.0(1,4)]heptan-2-one, 6-nitro-
##MOLFORM=C7H7NO3
##CAS REGISTRY NO=56666-50-3
##MP= -300
##BP= -300
##MW= 153
##$RETENTION INDEX=0
##$CONDENSED SPECTRUM=NO
##NPOINTS= 15
##XYDATA=(XY..XY) 1 
    30         60
    38         60
    39        210
    40         40
    41         40
    50        100
    51        200
    52        130
    53        130
    65         60
    66         85
    77        999
    78        280
    79        890
   107        460