##TITLE=Library Entry 90016
##JCAMP-DX=Revision 4.10 
##DATA TYPE=MASS SPECTRUM
##SAMPLE DESCRIPTION=R.T.HOLMAN,UNIVERSITY OF MINNESOTA
##NAMES=HP
##CAS NAME=Pyrrolidine, 1-(1-oxo-7,10-hexadecadienyl)-
##MOLFORM=C20H35NO
##CAS REGISTRY NO=56666-41-2
##MP= -300
##BP= -300
##MW= 305
##$RETENTION INDEX=0
##$CONDENSED SPECTRUM=NO
##NPOINTS= 137
##XYDATA=(XY..XY) 1 
    39        120
    40         29
    41        550
    42        130
    43        410
    44         40
    45          5
    49          6
    50          5
    51         14
    52         13
    53         95
    54         88
    55        690
    56        220
    57         50
    58          8
    64          5
    65         43
    66         29
    67        290
    68         67
    69        100
    70        460
    71        150
    72        340
    73         16
    77         81
    78         26
    79        170
    80         69
    81        130
    82         23
    83         24
    84         23
    85        150
    86         12
    91         64
    92         15
    93         61
    94         20
    95         54
    96         17
    97         17
    98        290
    99         48
   100         13
   105         17
   106          9
   107         23
   108         11
   109         15
   110         14
   111          9
   112         49
   113        999
   114         77
   115         10
   117          6
   118          5
   119          8
   120          5
   121         14
   122          6
   123          8
   124         14
   125         11
   126        570
   127        120
   128         12
   133          6
   135         13
   136          9
   137          7
   138         12
   139         11
   140         66
   141         29
   147          5
   149         11
   150         10
   151          7
   152         36
   153         13
   154        100
   155         16
   163          6
   164          6
   165          5
   166         28
   167          9
   168         49
   169          8
   177          6
   178          8
   179          6
   180         40
   181         15
   182         27
   183          8
   192          8
   193          6
   194        110
   195         23
   196         20
   197          5
   206         10
   207          5
   208         52
   209         14
   210          9
   220         24
   221          7
   222         30
   223         26
   224          9
   232          5
   234         30
   235         10
   236          8
   237          5
   246          5
   248         36
   249          9
   250          7
   262         24
   263          7
   264          7
   276         13
   277          6
   290          6
   291          5
   303          5
   304          9
   305        170
   306         40
   307         11