##TITLE=Library Entry 114078
##JCAMP-DX=Revision 4.10 
##DATA TYPE=MASS SPECTRUM
##SAMPLE DESCRIPTION=A.FRIGERIO INST. OF PHARM. RES., MARIO NEGRI, MILAN, IT
ALY
##NAMES=HP
##CAS NAME=5(4H)-Isoxazolone, 4-diazo-3-phenyl-
##MOLFORM=C9H5N3O2
##CAS REGISTRY NO=56666-67-2
##MP= -300
##BP= -300
##MW= 187
##$RETENTION INDEX=0
##$CONDENSED SPECTRUM=NO
##NPOINTS= 38
##XYDATA=(XY..XY) 1 
    51        170
    52         30
    61         40
    62         60
    63         60
    64         20
    65         10
    73         30
    74         60
    75        220
    76         60
    77         80
    78         10
    84         10
    85         10
    86         20
    87         30
    88         10
    89         10
    90         10
    98         20
    99         10
   100         30
   101        110
   102         20
   103         70
   104         10
   114         10
   115         10
   128         10
   129        999
   130        110
   131         20
   159         10
   186         10
   187        510
   188         60
   189         10