##TITLE=Library Entry 70765
##JCAMP-DX=Revision 4.10 
##DATA TYPE=MASS SPECTRUM
##SAMPLE DESCRIPTION=Japan AIST/NIMC Database- Spectrum MS-NW-4654
##NAMES=HP
##CAS NAME=Allyldiethylamine
##MOLFORM=C7H15N
##CAS REGISTRY NO=5666-17-1
##MP= -300
##BP= -300
##MW= 113
##$RETENTION INDEX=751
##$CONDENSED SPECTRUM=NO
##NPOINTS= 61
##XYDATA=(XY..XY) 1 
    14          1
    15         17
    26         12
    27         77
    28        156
    29        108
    30        105
    31          1
    37          2
    38          7
    39         73
    40         10
    41        476
    42        142
    43         27
    44         27
    50          4
    51          6
    52          8
    53          4
    54         23
    55         15
    56        244
    57         21
    58         96
    59          4
    63          1
    65          1
    66          1
    67          6
    68         20
    69          7
    70         72
    71         11
    72         12
    73          1
    74          1
    76          1
    77          5
    78         22
    79          2
    80          2
    81          2
    82         13
    83          4
    84         25
    85          5
    86        223
    87         13
    94          1
    96         10
    97          4
    98        999
    99         70
   100          3
   110          3
   111          3
   112         51
   113        194
   114         15
   115          1