##TITLE=Library Entry 89970
##JCAMP-DX=Revision 4.10 
##DATA TYPE=MASS SPECTRUM
##SAMPLE DESCRIPTION=R.T.HOLMAN,UNIVERSITY OF MINNESOTA
##NAMES=HP
##CAS NAME=Pyrrolidine, 1-(1-oxo-5,8-tetradecadienyl)-
##MOLFORM=C18H31NO
##CAS REGISTRY NO=56666-40-1
##MP= -300
##BP= -300
##MW= 277
##$RETENTION INDEX=0
##$CONDENSED SPECTRUM=NO
##NPOINTS= 90
##XYDATA=(XY..XY) 1 
    39         78
    40         16
    41        290
    42         83
    43        260
    44         22
    47          5
    49         16
    51         13
    52          9
    53         46
    54         38
    55        300
    56        120
    57         30
    58          5
    59          5
    65         25
    66         15
    67         90
    68         33
    69         36
    70        220
    71         82
    72        110
    73          7
    77         56
    78         15
    79         85
    80         29
    81         35
    82          9
    83          9
    84         13
    85        210
    86         14
    91         41
    92          8
    93         25
    94          9
    95         16
    96         11
    97         13
    98        100
    99         23
   100          5
   103          5
   105          9
   106          5
   107         12
   108          6
   109          6
   110          7
   111          7
   112         39
   113        999
   114         71
   115          7
   121          9
   122          6
   123          7
   124          9
   125          5
   126        110
   127         32
   135          6
   136          5
   138          5
   139          5
   140         12
   149          8
   150          8
   152          9
   153          5
   154          8
   166         22
   167          9
   168          9
   178          5
   180         12
   192          5
   206          8
   220         15
   234         10
   248          5
   275          5
   276          5
   277         70
   278         15
   279          7