##TITLE=Library Entry 73664
##JCAMP-DX=Revision 4.10 
##DATA TYPE=MASS SPECTRUM
##SAMPLE DESCRIPTION=HOME OFFICE, CENTRAL RES. EST., ALDERMASTON, BERKS., U.
K.
##NAMES=HP
##CAS NAME=Levomoramide
##MOLFORM=C25H32N2O2
##CAS REGISTRY NO=5666-11-5
##MP= -300
##BP= -300
##MW= 392
##$RETENTION INDEX=2960
##$CONDENSED SPECTRUM=NO
##NPOINTS= 31
##XYDATA=(XY..XY) 1 
    41         30
    42         50
    43         10
    44         10
    45         10
    55         60
    56         20
    57         10
    69         20
    70         30
    90         40
    91         30
   100        999
   101         50
   106         20
   115         30
   128        330
   129         70
   149         20
   165         40
   166         20
   167         20
   172         10
   194         20
   195         10
   238         10
   265        580
   266        110
   267         10
   284         10
   306         20