##TITLE=Library Entry 71803
##JCAMP-DX=Revision 4.10 
##DATA TYPE=MASS SPECTRUM
##SAMPLE DESCRIPTION=R.T.HOLMAN,UNIVERSITY OF MINNESOTA
##NAMES=HP
##CAS NAME=Azetidine, 1-(1-oxo-9-octadecenyl)-
##MOLFORM=C21H39NO
##CAS REGISTRY NO=56667-16-4
##MP= -300
##BP= -300
##MW= 321
##$RETENTION INDEX=0
##$CONDENSED SPECTRUM=NO
##NPOINTS= 194
##XYDATA=(XY..XY) 1 
    34          5
    35         14
    36         35
    37         10
    38         21
    39        150
    40         34
    41        750
    42        150
    43        520
    44         52
    45         17
    46          5
    47          8
    48          5
    49         24
    50         33
    51         30
    52         29
    53         74
    54        150
    55        640
    56        520
    57        450
    58        350
    59         56
    60         42
    61         12
    62          5
    63         11
    64          5
    65         22
    66         16
    67        200
    68         61
    69        260
    70         79
    71         92
    72         29
    73         44
    74         69
    75         21
    76         14
    77         45
    78         74
    79         52
    80         21
    81        120
    82         40
    83        120
    84        230
    85         35
    86         14
    87         49
    88          8
    89          5
    90          5
    91         19
    92          7
    93         30
    94         15
    95         59
    96         38
    97         61
    98         68
    99        999
   100         68
   101         20
   102          8
   103          7
   104          8
   105         12
   106          7
   107         11
   108         11
   109         25
   110         19
   111         22
   112        660
   113         95
   114         18
   115         13
   116          6
   117          5
   119          6
   120          9
   121         13
   122         22
   123         16
   124         15
   125         12
   126         86
   127         29
   128         10
   129         14
   130          7
   131          5
   132          5
   133          8
   134          6
   135          9
   136         21
   137         12
   138         18
   139          9
   140         33
   141         18
   142          6
   143         14
   147         12
   149          8
   150          9
   151          7
   152         15
   153          8
   154         75
   155         22
   156          6
   157          5
   160         14
   161          6
   163          5
   164          9
   165          8
   166         19
   167          8
   168        110
   169         23
   175          5
   176          5
   177          5
   178          9
   179          7
   180         17
   181          7
   182         30
   183          8
   184          5
   185          5
   186          7
   187          7
   188          8
   189          5
   190          5
   191          5
   192          7
   193          5
   194         29
   195         10
   196         10
   197          7
   198          5
   199          7
   200          7
   206          7
   207          5
   208         36
   209         10
   210          8
   211          6
   220          7
   221          6
   222         75
   223         20
   224          9
   225          7
   227          7
   234          7
   235          6
   236         70
   237         14
   238          7
   239          6
   240          5
   250         27
   251          9
   252          6
   263          7
   264         24
   265         14
   266          7
   278         22
   279          7
   280          6
   281          7
   292         14
   293          7
   294          5
   306          7
   319          7
   320         13
   321        190
   322         48
   323         13