##TITLE=Library Entry 9482
##JCAMP-DX=Revision 4.10 
##DATA TYPE=MASS SPECTRUM
##SAMPLE DESCRIPTION=H.STRICKLER FIRMENICH & CIE, GENEVA, SWITZERLAND
##NAMES=HP
##CAS NAME=1-Cyclopentene-1-methanol, .alpha.,.alpha.,4,5-tetramethyl-, tran
s-
##MOLFORM=C10H18O
##CAS REGISTRY NO=56666-69-4
##MP= -300
##BP= -300
##MW= 154
##$RETENTION INDEX=0
##$CONDENSED SPECTRUM=NO
##NPOINTS= 74
##XYDATA=(XY..XY) 1 
    26          5
    27        170
    28         60
    29        120
    31         18
    38          3
    39        210
    40         40
    41        400
    42         35
    43        999
    44         40
    45         32
    50         13
    51         50
    52         25
    53        160
    54         80
    55        650
    56         80
    57         85
    58        100
    59         35
    60         12
    61         28
    62         15
    63         22
    65         55
    66         25
    67        200
    68        150
    69        600
    70         50
    71         75
    72         12
    77         95
    78         20
    79        160
    80         25
    81        700
    82         60
    83        150
    84         65
    85         17
    91         80
    92         16
    93        130
    94         30
    95        140
    96        360
    97        200
    98         25
   103         10
   105         90
   106         35
   107        300
   108         40
   109         25
   110         23
   111        210
   112         22
   119         20
   121        500
   122         56
   123          6
   124         10
   125        140
   126         12
   136        300
   137         60
   139        160
   140         15
   154        220
   155         25