##TITLE=Library Entry 89234
##JCAMP-DX=Revision 4.10 
##DATA TYPE=MASS SPECTRUM
##SAMPLE DESCRIPTION=Chemical Concepts
##NAMES=HP
##CAS NAME=2-Propen-1-amine, N,N-dipropyl-
##MOLFORM=C9H19N
##CAS REGISTRY NO=5666-19-3
##MP= -300
##BP= -300
##MW= 141
##$RETENTION INDEX=906
##$CONDENSED SPECTRUM=NO
##NPOINTS= 75
##XYDATA=(XY..XY) 1 
    26          9
    27        114
    28         55
    29         21
    30         66
    31          1
    37          2
    38          5
    39         92
    40         12
    41        462
    42        155
    43        210
    44         16
    45          0
    50          0
    51          1
    52          2
    53          3
    54         16
    55         16
    56         43
    57          5
    58          7
    59          0
    63          1
    64          1
    65          1
    66          1
    67          4
    68         23
    69          6
    70        276
    71         14
    72         23
    73          1
    75          0
    77          0
    78          0
    79          1
    80          2
    81          3
    82         12
    83          4
    84         70
    85          4
    86          8
    87          0
    89          1
    91          0
    93          0
    94          1
    95          0
    96          3
    97          1
    98         20
    99          2
   100          1
   101          0
   108          0
   109          0
   110          7
   111          1
   112        999
   113         74
   114         29
   115          2
   124          0
   126          3
   127          0
   138          0
   140          9
   141         76
   142          8
   143          0