##TITLE=Library Entry 3207
##JCAMP-DX=Revision 4.10 
##DATA TYPE=MASS SPECTRUM
##SAMPLE DESCRIPTION=M.S.NEWMAN THE OHIO STATE UNIV., COLUMBUS, OHIO, USA
##NAMES=HP
##CAS NAME=Bicyclo[6.1.0]nonane, 9-(1-methylethylidene)-
##MOLFORM=C12H20
##CAS REGISTRY NO=56666-90-1
##MP= -300
##BP= -300
##MW= 164
##$RETENTION INDEX=0
##$CONDENSED SPECTRUM=NO
##NPOINTS= 57
##XYDATA=(XY..XY) 1 
    15         41
    18         25
    26         50
    27        450
    28         91
    29        325
    38         41
    39        550
    40        133
    41        999
    42        108
    43        275
    50         66
    51        175
    52         83
    53        425
    54        183
    55        700
    56         66
    57         58
    63         66
    65        175
    66        116
    67        900
    68        225
    69        300
    70         50
    77        350
    78        133
    79        725
    80        258
    81        650
    82        350
    83        100
    91        375
    92         91
    93        650
    94        241
    95        475
    96        141
    97        158
   105        150
   106         50
   107        400
   108        150
   109        108
   110         33
   119         66
   121        525
   122        141
   123         83
   135         91
   136        425
   137         58
   149        233
   150         58
   164         41