##TITLE=Library Entry 5994
##JCAMP-DX=Revision 4.10 
##DATA TYPE=MASS SPECTRUM
##SAMPLE DESCRIPTION=R.T.HOLMAN,UNIVERSITY OF MINNESOTA
##NAMES=HP
##CAS NAME=Pyrrolidine, 1-(1-oxo-2,5-octadecadienyl)-
##MOLFORM=C22H39NO
##CAS REGISTRY NO=56666-48-9
##MP= -300
##BP= -300
##MW= 333
##$RETENTION INDEX=0
##$CONDENSED SPECTRUM=NO
##NPOINTS= 179
##XYDATA=(XY..XY) 1 
    39        180
    40         56
    41        470
    42        210
    43        999
    44         65
    45         13
    47         17
    48         11
    49         63
    50         58
    51         33
    52         28
    53         48
    54         42
    55        270
    56         73
    57        150
    58        120
    59         78
    60         13
    61          5
    62          5
    63         10
    64          5
    65         16
    66         26
    67         86
    68         77
    69         97
    70        270
    71        230
    72         34
    73         16
    74         45
    75         13
    76          5
    77         28
    78         11
    79         60
    80         30
    81         84
    82         36
    83         59
    84         58
    85         58
    86         24
    87         61
    88          8
    89          7
    90          6
    91         17
    92          9
    93         26
    94         23
    95         59
    96         36
    97         48
    98        160
    99         21
   100         24
   101         11
   103          5
   104          5
   105         13
   106          7
   107         20
   108         13
   109         23
   110         24
   111         48
   112         17
   113        260
   114         26
   115         10
   116          7
   117          6
   119          8
   120          7
   121         11
   122         10
   123         16
   124         24
   125         16
   126         29
   127         15
   128          7
   129          8
   131          6
   133          6
   134          7
   135         11
   136         11
   137         12
   138         11
   139         27
   140         11
   141         11
   142          6
   143          7
   144          5
   145          5
   147          5
   148          5
   149         10
   150         49
   151         13
   152         23
   153         12
   154         19
   155          7
   156         19
   157          6
   161         15
   163          6
   164         11
   165         15
   166         18
   167          9
   168          6
   169          6
   171          5
   177          5
   178         13
   179          8
   180         14
   181          8
   182          7
   183          7
   185          5
   190          5
   192          9
   193          7
   194          9
   195          6
   197          8
   199          7
   204          5
   206          6
   207          5
   208          7
   212          8
   213          5
   219          5
   220         10
   221         12
   222         11
   223          6
   224          5
   234          6
   235          6
   236          6
   237          5
   239          5
   248          5
   249          7
   250          6
   251          5
   252          5
   262          6
   263          8
   264         12
   265         11
   266          8
   267          6
   278          5
   292          5
   293          5
   294         12
   295          5
   296          6
   304          5
   306          5
   320          5
   332          6
   333         19
   334          8
   335         13
   336          6