##TITLE=Library Entry 8712
##JCAMP-DX=Revision 4.10 
##DATA TYPE=MASS SPECTRUM
##SAMPLE DESCRIPTION=R.T.HOLMAN,UNIVERSITY OF MINNESOTA
##NAMES=HP
##CAS NAME=Pyrrolidine, 1-(1-oxo-10,12-octadecadienyl)-, (E,E)-
##MOLFORM=C22H39NO
##CAS REGISTRY NO=56666-46-7
##MP= -300
##BP= -300
##MW= 333
##$RETENTION INDEX=0
##$CONDENSED SPECTRUM=NO
##NPOINTS= 185
##XYDATA=(XY..XY) 1 
    35        170
    36         24
    37         68
    38         28
    39        210
    40         68
    41        590
    42        260
    43        999
    44         70
    45         26
    47        250
    48        140
    49         97
    50         50
    51         30
    52         30
    53         60
    54        100
    55        570
    56        220
    57         70
    58         20
    59         10
    60         10
    63         12
    64         11
    65         40
    66         32
    67        370
    68        100
    69        120
    70        800
    71        130
    72        230
    73         23
    74         11
    75         12
    77         82
    78         26
    79        150
    80         80
    81        140
    82         40
    83        600
    84         35
    85        410
    86         22
    87         74
    91         48
    92         18
    93         53
    94         30
    95        100
    96         36
    97         32
    98        220
    99         40
   100         20
   103         15
   104         12
   105         16
   106         15
   107         28
   108         20
   109         27
   110         20
   111         18
   112         53
   113        760
   114         57
   115         13
   116         10
   117         14
   118         19
   119         18
   120         17
   121         22
   122         19
   123         21
   124         32
   125         20
   126        370
   127         90
   128         18
   134         13
   135         17
   136         12
   137         12
   138         13
   139         13
   140         58
   141         22
   149         20
   150         12
   151         36
   152         34
   153         18
   154         41
   155         20
   156         11
   158         10
   159         12
   161         11
   163         13
   164         14
   165         12
   166         20
   167         11
   168         56
   169         20
   175         11
   176         11
   177         12
   178         12
   179         12
   180         20
   181         16
   182         40
   183         28
   184         12
   189         12
   190         12
   191         12
   192         13
   193         12
   194         18
   195         12
   196         37
   197         13
   198         15
   199         12
   200         10
   206         15
   207         12
   208         20
   209         12
   210         31
   211         13
   212         32
   213         14
   217         10
   218         11
   219         12
   220         18
   221         12
   222         21
   223         12
   224         22
   234         24
   235         12
   236         21
   237         13
   238         16
   239         11
   240         11
   246         10
   247         10
   248         21
   249         12
   250         14
   251         12
   252         10
   262         18
   263         13
   264         12
   265         11
   266         10
   276         25
   277         13
   278         15
   279         11
   280         12
   290         21
   291         13
   292         12
   295         13
   304         24
   305         12
   318         13
   331         12
   332         18
   333        230
   334         63
   335         20