##TITLE=Library Entry 28184
##JCAMP-DX=Revision 4.10 
##DATA TYPE=MASS SPECTRUM
##SAMPLE DESCRIPTION=CARL DJERASSI DEPT OF CHEM STANFORD UNIV STANFORD CALIF
 94305
##NAMES=HP
##CAS NAME=3-Hexanamine, 3-ethyl-
##MOLFORM=C8H19N
##CAS REGISTRY NO=56667-17-5
##MP= -300
##BP= -300
##MW= 129
##$RETENTION INDEX=0
##$CONDENSED SPECTRUM=NO
##NPOINTS= 33
##XYDATA=(XY..XY) 1 
    15         10
    16         10
    17         10
    18         50
    27         20
    28         10
    29         30
    30         20
    41         80
    42         60
    43         20
    44         10
    45         10
    55         40
    56         30
    57         90
    58        999
    59         40
    60         10
    69         10
    70         10
    71         10
    72         50
    73         10
    83         10
    84         10
    85         10
    86         10
    87         10
    98         10
   100         10
   114         40
   115         10