##TITLE=Library Entry 6763
##JCAMP-DX=Revision 4.10 
##DATA TYPE=MASS SPECTRUM
##SAMPLE DESCRIPTION=R.C. DOUGHERTY
##NAMES=HP
##CAS NAME=1,3-Dioxolane-4-methanol, .alpha.-ethynyl-2,2-dimethyl-, acetate
##MOLFORM=C10H14O4
##CAS REGISTRY NO=56666-75-2
##MP= -300
##BP= -300
##MW= 198
##$RETENTION INDEX=0
##$CONDENSED SPECTRUM=NO
##NPOINTS= 20
##XYDATA=(XY..XY) 1 
    26         38
    27         51
    28         14
    29         44
    32          3
    39         64
    41         64
    42        121
    43        999
    44        448
    58         77
    59         51
    61         44
    72         44
    81         51
   101        384
   111         38
   123         19
   183        282
   184         25