##TITLE=Library Entry 71580
##JCAMP-DX=Revision 4.10 
##DATA TYPE=MASS SPECTRUM
##SAMPLE DESCRIPTION=R. GREENHALGH, AGRIC. CAN., PLANT RES. CENT., OTTAWA, C
AN.
##NAMES=HP
##CAS NAME=7,15-Diacetyldeoxynivalenol
##MOLFORM=C19H24O8
##CAS REGISTRY NO=56676-60-9
##MP= -300
##BP= -300
##MW= 380
##$RETENTION INDEX=0
##$CONDENSED SPECTRUM=NO
##NPOINTS= 46
##XYDATA=(XY..XY) 1 
    53        599
    55        855
    67        578
    69        737
    77        738
    79        903
    91        640
    97        593
    98        999
   107        688
   108        810
   121        325
   125        412
   135        540
   136        910
   137        867
   151        345
   153        211
   163        506
   173        114
   175        212
   181        345
   187        136
   189        130
   201         95
   203        151
   215         54
   217         86
   229         55
   231        102
   248        541
   249        296
   260        384
   265         98
   278        306
   279         56
   292         21
   293          3
   307         19
   308          4
   320        102
   321         23
   338        125
   339         26
   380         34
   381          8