##TITLE=Library Entry 78706
##JCAMP-DX=Revision 4.10 
##DATA TYPE=MASS SPECTRUM
##SAMPLE DESCRIPTION=Japan AIST/NIMC Database- Spectrum MS-IW-2564
##NAMES=HP
##CAS NAME=Dimethylphenacylsulfonium bromide
##MOLFORM=C10H13BrOS
##CAS REGISTRY NO=5667-47-0
##MP= -300
##BP= -300
##MW= 260
##$RETENTION INDEX=0
##$CONDENSED SPECTRUM=NO
##NPOINTS= 77
##XYDATA=(XY..XY) 1 
    14          2
    15         11
    26          1
    27         17
    28          4
    32          1
    34          1
    35         26
    37          3
    38          6
    39         16
    40          1
    41          3
    42          7
    43          3
    44          4
    45         39
    46         35
    47         85
    48          4
    49          6
    50         42
    51        111
    52          7
    53          1
    57          2
    58          3
    59          4
    60          1
    61         55
    62        111
    63         18
    64          8
    65         23
    66          1
    73          3
    74         16
    75         11
    76         19
    77        343
    78         27
    79          5
    80          7
    81          5
    82          7
    86          1
    87          1
    88          1
    89          9
    90          5
    91         75
    92          6
    93          9
    94         41
    95          7
    96         38
   102          1
   103          3
   104          3
   105        999
   106         78
   107          5
   118          1
   119          1
   120         17
   121          3
   122          1
   137          7
   165          2
   166         63
   167          7
   168          3
   180          5
   198         38
   199          3
   200         37
   201          3