##TITLE=Library Entry 40749
##JCAMP-DX=Revision 4.10 
##DATA TYPE=MASS SPECTRUM
##SAMPLE DESCRIPTION=R.T.HOLMAN,UNIVERSITY OF MINNESOTA
##NAMES=HP
##CAS NAME=[1,1'-Bicyclopropyl]-2-octanoic acid, 2'-hexyl-, methyl ester
##MOLFORM=C21H38O2
##CAS REGISTRY NO=56687-68-4
##MP= -300
##BP= -300
##MW= 322
##$RETENTION INDEX=0
##$CONDENSED SPECTRUM=NO
##NPOINTS= 155
##XYDATA=(XY..XY) 1 
    36          7
    37          7
    38         18
    39        230
    40         55
    41        660
    42        150
    43        950
    44        210
    45        960
    46         55
    47         25
    50         15
    51         36
    52         22
    53        140
    54        240
    55        600
    56        140
    57        250
    58         73
    59        520
    60         47
    61         76
    63         13
    65         49
    66         55
    67        500
    68        290
    69        340
    70        130
    71        230
    72         62
    73        999
    74        230
    75         36
    76          7
    77         84
    78         33
    79        190
    80         98
    81        470
    82        280
    83        250
    84         80
    85        140
    86         40
    87         76
    88         44
    89         15
    91         91
    92         29
    93        140
    94         91
    95        330
    96        220
    97        170
    98         69
    99         87
   100         25
   101         55
   102          9
   103         22
   104         16
   105         55
   106         22
   107         80
   108         58
   109        180
   110        110
   111         98
   112         40
   113         40
   114         16
   115         33
   116         11
   117         18
   118         15
   119         47
   120         25
   121         69
   122         44
   123         98
   124         76
   125         55
   126         22
   127         24
   128         15
   129         36
   130          9
   131         22
   132         18
   133         25
   134         18
   135         47
   136         47
   137         62
   138         55
   139         44
   140         22
   141         25
   142         15
   143         36
   144          9
   145         18
   146         13
   147         25
   148         15
   149         36
   150         42
   151         44
   152         44
   153         25
   154         18
   156         11
   157         15
   158         11
   159         11
   161         11
   163         22
   164         31
   165         47
   166         29
   167         25
   168         16
   169         22
   171         11
   177         15
   178         29
   179         22
   180         15
   181         16
   182         11
   183         11
   185         11
   187         11
   191         11
   192         18
   193         11
   194         11
   195         15
   196         15
   205         11
   207         18
   208          9
   209         13
   210         15
   215          9
   223         11
   224         15
   237         15
   290         11
   291         22
   322         44
   323         11