##TITLE=Library Entry 24116
##JCAMP-DX=Revision 4.10 
##DATA TYPE=MASS SPECTRUM
##SAMPLE DESCRIPTION=DR GLENN PATTERSON
##NAMES=HP
##CAS NAME=Cholest-7-en-3-ol, 14-methyl-, (3.beta.)-
##MOLFORM=C28H48O
##CAS REGISTRY NO=56687-74-2
##MP= -300
##BP= -300
##MW= 400
##$RETENTION INDEX=0
##$CONDENSED SPECTRUM=NO
##NPOINTS= 144
##XYDATA=(XY..XY) 1 
    18         40
    27        100
    28         60
    29        240
    39         80
    41        519
    42         80
    43        799
    44         30
    45         60
    53         70
    54         40
    55        699
    56        200
    57        999
    58         50
    65         30
    67        220
    68         70
    69        499
    70        150
    71        529
    77         70
    79        150
    80         30
    81        330
    82        100
    83        360
    84         90
    85        280
    91        180
    92         40
    93        160
    95        370
    96        100
    97        310
    98         60
    99         90
   104         60
   105        210
   106         60
   107        210
   108         50
   109        200
   110         60
   111        180
   112         60
   113         80
   115         40
   117         70
   118         30
   119        180
   120         60
   121        120
   122         40
   123        120
   124         40
   125        100
   126         40
   127         50
   128         50
   129         70
   130         30
   131        110
   132         40
   133        150
   134         60
   135        100
   136         30
   137         70
   138         30
   139         40
   141         40
   142         30
   143         70
   144         40
   145        150
   146         40
   147        110
   148         40
   149         70
   151         50
   155         40
   157         70
   159        120
   161        100
   163         60
   165         50
   167         30
   169         50
   171         60
   173         70
   175         70
   177         50
   179         40
   183         40
   185         60
   187         60
   189         40
   191         40
   192         40
   193         40
   197         30
   199         60
   201         90
   203         50
   205        220
   206         50
   207         30
   211         30
   213         60
   215         50
   217         60
   218         30
   219        130
   220         80
   227        140
   228         30
   229         40
   231         60
   233         40
   241         40
   242         70
   243         60
   244         30
   245        130
   246         40
   257         30
   259        120
   260         70
   261         40
   269         30
   271         40
   273         70
   287         90
   367        250
   368         80
   369         30
   385        549
   386        100
   387         30
   399         50
   400         90
   401         30