##TITLE=Library Entry 63195
##JCAMP-DX=Revision 4.10 
##DATA TYPE=MASS SPECTRUM
##SAMPLE DESCRIPTION=R.C. DOUGHERTY
##NAMES=HP
##CAS NAME=.beta.-D-Glucopyranoside, phenylmethyl 3,6-bis-O-(phenylmethyl)-4
-O-[2,3,4,6-tetrakis-O-(phenylmethyl)-.alpha.-D-glucopyranosyl]-, acetate
##MOLFORM=C63H66O12
##CAS REGISTRY NO=56689-40-8
##MP= -300
##BP= -300
##MW= 1014
##$RETENTION INDEX=0
##$CONDENSED SPECTRUM=NO
##NPOINTS= 82
##XYDATA=(XY..XY) 1 
    28         15
    29         10
    39         10
    40         20
    44         45
    50         30
    51         65
    52         20
    63         10
    65         25
    69         15
    74         10
    75         10
    76         10
    77        130
    78         25
    79         30
    81         30
    85         20
    89         10
    90         15
    91        999
    92        200
    93         10
    97         10
    99         15
   104         15
   105        140
   106        130
   107         50
   108         45
   109         25
   110         15
   112         10
   114         10
   115         10
   119         10
   121         10
   127         30
   129         10
   133         25
   134         10
   145         15
   157         10
   159         10
   161         10
   163         25
   166         15
   167         10
   168         10
   169         15
   179         25
   181        260
   182         60
   187         55
   188         10
   189         10
   193         30
   194         10
   197         20
   205         10
   211         10
   215         10
   217         20
   218         10
   233         40
   234         15
   240        115
   241         25
   245         10
   253         70
   254         30
   271         30
   272         10
   276         25
   324         15
   325         15
   382         25
   384         25
   411         15
   413         10
   428         20