##TITLE=Library Entry 25815
##JCAMP-DX=Revision 4.10 
##DATA TYPE=MASS SPECTRUM
##SAMPLE DESCRIPTION=Exported from NIST MS Search
##NAMES=HP
##CAS NAME=2-Docosenoic acid, 2,4,21,21-tetramethyl-, methyl ester, (E)-
##MOLFORM=C27H52O2
##CAS REGISTRY NO=56687-71-9
##MP= -300
##BP= -300
##MW= 408
##$RETENTION INDEX=0
##$CONDENSED SPECTRUM=NO
##NPOINTS= 172
##XYDATA=(XY..XY) 1 
    14          4
    15         20
    16         14
    18          2
    26         14
    27         24
    28         80
    29        120
    30          4
    38          4
    39         40
    40          4
    41        300
    42         40
    43        300
    44         20
    45         10
    51         10
    53         24
    54         30
    55        300
    56        210
    57        999
    58         44
    59         60
    65          4
    66         14
    67        180
    68         50
    69        410
    70         60
    71        150
    72         10
    73         30
    74          2
    79         14
    80         10
    81        150
    82        120
    83        440
    84         40
    85        110
    86          4
    87         10
    88        280
    89         20
    90          2
    91         10
    93         16
    94         10
    95        250
    96         80
    97        164
    98         20
    99         50
   100         10
   101        380
   102         24
   104          2
   105          2
   107          4
   108         16
   109        144
   110        124
   111        130
   112         24
   113         44
   114         10
   115         20
   119          2
   121         10
   122         14
   123         70
   124         76
   125         56
   126         24
   127        230
   128        100
   129         40
   131          4
   135          4
   136          4
   137         30
   138         16
   139         20
   140         10
   141         60
   142        400
   143         50
   149          4
   150          2
   151         10
   152         10
   153         10
   155         20
   156          4
   161          2
   165         20
   166          2
   167         10
   168          4
   169         10
   179          2
   182          4
   183         10
   193          2
   196          4
   199          2
   204          2
   207         10
   221          4
   222          4
   223          4
   224          4
   228          4
   236          4
   241          4
   249          2
   251          2
   252          4
   253          4
   254          2
   255          4
   256          2
   263          4
   264         10
   265         10
   277          2
   278          2
   279          2
   283          4
   284          2
   291         10
   292          4
   305         16
   306          4
   308          4
   312          4
   319          2
   320         20
   321         50
   322         10
   332          2
   333         34
   334         20
   335          4
   339         30
   340          2
   341          2
   347         10
   348         10
   349          2
   350          4
   351          2
   352        100
   353         70
   354         16
   355          4
   361         70
   362         20
   363          2
   375         36
   376        100
   377         20
   378          4
   393         50
   394         16
   406          4
   407          4
   408        440
   409        136
   410         20