##TITLE=Library Entry 63164
##JCAMP-DX=Revision 4.10 
##DATA TYPE=MASS SPECTRUM
##SAMPLE DESCRIPTION=Japan AIST/NIMC Database- Spectrum MS-IW-2848
##NAMES=HP
##CAS NAME=Hydrocinnamic acid, .alpha.-ethyl-
##MOLFORM=C11H14O2
##CAS REGISTRY NO=5669-16-9
##MP= -300
##BP= -300
##MW= 178
##$RETENTION INDEX=0
##$CONDENSED SPECTRUM=NO
##NPOINTS= 71
##XYDATA=(XY..XY) 1 
    26          1
    27          9
    28          2
    29          5
    38          2
    39         22
    40          1
    41          9
    42          1
    43          2
    45          6
    50          8
    51         26
    52          7
    53          5
    54          1
    55          6
    57          2
    58          1
    62          3
    63         12
    64          4
    65         55
    66          6
    69          2
    70          1
    73          1
    74          4
    75          5
    76          3
    77         33
    78         31
    79         13
    80          1
    87         18
    88          1
    89         10
    90          5
    91        999
    92        118
    93          5
   101          1
   102          5
   103         28
   104         33
   105         16
   106          2
   107          8
   108          1
   115         13
   116          4
   117         31
   118          5
   119          1
   127          1
   128          2
   129          2
   131         69
   132         45
   133         12
   134          1
   136          4
   145          1
   147          1
   149         51
   150         26
   151          2
   160          1
   178        177
   179         21
   180          2