##TITLE=Library Entry 89143
##JCAMP-DX=Revision 4.10 
##DATA TYPE=MASS SPECTRUM
##SAMPLE DESCRIPTION=Japan AIST/NIMC Database- Spectrum MS-IW-5866
##NAMES=HP
##CAS NAME=Dodecyl hexanedithiolate
##MOLFORM=C30H58O2S2
##CAS REGISTRY NO=56694-35-0
##MP= -300
##BP= -300
##MW= 514
##$RETENTION INDEX=0
##$CONDENSED SPECTRUM=NO
##NPOINTS= 174
##XYDATA=(XY..XY) 1 
    15          1
    25          1
    26          9
    27         51
    28         52
    29        106
    30          2
    32          3
    33          3
    34          9
    35          4
    37          1
    38          2
    39         48
    40         10
    41        264
    42         88
    43        387
    44         15
    45         14
    46          8
    47         50
    48          2
    49          3
    50          3
    51          4
    52          3
    53         25
    54         68
    55        528
    56        320
    57        346
    58         15
    59          7
    60         35
    61         43
    62          4
    63          3
    64          1
    65          6
    66          9
    67         69
    68        108
    69        364
    70        298
    71        134
    72          7
    73          6
    74          3
    75          5
    76          1
    77          3
    78          1
    79          5
    80          4
    81         26
    82        131
    83        429
    84        217
    85         94
    86          5
    87         31
    88         28
    89         61
    90          5
    91          4
    92          1
    93          2
    94          1
    95          9
    96         62
    97        240
    98        119
    99         21
   100         30
   101         22
   102          5
   103          9
   107          1
   108          1
   109          4
   110         53
   111        999
   112        105
   113         20
   114          6
   115          9
   116         32
   117         26
   118          3
   119          1
   121          2
   123          1
   124          9
   125         49
   126         30
   127          7
   128          1
   129          5
   130          1
   131          1
   135          1
   137          1
   138          5
   139         22
   140         53
   141          7
   142          1
   143          3
   144          2
   145          5
   153          1
   154          1
   155          2
   156          1
   157          3
   158          1
   159          2
   166          1
   167          1
   168        100
   169         14
   170          1
   171          1
   173          1
   174          1
   181          1
   185          1
   186          1
   187          1
   196          5
   197          1
   199         10
   200          9
   201         35
   202         98
   203         14
   204          5
   211          1
   213          1
   215          4
   227          1
   228          1
   229          4
   230          4
   237          1
   239          2
   241          1
   243          1
   256          1
   257          1
   265          1
   266          1
   267        209
   268         45
   269         14
   270          2
   271          1
   284          4
   285         23
   286          4
   287          1
   295          6
   296          2
   297          1
   311          1
   313        591
   314        122
   315         40
   316          6
   317          1
   341         10
   342          2
   343          1