##TITLE=Library Entry 26284
##JCAMP-DX=Revision 4.10 
##DATA TYPE=MASS SPECTRUM
##SAMPLE DESCRIPTION=Exported from NIST MS Search
##NAMES=HP
##CAS NAME=Propane, 1,1'-[ethylidenebis(oxy)]bis[2-methyl-
##MOLFORM=C10H22O2
##CAS REGISTRY NO=5669-09-0
##MP= -300
##BP= -300
##MW= 174
##$RETENTION INDEX=954
##$CONDENSED SPECTRUM=NO
##NPOINTS= 31
##XYDATA=(XY..XY) 1 
    14          2
    15          4
    16          3
    27         28
    28          8
    29        122
    31         13
    33          8
    39         29
    40          4
    41        206
    42         24
    43         63
    44          7
    45        288
    55         24
    56         68
    57        999
    58         68
    59          7
    61          9
    73          8
    83         22
    85          5
   101        558
   102         31
   103         20
   117          3
   131         27
   144          1
   159         69