##TITLE=Library Entry 58772
##JCAMP-DX=Revision 4.10 
##DATA TYPE=MASS SPECTRUM
##SAMPLE DESCRIPTION=Exported from NIST MS Search
##NAMES=HP
##CAS NAME=4,5-Isoxazoledione, 3-methyl-, 4-[(2-nitrophenyl)hydrazone]
##MOLFORM=C10H8N4O4
##CAS REGISTRY NO=5669-80-7
##MP= -300
##BP= -300
##MW= 248
##$RETENTION INDEX=0
##$CONDENSED SPECTRUM=NO
##NPOINTS= 36
##XYDATA=(XY..XY) 1 
    39        380
    40        100
    41        150
    42        410
    43         80
    44        150
    50        140
    51        140
    52        180
    53         70
    54        110
    62        100
    63        619
    64        470
    65        130
    67        130
    69         70
    75        100
    76        120
    77         40
    78         70
    79         60
    90        999
    91        310
    92         70
    98        100
   122        130
   136        370
   137         50
   138         30
   150         80
   162         30
   163         60
   207         80
   230        210
   248        230