##TITLE=Library Entry 80214
##JCAMP-DX=Revision 4.10 
##DATA TYPE=MASS SPECTRUM
##SAMPLE DESCRIPTION=R.T.HOLMAN,UNIVERSITY OF MINNESOTA
##NAMES=HP
##CAS NAME=9,12,15-Octadecatrienoic acid, 2-phenyl-1,3-dioxan-5-yl ester
##MOLFORM=C28H40O4
##CAS REGISTRY NO=56700-76-6
##MP= -300
##BP= -300
##MW= 440
##$RETENTION INDEX=0
##$CONDENSED SPECTRUM=NO
##NPOINTS= 360
##XYDATA=(XY..XY) 1 
    25          8
    26         25
    27        131
    28        100
    29        257
    30         22
    31         75
    32          7
    36         21
    37          9
    38         17
    39        112
    40         25
    41        557
    42         85
    43        414
    44         81
    45        122
    46         15
    47         18
    48          7
    49          7
    50         31
    51         85
    52         25
    53         85
    54        101
    55        542
    56          9
    57        400
    58         39
    59         30
    60         62
    61         50
    62         12
    63         17
    64          8
    65         61
    66         62
    67        500
    68        118
    69        285
    70         69
    71        115
    72         14
    73        122
    74         39
    75         35
    76         22
    77        371
    78        124
    79        642
    80        257
    81        314
    82        107
    83        142
    84         58
    85         77
    86         15
    87         39
    88         15
    89         21
    90         17
    91        342
    92         88
    93        299
    94        122
    95        400
    96         81
    97         97
    98         84
    99         45
   100         28
   101         34
   102         14
   103         24
   104         28
   105        999
   106        171
   107        228
   108        314
   109        128
   110         31
   111         50
   112         34
   113         28
   114          9
   115         28
   116         61
   117         67
   118         17
   119         82
   120         38
   121        110
   122         71
   123         67
   124         19
   125         24
   126         12
   127         27
   128         12
   129        185
   130         24
   131         41
   132         18
   133         68
   134         38
   135         87
   136         37
   137         27
   138         12
   139         21
   140          9
   141         30
   142         12
   143         24
   144         14
   145         27
   146         17
   147         48
   148         22
   149         88
   150         27
   151         19
   152         12
   153         18
   154          9
   155         38
   156         12
   157         27
   158         12
   159         19
   160          9
   161         31
   162         39
   163         94
   164         27
   165        108
   166         18
   167         19
   168          9
   169         18
   170          7
   171         25
   172         15
   173         27
   174          9
   175         19
   176         11
   177         14
   178         30
   179         35
   180         11
   181         12
   182          9
   183         12
   184          8
   185         45
   186         14
   187         12
   188          5
   189         18
   190          9
   191         28
   192         12
   193          9
   194          9
   195          9
   196          8
   197         12
   198          7
   199         17
   200          9
   201          9
   202          7
   203         11
   204         14
   205         12
   206          9
   207         14
   208          8
   209         11
   210          9
   211         12
   212          7
   213         17
   214          9
   215          7
   216          8
   217         24
   218         22
   219         51
   220         21
   221         14
   222         11
   223          9
   224          7
   225         14
   226          7
   227         24
   228          8
   229          9
   230          5
   231         11
   232         14
   233         24
   234          8
   235          9
   236          5
   237          7
   238          9
   239         30
   240         12
   241         11
   242          9
   243          8
   244          5
   245          7
   246          5
   247         17
   248          5
   249          7
   250          7
   251          7
   252          9
   253          9
   254          7
   255          9
   256         17
   257         11
   258          7
   259          8
   260         12
   261         37
   262         14
   263          9
   264          9
   265         51
   266         17
   267         15
   268          8
   269          8
   270          5
   271          4
   272          4
   273          5
   274          4
   275          9
   276          7
   277         12
   278         44
   279         24
   280         11
   281          9
   282          5
   283         11
   284         14
   285          7
   286          4
   287          7
   288          4
   289          7
   290          4
   291          9
   292          7
   293          7
   294          7
   295          7
   296          7
   297          7
   298          5
   299          4
   300          4
   301          5
   302          4
   303          9
   304          7
   305          8
   306          5
   307          5
   308          5
   309          8
   310          5
   311          4
   312          4
   313          4
   314          4
   315          4
   316          4
   317          5
   318          4
   319          7
   320          5
   321          9
   322          7
   323          7
   324          8
   325          5
   326          4
   329          4
   330          4
   331          7
   332          7
   333         14
   334        257
   335         62
   336         28
   337          8
   338          9
   339          5
   340          4
   341          4
   342          4
   343          4
   344          5
   345          4
   346          4
   349         21
   350         11
   351          8
   352         19
   353          9
   354          4
   355          4
   356          4
   357          4
   358          4
   359          5
   360          4
   361          4
   363         18
   364          7
   365          4
   366          4
   367          4
   368          4
   369          4
   370          4
   371          7
   372          4
   373          4
   376          4
   377          7
   378          9
   379          7
   380          4
   381          4
   382          4
   384          8
   385          4
   386          4
   392          4
   393          4
   394          4
   396          4
   397          4
   439         15
   440         25
   441          9
   442          4