##TITLE=Library Entry 4525
##JCAMP-DX=Revision 4.10 
##DATA TYPE=MASS SPECTRUM
##SAMPLE DESCRIPTION=R.G.LAUGHLIN PROCTER & GAMBLE CO., CINCINNATI, OHIO, US
A
##NAMES=HP
##CAS NAME=Isoxazolidine, 5-ethyl-2,4-dimethyl-, cis-
##MOLFORM=C7H15NO
##CAS REGISTRY NO=56701-02-1
##MP= -300
##BP= -300
##MW= 129
##$RETENTION INDEX=0
##$CONDENSED SPECTRUM=NO
##NPOINTS= 23
##XYDATA=(XY..XY) 1 
    39        235
    40         87
    41        437
    42        999
    43        595
    44        224
    45         47
    50         29
    51          6
    52          4
    53         18
    54          6
    55        194
    56        327
    57        126
    58         40
    60        333
    69         49
    78         12
    80         71
    81         42
    82          7
   129         92