##TITLE=Library Entry 33602
##JCAMP-DX=Revision 4.10 
##DATA TYPE=MASS SPECTRUM
##SAMPLE DESCRIPTION=G.R.LIST AGRICULTURAL RES. SERVICE, PEORIA, ILLINOIS, U
SA
##NAMES=HP
##CAS NAME=2,4-Nonadiene, (E,E)-
##MOLFORM=C9H16
##CAS REGISTRY NO=56700-78-8
##MP= -300
##BP= -300
##MW= 124
##$RETENTION INDEX=1012
##$CONDENSED SPECTRUM=NO
##NPOINTS= 79
##XYDATA=(XY..XY) 1 
    12          0
    13          0
    14          2
    15         13
    16          2
    17          4
    18         16
    24          0
    25          1
    26         18
    27        308
    28         64
    29        163
    30          4
    31          0
    32          3
    37          3
    38         16
    39        342
    40         71
    41        559
    42         51
    43         60
    44          4
    45          1
    50         20
    51         70
    52         51
    53        291
    54         67
    55        170
    56         16
    57          8
    58          1
    59          0
    60          0
    61          1
    62          4
    63         18
    64          5
    65         73
    66         60
    67        371
    68        999
    69         93
    70         10
    71          2
    74          2
    75          2
    76          1
    77         89
    78         23
    79        217
    80         53
    81        928
    82        209
    83         17
    84          2
    85          1
    91         23
    92          4
    93         17
    94          8
    95        277
    96         31
    97          2
    98          1
   103          1
   105          2
   107          2
   108          2
   109         23
   110          2
   121          0
   122          1
   123          1
   124        264
   125         24
   126          1