##TITLE=Library Entry 53874
##JCAMP-DX=Revision 4.10 
##DATA TYPE=MASS SPECTRUM
##SAMPLE DESCRIPTION=R.C. DOUGHERTY
##NAMES=HP
##CAS NAME=2-Naphthalenemethanol, 1-(dimethylamino)-1,2,3,4,4a,5,6,8a-octahy
dro-.alpha.,.alpha.,4a,8a-tetramethyl-
##MOLFORM=C17H31NO
##CAS REGISTRY NO=56701-22-5
##MP= -300
##BP= -300
##MW= 265
##$RETENTION INDEX=0
##$CONDENSED SPECTRUM=NO
##NPOINTS= 134
##XYDATA=(XY..XY) 1 
    35         65
    36        190
    37         50
    38        110
    39        380
    40        170
    41        810
    42        740
    43        920
    44        745
    45        540
    46        490
    47        190
    48         80
    49         90
    50        100
    51        120
    52         65
    53        270
    54         60
    55        420
    56        130
    57        120
    58        990
    59        770
    60         35
    63         40
    65        150
    66         60
    67        340
    68        150
    69        260
    70        240
    71        950
    72        170
    77        300
    78         90
    79        330
    80        100
    81        320
    82        300
    83        750
    84        999
    85        630
    86         85
    87         80
    91        530
    92        100
    93        340
    94        180
    95        200
    96        370
    97        180
    98        670
    99        100
   100         30
   103         50
   104         30
   105        230
   106        140
   107        300
   108        270
   109        320
   110        175
   111        200
   112        150
   113         10
   114        530
   115         90
   117         85
   118         60
   119        220
   120        130
   121        160
   122        160
   123         90
   124        460
   125         70
   126         80
   127         30
   128         40
   129         90
   130         25
   131         70
   132         40
   133        120
   134         90
   135         70
   136         80
   137         90
   138        180
   139         40
   140        220
   141         30
   142        280
   143         40
   145         70
   146         45
   147        270
   148        130
   149         60
   150        190
   151         50
   156         40
   159         50
   160         30
   161         70
   162        190
   163         70
   164        830
   165        190
   166         40
   176         35
   177         30
   178         40
   187         60
   190         60
   192        320
   193         45
   202         65
   204         40
   205         40
   206        460
   207        120
   232        140
   247        190
   248        240
   249         50
   250        320
   251         50
   263        100
   264         30
   265        690
   266        130