##TITLE=Library Entry 18639
##JCAMP-DX=Revision 4.10 
##DATA TYPE=MASS SPECTRUM
##SAMPLE DESCRIPTION=G.R.LIST AGRICULTURAL RES. SERVICE, PEORIA, ILLINOIS, U
SA
##NAMES=HP
##CAS NAME=1,3-Nonadiene, (E)-
##MOLFORM=C9H16
##CAS REGISTRY NO=56700-77-7
##MP= -300
##BP= -300
##MW= 124
##$RETENTION INDEX=924
##$CONDENSED SPECTRUM=NO
##NPOINTS= 76
##XYDATA=(XY..XY) 1 
    12          0
    13          0
    14          2
    15         11
    16          1
    17          2
    18          8
    24          0
    25          1
    26         22
    27        317
    28         62
    29        326
    30          8
    31          0
    36          0
    37          3
    38         17
    39        410
    40         75
    41        742
    42        119
    43         44
    44          4
    45          2
    49          1
    50         19
    51         60
    52         47
    53        149
    54        999
    55        268
    56         27
    57         65
    58          3
    59          1
    61          1
    62          4
    63         15
    64          4
    65          8
    66         75
    67        646
    68        339
    69         96
    70         38
    71          3
    73          1
    74          1
    75          1
    76          1
    77         50
    78         13
    79         85
    80         30
    81        251
    82        149
    83         35
    84          4
    85          0
    86          0
    91         14
    92          2
    93          8
    94          5
    95        169
    96         65
    97          5
   103          0
   105          0
   107          0
   109         16
   110          1
   124        168
   125         21
   126          2