##TITLE=Library Entry 4524
##JCAMP-DX=Revision 4.10 
##DATA TYPE=MASS SPECTRUM
##SAMPLE DESCRIPTION=R.G.LAUGHLIN PROCTER & GAMBLE CO., CINCINNATI, OHIO, US
A
##NAMES=HP
##CAS NAME=Isoxazolidine, 4-ethyl-2,5-dimethyl-, cis-
##MOLFORM=C7H15NO
##CAS REGISTRY NO=56701-01-0
##MP= -300
##BP= -300
##MW= 129
##$RETENTION INDEX=0
##$CONDENSED SPECTRUM=NO
##NPOINTS= 22
##XYDATA=(XY..XY) 1 
    39        328
    40         18
    41        520
    42        999
    43        801
    44        232
    45         32
    50         11
    51          9
    52          8
    53         22
    54         15
    55        249
    56         17
    57         66
    58         18
    60        342
    69          9
    78         14
    80         75
    81          5
   129         75