##TITLE=Library Entry 10220
##JCAMP-DX=Revision 4.10 
##DATA TYPE=MASS SPECTRUM
##SAMPLE DESCRIPTION=Exported from NIST MS Search
##NAMES=HP
##CAS NAME=Carda-4,20(22)-dienolide, 3-[(6-deoxy-3-O-methyl-.alpha.-D-allopy
ranosyl)oxy]-1,14-dihydroxy-, (1.beta.,3.beta.)-
##MOLFORM=C30H44O9
##CAS REGISTRY NO=56701-08-7
##MP= -300
##BP= -300
##MW= 548
##$RETENTION INDEX=0
##$CONDENSED SPECTRUM=NO
##NPOINTS= 417
##XYDATA=(XY..XY) 1 
    25          9
    26         43
    27        195
    28        170
    29        231
    30         29
    31        341
    32        195
    33         43
    36          4
    37          9
    38         19
    39        156
    40         43
    41        448
    42         73
    43        999
    44        463
    45        390
    46         17
    47         19
    49          4
    50         19
    51         58
    52         39
    53        219
    54         48
    55        341
    56         73
    57        378
    58         97
    59        121
    60         48
    61         29
    62         12
    63         24
    64         14
    65        317
    66        102
    67        473
    68         48
    69        253
    70         53
    71        158
    72         29
    73        178
    74        378
    75        243
    76         19
    77        268
    78         97
    79        453
    80         97
    81        741
    82         73
    83        156
    84         73
    85        195
    86         85
    87        653
    88         48
    89         24
    90         14
    91        760
    92        185
    93        365
    94         97
    95        219
    96         48
    97        121
    98         87
    99         73
   100         24
   101        121
   102         58
   103        117
   104        117
   105        102
   106        400
   107        512
   108        107
   109        141
   110         68
   111        263
   112         39
   113         61
   114         19
   115         97
   116         43
   117        156
   118         87
   119        253
   120        673
   121        258
   122        121
   123        121
   124         48
   125         48
   126         24
   127         29
   128         87
   129        165
   130         63
   131        365
   132         63
   133        134
   134        103
   135        236
   136         90
   137         94
   138         36
   139         52
   140         17
   141        115
   142         85
   143        185
   144         80
   145        262
   146         70
   147        146
   148         74
   149         92
   150         32
   151         28
   152         24
   153         61
   154         37
   155         75
   156         36
   157        195
   158         74
   159        219
   160         62
   161        145
   162         79
   163        114
   164         52
   165         54
   166         24
   167         36
   168         23
   169         45
   170         33
   171         64
   172         54
   173        131
   174         54
   175        132
   176         56
   177         89
   178         73
   179         65
   180         30
   181         98
   182         29
   183         43
   184         15
   185         36
   186         21
   187         79
   188         63
   189         91
   190         71
   191        130
   192         73
   193         48
   194         21
   195         45
   196         27
   197         58
   198         24
   199         61
   200         40
   201         58
   202         19
   203         42
   204         20
   205         42
   206         23
   207         34
   208         54
   209         42
   210         15
   211         30
   212         12
   213         28
   214         13
   215         42
   216         18
   217         31
   218         17
   219         21
   220          9
   221         19
   222          9
   223         17
   224         18
   225         26
   226         23
   227         32
   228         19
   229         36
   230         17
   231         24
   232         15
   233         30
   234         13
   235         21
   236         11
   237         13
   238          7
   239         17
   240          9
   241         18
   242         17
   243         34
   244         17
   245         26
   246         15
   247         24
   248         11
   249         18
   250         14
   251         42
   252         12
   253         18
   254          7
   255         17
   256         11
   257         13
   258          6
   259         15
   260         12
   261         17
   262          9
   263         11
   264          6
   265         12
   266          6
   267         11
   268          7
   269         18
   270         17
   271         17
   272          7
   273         40
   274         10
   275         10
   276          4
   277          7
   278          3
   279         11
   280          6
   281          6
   282          3
   283         12
   284          6
   285         11
   286          7
   287         18
   288          6
   289          6
   290          3
   291          8
   292          4
   293         11
   294          6
   295         11
   296          4
   297          7
   298          4
   299          6
   300          3
   301         11
   302          3
   303          4
   304          3
   305          4
   306          3
   307          7
   308          7
   309         17
   310          9
   311         11
   312          4
   313          7
   314          3
   315          6
   316          3
   317          7
   318          7
   319         12
   320          6
   321          7
   322          4
   323          6
   324          6
   325          7
   326          6
   327         11
   328          7
   329         14
   330          7
   331         11
   332          6
   333          6
   334         11
   335         93
   336         40
   337         32
   338          9
   339         11
   340          4
   341          6
   342         12
   343         11
   344         20
   345         41
   346         20
   347         17
   348          8
   349          8
   350          4
   351         11
   352         92
   353        292
   354        121
   355         61
   356         15
   357         23
   358          7
   359          4
   360          3
   361         30
   362         89
   363         42
   364         25
   365         13
   366         17
   367         12
   368         12
   369         51
   370         20
   371         78
   372         93
   373          8
   374          7
   375          3
   376          3
   377          2
   378          4
   379          4
   380         26
   381         32
   382         30
   383         15
   384         12
   385          7
   386         12
   387          7
   388         14
   389          7
   390          9
   391          6
   392          3
   393          4
   394          3
   395          1
   396          3
   397          1
   398         11
   399          7
   400         18
   401          7
   402          7
   403          7
   404          3
   405          2
   406          2
   407          2
   408          3
   409          6
   410          4
   411          3
   412          2
   415          2
   416          3
   417          2
   418          9
   419         11
   420          6
   421          7
   422          3
   423          2
   425          2
   426          3
   427         42
   428         12
   429          4
   430          1
   435          1
   436          6
   437         13
   438          6
   439          3
   440          3
   441          2
   445          1
   446          3
   447          2
   454          2
   455          7
   456          3
   457          1
   480          3
   522          3
   542          3