##TITLE=Library Entry 84326
##JCAMP-DX=Revision 4.10 
##DATA TYPE=MASS SPECTRUM
##SAMPLE DESCRIPTION=Japan AIST/NIMC Database- Spectrum MS-IW-7555
##NAMES=HP
##CAS NAME=4-(2-Methoxyethyl)phenol
##MOLFORM=C9H12O2
##CAS REGISTRY NO=56718-71-9
##MP= -300
##BP= -300
##MW= 152
##$RETENTION INDEX=0
##$CONDENSED SPECTRUM=NO
##NPOINTS= 68
##XYDATA=(XY..XY) 1 
    15         14
    26          2
    27         18
    28          8
    29         17
    30          1
    31          6
    37          1
    38          5
    39         34
    40          4
    41          5
    42          1
    43          4
    44          1
    45        107
    46          5
    50          9
    51         27
    52         12
    53         19
    54          1
    55         11
    59          1
    61          1
    62          5
    63         13
    64          4
    65         24
    66          5
    67          2
    68          1
    74          2
    75          3
    76          2
    77         65
    78         21
    79         22
    80          2
    81          3
    89          4
    90          2
    91         32
    92          4
    93          4
    94         10
    95          1
   101          1
   102          1
   103         10
   104          1
   105          5
   106          4
   107        999
   108         76
   109          7
   118          1
   119         11
   120         33
   121         24
   122          2
   135          1
   136          1
   150          1
   151          1
   152        225
   153         29
   154          3