##TITLE=Library Entry 22880
##JCAMP-DX=Revision 4.10 
##DATA TYPE=MASS SPECTRUM
##SAMPLE DESCRIPTION=G.ECKHARDT ORG. CHEM. INST., UNIV. OF BONN, BONN, F.R.G
##NAMES=HP
##CAS NAME=Tricyclo[3.3.1.1(3,7)]decane-2,6-dione, 4-amino-
##MOLFORM=C10H13NO2
##CAS REGISTRY NO=56728-08-6
##MP= -300
##BP= -300
##MW= 179
##$RETENTION INDEX=0
##$CONDENSED SPECTRUM=NO
##NPOINTS= 16
##XYDATA=(XY..XY) 1 
    41         93
    44         51
    55        121
    56        999
    57        108
    69        117
    70        156
    72         57
    79         78
    82         83
    94         52
    96         88
   134        121
   162         89
   179        478
   180         63