##TITLE=Library Entry 107370
##JCAMP-DX=Revision 4.10 
##DATA TYPE=MASS SPECTRUM
##SAMPLE DESCRIPTION=NIST Mass Spectrometry Data Center, 2010
##NAMES=HP
##CAS NAME=Acetic acid, 2,2,2-trifluoro-, 4-methoxyphenyl ester
##MOLFORM=C9H7F3O3
##CAS REGISTRY NO=5672-87-7
##MP= -300
##BP= -300
##MW= 220
##$RETENTION INDEX=1111
##$CONDENSED SPECTRUM=NO
##NPOINTS= 85
##XYDATA=(XY..XY) 1 
    15          4
    25          1
    26         15
    27          3
    28          3
    29          3
    31          3
    37          4
    38         18
    39         22
    40          2
    41         61
    42          3
    43          1
    45          1
    49          2
    50         30
    51         28
    52         52
    53         33
    54         42
    55          6
    57          2
    60          1
    61          7
    62         20
    63         58
    64         45
    65         38
    66          6
    67         10
    69        185
    70          4
    73          2
    74          7
    75         12
    76          4
    77         29
    78          6
    79         20
    80         38
    81          3
    82         15
    83          9
    84          1
    91          1
    92         32
    93          4
    94          3
    95        241
    96         18
    97         10
   101          5
   102          1
   107         29
   108         16
   109          2
   110          1
   111          1
   113          2
   121          1
   123        999
   124         78
   125          7
   126          1
   130          1
   133          1
   135          1
   139          3
   145          9
   146          1
   149          8
   150          1
   151          1
   173         24
   174          3
   177          5
   178          1
   189          4
   204          1
   205          1
   217          1
   220        437
   221         51
   222          6