##TITLE=Library Entry 4556
##JCAMP-DX=Revision 4.10 
##DATA TYPE=MASS SPECTRUM
##SAMPLE DESCRIPTION=R.G.LAUGHLIN PROCTER & GAMBLE CO., CINCINNATI, OHIO, US
A
##NAMES=HP
##CAS NAME=Isoxazolidine, 5-ethyl-2,4-dimethyl-, trans-
##MOLFORM=C7H15NO
##CAS REGISTRY NO=56728-14-4
##MP= -300
##BP= -300
##MW= 129
##$RETENTION INDEX=0
##$CONDENSED SPECTRUM=NO
##NPOINTS= 23
##XYDATA=(XY..XY) 1 
    39        282
    40         94
    41        456
    42        999
    43        768
    44        297
    45        149
    50         12
    51         12
    52          7
    53         37
    54         12
    55        310
    56        210
    57        156
    58         94
    60        724
    69        234
    78         23
    80        101
    81         87
    82         37
   129        130