##TITLE=Library Entry 87528
##JCAMP-DX=Revision 4.10 
##DATA TYPE=MASS SPECTRUM
##SAMPLE DESCRIPTION=Japan AIST/NIMC Database- Spectrum MS-IW-5265
##NAMES=HP
##CAS NAME=2-Cyclohexen-1-one semicarbazone
##MOLFORM=C7H11N3O
##CAS REGISTRY NO=5672-56-0
##MP= -300
##BP= -300
##MW= 153
##$RETENTION INDEX=0
##$CONDENSED SPECTRUM=NO
##NPOINTS= 84
##XYDATA=(XY..XY) 1 
    15          2
    16          5
    17          3
    26          5
    27         43
    28         32
    29         16
    30         17
    31          7
    32         33
    37          3
    38          9
    39         87
    40         21
    41         84
    42         22
    43         98
    44         76
    45          5
    49          1
    50         13
    51         36
    52         31
    53         52
    54         46
    55         58
    56        110
    57          8
    58          1
    61          7
    62          2
    63          7
    64          7
    65         77
    66        346
    67        140
    68         29
    69         72
    70          6
    71          1
    74          2
    75          1
    76          2
    77         90
    78         26
    79        178
    80         92
    81         78
    82         91
    83         23
    84          2
    87         80
    88          3
    91          4
    92        174
    93        226
    94        107
    95         64
    96          5
    97          1
    98          1
    99          2
   105          1
   106          1
   107          3
   108         12
   109        221
   110        999
   111        108
   112         22
   113          1
   124          1
   125         14
   126          1
   133          3
   134          2
   135          7
   136         51
   137         16
   138          2
   152          5
   153        382
   154         40
   155          3