##TITLE=Library Entry 18798
##JCAMP-DX=Revision 4.10 
##DATA TYPE=MASS SPECTRUM
##SAMPLE DESCRIPTION=J.ELGUERO UNIV. OF LANGUEDOC, MONTPELLIER CEDEX, FRANCE
##NAMES=HP
##CAS NAME=1H-Imidazo[1,2-b]pyrazole, 1-methyl-
##MOLFORM=C6H7N3
##CAS REGISTRY NO=56728-16-6
##MP= -300
##BP= -300
##MW= 121
##$RETENTION INDEX=0
##$CONDENSED SPECTRUM=NO
##NPOINTS= 22
##XYDATA=(XY..XY) 1 
    28        100
    32         40
    38         90
    39        230
    40        140
    41        100
    42        140
    52         70
    53        450
    54        999
    55         80
    64         60
    65         80
    66        110
    79        210
    80        480
    81        140
    93        130
   106        220
   120        470
   121        999
   122         80