##TITLE=Library Entry 98979
##JCAMP-DX=Revision 4.10 
##DATA TYPE=MASS SPECTRUM
##SAMPLE DESCRIPTION=B. Derendyaev, Novosibirsk Institute of Organic Chemist
ry
##NAMES=HP
##CAS NAME=N-Phthaloyl-N'-phenylurea
##MOLFORM=C15H10N2O3
##CAS REGISTRY NO=56720-81-1
##MP= -300
##BP= -300
##MW= 266
##$RETENTION INDEX=0
##$CONDENSED SPECTRUM=NO
##NPOINTS= 36
##XYDATA=(XY..XY) 1 
    32         80
    38         83
    39        139
    40        121
    42         63
    46         36
    50        353
    51         89
    52         60
    60         40
    62         41
    63        140
    64        326
    65         68
    66         30
    74        129
    75        113
    76        779
    77        183
    90         71
    91        503
    92         41
   103        179
   104        464
   105         38
   119        999
   120         77
   121          4
   130          9
   133          5
   147        657
   148         59
   153          5
   174         25
   175          2
   266         30