##TITLE=Library Entry 67694
##JCAMP-DX=Revision 4.10 
##DATA TYPE=MASS SPECTRUM
##SAMPLE DESCRIPTION=Japan AIST/NIMC Database- Spectrum MS-NW-5128
##NAMES=HP
##CAS NAME=N-Trichloroacetylimidazole
##MOLFORM=C5H3Cl3N2O
##CAS REGISTRY NO=56739-51-6
##MP= -300
##BP= -300
##MW= 212
##$RETENTION INDEX=0
##$CONDENSED SPECTRUM=NO
##NPOINTS= 116
##XYDATA=(XY..XY) 1 
    12          6
    13          5
    14          2
    16          1
    24          2
    25          5
    26         47
    27         10
    28         62
    29          2
    35         12
    36         24
    37          4
    38         20
    39         46
    40        366
    41         27
    42          1
    44         12
    47         55
    48          8
    49         19
    50          3
    51         16
    52         31
    53          5
    54          1
    55          1
    56          1
    57          2
    58          1
    59          2
    60          9
    61         20
    62         17
    63         13
    64          5
    65          3
    66          7
    67         20
    68        191
    69          9
    70          1
    72          1
    73          3
    74          2
    75          3
    76          5
    77          1
    78          1
    79          4
    82         91
    83         24
    84         61
    85         16
    86         11
    87          5
    88          6
    89          2
    90          1
    94          1
    95        999
    96         54
    97          6
    99          1
   102         12
   103          1
   104          4
   108          1
   110        168
   111          5
   112        109
   113          6
   114         17
   115          4
   117        237
   118          3
   119        229
   120          3
   121         73
   122         89
   123         10
   124         59
   125          2
   126          9
   127          8
   128          1
   145          4
   147          3
   149         54
   150          9
   151         34
   152          6
   153          6
   154          1
   156          1
   157          2
   159          2
   161          2
   163          3
   165          1
   177          1
   178          8
   179          1
   180          5
   182          1
   184          3
   186          3
   188          1
   212        161
   213         11
   214        151
   215         10
   216         50
   217          4
   218          6