##TITLE=Library Entry 68021
##JCAMP-DX=Revision 4.10 
##DATA TYPE=MASS SPECTRUM
##SAMPLE DESCRIPTION=Chemical Concepts
##NAMES=HP
##CAS NAME=1-Cycloheptene-1-carboxylic acid, methyl ester
##MOLFORM=C9H14O2
##CAS REGISTRY NO=56745-53-0
##MP= -300
##BP= -300
##MW= 154
##$RETENTION INDEX=0
##$CONDENSED SPECTRUM=NO
##NPOINTS= 112
##XYDATA=(XY..XY) 1 
    25          0
    26         28
    27        289
    28         30
    29        168
    30         15
    31         40
    33         10
    37         13
    38         55
    39        597
    40        133
    41        614
    42         63
    43        124
    44         10
    45         73
    46          4
    47          3
    49          1
    50         53
    51        155
    52         95
    53        472
    54        158
    55        520
    56         42
    57         22
    58         15
    59        247
    60          9
    61         16
    62         19
    63         59
    64         19
    65        231
    66        203
    67        967
    68        195
    69        108
    70         11
    71         32
    72          8
    73          7
    74         35
    75         40
    76          5
    77        267
    78         63
    79        510
    80        218
    81        206
    82         60
    83         48
    84         21
    85         30
    87        497
    88         22
    89         10
    91        148
    92         49
    93        367
    94        636
    95        999
    96         90
    97         54
    98         19
    99         30
   100         65
   101          4
   102          0
   103          1
   104          9
   105          6
   106          1
   107         34
   108          6
   109         14
   110          2
   111        139
   112         36
   113         59
   114          3
   115          0
   117          0
   119          1
   120          1
   121         33
   122        175
   123        233
   124         27
   125         83
   126         73
   127          8
   128          1
   131          0
   134          0
   135          0
   136          0
   137          2
   138          1
   139         79
   140          7
   141          0
   145          0
   151          0
   152          1
   153          9
   154        430
   155         44
   156          3
   157          0