##TITLE=Library Entry 40725
##JCAMP-DX=Revision 4.10 
##DATA TYPE=MASS SPECTRUM
##SAMPLE DESCRIPTION=Chemical Concepts
##NAMES=HP
##CAS NAME=1,3-Dioxolane, 2-(5-bromopentyl)-
##MOLFORM=C8H15BrO2
##CAS REGISTRY NO=56741-68-5
##MP= -300
##BP= -300
##MW= 222
##$RETENTION INDEX=0
##$CONDENSED SPECTRUM=NO
##NPOINTS= 92
##XYDATA=(XY..XY) 1 
    25          4
    26         26
    27        111
    28         57
    29         65
    30          5
    31         19
    36          3
    37          2
    38          6
    39         67
    40         15
    41        114
    42         61
    43         53
    44         45
    45        238
    46          7
    49          1
    50          3
    51          5
    52          3
    53         17
    54         11
    55         71
    56         12
    57         26
    58         17
    59          7
    60          6
    61          2
    63          2
    65          4
    66          2
    67         13
    68          4
    69         53
    70         11
    71         53
    72          3
    73        999
    74        100
    75         14
    76          1
    77          3
    78          1
    79          6
    80          2
    81         35
    82          5
    83          7
    84          2
    85         39
    86         12
    87          7
    88          5
    89          1
    91          2
    92          1
    93          5
    95          5
    97          4
    98          1
    99         15
   100          1
   101          5
   104          1
   106          2
   107          9
   108          2
   109          9
   113          4
   115          2
   117          1
   121          2
   129          2
   133          2
   135          2
   137          2
   141          2
   177         10
   178          1
   179         10
   180          1
   192          1
   193          0
   194          1
   195          0
   221         40
   222          4
   223         40
   224          4