##TITLE=Library Entry 33091
##JCAMP-DX=Revision 4.10 
##DATA TYPE=MASS SPECTRUM
##SAMPLE DESCRIPTION=Chemical Concepts
##NAMES=HP
##CAS NAME=1-Cyclooctene-1-carboxylic acid, methyl ester
##MOLFORM=C10H16O2
##CAS REGISTRY NO=56745-52-9
##MP= -300
##BP= -300
##MW= 168
##$RETENTION INDEX=0
##$CONDENSED SPECTRUM=NO
##NPOINTS= 102
##XYDATA=(XY..XY) 1 
    26         25
    27        301
    29        189
    30          3
    31         25
    33         15
    38         22
    39        412
    40         75
    41        741
    42         68
    43        124
    44          3
    45         93
    46          1
    50         25
    51         93
    52         82
    53        430
    54        186
    55        387
    56         58
    57         36
    58         27
    59        281
    60          5
    61          3
    63         25
    64         10
    65        156
    66        125
    67        999
    68        215
    69        224
    70         22
    71         53
    72         17
    73         31
    74         43
    75         20
    77        189
    78         79
    79        517
    80        267
    81        448
    82        189
    83         68
    84         34
    85         68
    86          6
    87        191
    88         49
    89          3
    91        122
    92         51
    93        293
    94        287
    95        163
    96         37
    97         74
    98         22
    99         55
   100        187
   101         82
   102         17
   103         13
   105         41
   106         34
   107        179
   108        641
   109        784
   110         75
   111        151
   112         82
   113        103
   114         49
   117          5
   118         18
   119          5
   121         65
   122          5
   123         13
   124          6
   125        193
   126         79
   127        146
   128         12
   134          3
   135         41
   136        232
   137        275
   138         43
   139         77
   140        137
   141         22
   151          5
   153         91
   154         10
   166         13
   167          8
   168        708
   169         86