##TITLE=Library Entry 494
##JCAMP-DX=Revision 4.10 
##DATA TYPE=MASS SPECTRUM
##SAMPLE DESCRIPTION=J. SHAW, BORRISTON RESEARCH, ROCKVILLE, MD, USA
##NAMES=HP
##CAS NAME=Benzenemethanol, 4-[(1-ethylpropyl)amino]-2-methyl-3,5-dinitro-
##MOLFORM=C13H19N3O5
##CAS REGISTRY NO=56750-76-6
##MP= -300
##BP= -300
##MW= 297
##$RETENTION INDEX=0
##$CONDENSED SPECTRUM=NO
##NPOINTS= 233
##XYDATA=(XY..XY) 1 
    12          5
    13          2
    14         12
    15         51
    16         53
    17        182
    18        584
    19         11
    20          2
    25          3
    26         29
    27        417
    28        298
    29        999
    30        249
    31        188
    32          7
    35          1
    36          4
    37          6
    38         21
    39        300
    40         46
    41        483
    42        116
    43        738
    44         65
    45         45
    46         18
    47          4
    48          1
    49          3
    50         40
    51        136
    52        100
    53        136
    54         56
    55        188
    56         91
    57        350
    58         30
    59         17
    60          6
    61          9
    62         30
    63        126
    64         58
    65        184
    66         87
    67         54
    68         31
    69         34
    70         22
    71         24
    72          8
    73         18
    74         18
    75         54
    76         56
    77        232
    78        107
    79        102
    80         59
    81         24
    82         14
    83          7
    84         10
    85         10
    86         13
    87         21
    88         16
    89         91
    90         78
    91        160
    92         77
    93         55
    94         47
    95         19
    96         10
    97         11
    98          6
    99         15
   100          8
   101         18
   102         47
   103         58
   104         98
   105         92
   106         82
   107         49
   108         24
   109         10
   110          5
   111          5
   112          4
   113          4
   114          5
   115         31
   116         39
   117         78
   118         84
   119         85
   120         55
   121         43
   122         33
   123         21
   124         11
   125         11
   126          6
   127          9
   128         13
   129         20
   130         57
   131         65
   132         64
   133         60
   134         53
   135         36
   136         23
   137         11
   138          7
   139          5
   140          4
   141          6
   142         14
   143         31
   144         61
   145         42
   146         45
   147         38
   148         35
   149         29
   150         15
   151          9
   152          6
   153          7
   154          7
   155          6
   156         12
   157         21
   158         26
   159         57
   160         35
   161         43
   162         31
   163         15
   164         13
   165         13
   166         12
   167          6
   168          2
   169          4
   170          4
   171          7
   172         20
   173         12
   174         19
   175         29
   176         30
   177         39
   178         83
   179         16
   180         14
   181          4
   182          4
   183          5
   184          2
   185          4
   186          4
   187          7
   188         12
   189         25
   190         13
   191          9
   192         35
   193          9
   194          5
   195          5
   196          5
   197          2
   198          2
   199          2
   200          7
   201          3
   202          3
   203          2
   204          4
   205          3
   206          9
   207         35
   208         54
   209         11
   210         10
   211         20
   212          3
   213         10
   214          1
   215          2
   216          1
   217          3
   218          2
   219          2
   220          1
   221          1
   222          3
   224         31
   225          3
   226          4
   227          2
   228         11
   229          2
   230          4
   231          1
   232          1
   233          1
   234          3
   235          2
   236          9
   237          1
   246          3
   248          1
   250          3
   252         16
   253          1
   264          1
   266          2
   268        295
   269         34
   270          5
   279          1
   280          1
   297         20
   298          3