##TITLE=Library Entry 20563
##JCAMP-DX=Revision 4.10 
##DATA TYPE=MASS SPECTRUM
##SAMPLE DESCRIPTION=D.HENNEBERG, MAX-PLANCK INSTITUTE, MULHEIM, WEST GERMAN
Y
##NAMES=HP
##CAS NAME=1,12-Dodecanediol
##MOLFORM=C12H26O2
##CAS REGISTRY NO=5675-51-4
##MP= -300
##BP= -300
##MW= 202
##$RETENTION INDEX=1728
##$CONDENSED SPECTRUM=NO
##NPOINTS= 123
##XYDATA=(XY..XY) 1 
    26          8
    27        143
    28         23
    29        258
    30          8
    31        387
    32          1
    33          2
    36          0
    37          0
    38          1
    39        100
    40         23
    41        712
    42        189
    43        354
    44         38
    45         40
    46          1
    47          0
    49          3
    50          2
    51          4
    52          3
    53         50
    54        301
    55        999
    56        247
    57        197
    58         15
    59          6
    60          0
    61          0
    62          0
    63          1
    64          0
    65         10
    66         63
    67        510
    68        571
    69        484
    70        151
    71         86
    72         13
    73         24
    74          1
    75          0
    76          0
    77          7
    78          3
    79         23
    80         23
    81        386
    82        759
    83        326
    84         86
    85         65
    86          9
    87          4
    88          0
    89          0
    91          5
    92          1
    93          8
    94         18
    95        283
    96        363
    97        155
    98         51
    99         24
   100          3
   101          1
   102          0
   103          0
   104          0
   105          1
   107          2
   108          5
   109        136
   110        135
   111         53
   112         21
   113          5
   114          1
   115          1
   117          0
   118          0
   119          1
   121          2
   122          3
   123         54
   124         43
   125         23
   126         22
   127          3
   128          1
   129          1
   131          0
   135          0
   136          1
   137         28
   138         46
   139          6
   140          2
   141          2
   142          0
   149          1
   151          1
   152          0
   153          0
   154         18
   155          3
   156          1
   157          0
   164          0
   165          1
   166          8
   167          1
   169          0
   172          1
   183          0
   184          0
   203          0