##TITLE=Library Entry 18723
##JCAMP-DX=Revision 4.10 
##DATA TYPE=MASS SPECTRUM
##SAMPLE DESCRIPTION=Japan AIST/NIMC Database- Spectrum MS-NW-9290
##NAMES=HP
##CAS NAME=1,4-Octadiene
##MOLFORM=C8H14
##CAS REGISTRY NO=5675-25-2
##MP= -300
##BP= -300
##MW= 110
##$RETENTION INDEX=0
##$CONDENSED SPECTRUM=NO
##NPOINTS= 72
##XYDATA=(XY..XY) 1 
    15          4
    26         10
    27        188
    28         20
    29         99
    30          2
    37          4
    38         15
    39        350
    40         58
    41        888
    42         68
    43        113
    44          6
    45          4
    49          1
    50         24
    51         59
    52         31
    53        315
    54        999
    55        334
    56         76
    57         17
    58          2
    59          2
    60          6
    61          2
    62          6
    63         15
    64          3
    65        118
    66         70
    67        905
    68        673
    69        312
    70         26
    71         37
    72          3
    73          4
    74          9
    75          2
    76          1
    77         97
    78         20
    79        348
    80         54
    81        889
    82        211
    83         32
    84          5
    85          3
    86          1
    87          2
    89          1
    91         34
    92          6
    93         17
    94          3
    95        182
    96         15
    97          1
   103          3
   104          4
   105          3
   106          4
   107          2
   108          2
   109         14
   110        172
   111         15
   112          1