##TITLE=Library Entry 66646
##JCAMP-DX=Revision 4.10 
##DATA TYPE=MASS SPECTRUM
##SAMPLE DESCRIPTION=Chemical Concepts
##NAMES=HP
##CAS NAME=Cyclohexene, 2,4-dimethyl-1-(1-methylethenyl)-
##MOLFORM=C11H18
##CAS REGISTRY NO=56763-60-1
##MP= -300
##BP= -300
##MW= 150
##$RETENTION INDEX=0
##$CONDENSED SPECTRUM=NO
##NPOINTS= 118
##XYDATA=(XY..XY) 1 
    26         16
    27        315
    28         33
    29        215
    30          4
    31          2
    32          2
    37          3
    38         17
    39        433
    40         68
    41        545
    42         33
    43        139
    44          5
    45          2
    46          0
    48          0
    49          1
    50         27
    51        110
    52         55
    53        187
    54         26
    55        201
    56         14
    57         15
    58         10
    59          6
    60          1
    61          1
    62          9
    63         41
    64         18
    65        123
    66         33
    67        298
    68         36
    69         68
    70          5
    71          2
    72          1
    73          1
    74          5
    75          9
    76          6
    77        276
    78         60
    79        285
    80         51
    81         78
    82        425
    83         29
    84          2
    85          6
    86          1
    87          2
    88          1
    89         12
    90          4
    91        328
    92         46
    93        999
    94        111
    95        103
    96         12
    97          4
    98          3
    99          1
   100          1
   101          1
   102          5
   103         21
   104         10
   105        105
   106         38
   107        482
   108        138
   109         50
   110          5
   111          3
   112          1
   113          0
   114          0
   115         18
   116          7
   117         15
   118          4
   119         35
   120         14
   121        251
   122        140
   123         16
   124          3
   125          2
   126          0
   127          1
   128          3
   129          2
   130          0
   131          4
   132          1
   133         11
   134          4
   135        319
   136         32
   137          4
   138          1
   139          0
   145          0
   146          2
   147          1
   148          2
   149         10
   150        570
   151         66
   152          4
   153          1