##TITLE=Library Entry 100329
##JCAMP-DX=Revision 4.10 
##DATA TYPE=MASS SPECTRUM
##SAMPLE DESCRIPTION=Chemical Concepts
##NAMES=HP
##CAS NAME=1,5,5-Trimethyl-6-(3-methyl-buta-1,3-dienyl)-cyclohexene
##MOLFORM=C14H22
##CAS REGISTRY NO=56763-66-7
##MP= -300
##BP= -300
##MW= 190
##$RETENTION INDEX=0
##$CONDENSED SPECTRUM=NO
##NPOINTS= 149
##XYDATA=(XY..XY) 1 
    26          2
    27         44
    28          7
    29         55
    30          4
    31          1
    37          1
    38          3
    39        109
    40         18
    41        213
    42         13
    43         68
    44          6
    45          3
    50          7
    51         37
    52         17
    53         89
    54         10
    55        166
    56         23
    57         19
    58          3
    59          1
    60          2
    62          2
    63         16
    64          7
    65         73
    66         18
    67         63
    68          9
    69         47
    70          7
    71          9
    72          1
    73          1
    74          3
    75          5
    76          5
    77        157
    78         57
    79        124
    80         55
    81         60
    82         10
    83        161
    84         14
    85          5
    86          1
    87          2
    88          1
    89          8
    90          4
    91        325
    92        203
    93        222
    94         36
    95         41
    96         11
    97          6
    98          7
    99          3
   100          1
   101          2
   102          5
   103         33
   104         22
   105        236
   106        120
   107        186
   108         47
   109         37
   110          5
   111          3
   112          3
   113          2
   114          1
   115         38
   116         16
   117         53
   118         17
   119        999
   120        150
   121        128
   122         89
   123         31
   124          4
   125          2
   126          1
   127          5
   128         14
   129         14
   130          7
   131         20
   132          7
   133         87
   134        864
   135        139
   136         61
   137         12
   138          2
   139          1
   140          2
   141          6
   142          3
   143          5
   144          3
   145         10
   146          3
   147         25
   148         15
   149         34
   150         22
   151          3
   152          1
   153          1
   154          0
   155          1
   156          1
   157          1
   158          1
   159          6
   160          2
   161         12
   162          4
   163          2
   164          1
   165          3
   167          1
   168          1
   169          1
   170          0
   173          3
   174          1
   175         43
   176          6
   177          1
   184          1
   185          1
   186          2
   187          1
   188          1
   189          2
   190        189
   191         28
   192          5
   193          1