##TITLE=Library Entry 33308
##JCAMP-DX=Revision 4.10 
##DATA TYPE=MASS SPECTRUM
##SAMPLE DESCRIPTION=R.C. DOUGHERTY
##NAMES=HP
##CAS NAME=8-Azabicyclo[3.2.1]octane-8-carboxaldehyde
##MOLFORM=C8H13NO
##CAS REGISTRY NO=56771-95-0
##MP= -300
##BP= -300
##MW= 139
##$RETENTION INDEX=0
##$CONDENSED SPECTRUM=NO
##NPOINTS= 45
##XYDATA=(XY..XY) 1 
    29        350
    30        100
    32         10
    38         40
    39        440
    40        170
    41        840
    42        245
    43        290
    44        250
    50         30
    51         50
    52         40
    53        130
    54        230
    55        440
    56        245
    57        180
    65         35
    66         40
    67        200
    68        999
    69        350
    70        100
    71         95
    77         40
    78         25
    79         50
    80         80
    81         70
    82        650
    83        385
    84         50
    85         45
    91         30
    94         30
    95         70
    96        690
    97        200
    98         40
   110        540
   111        300
   138         70
   139        630
   140         60