##TITLE=Library Entry 34831
##JCAMP-DX=Revision 4.10 
##DATA TYPE=MASS SPECTRUM
##SAMPLE DESCRIPTION=W.A.KONIG TUBINGEN UNIV., TUBINGEN, GERMANY, F.R.G
##NAMES=HP
##CAS NAME=L-Phenylalanine, N-[N-[N2,N5-bis(trifluoroacetyl)-L-ornithyl]-O-(
trifluoroacetyl)-D-allothreonyl]-, methyl ester
##MOLFORM=C25H27F9N4O8
##CAS REGISTRY NO=56772-21-5
##MP= -300
##BP= -300
##MW= 682
##$RETENTION INDEX=0
##$CONDENSED SPECTRUM=NO
##NPOINTS= 127
##XYDATA=(XY..XY) 1 
    40         17
    41        105
    42         54
    43        105
    44        510
    45        810
    46         16
    47         25
    49          7
    50        243
    51        537
    52         20
    53         37
    54         62
    55         53
    56        115
    57        155
    58         28
    59         58
    60         11
    63         17
    65         50
    66         11
    67         14
    68         42
    69        999
    70         49
    71         30
    72         10
    73         17
    74         10
    76         16
    77         60
    78         53
    79         10
    81         17
    82         20
    83         20
    84         81
    85         23
    86         15
    88        215
    89         23
    90         19
    91        335
    92         60
    93         12
    94         20
    95         64
    96         35
    97         55
    98         16
    99         10
   100         13
   102         14
   103         55
   104         37
   105         13
   109         10
   110         26
   111         21
   112         10
   113         10
   114         25
   115         10
   116         13
   117         25
   118         30
   119         40
   120        197
   121         42
   122         10
   125         10
   126         60
   127         23
   128         38
   130         12
   131        116
   132         27
   134         10
   135         11
   136         20
   137         10
   138         16
   139         35
   140         17
   141         10
   144         10
   146         41
   147         12
   148         10
   152        103
   153         36
   154         32
   155         22
   158         12
   160         10
   161         40
   162        800
   163        107
   164         21
   165         25
   166        320
   167         43
   170         13
   171         10
   178         24
   179         13
   180         37
   181         18
   186         12
   193         11
   206         10
   221         10
   248         11
   249         22
   279         12
   362         33
   363         16
   389         20
   390         18
   477         12
   509         16
   568         42
   569         11
   623          4
   682          9