##TITLE=Library Entry 18716
##JCAMP-DX=Revision 4.10 
##DATA TYPE=MASS SPECTRUM
##SAMPLE DESCRIPTION=R.L.FOLTZ BATTELLE COLUMBUS LAB., COLUMBUS, OHIO, USA
##NAMES=HP
##CAS NAME=1-Azabicyclo[10.2.0]tetradeca-4,8-dien-14-one
##MOLFORM=C13H19NO
##CAS REGISTRY NO=56771-88-1
##MP= -300
##BP= -300
##MW= 205
##$RETENTION INDEX=0
##$CONDENSED SPECTRUM=NO
##NPOINTS= 140
##XYDATA=(XY..XY) 1 
    44         85
    45          2
    46          2
    47          3
    49          2
    50         34
    51         59
    52         42
    53        214
    54        999
    55        486
    56        152
    57        118
    58         10
    59         15
    60          6
    61          3
    62         11
    63         18
    64          5
    65         83
    66        190
    67        839
    68        147
    69        153
    70         71
    71         59
    72         32
    74          4
    75          1
    76          5
    77        162
    78        116
    79        805
    80        722
    81        388
    82         95
    83         88
    84         63
    85         23
    86          7
    87         10
    89          4
    90          1
    91        387
    92        162
    93        645
    94        270
    95        281
    96        376
    97         86
    98         24
   100          7
   101         10
   102          5
   103         15
   104         20
   105        176
   106        134
   107        139
   108        243
   109        114
   110         31
   111         28
   112         34
   113         26
   114          1
   115          8
   116          3
   117         21
   118         14
   119        326
   120        214
   121        181
   122        105
   123         47
   124         23
   125         51
   126         14
   127          2
   128          9
   129        152
   130          3
   131         14
   132         11
   133        324
   134        401
   135         70
   136         39
   137         29
   138         22
   139          2
   140         53
   141          2
   142          3
   143         10
   144          7
   145         14
   146         18
   147         79
   148         79
   149         50
   150         62
   151         36
   152         11
   154          2
   156          2
   159         20
   160         28
   161        117
   162        212
   163         46
   164         23
   165          4
   166         20
   168          3
   169          1
   170          2
   171         19
   172          3
   173          1
   175         11
   176         77
   177        148
   178         27
   180          1
   182          3
   187          3
   188         93
   189         13
   190         10
   192          4
   194          1
   195          2
   202          1
   203         68
   204        144
   205        566
   206         86
   207          5