##TITLE=Library Entry 61098
##JCAMP-DX=Revision 4.10 
##DATA TYPE=MASS SPECTRUM
##SAMPLE DESCRIPTION=R.L.FOLTZ BATTELLE COLUMBUS LAB., COLUMBUS, OHIO, USA
##NAMES=HP
##CAS NAME=7-Oxabicyclo[4.2.1]nona-2,4-dien-8-one, 9-methyl-
##MOLFORM=C9H10O2
##CAS REGISTRY NO=56771-81-4
##MP= -300
##BP= -300
##MW= 150
##$RETENTION INDEX=0
##$CONDENSED SPECTRUM=NO
##NPOINTS= 73
##XYDATA=(XY..XY) 1 
    44          5
    45          1
    47          1
    49          1
    50         57
    51         48
    52         22
    53         19
    55         16
    58          2
    61          2
    62         13
    63         23
    64          1
    65         70
    66         13
    67          2
    68          4
    69          2
    70          4
    73          0
    74          6
    75          4
    76          4
    77         97
    78        183
    79         63
    81          3
    84          1
    86          1
    89         11
    90          3
    91        999
    92         89
    93         17
    94          3
    95          6
    96          1
    97          0
   102          1
   103         15
   104         17
   105        298
   106        323
   107         41
   109          1
   113         11
   115          2
   116         44
   117          6
   118          1
   119          6
   121          7
   122          2
   123          2
   125          0
   127          4
   129          1
   130          9
   131         26
   132         22
   133        219
   134         18
   135          3
   136          1
   137          3
   147          2
   148          3
   149          6
   150         40
   151         44
   152          6
   153          1