##TITLE=Library Entry 29236
##JCAMP-DX=Revision 4.10 
##DATA TYPE=MASS SPECTRUM
##SAMPLE DESCRIPTION=Tox21 Consortium/NIST Mass Spectrometry Data Center, 20
12
##NAMES=HP
##CAS NAME=Zimeldine
##MOLFORM=C16H17BrN2
##CAS REGISTRY NO=56775-88-3
##MP= -300
##BP= -300
##MW= 316
##$RETENTION INDEX=2206
##$CONDENSED SPECTRUM=NO
##NPOINTS= 238
##XYDATA=(XY..XY) 1 
    15         17
    17          1
    18          7
    26          3
    27         15
    28         29
    29         18
    30         57
    31          2
    37          2
    38          9
    39         64
    40          9
    41         30
    42        497
    43         62
    44         60
    45          9
    46          5
    49          1
    50         55
    51         97
    52         25
    53         10
    54          9
    55         10
    56         44
    57        102
    58        999
    59         36
    61          5
    62         39
    63        120
    64         26
    65         52
    66          8
    67          7
    68          7
    69          8
    70        635
    71         49
    72          3
    73          2
    74         38
    75         80
    76         65
    77         49
    78         29
    79         15
    80         13
    81         21
    82        116
    83         40
    85          4
    86         25
    87         45
    88         42
    89         89
    90         65
    91         21
    92         87
    93         23
    94          7
    95         24
    96         13
    97          8
    98         16
    99         20
   100         11
   101         48
   102         39
   103         25
   104         15
   105          8
   106          7
   107          2
   108          1
   109          3
   110         29
   111         17
   112          7
   113         75
   114         68
   115        155
   116         80
   117         94
   118         98
   119         20
   120          9
   121          3
   122          2
   123          4
   124          3
   125         21
   126         56
   127         39
   128         26
   129          8
   130         20
   131         14
   132         12
   133          5
   134          3
   135          7
   136          1
   137         24
   138         36
   139        175
   140         64
   141         20
   142         11
   143         14
   144         30
   145         44
   146         11
   147        138
   148         14
   149          5
   150         42
   151         79
   152         98
   153         38
   154         16
   155          5
   156          7
   157         20
   158         26
   159         79
   160         23
   161        418
   162         56
   163         89
   164        102
   165        263
   166        149
   167        103
   168         17
   169         97
   170          8
   171         90
   172          7
   175          2
   176          8
   177         31
   178         70
   179         43
   180         51
   181         13
   182          7
   183          3
   184          1
   185          1
   188          4
   189          8
   190         71
   191        262
   192        424
   193        833
   194        155
   195         26
   196          5
   197          1
   198          3
   203          2
   204          7
   205         18
   206         10
   207          3
   208          2
   209          2
   210          1
   211          1
   212          3
   214          2
   217          5
   218          4
   219         10
   220          5
   221         12
   222         10
   223          3
   224         37
   225          5
   226         31
   227          4
   232          1
   233          2
   234          1
   235          7
   236         32
   237         36
   238        199
   239         28
   240        161
   241         19
   242          2
   243          1
   244          2
   245          8
   246          6
   247          7
   248          3
   257          1
   258          4
   259          3
   260         45
   261          7
   262         36
   263          6
   270         13
   271         20
   272        109
   273         83
   274        100
   275         59
   276          9
   283          1
   284          1
   285          2
   286          3
   287          3
   288          3
   289          1
   299          3
   300          1
   301        122
   302         23
   303        116
   304         19
   305          2
   313          2
   314          1
   315        143
   316        236
   317        175
   318        235
   319         41
   320          3