##TITLE=Library Entry 48189
##JCAMP-DX=Revision 4.10 
##DATA TYPE=MASS SPECTRUM
##SAMPLE DESCRIPTION=R.L.FOLTZ BATTELLE COLUMBUS LAB., COLUMBUS, OHIO, USA
##NAMES=HP
##CAS NAME=7-Oxabicyclo[4.2.1]nona-2,4-dien-8-one, 9-phenyl-
##MOLFORM=C14H12O2
##CAS REGISTRY NO=56771-84-7
##MP= -300
##BP= -300
##MW= 212
##$RETENTION INDEX=0
##$CONDENSED SPECTRUM=NO
##NPOINTS= 69
##XYDATA=(XY..XY) 1 
    44          1
    50         20
    51         55
    52         28
    53          3
    61          1
    62          5
    63         17
    64          3
    65          5
    74          2
    75          2
    76          5
    77         70
    78        999
    79         94
    80          1
    83          0
    86          1
    87          1
    89         12
    90         10
    91        382
    92         27
   101          1
   102          1
   104          1
   105        121
   106         16
   107         10
   109          6
   115          9
   116          1
   118          2
   127          4
   128          3
   129          2
   133          1
   135          2
   137         11
   139          2
   141          6
   149          0
   151          1
   152         15
   153         12
   155          1
   159          4
   165         21
   166          9
   167         73
   168         21
   169          1
   175          9
   176          1
   181          4
   182          1
   183          1
   184         90
   185         13
   194          7
   195         17
   196          3
   203          1
   210         12
   211          4
   212         40
   213         17
   214          2