##TITLE=Library Entry 27559
##JCAMP-DX=Revision 4.10 
##DATA TYPE=MASS SPECTRUM
##SAMPLE DESCRIPTION=R.L.FOLTZ BATTELLE COLUMBUS LAB., COLUMBUS, OHIO, USA
##NAMES=HP
##CAS NAME=1,4-Epoxynaphthalene-1(2H)-methanol, 4,5,7-tris(1,1-dimethylethyl
)-3,4-dihydro-
##MOLFORM=C23H36O2
##CAS REGISTRY NO=56771-86-9
##MP= -300
##BP= -300
##MW= 344
##$RETENTION INDEX=0
##$CONDENSED SPECTRUM=NO
##NPOINTS= 153
##XYDATA=(XY..XY) 1 
    27         16
    28        213
    29        105
    30          3
    31         14
    39         15
    40          3
    41        108
    42          5
    43         64
    44          2
    51          4
    53          3
    55         40
    56          7
    57        999
    58         49
    59          7
    63          2
    65          5
    67          7
    69         15
    70          2
    71          6
    75          1
    76          2
    77          6
    78          1
    79          2
    81          3
    83         11
    85         17
    89          3
    90          1
    91         12
    95          7
   105          5
   107          1
   108          1
   112          5
   113          1
   115         12
   116          3
   117          4
   119          2
   127          3
   128         11
   129         20
   130          3
   131         11
   133          3
   141         13
   142          9
   143         20
   144          6
   145         21
   147         12
   151          2
   152          6
   153          8
   154          6
   155         11
   156          5
   157         15
   159          7
   164          4
   165          7
   167          6
   168          3
   169         10
   170          2
   171         18
   172          1
   173          5
   175          1
   179          3
   181          8
   183          7
   185         26
   186          7
   187          9
   188          1
   191          1
   193          2
   195          6
   196          1
   197         41
   198          6
   199          6
   200          2
   201         18
   202          1
   203         16
   204          4
   209         15
   210          2
   211          3
   213         10
   214          3
   215         15
   216          2
   217          8
   219          0
   227         14
   228          2
   229         38
   230         10
   231          7
   232          1
   237          1
   241         16
   242          1
   243         15
   244          5
   245         13
   253          6
   254          1
   255          6
   257         24
   258          3
   259         19
   260        122
   261         22
   265          1
   269          9
   270          3
   271         11
   272          2
   273          4
   274          1
   283          2
   285          8
   286          1
   287         18
   288         21
   289          3
   299         13
   301        226
   302         41
   303          5
   313         72
   314         22
   315          6
   316        948
   317        211
   318         22
   319          1
   327          4
   329         16
   330          3
   344         10
   345          4
   346          1