##TITLE=Library Entry 78305
##JCAMP-DX=Revision 4.10 
##DATA TYPE=MASS SPECTRUM
##SAMPLE DESCRIPTION=R.M.COATES CHEM. DEPT., UNIV. ILLINOIS, URBANA, ILL., U
SA
##NAMES=HP
##CAS NAME=Tricyclo[5.2.0.0(2,5)]nona-3,8-dien-6-ol, 6-phenyl-, (1.alpha.,2.
beta.,5.beta.,6.beta.,7.alpha.)-
##MOLFORM=C15H14O
##CAS REGISTRY NO=56771-50-7
##MP= -300
##BP= -300
##MW= 210
##$RETENTION INDEX=0
##$CONDENSED SPECTRUM=NO
##NPOINTS= 134
##XYDATA=(XY..XY) 1 
    26          6
    27         46
    28        184
    29         13
    31          5
    32         50
    36          5
    39         87
    40         10
    41         24
    43         34
    45          6
    46          7
    50         26
    51        128
    52         51
    53         41
    54          4
    55         97
    56          4
    57          7
    58          4
    62          8
    63         39
    64         14
    65         49
    66         13
    67         15
    68          5
    69         11
    70          4
    71          4
    73          5
    74          7
    75         15
    76         37
    77        461
    78        112
    79         97
    80         22
    81         15
    82         27
    83         30
    84          6
    86          3
    87          5
    88          7
    89         38
    90         17
    91        144
    92         28
    93          8
    94          9
    95         15
    96          6
    97          3
    99          4
   101          6
   102         74
   103        106
   104         86
   105        999
   106         96
   107         36
   108          9
   109          3
   113          5
   115        137
   116         33
   117         20
   118          9
   119         19
   120         23
   121         12
   122          5
   126          7
   127         29
   128         48
   129         27
   130          7
   131         65
   132         25
   133         99
   134         11
   135          3
   139         16
   141         54
   142         74
   143         14
   144         55
   145         36
   146         12
   147          5
   151         14
   152         57
   153         44
   154         65
   155         39
   156         10
   157         21
   158         13
   159          7
   161          3
   165        125
   166         76
   167         91
   168         24
   169          9
   170          4
   171          6
   176         10
   178         78
   179        124
   180         33
   181         72
   182         27
   183         37
   184         23
   185          4
   186          7
   187          3
   189         24
   191         99
   192         60
   193         38
   194         19
   195         54
   196          8
   197          4
   198          3
   209         67
   210        143
   211         23
   212          7