##TITLE=Library Entry 41108
##JCAMP-DX=Revision 4.10 
##DATA TYPE=MASS SPECTRUM
##SAMPLE DESCRIPTION=G.A.SINGY UNIVERSITY OF GENEVA, GENEVA, SWITZERLAND
##NAMES=HP
##CAS NAME=1,2,3,4,5-Cyclopentanepentol
##MOLFORM=C5H10O5
##CAS REGISTRY NO=56772-25-9
##MP= -300
##BP= -300
##MW= 150
##$RETENTION INDEX=0
##$CONDENSED SPECTRUM=NO
##NPOINTS= 51
##XYDATA=(XY..XY) 1 
    39         21
    41         42
    42         39
    43        101
    44         44
    45         65
    51          7
    53         10
    54         17
    55         61
    56         38
    57         96
    58         15
    59         13
    60        275
    61         29
    65         10
    67         12
    68         12
    69         44
    70         29
    71         95
    72         46
    73        999
    74         46
    75          7
    77         15
    79         10
    81         15
    82         15
    83         29
    84         24
    85         27
    86         12
    87         29
    88         17
    89         17
    91         49
    92         29
    94         24
    95         15
    96         12
    97         22
    98         12
   102         12
   105         22
   111         17
   112         17
   123         12
   149         63
   150         10