##TITLE=Library Entry 22411
##JCAMP-DX=Revision 4.10 
##DATA TYPE=MASS SPECTRUM
##SAMPLE DESCRIPTION=G.A.SINGY UNIVERSITY OF GENEVA, GENEVA, SWITZERLAND
##NAMES=HP
##CAS NAME=1,2,4-Cyclopentanetriol
##MOLFORM=C5H10O3
##CAS REGISTRY NO=56772-26-0
##MP= -300
##BP= -300
##MW= 118
##$RETENTION INDEX=0
##$CONDENSED SPECTRUM=NO
##NPOINTS= 59
##XYDATA=(XY..XY) 1 
    39        172
    40         22
    41        199
    42        140
    43        909
    44        935
    45        376
    46         59
    47         81
    49         16
    50         16
    51         27
    52         11
    53        118
    54        446
    55        559
    56        999
    57        989
    58        118
    59         27
    60         32
    61         48
    62         11
    63         11
    65         11
    66         16
    67         11
    68         11
    69         43
    70        134
    71        333
    72        538
    73        538
    74        242
    75         16
    76          5
    77         11
    79          5
    80         22
    81        301
    82        591
    83         75
    84         11
    85         11
    86          5
    87         11
    88         38
    89         16
    91          5
    95          5
    96          5
    97         16
    98         11
    99         27
   100        602
   101         38
   102          5
   118        108
   119          6