##TITLE=Library Entry 24594
##JCAMP-DX=Revision 4.10 
##DATA TYPE=MASS SPECTRUM
##SAMPLE DESCRIPTION=G.A.SINGY UNIVERSITY OF GENEVA, GENEVA, SWITZERLAND
##NAMES=HP
##CAS NAME=1,2,3-Cyclopentanetriol
##MOLFORM=C5H10O3
##CAS REGISTRY NO=56772-27-1
##MP= -300
##BP= -300
##MW= 118
##$RETENTION INDEX=0
##$CONDENSED SPECTRUM=NO
##NPOINTS= 43
##XYDATA=(XY..XY) 1 
    39        115
    40         23
    41        140
    42         92
    43        253
    44        854
    45         95
    46          7
    47         55
    50          8
    51         13
    52          5
    53         75
    54        203
    55        196
    56        158
    57        999
    58        234
    59         21
    60        247
    61         69
    62          8
    69         57
    70         18
    71        108
    72        544
    73        102
    74         63
    75          8
    80         16
    81        386
    82        761
    83         70
    84          7
    85          8
    87         18
    88         16
    89          8
    99         29
   100        576
   101         41
   102          7
   118          7