##TITLE=Library Entry 26540
##JCAMP-DX=Revision 4.10 
##DATA TYPE=MASS SPECTRUM
##SAMPLE DESCRIPTION=R.L.FOLTZ BATTELLE COLUMBUS LAB., COLUMBUS, OHIO, USA
##NAMES=HP
##CAS NAME=Piperazine, 1,4-bis[(1,1-dimethylethyl)thio]-
##MOLFORM=C12H26N2S2
##CAS REGISTRY NO=56771-87-0
##MP= -300
##BP= -300
##MW= 262
##$RETENTION INDEX=0
##$CONDENSED SPECTRUM=NO
##NPOINTS= 61
##XYDATA=(XY..XY) 1 
    43         12
    44        132
    45         10
    46          3
    49          7
    50         18
    53          2
    54         15
    55         61
    56        414
    57        999
    58         44
    59         26
    60         39
    61         15
    62          3
    68          3
    69          2
    71          6
    73          2
    74         30
    75          6
    76         30
    83         12
    84          5
    85        384
    86         83
    87          7
    88         87
    89         26
    90          5
    91          3
   103          2
   106          1
   107          1
   115          3
   116          5
   117        497
   118         58
   119         25
   147          6
   148          1
   149         42
   150        469
   151         34
   152         43
   153          1
   173         12
   174          1
   205          7
   206        199
   207         25
   208         18
   209          2
   247          1
   261          5
   262        423
   263         94
   264         50
   265          9
   266          1