##TITLE=Library Entry 44209
##JCAMP-DX=Revision 4.10 
##DATA TYPE=MASS SPECTRUM
##SAMPLE DESCRIPTION=W.R.MORRISON DEPT. FOOD SCI., UNIV. STRATHCLYDE, GLASGO
W, U
##NAMES=HP
##CAS NAME=Methyl 2-hydroxydocosanoate, TMS derivative
##MOLFORM=C26H54O3Si
##CAS REGISTRY NO=56784-02-2
##MP= -300
##BP= -300
##MW= 442
##$RETENTION INDEX=2715
##$CONDENSED SPECTRUM=NO
##NPOINTS= 87
##XYDATA=(XY..XY) 1 
    41        210
    42         40
    43        430
    44         20
    45         50
    53         10
    54         20
    55        140
    56         50
    57        340
    58         20
    59        120
    60         10
    61         20
    67         80
    68         40
    69        200
    70         30
    71        160
    72         20
    73        999
    74         60
    75        270
    76         20
    77         20
    79         10
    81         90
    82         60
    83        240
    84         30
    85         90
    87         30
    89        440
    90         40
    91         90
    93         10
    95         90
    96         30
    97        170
    98         20
    99         20
   101         50
   102         10
   103        260
   104         30
   105         30
   107         20
   109         40
   110         10
   111         70
   112         10
   113         20
   115         50
   116         30
   117         10
   119         30
   123         10
   125         20
   127         10
   129        240
   130         30
   131         30
   143         30
   145         30
   146         30
   147         10
   149         10
   159        120
   160         10
   161         20
   162         20
   171         10
   185         20
   367         10
   381         10
   382         20
   383        470
   384        140
   385         40
   386         10
   387         20
   399         20
   400         10
   427        180
   428         60
   429         20
   442         10