##TITLE=Library Entry 13602
##JCAMP-DX=Revision 4.10 
##DATA TYPE=MASS SPECTRUM
##SAMPLE DESCRIPTION=G.ECKHARDT ORG. CHEM. INST., UNIV. OF BONN, BONN, F.R.G
##NAMES=HP
##CAS NAME=Tricyclo[3.3.1.1(3,7)]decane-2,6-dione, 4-acetyl-
##MOLFORM=C12H14O3
##CAS REGISTRY NO=56781-92-1
##MP= -300
##BP= -300
##MW= 206
##$RETENTION INDEX=0
##$CONDENSED SPECTRUM=NO
##NPOINTS= 30
##XYDATA=(XY..XY) 1 
    41        228
    43        999
    51         52
    53         82
    55        189
    65         73
    66         51
    67         70
    69         62
    77        123
    79        643
    80         59
    84        329
    91        172
    94        120
    95        380
    96        354
   107        418
   108        146
   109         51
   118         56
   120         68
   135        128
   136        124
   146         89
   163        106
   164        189
   178         95
   206        722
   207         95