##TITLE=Library Entry 84547
##JCAMP-DX=Revision 4.10 
##DATA TYPE=MASS SPECTRUM
##SAMPLE DESCRIPTION=G.ECKHARDT ORG. CHEM. INST., UNIV. OF BONN, BONN, F.R.G
##NAMES=HP
##CAS NAME=Tricyclo[3.3.1.1(3,7)]decane-2,6-dione, 4-(phenylmethyl)-
##MOLFORM=C17H18O2
##CAS REGISTRY NO=56781-96-5
##MP= -300
##BP= -300
##MW= 254
##$RETENTION INDEX=0
##$CONDENSED SPECTRUM=NO
##NPOINTS= 29
##XYDATA=(XY..XY) 1 
    41        159
    51         56
    53         74
    55        185
    57         51
    65        156
    67         82
    77        123
    78         51
    79        769
    80         56
    91        641
    92         79
    95         59
    96         85
   105         64
   107        999
   108        115
   115         85
   117         67
   128         56
   129         72
   130         56
   135        249
   150        113
   163        897
   164        110
   254        974
   255        185