##TITLE=Library Entry 40681
##JCAMP-DX=Revision 4.10 
##DATA TYPE=MASS SPECTRUM
##SAMPLE DESCRIPTION=W.R.MORRISON DEPT. FOOD SCI., UNIV. STRATHCLYDE, GLASGO
W, U
##NAMES=HP
##CAS NAME=Methyl 2-hydroxytetracosanoate, TMS derivative
##MOLFORM=C28H58O3Si
##CAS REGISTRY NO=56784-04-4
##MP= -300
##BP= -300
##MW= 470
##$RETENTION INDEX=2914
##$CONDENSED SPECTRUM=NO
##NPOINTS= 76
##XYDATA=(XY..XY) 1 
    41        180
    42         40
    43        440
    44         10
    45         10
    53         10
    54         20
    55        230
    56         60
    57        330
    58         20
    59        100
    60         10
    61         20
    67         60
    68         30
    69        180
    70         20
    71        150
    72         20
    73        999
    74         90
    75        230
    76         20
    77         10
    79         10
    81        130
    82         70
    83        300
    84         30
    85        130
    86         10
    87         40
    88         50
    89        370
    90         30
    91         80
    95         90
    96         30
    97        150
    98         20
    99         20
   101         30
   103        220
   104         20
   105         30
   107         20
   109         40
   111         60
   113         10
   115         40
   116         30
   117         20
   119         10
   129        320
   130         40
   131         30
   143         40
   145         40
   146         50
   159        170
   160         30
   161         30
   162         40
   171         10
   185         30
   411        380
   412        140
   413         40
   414         10
   427         20
   428         10
   455        280
   456         90
   457         30
   470         20