##TITLE=Library Entry 49242
##JCAMP-DX=Revision 4.10 
##DATA TYPE=MASS SPECTRUM
##SAMPLE DESCRIPTION=G.ECKHARDT ORG. CHEM. INST., UNIV. OF BONN, BONN, F.R.G
##NAMES=HP
##CAS NAME=Carbonic acid, methyl 4-oxotricyclo[3.3.1.1(3,7)]dec-2-yl ester,
 (1.alpha.,2.alpha.,3.beta.,5.alpha.,7.beta.)-
##MOLFORM=C12H16O4
##CAS REGISTRY NO=56781-95-4
##MP= -300
##BP= -300
##MW= 224
##$RETENTION INDEX=0
##$CONDENSED SPECTRUM=NO
##NPOINTS= 30
##XYDATA=(XY..XY) 1 
    40        355
    41        275
    43         58
    44        300
    53         95
    55        138
    59        138
    65         55
    66        128
    67        165
    77        155
    78        525
    79        999
    80        148
    81         95
    91        260
    92        280
    93        140
   104         93
   105        138
   106        103
   107         73
   119         75
   120        713
   121        213
   148        600
   149        165
   164         55
   165        115
   224        253