##TITLE=Library Entry 40622
##JCAMP-DX=Revision 4.10 
##DATA TYPE=MASS SPECTRUM
##SAMPLE DESCRIPTION=W.R.MORRISON DEPT. FOOD SCI., UNIV. STRATHCLYDE, GLASGO
W, U
##NAMES=HP
##CAS NAME=Methyl 2-hydroxypentacosanoate, TMS derivative
##MOLFORM=C29H60O3Si
##CAS REGISTRY NO=56784-05-5
##MP= -300
##BP= -300
##MW= 484
##$RETENTION INDEX=3014
##$CONDENSED SPECTRUM=NO
##NPOINTS= 87
##XYDATA=(XY..XY) 1 
    40         40
    41        320
    42         70
    43        620
    44        210
    45         90
    51         30
    53         30
    54         40
    55        380
    56        110
    57        580
    58         40
    59        130
    60         30
    61         20
    67        160
    68         70
    69        320
    70         90
    71        320
    72         40
    73        999
    74        120
    75        270
    76         50
    77        160
    79         50
    80         20
    81        200
    82        100
    83        320
    84         70
    85        180
    86         10
    87         40
    89        380
    90         40
    91        110
    92         20
    93         30
    94         30
    95        210
    96        120
    97        260
    98         50
    99         60
   100         20
   101         30
   103        240
   104         40
   105         80
   107         50
   108         30
   109         80
   110         40
   111        130
   112         30
   113         30
   115         70
   116         30
   117         50
   119         50
   121         30
   123         50
   125         60
   127         30
   129        260
   130         40
   131         60
   133         30
   135         20
   137         20
   147         60
   149         80
   159        150
   185         20
   425        410
   426        140
   427         50
   428         20
   441         20
   442         10
   469        200
   470         60
   471         30
   484         20