##TITLE=Library Entry 68034
##JCAMP-DX=Revision 4.10 
##DATA TYPE=MASS SPECTRUM
##SAMPLE DESCRIPTION=Chemical Concepts
##NAMES=HP
##CAS NAME=2,4-Hexadiene, 2,3-dimethyl-
##MOLFORM=C8H14
##CAS REGISTRY NO=5678-98-8
##MP= -300
##BP= -300
##MW= 110
##$RETENTION INDEX=0
##$CONDENSED SPECTRUM=NO
##NPOINTS= 86
##XYDATA=(XY..XY) 1 
    26         16
    27        181
    28         23
    29        120
    30          4
    31          1
    33          0
    34          0
    35          0
    36          1
    37          5
    38         20
    39        366
    40         72
    41        568
    42         61
    43         70
    44          4
    45          6
    46          2
    47          1
    48          1
    49          1
    50         25
    51         95
    52         43
    53        250
    54         45
    55        560
    56         60
    57         16
    58          2
    59          4
    60          0
    61          3
    62         14
    63         27
    64          7
    65        114
    66         29
    67        991
    68        111
    69         82
    70         26
    71          1
    72          0
    73          1
    74          4
    75          3
    76          1
    77        153
    78         25
    79        157
    80         59
    81        142
    82         26
    83          9
    84          1
    85          1
    86          1
    87          1
    88          0
    89          2
    90          0
    91         69
    92         10
    93        150
    94         37
    95        999
    96        113
    97          5
    98          1
    99          1
   101          0
   102          0
   103          1
   104          0
   105          4
   106          1
   107          5
   108          4
   109         27
   110        655
   111         66
   112          4
   113          0