##TITLE=Library Entry 42986
##JCAMP-DX=Revision 4.10 
##DATA TYPE=MASS SPECTRUM
##SAMPLE DESCRIPTION=R.B.KING DEPT. CHEM., UNIV. OF GEORGIA, ATHENS, GEORGIA
, US
##NAMES=HP
##CAS NAME=Iron, dicarbonyl(.eta.5-2,4-cyclopentadien-1-yl)(nonamethyltetras
ilanyl)-
##MOLFORM=C16H32FeO2Si4
##CAS REGISTRY NO=56784-38-4
##MP= -300
##BP= -300
##MW= 424
##$RETENTION INDEX=0
##$CONDENSED SPECTRUM=NO
##NPOINTS= 16
##XYDATA=(XY..XY) 1 
    73        999
   115         46
   121         48
   131         53
   173        336
   179         26
   189         19
   207         24
   235         97
   247        243
   323          7
   366          1
   381         14
   396          1
   409          7
   424         14