##TITLE=Library Entry 40658
##JCAMP-DX=Revision 4.10 
##DATA TYPE=MASS SPECTRUM
##SAMPLE DESCRIPTION=W.R.MORRISON DEPT. FOOD SCI., UNIV. STRATHCLYDE, GLASGO
W, U
##NAMES=HP
##CAS NAME=Methyl 2-hydroxytricosanoate, TMS derivative
##MOLFORM=C27H56O3Si
##CAS REGISTRY NO=56784-03-3
##MP= -300
##BP= -300
##MW= 456
##$RETENTION INDEX=2815
##$CONDENSED SPECTRUM=NO
##NPOINTS= 75
##XYDATA=(XY..XY) 1 
    41        180
    42         30
    43        420
    44         30
    45         30
    54         20
    55        270
    56         60
    57        370
    58         30
    59        120
    61         20
    67        100
    68         50
    69        260
    70         50
    71        210
    72         40
    73        999
    74        130
    75        330
    76         30
    81        130
    82         70
    83        300
    84         20
    85        130
    87         40
    89        390
    90         40
    91        110
    95        120
    96         50
    97        240
    98         30
    99         30
   101         50
   103        330
   104         30
   105         50
   107         30
   109         60
   111        110
   115         70
   116         50
   117         30
   119         40
   123         30
   125         30
   127         20
   129        330
   130         40
   131         40
   144         40
   146         50
   147         50
   159        190
   160         30
   161         40
   162         50
   185         20
   382         20
   383         10
   397        380
   398        170
   399         70
   400         20
   409         10
   411         10
   412         30
   413         10
   441        310
   442        110
   443         30
   456         20