##TITLE=Library Entry 22246
##JCAMP-DX=Revision 4.10 
##DATA TYPE=MASS SPECTRUM
##SAMPLE DESCRIPTION=G.ECKHARDT ORG. CHEM. INST., UNIV. OF BONN, BONN, F.R.G
##NAMES=HP
##CAS NAME=Acetamide, N-(4,8-dioxotricyclo[3.3.1.1(3,7)]dec-2-yl)-
##MOLFORM=C12H15NO3
##CAS REGISTRY NO=56781-94-3
##MP= -300
##BP= -300
##MW= 221
##$RETENTION INDEX=0
##$CONDENSED SPECTRUM=NO
##NPOINTS= 58
##XYDATA=(XY..XY) 1 
    40         57
    41        229
    42         71
    43        810
    44        100
    51         52
    53         95
    54         81
    55        300
    56        999
    57        219
    60        190
    65         67
    66         57
    67         95
    68         81
    69        138
    70        138
    72         52
    77        105
    78        114
    79        195
    80         86
    81         76
    82        148
    83         81
    84         95
    91        105
    94        152
    95        138
    96        138
    97         86
    98        110
    99         95
   105         52
   106        157
   107        110
   108         86
   109        100
   110        219
   111         67
   122         71
   123         76
   124        219
   133         86
   134        457
   135         62
   150        119
   151        148
   152        243
   153         57
   162         62
   165         95
   178        129
   179         71
   193        610
   194         76
   221        305