##TITLE=Library Entry 63898
##JCAMP-DX=Revision 4.10 
##DATA TYPE=MASS SPECTRUM
##SAMPLE DESCRIPTION=Exported from NIST MS Search
##NAMES=HP
##CAS NAME=11-Azapregn-16-en-20-one, 11-acetyl-3-hydroxy-, (3.beta.)-
##MOLFORM=C22H33NO3
##CAS REGISTRY NO=56782-27-5
##MP= -300
##BP= -300
##MW= 359
##$RETENTION INDEX=0
##$CONDENSED SPECTRUM=NO
##NPOINTS= 131
##XYDATA=(XY..XY) 1 
    90        480
    91        999
    92        692
    93        634
    94        623
    95        192
    96        180
    97         96
   103         96
   104        115
   105        596
   106        692
   107        692
   108        499
   109        392
   110        192
   111        180
   112         57
   115        153
   116         84
   117        250
   118        192
   119        442
   120        326
   121        365
   122        211
   123        192
   124         96
   125         76
   126        346
   127         96
   128        103
   129        103
   130        103
   131        250
   132        230
   133        346
   134        538
   135        499
   136        153
   137         96
   138        134
   143        146
   144        153
   145        250
   146        192
   147        288
   148        346
   149        173
   150        123
   151         76
   152         46
   153         69
   157         76
   158         84
   159         96
   160        230
   161        173
   162        788
   163        173
   164         96
   165         65
   166         65
   167         57
   171         69
   172         76
   173         76
   174        134
   175         84
   176        499
   177        200
   178        161
   179         65
   184         69
   187         69
   188        134
   189         76
   190        553
   191        288
   192        269
   193         46
   202         76
   203        115
   204        115
   205         38
   206         76
   216         84
   218        488
   219        134
   220        123
   221         57
   223         57
   230         57
   231         69
   232        988
   233        269
   234        180
   235         65
   242         38
   243         76
   245        692
   246        123
   247         76
   249        173
   256         76
   258         76
   269         46
   270         69
   272         57
   273         57
   274         57
   284         57
   286         57
   288         57
   298         96
   299         65
   300         76
   302         57
   314         46
   315         46
   316        173
   317         46
   326        403
   327         96
   328         38
   341        373
   342        173
   343         69
   359        326
   360         96
   361         38