##TITLE=Library Entry 19094
##JCAMP-DX=Revision 4.10 
##DATA TYPE=MASS SPECTRUM
##SAMPLE DESCRIPTION=J. Klune, Insect Chem. Ecol. Lab., USDA, Beltsville, MD
 20705
##NAMES=HP
##CAS NAME=7-Hexadecenal, (Z)-
##MOLFORM=C16H30O
##CAS REGISTRY NO=56797-40-1
##MP= -300
##BP= -300
##MW= 238
##$RETENTION INDEX=1798
##$CONDENSED SPECTRUM=NO
##NPOINTS= 145
##XYDATA=(XY..XY) 1 
    41        992
    42        184
    43        743
    44         84
    45         16
    46          0
    47          3
    48          0
    49          6
    50          3
    51         14
    52         11
    53        142
    54        362
    55        999
    56        263
    57        471
    58         35
    59         14
    60          5
    61          1
    63          2
    65         45
    66         65
    67        589
    68        267
    69        500
    70        366
    71        155
    72         15
    73          7
    74          1
    75          0
    77         46
    78         23
    79        258
    80        194
    81        387
    82        431
    83        408
    84        227
    85         69
    86         11
    87          2
    88          1
    91         38
    92         12
    93        192
    94        152
    95        339
    96        333
    97        370
    98        487
    99         44
   100          6
   101          3
   103          2
   105         12
   106          7
   107         95
   108        118
   109        140
   110        115
   111        252
   112        141
   113         18
   114          3
   115          2
   117          1
   119          5
   120          8
   121        361
   122        116
   123         66
   124         97
   125         66
   126         27
   127          6
   128          2
   129          1
   131          0
   133          2
   134          2
   135        159
   136         64
   137         39
   138         78
   139         25
   140          9
   141          8
   142          5
   143          1
   147          1
   148          1
   149         51
   150         16
   151         18
   152         26
   153         11
   154          5
   155          4
   156          7
   157          1
   163         26
   164          7
   165          7
   166         11
   167          5
   168          3
   169          1
   170          2
   171          0
   177         11
   178          5
   179          4
   180          2
   181          4
   182          3
   183          1
   191          6
   192          8
   193          2
   194         13
   195          9
   196          3
   197          1
   205          1
   206          1
   207          4
   208          1
   209          3
   210          6
   211          1
   219          1
   220        144
   221         25
   222          4
   223          1
   224          0
   227          1
   236          1
   237          1
   238         30
   239          6
   240          0