##TITLE=Library Entry 57568
##JCAMP-DX=Revision 4.10 
##DATA TYPE=MASS SPECTRUM
##SAMPLE DESCRIPTION=J.M.WHITE GEN. MILLS RES. LAB., MINNEAPOLIS, MINN., USA
##NAMES=HP
##CAS NAME=Pregn-5-en-20-one, 3-(acetyloxy)-16-methyl-, cyclic 20-(1,2-ethan
ediyl acetal), (3.beta.,16.alpha.)-
##MOLFORM=C26H40O4
##CAS REGISTRY NO=56792-49-5
##MP= -300
##BP= -300
##MW= 416
##$RETENTION INDEX=0
##$CONDENSED SPECTRUM=NO
##NPOINTS= 240
##XYDATA=(XY..XY) 1 
    50          4
    51         21
    52         12
    53         78
    54         13
    55        138
    56         10
    57         16
    58         12
    59          7
    60         27
    61          5
    62          2
    63          8
    64          4
    65         41
    66         15
    67        124
    68         15
    69         64
    70          5
    71         13
    72          1
    73          3
    74          1
    75          3
    76          2
    77         97
    78         29
    79        120
    80         20
    81        112
    82         19
    83         36
    84          5
    85        118
    86         11
    87        999
    88         47
    89         11
    90          4
    91        187
    92         44
    93        118
    94         25
    95         69
    96          9
    97         13
    98         14
    99         27
   100          3
   101          3
   102          4
   103         21
   104         19
   105        177
   106         56
   107        172
   108         45
   109         71
   110          8
   111         10
   112          4
   113         25
   114          3
   115         36
   116         19
   117         59
   118         28
   119         86
   120         70
   121        151
   122         27
   123         27
   124          3
   125          4
   126          3
   127         17
   128         32
   129         45
   130         20
   131         65
   132         17
   133         69
   134         18
   135         25
   136          6
   137         10
   138          3
   139          6
   140          2
   141         22
   142         17
   143         54
   144         21
   145        115
   146         30
   147         75
   148         22
   149         31
   150          5
   151          9
   152          6
   153          6
   154          4
   155         13
   156          8
   157         36
   158         34
   159         78
   160         31
   161         89
   162         13
   163         24
   164          3
   165          7
   166          2
   167          5
   168          2
   169          9
   170          4
   171         19
   172          8
   173         46
   174         11
   175         20
   176          3
   177          8
   178          3
   179          4
   180          2
   181          4
   182          2
   183         11
   184          3
   185         16
   186          6
   187         15
   188          3
   189          9
   190          3
   191         16
   192          3
   193          2
   195          4
   196          2
   197         12
   198          4
   199         20
   200          5
   201          9
   202          2
   203          9
   204          2
   205          7
   206          1
   207          2
   208          1
   209          5
   210          1
   211         12
   212          6
   213         55
   214         16
   215          7
   216          1
   217          2
   218          1
   219          2
   220          1
   221          2
   223          4
   224          1
   225          6
   226          3
   227         17
   228         19
   229          6
   230          1
   231          1
   237          3
   238          1
   239          8
   240          2
   241          3
   242          2
   243          2
   244          1
   245          1
   250          2
   251          2
   252         12
   253          8
   254          8
   255          1
   256          2
   257          5
   258          1
   265          2
   267         15
   268          7
   269         51
   270         17
   271          3
   279         15
   280          3
   281          2
   282          1
   283          4
   284          6
   285          3
   286          1
   293          1
   294         13
   295          9
   296          6
   297         99
   298         25
   299          4
   310         27
   311         16
   312        563
   313        141
   314         20
   315          4
   326          8
   327          3
   328          4
   329          2
   330          3
   336          1
   338          1
   339          1
   341         15
   342          4
   354          2
   356         18
   357          5
   401          9
   402          2