##TITLE=Library Entry 86128
##JCAMP-DX=Revision 4.10 
##DATA TYPE=MASS SPECTRUM
##SAMPLE DESCRIPTION=Exported from NIST MS Search
##NAMES=HP
##CAS NAME=Lycorenan-7-one, 1-methyl-9,10-[methylenebis(oxy)]-
##MOLFORM=C17H17NO4
##CAS REGISTRY NO=568-40-1
##MP= -300
##BP= -300
##MW= 299
##$RETENTION INDEX=0
##$CONDENSED SPECTRUM=NO
##NPOINTS= 55
##XYDATA=(XY..XY) 1 
    41          7
    42         27
    50          4
    55          4
    65          4
    66          4
    67          4
    75          4
    76          4
    77          4
    80          4
    81         11
    82         27
    93          7
    94         19
   107         11
   108        198
   109        999
   110         79
   111         39
   115          4
   131          1
   132          2
   133          6
   134          7
   135          2
   139          3
   140          1
   141          2
   151          1
   152          3
   153          2
   154          2
   155          1
   161          1
   162          8
   163          1
   165          1
   167          2
   168          2
   169          1
   181          1
   185          1
   189          1
   190          4
   196          1
   226          1
   227          1
   250          2
   254          2
   297          1
   298          2
   299          0
   300          0
   301          0