##TITLE=Library Entry 41445
##JCAMP-DX=Revision 4.10 
##DATA TYPE=MASS SPECTRUM
##SAMPLE DESCRIPTION=E.HOLME DEPT. CHEM., GOTHENBURG UNIV., GOTHENBURG, SWED
EN
##NAMES=HP
##CAS NAME=Uracil-5-carboxylic acid, 3TMS derivative
##MOLFORM=C14H28N2O4Si3
##CAS REGISTRY NO=56804-96-7
##MP= -300
##BP= -300
##MW= 372
##$RETENTION INDEX=1780
##$CONDENSED SPECTRUM=NO
##NPOINTS= 161
##XYDATA=(XY..XY) 1 
    39         77
    40         24
    42         34
    43        195
    44        233
    45        600
    46         44
    47        216
    48         19
    49         63
    50        111
    51        167
    52        350
    53         89
    54         16
    55         64
    56         37
    57         70
    58         46
    59        133
    60         23
    61         45
    63         34
    65         25
    66         49
    67         25
    68         17
    69        111
    70         49
    71         31
    72        111
    73        999
    74        249
    75        915
    76         89
    77        522
    78         81
    79        455
    80         31
    81         16
    83         32
    84         32
    85         35
    86         27
    87         14
    89         12
    92         17
    93         65
    94         13
    95         34
    96         14
    97         23
    98         16
    99         69
   100        205
   101         49
   102         23
   103         43
   105         16
   111         14
   113         26
   115         21
   116         31
   117         58
   119         18
   120         24
   121         61
   124         14
   127         58
   128         13
   129         26
   130         14
   131         89
   132         22
   133        111
   134         18
   135         18
   142         26
   143         47
   144         13
   147        740
   148        122
   149         92
   150         11
   155         15
   156         13
   157         47
   158         24
   160         12
   169         31
   170         35
   171         20
   172         13
   174         89
   175         19
   184         13
   185         20
   188         46
   189         18
   190         14
   191         41
   193         14
   195         19
   198         18
   205         17
   207         36
   209         12
   213         13
   215         18
   216         17
   217         17
   221         26
   225         13
   231         13
   239         33
   240         12
   241         65
   242         31
   243         21
   244         12
   245         18
   246         12
   254         27
   255        472
   256        155
   257        100
   258         32
   259         26
   267         13
   269        144
   270        105
   271         40
   272         18
   281         12
   283         31
   284         18
   285         19
   299         46
   300         12
   313         22
   314         16
   327         31
   328         32
   329         51
   330         18
   331         29
   332         23
   333         13
   343         18
   344         59
   345         62
   346         28
   347         24
   357        512
   358        164
   359         82
   360         24
   371         36
   372         79
   373         32
   374         18