##TITLE=Library Entry 32266
##JCAMP-DX=Revision 4.10 
##DATA TYPE=MASS SPECTRUM
##SAMPLE DESCRIPTION=E.J.BROWNE UNIV. OF TASMANIA, HOBART, TASMANIA
##NAMES=HP
##CAS NAME=7H-Purine-8-carboxaldehyde
##MOLFORM=C6H4N4O
##CAS REGISTRY NO=56805-26-6
##MP= -300
##BP= -300
##MW= 148
##$RETENTION INDEX=0
##$CONDENSED SPECTRUM=NO
##NPOINTS= 16
##XYDATA=(XY..XY) 1 
    55         90
    57         60
    64        110
    65        350
    66        999
    69         50
    77         60
    78         60
    92        260
    93        310
    94         60
   119         50
   120        500
   121         50
   148        680
   149         90