##TITLE=Library Entry 37418
##JCAMP-DX=Revision 4.10 
##DATA TYPE=MASS SPECTRUM
##SAMPLE DESCRIPTION=C.BOTTEGHI ZURICH TECHNICAL COLLEGE, ZURICH, SWITZERLAN
D
##NAMES=HP
##CAS NAME=Pentanal, 3-(hydroxymethyl)-4,4-dimethyl-
##MOLFORM=C8H16O2
##CAS REGISTRY NO=56805-31-3
##MP= -300
##BP= -300
##MW= 144
##$RETENTION INDEX=0
##$CONDENSED SPECTRUM=NO
##NPOINTS= 71
##XYDATA=(XY..XY) 1 
    15         10
    17         15
    18         85
    19          5
    26          5
    27         90
    28         25
    29        220
    30          5
    31         35
    32          5
    38          5
    39        120
    40         20
    41        510
    42        190
    43        195
    44         10
    45         10
    47         15
    50          3
    51         10
    52          3
    53         30
    54         10
    55        320
    56        160
    57        820
    58         80
    59         15
    60         25
    65          5
    66          2
    67         20
    68         30
    69        180
    70        999
    71         70
    72          7
    73          3
    77          5
    79         10
    81        190
    82         15
    83        230
    84         15
    85         25
    86         20
    87         10
    88         20
    89          5
    91          3
    93         10
    95          5
    96          5
    97          5
    98         10
    99         45
   100         10
   101          2
   109          5
   111         60
   112          5
   114          5
   116          5
   126         20
   127         65
   128          5
   129         10
   143         10
   145          8