##TITLE=Library Entry 22599
##JCAMP-DX=Revision 4.10 
##DATA TYPE=MASS SPECTRUM
##SAMPLE DESCRIPTION=E.J.BROWN CHEM. DEPT., TASMANIA.UNIV., TASMANIA, AUSTRA
LIA
##NAMES=HP
##CAS NAME=1H-1,2,4-Triazole-3-carboxaldehyde, 5-methyl-
##MOLFORM=C4H5N3O
##CAS REGISTRY NO=56804-98-9
##MP= -300
##BP= -300
##MW= 111
##$RETENTION INDEX=0
##$CONDENSED SPECTRUM=NO
##NPOINTS= 14
##XYDATA=(XY..XY) 1 
    51        140
    52        120
    53         90
    54         90
    55        450
    56        999
    57        260
    69        160
    82         70
    83        690
    84         60
   110         50
   111        350
   112         50