##TITLE=Library Entry 61838
##JCAMP-DX=Revision 4.10 
##DATA TYPE=MASS SPECTRUM
##SAMPLE DESCRIPTION=LAC, NIDDK, NIH, Bethesda, MD 20892
##NAMES=HP
##CAS NAME=Glycine, N-[(phenylmethoxy)carbonyl]-, hydrazide
##MOLFORM=C10H13N3O3
##CAS REGISTRY NO=5680-83-1
##MP= -300
##BP= -300
##MW= 223
##$RETENTION INDEX=0
##$CONDENSED SPECTRUM=NO
##NPOINTS= 88
##XYDATA=(XY..XY) 1 
    41          8
    42          8
    43          9
    44          7
    45          4
    47          1
    49          5
    50          8
    51         26
    52          7
    53          2
    55          5
    56          9
    57          3
    58          5
    59          3
    60          0
    61          0
    62          4
    63         19
    64          6
    65         82
    66          4
    69          0
    70          1
    71          1
    72          0
    73          7
    74         20
    75          4
    76          2
    77         28
    78          6
    79         16
    80          1
    82          1
    83          0
    84          5
    85          2
    86          4
    87          3
    88          3
    89         27
    90          9
    91        999
    92         81
    93          3
   101          0
   102          1
   103          0
   104          2
   105          5
   106         95
   107         20
   108         12
   109          1
   113          1
   115          0
   116          3
   117          0
   118          1
   119          1
   120         54
   121          5
   122         98
   123          8
   124          0
   127          3
   131          0
   132          5
   133          0
   145          2
   149          0
   150          0
   156          1
   162          0
   163          3
   164          3
   170          3
   179          5
   180          0
   189          1
   192          6
   193          0
   207          1
   208          0
   223          4
   224          1