##TITLE=Library Entry 33012
##JCAMP-DX=Revision 4.10 
##DATA TYPE=MASS SPECTRUM
##SAMPLE DESCRIPTION=Japan AIST/NIMC Database- Spectrum MS-IW-6969
##NAMES=HP
##CAS NAME=3,6-Nonadien-1-ol, (E,Z)-
##MOLFORM=C9H16O
##CAS REGISTRY NO=56805-23-3
##MP= -300
##BP= -300
##MW= 140
##$RETENTION INDEX=1156
##$CONDENSED SPECTRUM=NO
##NPOINTS= 89
##XYDATA=(XY..XY) 1 
    15          5
    18          2
    26          7
    27        138
    28         41
    29        137
    30          4
    31        104
    32          5
    37          2
    38          9
    39        215
    40         33
    41        439
    42         37
    43         98
    44          8
    45          6
    50         16
    51         50
    52         27
    53        143
    54        147
    55        427
    56         42
    57         48
    58         20
    59          4
    60          1
    61          1
    62          5
    63         15
    64          4
    65         94
    66         54
    67        999
    68        303
    69         94
    70         67
    71         87
    72         37
    73          3
    74          2
    75          2
    76          1
    77        233
    78         51
    79        480
    80        148
    81        326
    82         47
    83         49
    84         83
    85         13
    86          9
    87          1
    89          3
    90          1
    91        233
    92         38
    93        564
    94        104
    95        102
    96        129
    97         65
    98         95
    99          8
   103          5
   104          1
   105         33
   106          5
   107        162
   108         16
   109        181
   110         29
   111         41
   112         20
   113          2
   115          2
   117          1
   119          2
   120          3
   121          8
   122        172
   123         18
   124          2
   125          4
   140         66
   141          7