##TITLE=Library Entry 22052
##JCAMP-DX=Revision 4.10 
##DATA TYPE=MASS SPECTRUM
##SAMPLE DESCRIPTION=C.BOTTEGHI ZURICH TECHNICAL COLLEGE, ZURICH, SWITZERLAN
D
##NAMES=HP
##CAS NAME=Butanal, 4-hydroxy-3-methyl-
##MOLFORM=C5H10O2
##CAS REGISTRY NO=56805-34-6
##MP= -300
##BP= -300
##MW= 102
##$RETENTION INDEX=0
##$CONDENSED SPECTRUM=NO
##NPOINTS= 46
##XYDATA=(XY..XY) 1 
    15         25
    17         15
    18         80
    19         10
    26         15
    27        170
    28        110
    29        185
    30         10
    31        150
    32         10
    38         15
    39        160
    40         50
    41        720
    42         65
    43        160
    44         55
    45         20
    47         20
    50         10
    51         10
    52          5
    53         35
    54         50
    55        150
    56        999
    57        560
    58        155
    59         30
    60          5
    67          5
    69         50
    70          5
    71         30
    72        200
    73         10
    74          5
    77          5
    78         15
    83         20
    84         30
    85         60
    86         30
   101         10
   103          5