##TITLE=Library Entry 96748
##JCAMP-DX=Revision 4.10 
##DATA TYPE=MASS SPECTRUM
##SAMPLE DESCRIPTION=T.SUZUKI FAC. OF AGRI., TOHOKU UNIV., SENDAI, JAPAN
##NAMES=HP
##CAS NAME=4-Imidazolidinone, 5-(1-methylethyl)-2-thioxo-
##MOLFORM=C6H10N2OS
##CAS REGISTRY NO=56805-20-0
##MP= -300
##BP= -300
##MW= 158
##$RETENTION INDEX=0
##$CONDENSED SPECTRUM=NO
##NPOINTS= 19
##XYDATA=(XY..XY) 1 
    41        320
    42         68
    43        330
    55         96
    56        272
    57        184
    59         97
    60        204
    84         88
    86         88
    88         39
    99        126
   115         58
   116        999
   117         88
   118         58
   158        642
   159         78
   160         36