##TITLE=Library Entry 42798
##JCAMP-DX=Revision 4.10 
##DATA TYPE=MASS SPECTRUM
##SAMPLE DESCRIPTION=G.M. RUBOTTOM, DEP. CHEM., UNIV. IDAHO, MOSCOW, &
##NAMES=HP
##CAS NAME=4-Methoxyphenylketene bis(trimethylsilyl) acetal
##MOLFORM=C15H26O3Si2
##CAS REGISTRY NO=56817-43-7
##MP= -300
##BP= -300
##MW= 310
##$RETENTION INDEX=0
##$CONDENSED SPECTRUM=NO
##NPOINTS= 21
##XYDATA=(XY..XY) 1 
    43        100
    45        350
    47        100
    59        314
    73        999
    74        135
    75        500
    77        342
    89        485
    90        114
    91        121
    93        271
    95        100
   120        400
   121        100
   133        107
   147        500
   148        964
   149        135
   179        121
   310        271