##TITLE=Library Entry 90482
##JCAMP-DX=Revision 4.10 
##DATA TYPE=MASS SPECTRUM
##SAMPLE DESCRIPTION=R.SELF FOOD RESEARCH INSTITUTE, NORWICH, UK
##NAMES=HP
##CAS NAME=1-Aziridinedecanoic acid, 2,2-dimethyl-.iota.-oxo-, ethyl ester
##MOLFORM=C16H29NO3
##CAS REGISTRY NO=56817-99-3
##MP= -300
##BP= -300
##MW= 283
##$RETENTION INDEX=0
##$CONDENSED SPECTRUM=NO
##NPOINTS= 65
##XYDATA=(XY..XY) 1 
    27         36
    28         57
    29         57
    30         21
    31         15
    39         29
    41        117
    42         30
    43        190
    44         45
    45         64
    53         18
    54         41
    55        209
    56         61
    57         36
    58         10
    59         34
    60         74
    67         43
    68         43
    69         71
    70         91
    71        266
    72        266
    73         16
    74         16
    79         10
    80          7
    81         28
    82         27
    83         38
    84         12
    85         11
    87          8
    95         17
    96         31
    97         28
    98         61
    99          9
   109          7
   110         26
   111         17
   112         24
   113        999
   114         72
   115          9
   123          9
   124         22
   125         12
   126        361
   127         64
   128          7
   138         10
   140         35
   152          8
   154         22
   168         72
   169         13
   182         85
   183         12
   196         12
   208         13
   240          7
   255         15