##TITLE=Library Entry 81342
##JCAMP-DX=Revision 4.10 
##DATA TYPE=MASS SPECTRUM
##SAMPLE DESCRIPTION=CONTINENTAL OIL CO., PONCA CITY, OKLA., USA
##NAMES=HP
##CAS NAME=Benzene, 1-methyl-4-(3-methyl-3-butenyl)-
##MOLFORM=C12H16
##CAS REGISTRY NO=56818-01-0
##MP= -300
##BP= -300
##MW= 160
##$RETENTION INDEX=0
##$CONDENSED SPECTRUM=NO
##NPOINTS= 100
##XYDATA=(XY..XY) 1 
    25          1
    26          5
    27         87
    28         15
    29         39
    30          1
    36          0
    37          2
    38          9
    39         99
    40         12
    41         35
    42          2
    43          5
    44          0
    49          1
    50         16
    51         47
    52         15
    53         31
    54          2
    55         14
    56          2
    57          2
    58          1
    61          2
    62          7
    63         27
    64          9
    65         38
    66          5
    67          4
    68          1
    69          1
    70          2
    71          3
    72          1
    73          0
    74          4
    75          8
    76          7
    77        113
    78         32
    79         72
    80          5
    81          0
    83          0
    85          0
    86          1
    87          2
    88          1
    89         11
    90          4
    91         35
    92          6
    93          1
    95          0
    98          0
    99          0
   101          3
   102         10
   103         42
   104         28
   105        999
   106         87
   107          3
   109          0
   113          1
   114          1
   115         24
   116          7
   117         16
   118         13
   119          4
   120          0
   121          0
   122          0
   126          1
   127          5
   128         15
   129         10
   130          4
   131          4
   132          3
   133          0
   139          1
   140          0
   141          4
   142          2
   143          4
   144          2
   145         18
   146          2
   152          0
   157          0
   158          1
   159          2
   160        187
   161         24
   162          1