##TITLE=Library Entry 66717
##JCAMP-DX=Revision 4.10 
##DATA TYPE=MASS SPECTRUM
##SAMPLE DESCRIPTION=R.SELF FOOD RESEARCH INSTITUTE, NORWICH, UK
##NAMES=HP
##CAS NAME=Oxiranone, (3,7,9-trimethyl-2,6-decadienyl)-
##MOLFORM=C15H24O2
##CAS REGISTRY NO=56817-98-2
##MP= -300
##BP= -300
##MW= 236
##$RETENTION INDEX=0
##$CONDENSED SPECTRUM=NO
##NPOINTS= 69
##XYDATA=(XY..XY) 1 
    29         22
    39         79
    40         13
    41        176
    42         15
    43        165
    44         10
    45          7
    51         14
    52          7
    53         38
    55         48
    56          7
    57          5
    59          9
    65         37
    66          6
    67         31
    69         50
    77        160
    78         37
    79        115
    80         15
    81         37
    91        182
    92        119
    93        999
    94        109
    95         26
   103          8
   105         45
   106         10
   107         52
   108         13
   109         44
   110         15
   111         19
   115          8
   117          9
   119         36
   120         25
   121         84
   122         15
   123         76
   124          5
   126          5
   131          6
   133         40
   134          8
   135         13
   136          4
   137         44
   138        323
   139         30
   147          9
   149         20
   151          5
   152          6
   159          5
   161         10
   177         87
   178          8
   179         26
   180        340
   181         42
   194         21
   221          6
   236         85
   237         10