##TITLE=Library Entry 15530
##JCAMP-DX=Revision 4.10 
##DATA TYPE=MASS SPECTRUM
##SAMPLE DESCRIPTION=R E. WOLFF 022
##NAMES=HP
##CAS NAME=Dodecanoic acid, 11-amino-, methyl ester
##MOLFORM=C13H27NO2
##CAS REGISTRY NO=56817-92-6
##MP= -300
##BP= -300
##MW= 229
##$RETENTION INDEX=0
##$CONDENSED SPECTRUM=NO
##NPOINTS= 16
##XYDATA=(XY..XY) 1 
    41         38
    44        999
    55         42
    56         25
    57         12
    59         15
    69         20
    70         12
    74         15
   156         17
   182         23
   198         32
   214         39
   228          7
   229         10
   230          8