##TITLE=Library Entry 75973
##JCAMP-DX=Revision 4.10 
##DATA TYPE=MASS SPECTRUM
##SAMPLE DESCRIPTION=Chemical Concepts
##NAMES=HP
##CAS NAME=2-Cyclohexen-1-one, 3-chloro-
##MOLFORM=C6H7ClO
##CAS REGISTRY NO=5682-75-7
##MP= -300
##BP= -300
##MW= 130
##$RETENTION INDEX=0
##$CONDENSED SPECTRUM=NO
##NPOINTS= 81
##XYDATA=(XY..XY) 1 
    24          0
    25          3
    26         39
    27        134
    28         11
    29          5
    31         13
    33          4
    35         17
    36          9
    37         40
    38         78
    39        427
    40         51
    41         95
    42         26
    43         13
    44          1
    46          2
    47         41
    48         22
    49        251
    50         40
    51         77
    52         14
    53         18
    54          1
    55         29
    56          1
    57          1
    58          3
    59          0
    60         17
    61         16
    62         20
    63         30
    64          7
    65         74
    66         22
    67        712
    68         30
    69          2
    70          1
    71          1
    72          3
    73         23
    74          6
    75         11
    76          1
    77         11
    78          1
    79          2
    82          2
    83          3
    84        130
    85          3
    86         91
    87         20
    88         18
    89          7
    90          3
    91          1
    95          7
    99          1
   100          1
   101          2
   102        999
   103         41
   104        274
   105         13
   106          1
   111          0
   113          4
   115          7
   117          1
   129          0
   130        332
   131         26
   132        109
   133          5
   134          0