##TITLE=Library Entry 48809
##JCAMP-DX=Revision 4.10 
##DATA TYPE=MASS SPECTRUM
##SAMPLE DESCRIPTION=Chemical Concepts
##NAMES=HP
##CAS NAME=Bicyclo[3.3.1]non-6-ene-3-carboxylic acid
##MOLFORM=C10H14O2
##CAS REGISTRY NO=56820-19-0
##MP= -300
##BP= -300
##MW= 166
##$RETENTION INDEX=0
##$CONDENSED SPECTRUM=NO
##NPOINTS= 112
##XYDATA=(XY..XY) 1 
    26          5
    27        136
    28          1
    29         32
    30          6
    31         10
    37          4
    38         12
    39        224
    40         43
    41        234
    42         26
    43         70
    44         13
    45         30
    46          4
    47         10
    50         19
    51         64
    52         41
    53         96
    54         50
    55         84
    56         12
    57         18
    58         15
    59          8
    60         17
    61          3
    62          4
    63         22
    64         10
    65         84
    66         76
    67        148
    68         46
    69         35
    70         22
    71          9
    72          5
    73        102
    74         26
    75         12
    76         11
    77        266
    78        611
    79        999
    80        185
    81        162
    82         22
    83         10
    84          6
    85          5
    86         32
    87         16
    88          6
    89          8
    91        199
    92        168
    93        156
    94         51
    95         23
    96         26
    97         40
    98          8
    99          8
   100          4
   102          4
   103         10
   104         13
   105         55
   106         21
   107         16
   108          8
   109         10
   110          5
   111          6
   112          5
   115         16
   116          6
   117          9
   119         14
   120         76
   121         46
   122          9
   123         16
   124         16
   125         14
   127          9
   128         10
   129         11
   130          6
   131          8
   132          3
   133          6
   134          2
   135          4
   136          8
   137          5
   138         17
   139          6
   141          4
   148        229
   149         27
   150          3
   151          4
   163          4
   164         11
   165          9
   166         67
   167         10
   168          2