##TITLE=Library Entry 45169
##JCAMP-DX=Revision 4.10 
##DATA TYPE=MASS SPECTRUM
##SAMPLE DESCRIPTION=N.DE KIMPE STATE UNIVERSITY OF GHENT, GHENT, BELGIUM
##NAMES=HP
##CAS NAME=2-Pentanone, 1,1-dimethoxy-3-methyl-
##MOLFORM=C8H16O3
##CAS REGISTRY NO=56830-14-9
##MP= -300
##BP= -300
##MW= 160
##$RETENTION INDEX=0
##$CONDENSED SPECTRUM=NO
##NPOINTS= 12
##XYDATA=(XY..XY) 1 
    55        250
    57         60
    67        120
    68        160
    69        250
    71        160
    75        999
    85         40
    96         90
   101         30
   114        250
   129         30