##TITLE=Library Entry 90193
##JCAMP-DX=Revision 4.10 
##DATA TYPE=MASS SPECTRUM
##SAMPLE DESCRIPTION=N.DE KIMPE STATE UNIVERSITY OF GHENT, GHENT, BELGIUM
##NAMES=HP
##CAS NAME=Ethanone, 2-methoxy-1-(1-methoxycyclohexyl)-
##MOLFORM=C10H18O3
##CAS REGISTRY NO=56830-21-8
##MP= -300
##BP= -300
##MW= 186
##$RETENTION INDEX=0
##$CONDENSED SPECTRUM=NO
##NPOINTS= 8
##XYDATA=(XY..XY) 1 
    41        130
    45        520
    53         50
    55        100
    67         50
    71        100
    81        580
   113        999