##TITLE=Library Entry 57251
##JCAMP-DX=Revision 4.10 
##DATA TYPE=MASS SPECTRUM
##SAMPLE DESCRIPTION=N.DE KIMPE STATE UNIVERSITY OF GHENT, GHENT, BELGIUM
##NAMES=HP
##CAS NAME=2-Pentanone, 1,3-dimethoxy-3-methyl-
##MOLFORM=C8H16O3
##CAS REGISTRY NO=56830-17-2
##MP= -300
##BP= -300
##MW= 160
##$RETENTION INDEX=0
##$CONDENSED SPECTRUM=NO
##NPOINTS= 14
##XYDATA=(XY..XY) 1 
    55        750
    56         70
    57         70
    59         70
    71         50
    75        200
    83        200
    87        999
    98         40
   115         40
   128         30
   129         20
   131         15
   160         12