##TITLE=Library Entry 22278
##JCAMP-DX=Revision 4.10 
##DATA TYPE=MASS SPECTRUM
##SAMPLE DESCRIPTION=D.HENNEBERG, MAX-PLANCK INSTITUTE, MULHEIM, WEST GERMAN
Y
##NAMES=HP
##CAS NAME=2,4-Pentanediol, 3-methyl-
##MOLFORM=C6H14O2
##CAS REGISTRY NO=5683-44-3
##MP= -300
##BP= -300
##MW= 118
##$RETENTION INDEX=963
##$CONDENSED SPECTRUM=NO
##NPOINTS= 62
##XYDATA=(XY..XY) 1 
    26          7
    27         66
    28         70
    29         95
    30          6
    31         54
    33          0
    38          0
    39         29
    40         17
    41        324
    42         36
    43        219
    44         25
    45        410
    46         10
    47          5
    50          0
    51          1
    52          0
    53         10
    54          9
    55         98
    56        999
    57        116
    58         17
    59         92
    60          3
    61          5
    62          0
    63         15
    64          0
    65          0
    67          8
    68          1
    69         13
    70          3
    71         27
    72         25
    73         23
    74          4
    75          5
    77          0
    79          0
    81          1
    82          2
    83          6
    84          7
    85         39
    86          2
    87          3
    89          9
    95          0
    97          0
    98          1
    99          4
   100          9
   101          3
   103          7
   104          0
   115          1
   117          1