##TITLE=Library Entry 45324
##JCAMP-DX=Revision 4.10 
##DATA TYPE=MASS SPECTRUM
##SAMPLE DESCRIPTION=Exported from NIST MS Search
##NAMES=HP
##CAS NAME=Propanoic acid, 3-(trimethylsilyl)-
##MOLFORM=C6H14O2Si
##CAS REGISTRY NO=5683-30-7
##MP= -300
##BP= -300
##MW= 146
##$RETENTION INDEX=0
##$CONDENSED SPECTRUM=NO
##NPOINTS= 18
##XYDATA=(XY..XY) 1 
    71         20
    72         70
    73        950
    74        200
    75        999
    76        240
    77        180
    85         10
    86        100
    87         30
    91        100
   101         50
   103         30
   115         30
   117         10
   131        850
   132        120
   133         40