##TITLE=Library Entry 100166
##JCAMP-DX=Revision 4.10 
##DATA TYPE=MASS SPECTRUM
##SAMPLE DESCRIPTION=W H. DALY
##NAMES=HP
##CAS NAME=Carbamic acid, [(2,4,6-trimethylphenyl)sulfonyl]-, 1,1-dimethylet
hyl ester
##MOLFORM=C14H21NO4S
##CAS REGISTRY NO=56830-76-3
##MP= -300
##BP= -300
##MW= 299
##$RETENTION INDEX=0
##$CONDENSED SPECTRUM=NO
##NPOINTS= 22
##XYDATA=(XY..XY) 1 
    41        500
    43        266
    44        147
    55        107
    56        136
    57        494
    59        434
    77        147
    91        273
   103        167
   115        113
   117        333
   118        535
   119        999
   120        167
   134        126
   135        126
   136        334
   179        267
   183        167
   225        167
   243        176