##TITLE=Library Entry 84440
##JCAMP-DX=Revision 4.10 
##DATA TYPE=MASS SPECTRUM
##SAMPLE DESCRIPTION=P.JAKOBSEN, INST. FOR CHEMISTRY, UNIV., COPENHAGEN, DEN
MARK
##NAMES=HP
##CAS NAME=Phosphoramidic acid, bis(4-methylphenyl) ester
##MOLFORM=C14H16NO3P
##CAS REGISTRY NO=56830-89-8
##MP= -300
##BP= -300
##MW= 277
##$RETENTION INDEX=0
##$CONDENSED SPECTRUM=NO
##NPOINTS= 11
##XYDATA=(XY..XY) 1 
    65        120
    77         80
    79        160
    91        520
    92         80
   107        999
   108        100
   180        100
   181         20
   186        550
   187         60