##TITLE=Library Entry 40870
##JCAMP-DX=Revision 4.10 
##DATA TYPE=MASS SPECTRUM
##SAMPLE DESCRIPTION=N.DE KIMPE, STATE UNIVERSITY OF GHENT, GHENT, BELGIUM
##NAMES=HP
##CAS NAME=Benzenamine, N-[2-methoxy-1-(methoxymethyl)-2-methylpropylidene]-
##MOLFORM=C13H19NO2
##CAS REGISTRY NO=56830-06-9
##MP= -300
##BP= -300
##MW= 221
##$RETENTION INDEX=0
##$CONDENSED SPECTRUM=NO
##NPOINTS= 12
##XYDATA=(XY..XY) 1 
    45        830
    51        130
    73        999
    77        280
   104        110
   118         80
   119         70
   144        180
   148        420
   189         80
   191        140
   221         50