##TITLE=Library Entry 21860
##JCAMP-DX=Revision 4.10 
##DATA TYPE=MASS SPECTRUM
##SAMPLE DESCRIPTION=G. JANSSEN,REGA INST. MED. RES.,KATHOLIEKE UNIV.,LEUVEN
,BELG.
##NAMES=HP
##CAS NAME=Methyl (25RS)-3.beta.-hydroxy-5-cholesten-26-oate
##MOLFORM=C28H46O3
##CAS REGISTRY NO=56845-86-4
##MP= -300
##BP= -300
##MW= 430
##$RETENTION INDEX=0
##$CONDENSED SPECTRUM=NO
##NPOINTS= 342
##XYDATA=(XY..XY) 1 
    50         79
    51         32
    52         23
    53        106
    54         37
    55        999
    56        106
    57        194
    58         18
    59        190
    60          9
    61          5
    62          9
    63         14
    64          9
    65         42
    66         28
    67        431
    68         97
    69        468
    70         60
    71         56
    72          5
    73         65
    74         32
    75          9
    76         14
    77        134
    78         56
    79        407
    80         88
    81        736
    82        106
    83        213
    84         18
    85         46
    86         14
    87         46
    88        227
    89         23
    90          9
    91        435
    92        167
    93        602
    94        245
    95        861
    96        125
    97        384
    98         32
    99         37
   100          9
   101         83
   102         14
   103         28
   104         37
   105        606
   106        218
   107        912
   108        227
   109        431
   110         69
   111         83
   112         14
   113         14
   114         14
   115         69
   116         42
   117        199
   118        134
   119        500
   120        444
   121        486
   122        167
   123        194
   124        125
   125        208
   126         23
   127         28
   128         56
   129         34
   130         65
   131        310
   132        120
   133        481
   134        204
   135        421
   136        116
   137        102
   138         69
   139         42
   140          9
   141         65
   142         42
   143        319
   144        134
   145        708
   146        185
   147        421
   148        143
   149        250
   150         51
   151        134
   152         37
   153         23
   154          9
   155         69
   156         32
   157        268
   158        296
   159        505
   160        296
   161        495
   162        134
   163        250
   164         65
   165         65
   166         14
   167         23
   168         14
   169         37
   170         23
   171        181
   172         83
   173        278
   174        111
   175        148
   176         88
   177         97
   178        162
   179         65
   180          9
   181         14
   182          9
   183         51
   184         14
   185        157
   186         93
   187        176
   188         56
   189         97
   190         28
   191         42
   192         18
   193         18
   194          5
   195         14
   196          9
   197         46
   198         14
   199        190
   200         65
   201        111
   202         28
   203         51
   204         18
   205         28
   206          5
   207         28
   208         14
   209         18
   210          9
   211         28
   212         14
   213        690
   214        204
   215        148
   216         42
   217         65
   218         32
   219         28
   220          5
   221          9
   222          5
   223         23
   224          9
   225         18
   226          9
   227         93
   228        213
   229        153
   230         37
   231        306
   232         88
   233         28
   234         18
   235         23
   236          9
   237         65
   238         23
   239         32
   240          9
   241         60
   242         18
   243         23
   244         18
   245         32
   246        143
   247         51
   248         14
   249         56
   250         65
   251         88
   252         23
   253         18
   254         18
   255        463
   256        120
   257         42
   258          9
   259         32
   260          9
   261         14
   262          9
   263         46
   264         42
   265         18
   266          5
   267         14
   268          5
   269         14
   270          9
   271         37
   272         28
   273        287
   274         65
   275         18
   276          5
   277         18
   278          9
   279         14
   280          5
   281          9
   282          9
   283         32
   284         14
   285         14
   286          5
   287         28
   288          9
   289         28
   290         28
   291        296
   292         83
   293         14
   294          5
   295          5
   296          5
   297          9
   298          5
   299         14
   300          9
   301         18
   302          9
   303         28
   304         37
   305         97
   306         42
   307         14
   308          5
   309          5
   310          5
   311          5
   312          5
   313          9
   314          5
   315          9
   316          9
   317         18
   318        125
   319        935
   320        241
   321         37
   322          5
   323          5
   324          5
   325          9
   326          5
   327          9
   328          5
   329         14
   330         14
   331         23
   332         18
   333          9
   334          5
   337          9
   338          5
   339          9
   340          5
   341          9
   342          9
   343         18
   344         23
   345        361
   346        116
   347         18
   348          9
   349          5
   352          5
   353         18
   354          9
   355         18
   356         14
   357         37
   358         42
   359         18
   360         14
   361          5
   365         18
   366          9
   369          9
   370         93
   371         79
   372         32
   373         65
   374         14
   375          5
   381         83
   382         23
   383         32
   384         23
   385          9
   386         23
   387         14
   388          9
   397        407
   398        139
   399        130
   400         42
   410          5
   411          5
   412        694
   413        231
   414         42
   415        375
   416        120
   417         18
   428         37
   429          9
   430        685
   431        236
   432         42