##TITLE=Library Entry 19672
##JCAMP-DX=Revision 4.10 
##DATA TYPE=MASS SPECTRUM
##SAMPLE DESCRIPTION=R.T.HOLMAN,UNIVERSITY OF MINNESOTA
##NAMES=HP
##CAS NAME=Octadecanoic acid, 2,3-bis[(1-oxotetradecyl)oxy]propyl ester
##MOLFORM=C49H94O6
##CAS REGISTRY NO=56846-96-9
##MP= -300
##BP= -300
##MW= 778
##$RETENTION INDEX=0
##$CONDENSED SPECTRUM=NO
##NPOINTS= 335
##XYDATA=(XY..XY) 1 
    26         22
    27        160
    28        100
    29        320
    30         14
    31         27
    32          2
    35          6
    36         23
    37          5
    38         12
    39        100
    40         28
    41        650
    42        160
    43        970
    44        140
    45         78
    46          4
    47          4
    48          3
    49          3
    50          6
    51          9
    52          6
    53         39
    54         63
    55        999
    56        190
    57        970
    58         77
    59         41
    60        340
    61         90
    62          7
    63          6
    64          5
    65         13
    66         11
    67        170
    68         73
    69        450
    70        130
    71        540
    72         36
    73        380
    74         44
    75          8
    76          3
    77         14
    78          9
    79         53
    80         22
    81        210
    82         73
    83        390
    84        300
    85        340
    86        160
    87        190
    88         30
    89         18
    90          4
    91         19
    92          7
    93         41
    94         19
    95        250
    96         64
    97        300
    98        420
    99        310
   100         48
   101         52
   102         15
   103          8
   104         22
   105         12
   106          5
   107         29
   108         11
   109        170
   110         38
   111        200
   112        120
   113         91
   114         54
   115         81
   116         40
   117         27
   118          5
   119          7
   120          4
   121         35
   122         10
   123         78
   124         20
   125         45
   126         38
   127         44
   128         24
   129        170
   130         29
   131         31
   132          5
   133          8
   134          4
   135         25
   136          8
   137         41
   138         18
   139         22
   140         18
   141        260
   142         46
   143         50
   144         10
   145          6
   146          4
   147          6
   148          3
   149         16
   150          5
   151         15
   152         13
   153         27
   154         28
   155        100
   156         41
   157         54
   158         56
   159         11
   160          5
   161          4
   162          3
   163         11
   164          5
   165         16
   166         11
   167         23
   168         14
   169         41
   170         16
   171        110
   172         17
   173         12
   174         22
   175          4
   176          3
   177          4
   178          5
   179          6
   180          5
   181         13
   182         15
   183        220
   184         31
   185         81
   186         13
   187          7
   188          4
   189          4
   190          3
   191          7
   192          4
   193         11
   194          4
   195          5
   196          4
   197         21
   198         10
   199         26
   200          8
   201          7
   202          4
   203          3
   204          2
   205          3
   206          3
   207          3
   208          4
   209          8
   210         11
   211        230
   212         36
   213         28
   214          8
   215          5
   216          3
   217          3
   218          3
   219          4
   220          3
   221          3
   222          3
   223          5
   224          5
   225         15
   226         22
   227        280
   228         50
   229         12
   230          3
   231          2
   232          2
   233          2
   234          3
   235          4
   236          3
   237          4
   238          3
   239         17
   240          6
   241         30
   242          7
   243          4
   244          3
   245         32
   246          6
   247          3
   248          2
   249          4
   250          2
   251          3
   252          5
   253         11
   254          5
   255         18
   256          6
   257          3
   258          3
   260          4
   262          3
   264          3
   265          4
   266          7
   267         48
   268         16
   269         27
   270          7
   271         16
   272          4
   273          3
   279          3
   280          3
   281          7
   282          3
   283         35
   284         16
   285         80
   286         17
   287          4
   291          3
   296          6
   297          4
   298         13
   299          4
   300          3
   304          3
   309          3
   310          5
   312          8
   313          3
   314          6
   315          3
   324          3
   325         11
   326         12
   327         22
   328         20
   329          5
   338          4
   339        180
   340         41
   341         30
   342          7
   353          9
   354         27
   355          9
   356          4
   366          3
   367         15
   368          6
   369          3
   380          3
   381         27
   382         16
   383          9
   384          3
   396          3
   397        130
   398         38
   399          8
   409         27
   410          9
   411          3
   421          2
   422         16
   423          8
   424          3
   437         25
   438         11
   439          4
   450         65
   451         23
   452          6
   465         20
   466          9
   467          3
   478         11
   479          6
   480          5
   491         14
   492         20
   493         49
   494         18
   495          5
   506         30
   507         13
   508          4
   520          9
   521          7
   522         11
   523          5
   534          3
   535          4
   536          4
   549          8
   550         20
   551         56
   552         22
   553          6
   563          3
   591          5
   592          3