##TITLE=Library Entry 30877
##JCAMP-DX=Revision 4.10 
##DATA TYPE=MASS SPECTRUM
##SAMPLE DESCRIPTION=P. VAINIOTALO, DEPT. CHEM., UNIV. JOENSUU, JOENSUU, FIN
LAND
##NAMES=HP
##CAS NAME=1,3-Oxathiolane, 2,2-dimethyl-
##MOLFORM=C5H10OS
##CAS REGISTRY NO=5684-31-1
##MP= -300
##BP= -300
##MW= 118
##$RETENTION INDEX=853
##$CONDENSED SPECTRUM=NO
##NPOINTS= 51
##XYDATA=(XY..XY) 1 
    25          2
    26         16
    27         48
    29          6
    30          2
    31         21
    33          3
    34          8
    35          8
    37          3
    38          4
    39         34
    41         40
    42         25
    43        378
    44          8
    45        177
    46         16
    47         15
    48          8
    49          2
    53          2
    54          5
    55         19
    56          2
    57         15
    58        105
    59        329
    60        999
    61         95
    62         50
    63          3
    64          9
    71          2
    72          6
    73          9
    74          6
    75          2
    77          1
    87          2
    88          5
    90          2
    99          2
   101          2
   103         62
   104          3
   105          3
   116          2
   118        344
   119         24
   120         17