##TITLE=Library Entry 19347
##JCAMP-DX=Revision 4.10 
##DATA TYPE=MASS SPECTRUM
##SAMPLE DESCRIPTION=R.T.HOLMAN,UNIVERSITY OF MINNESOTA
##NAMES=HP
##CAS NAME=13,16-Octadecadienoic acid, methyl ester
##MOLFORM=C19H34O2
##CAS REGISTRY NO=56846-99-2
##MP= -300
##BP= -300
##MW= 294
##$RETENTION INDEX=0
##$CONDENSED SPECTRUM=NO
##NPOINTS= 132
##XYDATA=(XY..XY) 1 
    26         10
    27        220
    28         70
    29        350
    30         10
    31         30
    38         10
    39        270
    40         50
    41        910
    42        190
    43        410
    44         20
    45         80
    50         10
    51         30
    52         20
    53        170
    54        190
    55        999
    56        140
    57        150
    58         10
    59        270
    60         20
    61         10
    63         10
    65         50
    66         40
    67        490
    68        570
    69        470
    70         60
    71         50
    72         10
    73        100
    74        740
    75         90
    76         10
    77         80
    78         20
    79        180
    80         80
    81        470
    82        380
    83        250
    84        130
    85         40
    87        420
    88         50
    89         10
    91         50
    92         10
    93         70
    94         90
    95        350
    96        250
    97        160
    98         90
    99         20
   100         10
   101         50
   102         10
   103         10
   104         10
   105         40
   106         10
   107         30
   108         30
   109        120
   110        100
   111         60
   112         20
   113         20
   114         20
   115         40
   116         10
   117         10
   119         50
   120         10
   121         20
   122         10
   123         70
   124         80
   125         40
   126         10
   127         10
   128         20
   129         30
   130         11
   131         10
   133         20
   134         20
   135         20
   136         10
   137         40
   138         30
   139         10
   141         20
   142         10
   143         30
   144         10
   145         10
   147         10
   148         10
   149         20
   150         10
   151         20
   152         10
   153         10
   157         10
   163         10
   164         20
   165         10
   166         50
   167         10
   168         10
   178         10
   179         10
   180         50
   199         10
   208         30
   209         40
   210         10
   211         10
   220         10
   242         10
   262         10
   263         30
   264         10
   294         50
   295         10