##TITLE=Library Entry 97927
##JCAMP-DX=Revision 4.10 
##DATA TYPE=MASS SPECTRUM
##SAMPLE DESCRIPTION=A.A.Kutin, Moscow, Russia
##NAMES=HP
##CAS NAME=Thiazolidin-4-one, 5-(4-nitrobenzylideno)-2-phenylimino-
##MOLFORM=C16H11N3O3S
##CAS REGISTRY NO=56843-56-2
##MP= -300
##BP= -300
##MW= 325
##$RETENTION INDEX=0
##$CONDENSED SPECTRUM=NO
##NPOINTS= 182
##XYDATA=(XY..XY) 1 
    33          3
    34          4
    36          4
    37         24
    38         67
    39        230
    40         55
    41         52
    42         22
    43         55
    44         28
    45         97
    46         40
    47         11
    48          3
    50        144
    51        338
    52         47
    53         26
    54          6
    55         17
    56          7
    57         27
    58         14
    59         11
    60         22
    61         16
    62         56
    63        277
    64        147
    65         80
    66         21
    67          9
    69         85
    70         14
    71         18
    72          5
    73         13
    74         60
    75         69
    76         60
    77        457
    78         54
    79          7
    80          3
    81         20
    82         63
    83         20
    84         10
    85          8
    86         11
    87         25
    89        790
    90        106
    91        353
    92         43
    93         45
    94         12
    95         15
    96          9
    97          6
    98          8
    99          6
   100          7
   101         19
   102          8
   103         14
   104         25
   105         24
   106         19
   107          9
   108          8
   109          4
   110          1
   111          2
   112          2
   113          2
   114          2
   115          3
   116          7
   118        999
   119        201
   120         29
   121         99
   122         20
   123         10
   124          2
   125          2
   126          1
   128          6
   129          5
   130          2
   131          7
   132         39
   133        203
   134         99
   135         28
   136         11
   137          1
   138          0
   139          8
   140          3
   143          1
   145         29
   146          7
   147          7
   148         13
   149        256
   150         66
   151         48
   152          7
   153          1
   154          1
   157          0
   158          1
   159          4
   160         17
   161         31
   162         13
   163         54
   164         13
   165          4
   166          2
   167          0
   168          0
   169          0
   171          2
   172          0
   173          0
   174          1
   175          2
   176          2
   177          4
   179        662
   180        307
   181         60
   182         16
   183          1
   189          0
   190         10
   191          7
   192        106
   193         12
   194          6
   195          0
   202          0
   203          0
   204          1
   205          0
   206          3
   207          9
   208        177
   209         20
   210          9
   211          0
   212          6
   213          1
   214          6
   215          1
   216          0
   218          0
   219          0
   223          0
   226          0
   227          0
   241          0
   243          0
   249          0
   250          0
   278          0
   279          0
   295          5
   296          1
   297          0
   308          0
   309          1
   324         18
   325        265
   326         51
   327         20
   328          2
   329          0