##TITLE=Library Entry 40973
##JCAMP-DX=Revision 4.10 
##DATA TYPE=MASS SPECTRUM
##SAMPLE DESCRIPTION=W.R.MORRISON DEPT. FOOD SCI., UNIV. STRATHCLYDE, GLASGO
W, U
##NAMES=HP
##CAS NAME=Methyl 2-hydroxytetracos-2-enoate, TMS derivative
##MOLFORM=C28H56O3Si
##CAS REGISTRY NO=56847-14-4
##MP= -300
##BP= -300
##MW= 468
##$RETENTION INDEX=0
##$CONDENSED SPECTRUM=NO
##NPOINTS= 72
##XYDATA=(XY..XY) 1 
    41        350
    42         80
    43        480
    44        130
    45         70
    53         30
    54         80
    55        440
    56        150
    57        520
    58         50
    59        100
    60         40
    67        100
    68         50
    69        210
    70         40
    71        320
    72         60
    73        999
    74        120
    75        290
    76         40
    77         50
    78         30
    79         70
    81        250
    82        160
    83        330
    84         80
    85        160
    87         50
    89        340
    90         40
    91        120
    93         40
    94         30
    95        230
    96        120
    97        260
    98         50
    99         50
   101         20
   103        160
   105         60
   107         40
   109        130
   110         20
   111        120
   122         40
   123         20
   124         80
   125         30
   126         80
   129        310
   130         40
   131         50
   133         20
   135         20
   137         20
   139         90
   149         70
   159        140
   398         50
   409        310
   410         90
   425         20
   441         20
   453        250
   454         90
   455        100
   468         20