##TITLE=Library Entry 41192
##JCAMP-DX=Revision 4.10 
##DATA TYPE=MASS SPECTRUM
##SAMPLE DESCRIPTION=W.R.MORRISON DEPT. FOOD SCI., UNIV. STRATHCLYDE, GLASGO
W, U
##NAMES=HP
##CAS NAME=Tricosenoic acid, 2-[(trimethylsilyl)oxy]-, methyl ester
##MOLFORM=C27H54O3Si
##CAS REGISTRY NO=56847-15-5
##MP= -300
##BP= -300
##MW= 454
##$RETENTION INDEX=0
##$CONDENSED SPECTRUM=NO
##NPOINTS= 82
##XYDATA=(XY..XY) 1 
    41        320
    42         70
    43        400
    44         90
    45         60
    55        300
    56         70
    57        380
    58         30
    59        110
    60         30
    61         10
    65         20
    66         30
    67        220
    68        110
    69        420
    70        100
    71        210
    72         40
    73        999
    74        130
    75        320
    76         40
    77         50
    79         60
    81        300
    82        160
    83        350
    84         50
    85        120
    86         10
    87         40
    88         10
    89        400
    90         50
    91        120
    95        160
    96         50
    97        240
    98         50
    99         40
   101         40
   103        160
   104         10
   105         70
   107         30
   109         70
   111        120
   112         20
   113         40
   116         40
   117         20
   118         30
   121         40
   122         20
   123         60
   124         20
   125         20
   127         10
   129        340
   130         40
   131         50
   145         60
   146         40
   147         90
   148         40
   149         90
   159        160
   161         20
   193         30
   304         20
   384         20
   395        400
   396        130
   397         70
   411         40
   439        360
   440        110
   441         50
   454         40
   455         10