##TITLE=Library Entry 44604
##JCAMP-DX=Revision 4.10 
##DATA TYPE=MASS SPECTRUM
##SAMPLE DESCRIPTION=R.T.HOLMAN,UNIVERSITY OF MINNESOTA
##NAMES=HP
##CAS NAME=13,16-Octadecadiynoic acid, methyl ester
##MOLFORM=C19H30O2
##CAS REGISTRY NO=56846-98-1
##MP= -300
##BP= -300
##MW= 290
##$RETENTION INDEX=0
##$CONDENSED SPECTRUM=NO
##NPOINTS= 128
##XYDATA=(XY..XY) 1 
    27        130
    28         50
    29        210
    31         20
    39        160
    40         50
    41        600
    42        100
    43        330
    44         30
    45         30
    50         20
    51         30
    52         30
    53        130
    54        190
    55        630
    56         70
    57        100
    58         10
    59        220
    60         20
    61         10
    63         20
    64         10
    65         70
    66         40
    67        370
    68        200
    69        280
    70         40
    71         40
    72         10
    73         40
    74        999
    75        120
    76         10
    77         70
    78         30
    79        140
    80         80
    81        470
    82        220
    83        180
    84         70
    85         40
    87        430
    88         50
    89         10
    90         10
    91        220
    92        250
    93        100
    94         70
    95        260
    96        150
    97        120
    98         50
    99         20
   100         20
   101         50
   102         10
   103         10
   104         10
   105         80
   106         30
   107         50
   108         40
   109        110
   110         40
   111         60
   112         20
   113         20
   114         20
   115         30
   116         10
   117         20
   118         10
   119         60
   120         30
   121         50
   122         40
   123         40
   124         20
   125         30
   126         20
   127         20
   128         10
   129         30
   130         10
   131         20
   133         40
   134         20
   135         40
   136         30
   137         20
   138         10
   139         20
   140         10
   141         10
   143         20
   145         10
   147         20
   148         10
   149         30
   150         20
   151         10
   161         10
   163         10
   164         20
   165         10
   166         10
   167         10
   177         10
   178         10
   181         10
   189         10
   199         10
   205         10
   207         10
   208          2
   209          2
   211          4
   213          2
   220          3
   242          5
   259          5
   260          2