##TITLE=Library Entry 57108
##JCAMP-DX=Revision 4.10 
##DATA TYPE=MASS SPECTRUM
##SAMPLE DESCRIPTION=Chemical Concepts
##NAMES=HP
##CAS NAME=1,2-Cyclohexanediol, 1-methyl-4-(2-methyl-1,3-dioxolan-2-yl)-
##MOLFORM=C11H20O4
##CAS REGISTRY NO=56859-97-3
##MP= -300
##BP= -300
##MW= 216
##$RETENTION INDEX=0
##$CONDENSED SPECTRUM=NO
##NPOINTS= 116
##XYDATA=(XY..XY) 1 
    26          0
    27         14
    28          5
    29          9
    30          0
    31          6
    39         11
    40          4
    41         26
    42          4
    43        321
    44         10
    45         22
    46          0
    47          0
    51          1
    52          0
    53          9
    54          3
    55         23
    56          2
    57          5
    58         14
    59         15
    60          0
    61          1
    63          0
    65          3
    66          1
    67         13
    68          3
    69          8
    70          2
    71         67
    72          4
    73         11
    74          3
    75          0
    77          5
    78          1
    79          5
    80          1
    81          6
    82          1
    83         10
    84         13
    85         14
    86          5
    87        999
    88         51
    89          5
    91          5
    92          1
    93         21
    94          3
    95         17
    96          3
    97         10
    98          2
    99         15
   100          1
   101          1
   102          2
   103          3
   105          1
   107          2
   108          1
   109          9
   110          4
   111         48
   112          6
   113          6
   114          0
   115         41
   116          3
   117          0
   119          1
   120          0
   121          4
   122          0
   123          2
   124          0
   125          3
   126          2
   127          3
   128          4
   129         31
   130          2
   135          1
   136          1
   137          3
   138          1
   139         16
   140          1
   141          1
   142          0
   146          1
   149          0
   152          0
   153          3
   154          9
   155          7
   156          0
   157          0
   165          1
   167          0
   168          1
   169          0
   172         30
   173          3
   174          0
   183         21
   184          1
   199          0
   201          9
   202          1