##TITLE=Library Entry 18709
##JCAMP-DX=Revision 4.10 
##DATA TYPE=MASS SPECTRUM
##SAMPLE DESCRIPTION=Exported from NIST MS Search
##NAMES=HP
##CAS NAME=1,1'-Bicyclopropyl
##MOLFORM=C6H10
##CAS REGISTRY NO=5685-46-1
##MP= -300
##BP= -300
##MW= 82
##$RETENTION INDEX=640
##$CONDENSED SPECTRUM=NO
##NPOINTS= 29
##XYDATA=(XY..XY) 1 
    26         36
    27        245
    28        110
    29         51
    37         11
    38         34
    39        507
    40         57
    41        630
    42         51
    49          2
    50         37
    51         60
    52         26
    53        173
    54        999
    55         80
    63          7
    65         69
    66         14
    67        912
    68         42
    77         21
    78          1
    79         47
    80          1
    81         83
    82         51
    83          1