##TITLE=Library Entry 34227
##JCAMP-DX=Revision 4.10 
##DATA TYPE=MASS SPECTRUM
##SAMPLE DESCRIPTION=D.HENNEBERG, MAX-PLANCK INSTITUTE, MULHEIM, WEST GERMAN
Y
##NAMES=HP
##CAS NAME=2-Dodecene, 4-methyl-
##MOLFORM=C13H26
##CAS REGISTRY NO=56851-45-7
##MP= -300
##BP= -300
##MW= 182
##$RETENTION INDEX=0
##$CONDENSED SPECTRUM=NO
##NPOINTS= 61
##XYDATA=(XY..XY) 1 
    24          3
    25          2
    26          6
    27        110
    29        195
    30          8
    31          3
    35          1
    36          0
    38          5
    39        122
    40         13
    41        639
    42         88
    43        217
    47          2
    49          2
    50          6
    51          2
    52         11
    53         63
    54         41
    55        449
    56        561
    57        121
    60          7
    64          5
    65         12
    66         21
    67         81
    68         87
    69        999
    70        322
    71         30
    77          8
    79          7
    81         39
    82         17
    83         65
    84        326
    85        114
    95         12
    96          4
    97         79
    98         14
   105          1
   107          4
   111         16
   112          5
   122          2
   138          3
   139         18
   140         15
   154          3
   165          4
   168          7
   170          2
   179          1
   181          1
   182         20
   183          2