##TITLE=Library Entry 79095
##JCAMP-DX=Revision 4.10 
##DATA TYPE=MASS SPECTRUM
##SAMPLE DESCRIPTION=D.HENNEBERG, MAX-PLANCK INSTITUTE, MULHEIM, WEST GERMAN
Y
##NAMES=HP
##CAS NAME=Benzene, (1,3-dimethyl-3-butenyl)-
##MOLFORM=C12H16
##CAS REGISTRY NO=56851-51-5
##MP= -300
##BP= -300
##MW= 160
##$RETENTION INDEX=0
##$CONDENSED SPECTRUM=NO
##NPOINTS= 103
##XYDATA=(XY..XY) 1 
    23          0
    25          0
    26          1
    27         38
    28          4
    29         12
    30          0
    32          0
    34          0
    35          0
    37          0
    38          2
    39         40
    40          4
    41         22
    42          1
    43          1
    44          8
    45          0
    48          0
    49          0
    50          9
    51         37
    52          8
    53         11
    54          1
    55          5
    56          2
    57          2
    58          2
    59          2
    60          1
    61          0
    62          2
    63         10
    64          4
    65         14
    66          1
    67          2
    68          2
    69          2
    70          1
    71          1
    72          0
    73          0
    74          2
    75          6
    76          5
    77         98
    78         22
    79         88
    80          6
    81          0
    86          0
    87          2
    88          0
    89          4
    90          1
    91         23
    92          2
    93          0
    98          0
    99          0
   101          7
   102          8
   103         51
   104         26
   105        999
   106         90
   107          3
   113          0
   114          0
   115         12
   116          3
   117          6
   118         36
   119          3
   125          0
   126          0
   127          4
   128         13
   129          7
   130          2
   131          1
   132          0
   139          0
   140          0
   141          4
   142          3
   143          9
   144          1
   145          5
   146          0
   152          0
   153          0
   154          0
   155          0
   156          2
   157          1
   158          1
   159          0
   160         13
   161          1