##TITLE=Library Entry 47492
##JCAMP-DX=Revision 4.10 
##DATA TYPE=MASS SPECTRUM
##SAMPLE DESCRIPTION=NIST Mass Spectrometry Data Center, 2010
##NAMES=HP
##CAS NAME=Trifluoroethanol, TMS derivative
##MOLFORM=C5H11F3OSi
##CAS REGISTRY NO=56859-55-3
##MP= -300
##BP= -300
##MW= 172
##$RETENTION INDEX=0
##$CONDENSED SPECTRUM=NO
##NPOINTS= 65
##XYDATA=(XY..XY) 1 
    26          1
    27          4
    28          3
    29         22
    30          2
    31          4
    33         54
    34          1
    39          1
    41          2
    42         14
    43         45
    44         14
    45         42
    46          3
    47         48
    48          3
    49         39
    50          3
    51          5
    53          6
    54          2
    55          8
    56          2
    57          5
    58         18
    59         12
    60          2
    61        114
    62          8
    63         56
    64         12
    65          4
    66          1
    67          2
    69         18
    70          2
    71          2
    72          5
    73        135
    74         12
    75          7
    76         18
    77        999
    78         72
    79         40
    80          2
    81         23
    82          2
    83          2
    85          1
    88          3
    89          1
    91          4
    92          1
    93          1
   103          5
   107         59
   108          5
   109          2
   111          1
   156          9
   157        192
   158         18
   159          7