##TITLE=Library Entry 32653
##JCAMP-DX=Revision 4.10 
##DATA TYPE=MASS SPECTRUM
##SAMPLE DESCRIPTION=NIST Mass Spectrometry Data Center, 1990.
##NAMES=HP
##CAS NAME=Cyclopropane, 1,1'-methylenebis-
##MOLFORM=C7H12
##CAS REGISTRY NO=5685-47-2
##MP= -300
##BP= -300
##MW= 96
##$RETENTION INDEX=732
##$CONDENSED SPECTRUM=NO
##NPOINTS= 21
##XYDATA=(XY..XY) 1 
    26         37
    27        215
    28        100
    29        129
    38         48
    39        413
    40        115
    41        209
    42         55
    50         42
    51         55
    53        289
    54        199
    55        368
    65         52
    67        999
    68        967
    69         52
    77         29
    79         46
    81        109