##TITLE=Library Entry 63905
##JCAMP-DX=Revision 4.10 
##DATA TYPE=MASS SPECTRUM
##SAMPLE DESCRIPTION=Chemical Concepts
##NAMES=HP
##CAS NAME=N-Benzyloxycarbonylglutamic acid, 4-methoxycarbonyl-, dimethyl es
ter
##MOLFORM=C17H21NO8
##CAS REGISTRY NO=56877-39-5
##MP= -300
##BP= -300
##MW= 367
##$RETENTION INDEX=0
##$CONDENSED SPECTRUM=NO
##NPOINTS= 247
##XYDATA=(XY..XY) 1 
    26          1
    27         19
    29         18
    30          3
    31          7
    32          2
    33          6
    38          2
    39         34
    40          4
    41         26
    42         10
    43          9
    44          3
    45         26
    46          0
    47          1
    50          4
    51         15
    52          6
    53          6
    54         10
    55         67
    56          6
    57         10
    58          3
    59         59
    60          4
    61          0
    62          1
    63         12
    64          5
    65         91
    66          6
    67          1
    68          5
    69         20
    70          3
    71          6
    72          1
    73          2
    74          4
    75          5
    76          1
    77         23
    78          5
    79         26
    80          4
    81          2
    82         24
    83          9
    84          2
    85          9
    86          5
    87         21
    88          7
    89         22
    90         25
    91        999
    92        109
    93          4
    94          0
    95          2
    96          3
    97          2
    98         12
    99          6
   100         18
   101         18
   102          2
   103          0
   104          3
   105          7
   106          3
   107         42
   108        135
   109         14
   110         20
   111          2
   112          7
   113         39
   114         19
   115         14
   116          2
   117          1
   118          1
   119          0
   120          0
   121          2
   122          1
   123          0
   124          6
   125          3
   126          7
   127          2
   128          1
   129         26
   130          3
   131          1
   132         54
   133          4
   134          1
   135          0
   136          2
   137          0
   138          1
   139          0
   140         26
   141          9
   142         27
   143          3
   144          4
   145         30
   146          5
   147          1
   148          0
   149         10
   150          1
   151          0
   152          1
   153          8
   154          2
   155          0
   156          8
   157         18
   158          8
   159          2
   160          0
   161          0
   162          1
   163          0
   164          0
   165          1
   166          0
   167          0
   168         29
   169          5
   170          2
   171          1
   172         33
   173          6
   174         13
   175          3
   176          1
   177          0
   178          1
   179          0
   180          0
   181          4
   182          1
   183          0
   184          4
   185          4
   186          3
   187          5
   188          2
   189         14
   190          1
   191          0
   192          0
   193          0
   194          0
   195          0
   196          0
   197          1
   198          0
   199          1
   200        133
   201         28
   202          7
   203          1
   204          9
   205          2
   206          0
   207          0
   208          0
   209          0
   210          0
   211          1
   212          1
   213          8
   214          2
   215          1
   216          5
   217          1
   218          1
   219          0
   220          0
   221          0
   222          0
   223          0
   224          0
   225          1
   226          0
   227          0
   228          1
   229          3
   230          1
   231          0
   232        169
   233         23
   234          3
   235          0
   236          1
   240          1
   241          0
   242          0
   243          1
   244          6
   245          5
   246          2
   247          4
   248          0
   257          1
   258          0
   259          1
   260         24
   261          2
   262          0
   264        137
   265         22
   266          2
   267          0
   274          0
   275          0
   276          0
   277          0
   278          2
   279          0
   289          1
   290          0
   291          1
   292         12
   293          2
   308        138
   309         24
   310          3
   311          0
   322          2
   323          0
   324          3
   331          0
   335          4
   336          1
   367         27
   368         11
   369          1