##TITLE=Library Entry 16439
##JCAMP-DX=Revision 4.10 
##DATA TYPE=MASS SPECTRUM
##SAMPLE DESCRIPTION=Darrick Lee, Cayman Chemical, Ann Arbor, MI
##NAMES=HP
##CAS NAME=.alpha.-Methyl-3,4,5-trimethoxyphenethylamine hydrochloride
##MOLFORM=C12H19NO3
##CAS REGISTRY NO=5688-80-2
##MP= -300
##BP= -300
##MW= 225
##$RETENTION INDEX=0
##$CONDENSED SPECTRUM=NO
##NPOINTS= 117
##XYDATA=(XY..XY) 1 
    40          5
    41         15
    42         50
    44        999
    45         30
    47          2
    48          3
    50         10
    51         25
    52         34
    53         32
    54          6
    55          7
    56          3
    57          7
    58          1
    59          1
    61          2
    62          5
    63         21
    64         16
    65         36
    66         20
    67         15
    68          6
    69          8
    70          1
    71          1
    74          2
    75          6
    76          9
    77         48
    78         37
    79         38
    80         38
    81         14
    82          5
    83          2
    85          2
    86          1
    87          1
    89         16
    90         24
    91         28
    92         16
    93         18
    94         13
    95         24
    96          6
    97          4
    99          1
   102          1
   103          3
   104          9
   105         19
   106         23
   107         34
   108         13
   109         20
   110          6
   111          1
   115          2
   116          1
   117          2
   118          6
   119          4
   120         13
   121         21
   122         15
   123         18
   124         18
   125          7
   130          1
   131          1
   132          3
   133          5
   134          6
   135         10
   136         37
   137         25
   138         14
   139         42
   140          4
   146          1
   148         44
   149         10
   151         44
   152         10
   153          9
   154          1
   161          2
   162          2
   163          3
   164          5
   165          9
   167        150
   168         19
   169          1
   176          2
   177          1
   178          4
   179          3
   181        105
   182        460
   183         52
   184          6
   192          1
   193          3
   194          4
   195          1
   208          4
   209          3
   210          3
   223          2
   224          2
   225          5
   226          1