##TITLE=Library Entry 35391
##JCAMP-DX=Revision 4.10 
##DATA TYPE=MASS SPECTRUM
##SAMPLE DESCRIPTION=Chemical Concepts
##NAMES=HP
##CAS NAME=4,9,13,17-Tetramethyl-4,8,12,16-octadecatetraenal
##MOLFORM=C22H36O
##CAS REGISTRY NO=56882-09-8
##MP= -300
##BP= -300
##MW= 316
##$RETENTION INDEX=0
##$CONDENSED SPECTRUM=NO
##NPOINTS= 210
##XYDATA=(XY..XY) 1 
    25          0
    26          0
    27         40
    28          6
    29         65
    30          0
    31          7
    37          1
    38          1
    39         47
    40         19
    41        435
    42         28
    43         86
    44          3
    45          3
    48          2
    49          0
    50          1
    51          6
    52          4
    53         81
    54         10
    55        216
    56         14
    57         30
    58          2
    59          1
    62          1
    63          2
    64          1
    65         19
    66         14
    67        125
    68        148
    69        999
    70         70
    71         16
    72          1
    73          2
    74          0
    75          2
    76          1
    77         55
    78         14
    79         61
    80         28
    81        517
    82         92
    83         61
    84          5
    85         28
    86          2
    87          0
    88          1
    89          2
    90          1
    91         56
    92         20
    93        254
    94         42
    95        133
    96         18
    97         17
    98          2
    99          5
   100          1
   101          3
   102          1
   103          4
   104          3
   105         35
   106         12
   107         66
   108         20
   109         69
   110         13
   111        135
   112         15
   113          4
   114          1
   115          2
   116          1
   117          4
   118          2
   119         26
   120          9
   121         96
   122         27
   123         89
   124         45
   125          9
   126          1
   127          0
   128          4
   129          2
   130          1
   131          4
   132          3
   133         15
   134         15
   135         54
   136        149
   137        173
   138         21
   139          2
   140          1
   141          1
   142          1
   143          1
   144          1
   145          7
   146          2
   147         21
   148         10
   149         53
   150         12
   151          3
   152          1
   153          1
   157          1
   158          0
   159          9
   160          2
   161         19
   162          5
   163         12
   164          3
   165          2
   166          1
   171          1
   172          1
   173          9
   174          3
   175          7
   176          2
   177         16
   178          4
   179          4
   180          0
   181          0
   182          0
   185          1
   186          1
   187          7
   188          2
   189         11
   190          5
   191         38
   192         58
   193         10
   194          1
   195          1
   196          0
   200          0
   201          2
   202          0
   203          9
   204          4
   205         29
   206          7
   207          2
   208          1
   213          1
   214          1
   215          1
   216          2
   217          3
   218          2
   219          3
   220          1
   229         13
   230          3
   231          8
   232          3
   233          3
   234          5
   235          1
   236          0
   243          0
   244          0
   245          3
   246          1
   247         41
   248          8
   249          1
   255          1
   256          0
   257          1
   258          0
   259          2
   260          2
   261          0
   262          1
   272          2
   273         16
   274          3
   275          0
   276          0
   277          0
   288          3
   298          0
   299          0
   300          0
   301          3
   302          0
   315          0
   316         32
   317          8
   318          1