##TITLE=Library Entry 57941
##JCAMP-DX=Revision 4.10 
##DATA TYPE=MASS SPECTRUM
##SAMPLE DESCRIPTION=Chemical Concepts
##NAMES=HP
##CAS NAME=2-Methylnonanoic acid, methyl ester
##MOLFORM=C11H22O2
##CAS REGISTRY NO=56898-37-4
##MP= -300
##BP= -300
##MW= 186
##$RETENTION INDEX=1192
##$CONDENSED SPECTRUM=NO
##NPOINTS= 81
##XYDATA=(XY..XY) 1 
    25          5
    26         11
    27         92
    28          1
    29          0
    30          5
    31          5
    33          5
    37          5
    38          5
    39         86
    40         80
    41        196
    42         72
    43        184
    44         11
    45         11
    50          5
    51          5
    53         17
    54          5
    55         98
    56         34
    57         57
    59         80
    60          5
    61          5
    62          5
    63          5
    66          5
    67          5
    68          5
    69         34
    70          5
    71         28
    72          5
    73         17
    74          5
    75          5
    77          5
    80          5
    81          5
    82          5
    83         17
    84          5
    85         14
    86          5
    87         52
    88        999
    89         46
    90          5
    93          5
    94          5
    95          5
    96          5
    97          5
    99          5
   100          5
   101        236
   102         23
   103          5
   112          5
   113          5
   114          5
   115         23
   116          5
   126          5
   127          5
   128          5
   129         23
   130          5
   143         46
   144          5
   153          5
   154          5
   155         40
   157         17
   158          5
   171          5
   172          5
   186         28