##TITLE=Library Entry 73727
##JCAMP-DX=Revision 4.10 
##DATA TYPE=MASS SPECTRUM
##SAMPLE DESCRIPTION=Chemical Concepts
##NAMES=HP
##CAS NAME=2-Nonenoic acid, 2-methyl-, methyl ester
##MOLFORM=C11H20O2
##CAS REGISTRY NO=56898-36-3
##MP= -300
##BP= -300
##MW= 184
##$RETENTION INDEX=0
##$CONDENSED SPECTRUM=NO
##NPOINTS= 106
##XYDATA=(XY..XY) 1 
    23          4
    24          3
    25          1
    26         40
    27        546
    28        174
    29        574
    30         14
    31         26
    33         10
    35          3
    36          7
    37         12
    38         27
    39        546
    40         33
    41        899
    42        225
    43        622
    44          3
    45         93
    46          3
    47          3
    49          0
    50         31
    51         53
    52         34
    53        296
    54        177
    55        799
    56        204
    57        123
    58         19
    59        301
    60          8
    62          4
    63         14
    64          5
    65         51
    66         28
    67        281
    68         88
    69        551
    70         44
    71         88
    72         14
    73        165
    74         15
    75          2
    77         32
    78          5
    79         57
    80         13
    81        166
    82        217
    83        229
    84         43
    85         71
    86          6
    87         42
    88        795
    89         23
    91         15
    93         11
    94         36
    95        211
    96         76
    97        101
    98         32
    99        117
   100          9
   101        999
   102         71
   103          8
   107          5
   109         42
   110         89
   111         20
   112          8
   113         63
   114         94
   115         47
   116          9
   121          2
   123         35
   124         36
   125         30
   126          4
   127        329
   128         42
   129          7
   130          1
   134          4
   137          7
   139          4
   141         17
   142          5
   144          3
   152        102
   153        134
   154         15
   169          5
   172          2
   178          2
   184         97
   185          8