##TITLE=Library Entry 36901
##JCAMP-DX=Revision 4.10 
##DATA TYPE=MASS SPECTRUM
##SAMPLE DESCRIPTION=W.A.KONIG TUBINGEN UNIV., TUBINGEN, GERMANY, F.R.G
##NAMES=HP
##CAS NAME=D-Glucose, 4-O-[2,3,4,6-tetrakis-O-(trifluoroacetyl)-.beta.-D-gal
actopyranosyl]-, 2,3,5,6-tetrakis(trifluoroacetate)
##MOLFORM=C28H14F24O19
##CAS REGISTRY NO=56890-07-4
##MP= -300
##BP= -300
##MW= 1110
##$RETENTION INDEX=0
##$CONDENSED SPECTRUM=NO
##NPOINTS= 146
##XYDATA=(XY..XY) 1 
    40         20
    41         60
    42         26
    43        170
    44        400
    45        360
    47         20
    49         30
    50        150
    51        230
    52         80
    53        140
    54         20
    55         90
    56         30
    57         20
    58         20
    59         60
    65         70
    66         10
    67         25
    68         20
    69        999
    70         35
    71         35
    73         35
    74         18
    75         10
    77         30
    78         50
    79        110
    80         30
    81        330
    82         30
    83         90
    84         15
    85         20
    86         15
    87         20
    89         20
    91         15
    93         75
    94         15
    95         55
    97        275
    98         10
    99         80
   103         20
   109        190
   110         20
   111         10
   112         20
   113         15
   115         25
   117         20
   124         20
   125         45
   127         95
   128         10
   139         40
   140         15
   141         10
   143         25
   149        180
   150         40
   151         10
   152         40
   153        110
   154         10
   155         60
   156         10
   157         25
   162         30
   165         40
   166         90
   167         60
   169        120
   177        430
   178         55
   179         20
   180         15
   181         40
   182         20
   183         30
   193        200
   194         70
   195         25
   196         30
   197         15
   205         40
   206         30
   207         60
   208          5
   209         15
   221         70
   222         15
   223         40
   224         10
   225         10
   235         10
   237         10
   248         25
   252         80
   253         25
   262         20
   263         10
   265        145
   266         30
   278         15
   279         20
   290         50
   291        110
   292         40
   293         20
   305         10
   319        900
   320        110
   321         25
   337         15
   349         10
   404        185
   405        135
   406         20
   407         15
   413         35
   414         10
   433         20
   479         18
   547        235
   548         50
   549         10
   641         25
   655          2
   755          8
   769         30
   770         10
   864         17
   865          6
   882          6
   883         35
   884          8
   977          3
   996         15
   997         20
  1091          5
  1110          1