##TITLE=Library Entry 67348
##JCAMP-DX=Revision 4.10 
##DATA TYPE=MASS SPECTRUM
##SAMPLE DESCRIPTION=D. GAMES, M. HEWLINS, A. JACKSON, CHEM DEPT, UNIV COLL,
 CARDIFF, U.K.
##NAMES=HP
##CAS NAME=Pyrrole, 4-ethyl-2-methyl-
##MOLFORM=C7H11N
##CAS REGISTRY NO=5690-96-0
##MP= -300
##BP= -300
##MW= 109
##$RETENTION INDEX=951
##$CONDENSED SPECTRUM=NO
##NPOINTS= 23
##XYDATA=(XY..XY) 1 
    47         15
    51         13
    52         21
    53        105
    54         22
    65         37
    66         29
    67        120
    68          9
    77         46
    78         15
    79         30
    80         41
    81         20
    92         13
    93        110
    94        999
    95         49
   106         30
   107         19
   108         83
   109        521
   110         42