##TITLE=Library Entry 333
##JCAMP-DX=Revision 4.10 
##DATA TYPE=MASS SPECTRUM
##SAMPLE DESCRIPTION=D.HENNEBERG, MAX-PLANCK INSTITUTE, MULHEIM, WEST GERMAN
Y
##NAMES=HP
##CAS NAME=Iron, decacarbonyl(ethyne)tri-
##MOLFORM=C12H2Fe3O10
##CAS REGISTRY NO=56902-53-5
##MP= -300
##BP= -300
##MW= 474
##$RETENTION INDEX=0
##$CONDENSED SPECTRUM=NO
##NPOINTS= 190
##XYDATA=(XY..XY) 1 
    27          2
    28        999
    29         11
    30          1
    31          2
    32          1
    39          1
    40          0
    41          6
    42          1
    43          9
    44          4
    45          0
    50          0
    51          0
    52          0
    53          0
    54          1
    55          7
    56         25
    57         12
    58          0
    59          0
    65          0
    66          0
    67          2
    68          1
    69          6
    70          2
    71          7
    72          0
    73          2
    77          0
    78          0
    79          1
    80          0
    81         11
    82          3
    83          4
    84          8
    85          4
    91          0
    92          0
    93          1
    94          1
    95          2
    96          1
    97          4
    98          1
    99          1
   105          0
   106          0
   107          0
   108          0
   109          1
   110          4
   111          2
   112         34
   113          2
   114          0
   115          0
   119          0
   121          0
   123          1
   124          2
   125          3
   126          0
   127          1
   128          0
   131          0
   133          0
   134          1
   135          3
   136         12
   137         22
   138         11
   139          4
   140          1
   141          0
   145          0
   147          1
   148          0
   149          1
   150          0
   151          0
   152          0
   153          2
   154          0
   155          0
   162          0
   163          0
   164          2
   165          0
   166          7
   167          1
   168         32
   169          2
   170          0
   179          0
   180          0
   181          0
   190          2
   191          1
   192         16
   193          7
   194         40
   195          9
   196          2
   197          0
   205          1
   206          0
   207          0
   209          0
   216          0
   218          1
   219          0
   220          7
   221          2
   222         33
   223          8
   224          3
   225          0
   230          0
   246          0
   248          5
   249          1
   250         24
   251          6
   252          2
   253          0
   274          0
   276          5
   277          1
   278         23
   279          6
   280          2
   281          0
   282          0
   302          0
   303          0
   304          8
   305          2
   306         45
   307         13
   308          3
   309          0
   310          0
   330          0
   332          8
   333          2
   334         41
   335         12
   336          4
   337          0
   338          1
   340          0
   355          0
   358          0
   360          3
   361          1
   362         17
   363          4
   364          2
   365          0
   366          0
   388          1
   389          0
   390          7
   391          2
   392          1
   393          0
   394          0
   416          1
   417          0
   418          7
   419          2
   420          1
   422          0
   429          0
   442          0
   444          3
   445          1
   446         17
   447          5
   448          2
   449          0
   472          1
   473          0
   474         10
   475          3