##TITLE=Library Entry 22235
##JCAMP-DX=Revision 4.10 
##DATA TYPE=MASS SPECTRUM
##SAMPLE DESCRIPTION=P. Vainiotalo, Dep. Chem., Univ. Joensuu, Joensuu, Finl
and
##NAMES=HP
##CAS NAME=Cyclohexanecarboxylic acid, 2-amino-, cis-
##MOLFORM=C7H13NO2
##CAS REGISTRY NO=5691-20-3
##MP= -300
##BP= -300
##MW= 143
##$RETENTION INDEX=0
##$CONDENSED SPECTRUM=NO
##NPOINTS= 43
##XYDATA=(XY..XY) 1 
    15         10
    26          5
    27         42
    29         26
    30         83
    39         35
    40          7
    41         54
    42         38
    43        263
    44         17
    45          7
    51          6
    53         17
    54         44
    55         30
    56        999
    57         55
    66          5
    67         47
    68         12
    69         47
    70         72
    71          9
    73          6
    77          7
    79         14
    80          8
    81         29
    82         76
    83         97
    84         13
    87         17
    96         13
    97          6
    98          9
   100        113
   101          7
   114          9
   126          6
   142          3
   143         88
   144         14