##TITLE=Library Entry 22649
##JCAMP-DX=Revision 4.10 
##DATA TYPE=MASS SPECTRUM
##SAMPLE DESCRIPTION=P. Vainiotalo, Dep. Chem., Univ. Joensuu, Joensuu, Finl
and
##NAMES=HP
##CAS NAME=Cyclohexanemethanol, 2-amino-, trans-
##MOLFORM=C7H15NO
##CAS REGISTRY NO=5691-21-4
##MP= -300
##BP= -300
##MW= 129
##$RETENTION INDEX=0
##$CONDENSED SPECTRUM=NO
##NPOINTS= 58
##XYDATA=(XY..XY) 1 
    14          9
    15          9
    16          7
    17        139
    26          5
    27         44
    29         40
    30        186
    31         24
    39         44
    41        102
    42         44
    43        192
    44         56
    45         17
    51          7
    52          6
    53         23
    54         43
    55         44
    56        999
    57         67
    58          5
    65          7
    66          7
    67         66
    68         65
    69         35
    70         79
    71          8
    72         44
    73         14
    77         14
    79         31
    80         10
    81         34
    82         37
    83         14
    84         12
    85         10
    86        243
    87         13
    91          6
    93         10
    94         20
    95         17
    96         11
    97          6
    98         49
    99         20
   100         22
   110          7
   111          4
   112         32
   113          3
   128          7
   129        101
   130         12