##TITLE=Library Entry 22648
##JCAMP-DX=Revision 4.10 
##DATA TYPE=MASS SPECTRUM
##SAMPLE DESCRIPTION=P. Vainiotalo, Dep. Chem., Univ. Joensuu, Joensuu, Finl
and
##NAMES=HP
##CAS NAME=Cyclohexanemethanol, 2-amino-, cis-
##MOLFORM=C7H15NO
##CAS REGISTRY NO=5691-15-6
##MP= -300
##BP= -300
##MW= 129
##$RETENTION INDEX=0
##$CONDENSED SPECTRUM=NO
##NPOINTS= 55
##XYDATA=(XY..XY) 1 
    15          8
    17         48
    27         40
    29         35
    30        175
    31         21
    39         39
    41         95
    42         43
    43        177
    44         70
    45         15
    51          7
    52          6
    53         24
    54         47
    55         47
    56        999
    57         74
    58          6
    65          8
    66          8
    67         78
    68         73
    69         37
    70        108
    71         10
    72         50
    73         16
    77         15
    79         36
    80         11
    81         41
    82         46
    83         17
    84         16
    85         13
    86        292
    87         16
    91          7
    93         11
    94         23
    95         23
    96         15
    97          8
    98         63
    99         23
   100         33
   110         10
   111          6
   112         44
   113          5
   128          9
   129        123
   130         16