##TITLE=Library Entry 5678
##JCAMP-DX=Revision 4.10 
##DATA TYPE=MASS SPECTRUM
##SAMPLE DESCRIPTION=Chemical Concepts
##NAMES=HP
##CAS NAME=Diundecyl 1,4-dihydro-2,6-dimethyl-3,5-pyridinedicarboxylate
##MOLFORM=C31H55NO4
##CAS REGISTRY NO=56912-23-3
##MP= -300
##BP= -300
##MW= 505
##$RETENTION INDEX=0
##$CONDENSED SPECTRUM=NO
##NPOINTS= 230
##XYDATA=(XY..XY) 1 
    34         52
    35         10
    36         26
    38         38
    39        125
    40        825
    41        670
    42        215
    43        999
    44        261
    45          7
    47          4
    48          3
    50          9
    51         17
    52         14
    53         46
    55        543
    56        158
    57        473
    58         18
    60          5
    61          3
    62          3
    63         16
    64         18
    65         22
    66         27
    67         87
    68         46
    69        230
    70        109
    71        120
    72          9
    73          9
    74          2
    75          2
    76          5
    77         31
    78         14
    79         36
    81         49
    82         36
    83        111
    84         47
    85         43
    86          6
    87          4
    89          2
    91          9
    92         13
    93         14
    94         12
    95         21
    96         30
    97         49
    98         16
    99          9
   100          2
   101          3
   102          1
   103          5
   104         17
   105         29
   106         58
   107        115
   108         29
   109         10
   110         14
   111         20
   112         27
   113         11
   114          8
   115          5
   117          2
   118          2
   119          8
   120          6
   121         14
   122          9
   123          4
   124          5
   125          6
   126          7
   127          3
   128          3
   129          7
   130          3
   131          4
   132         10
   133         33
   134         45
   135         62
   136         18
   137          5
   138          8
   139          2
   140          2
   141          2
   142          1
   143          3
   144          4
   145          2
   146          1
   147          9
   148         10
   149         28
   150         65
   151        120
   152        145
   153         16
   154         11
   156          3
   157          3
   158          1
   159          2
   160          7
   162         23
   163          5
   164          8
   165          9
   166          5
   168          2
   169          2
   171         37
   172          5
   174          2
   176          6
   178         87
   179         34
   180         90
   181         11
   182          7
   183          1
   189          3
   190          2
   191          4
   192          6
   193         12
   194         17
   195         65
   196        298
   197         29
   198          5
   199          1
   205          7
   206         10
   207         15
   208          5
   215          8
   216          2
   220         10
   221          4
   222          2
   224          2
   233          1
   234         10
   235          4
   236          5
   237          3
   238          2
   241          1
   244          2
   246          3
   248          8
   249          4
   250          9
   251          3
   252          1
   256          2
   262          9
   263          3
   264          9
   265          2
   267          1
   271          3
   272          2
   276          8
   277          2
   278          9
   279          1
   280          2
   281          2
   282          1
   283          5
   284          2
   290          7
   291          2
   292          9
   293          1
   301          3
   302          2
   304         10
   305         25
   306         16
   307          4
   308          8
   309          3
   318          2
   319          3
   320          4
   330          3
   332         39
   333         16
   334         76
   335         18
   336          8
   345          4
   346          9
   347         12
   348         27
   350        582
   351        116
   352         20
   353          3
   404          6
   405          1
   418          6
   432          6
   444          2
   446          4
   460          3
   474          2
   488          2
   503         10
   504         11
   505          9
   506          3
   507          3
   508          1