##TITLE=Library Entry 66742
##JCAMP-DX=Revision 4.10 
##DATA TYPE=MASS SPECTRUM
##SAMPLE DESCRIPTION=ORMSBG,10(9)761(1975); D. V. RAMANA
##NAMES=HP
##CAS NAME=2-Stilbazole, 2'-hydroxydihydro-
##MOLFORM=C13H13NO
##CAS REGISTRY NO=56920-35-5
##MP= -300
##BP= -300
##MW= 199
##$RETENTION INDEX=0
##$CONDENSED SPECTRUM=NO
##NPOINTS= 17
##XYDATA=(XY..XY) 1 
    39         40
    51         40
    52         30
    65         40
    66         40
    77         70
    78         50
    79         60
    92         30
    93        999
    94         70
   106         80
   107         50
   182         70
   198         50
   199        260
   200         40