##TITLE=Library Entry 52401
##JCAMP-DX=Revision 4.10 
##DATA TYPE=MASS SPECTRUM
##SAMPLE DESCRIPTION=V.G.Zaikin, TIPS RAS, Moscow, Russia
##NAMES=HP
##CAS NAME=2-Butenoic acid, 3-methyl-, 3-methylbutyl ester
##MOLFORM=C10H18O2
##CAS REGISTRY NO=56922-73-7
##MP= -300
##BP= -300
##MW= 170
##$RETENTION INDEX=1184
##$CONDENSED SPECTRUM=NO
##NPOINTS= 46
##XYDATA=(XY..XY) 1 
    26         28
    27        205
    28         53
    29        218
    30         13
    31         13
    37         17
    38         31
    39        248
    40         48
    41        181
    42         65
    43        269
    44         61
    45         23
    49          6
    50         33
    51         48
    52         19
    53         97
    54         39
    55        349
    56         37
    57         21
    59         18
    67         29
    69         23
    70        156
    71        147
    72          8
    74          6
    79         12
    82        108
    83        999
    84         59
    85         56
    86          7
    91          7
    92          7
   100        329
   101        168
   102          7
   113          9
   170         44
   171          7
   172          1