##TITLE=Library Entry 38465
##JCAMP-DX=Revision 4.10 
##DATA TYPE=MASS SPECTRUM
##SAMPLE DESCRIPTION=FOOD RESEARCH REPORT 120, K.E. MURRAY & COLLEAGUES, DIV
. OF FOOD RESEARCH, CSIRO, AUSTRALIA
##NAMES=HP
##CAS NAME=Butanoic acid, 2-hexenyl ester, (Z)-
##MOLFORM=C10H18O2
##CAS REGISTRY NO=56922-77-1
##MP= -300
##BP= -300
##MW= 170
##$RETENTION INDEX=0
##$CONDENSED SPECTRUM=NO
##NPOINTS= 44
##XYDATA=(XY..XY) 1 
    26         40
    27        390
    29        140
    31         10
    37         10
    38         30
    39        360
    40         60
    41        600
    42        110
    43        690
    45         20
    50         30
    51         40
    52         30
    53        110
    54        170
    55        290
    56         50
    57         70
    60         60
    63         10
    65         40
    66         20
    67        690
    68         50
    69         10
    70         10
    71        999
    72         60
    73         30
    77         20
    79         30
    81         70
    82        290
    83         90
    84         10
    89         40
    99         30
   100         40
   127         10
   128         10
   141         10
   170         10