##TITLE=Library Entry 52977
##JCAMP-DX=Revision 4.10 
##DATA TYPE=MASS SPECTRUM
##SAMPLE DESCRIPTION=V.G.Zaikin, TIPS RAS, Moscow, Russia
##NAMES=HP
##CAS NAME=2-Butenoic acid, 3-methyl-, pentyl ester
##MOLFORM=C10H18O2
##CAS REGISTRY NO=56922-72-6
##MP= -300
##BP= -300
##MW= 170
##$RETENTION INDEX=1179
##$CONDENSED SPECTRUM=NO
##NPOINTS= 58
##XYDATA=(XY..XY) 1 
    25          5
    26         46
    27        433
    28         70
    29        535
    30         19
    31         17
    35          3
    36         11
    37         18
    38         53
    39        426
    40         85
    41        331
    42        129
    43        384
    44         52
    45         17
    49          7
    50         39
    51         56
    52         23
    53        149
    54         71
    55        551
    56         57
    57         28
    58          7
    59         39
    60          3
    65          6
    66          9
    67         39
    68          9
    69         29
    70         42
    71         48
    72          7
    77          2
    79          7
    81          7
    82        225
    83        999
    84         64
    85        105
    86          3
    91          3
    93          3
    98          3
    99          5
   100        658
   101        215
   102         19
   113          3
   127          3
   155          4
   170         37
   171          7