##TITLE=Library Entry 54936
##JCAMP-DX=Revision 4.10 
##DATA TYPE=MASS SPECTRUM
##SAMPLE DESCRIPTION=Chemical Concepts
##NAMES=HP
##CAS NAME=trans-2-Hexenyl valerate
##MOLFORM=C11H20O2
##CAS REGISTRY NO=56922-74-8
##MP= -300
##BP= -300
##MW= 184
##$RETENTION INDEX=1299
##$CONDENSED SPECTRUM=NO
##NPOINTS= 85
##XYDATA=(XY..XY) 1 
    25          0
    26         10
    27        131
    28         51
    29        221
    30          5
    31          6
    37          2
    38          4
    39        123
    40         16
    41        379
    42         53
    43         53
    44          5
    45          7
    49          0
    50          4
    51          9
    52          6
    53         42
    54         84
    55        322
    56         67
    57        636
    58         30
    59          7
    60         25
    61          7
    62          1
    63          1
    65         11
    66          6
    67        280
    68         17
    69         16
    70          5
    71          8
    72          5
    73         14
    74          2
    75         10
    77          4
    78          0
    79          9
    80          2
    81         33
    82        194
    83        116
    84         29
    85        999
    86         59
    87          6
    91          1
    92          0
    95          2
    96          1
    97          1
    98          6
    99         38
   100         72
   101         13
   102          9
   103         39
   104          2
   109          1
   111          1
   113          6
   114          6
   115          1
   124          2
   125          0
   127          9
   128          2
   129          2
   137          0
   140          2
   141          3
   142         27
   143          3
   155         32
   156          4
   169          1
   184         16
   185          2