##TITLE=Library Entry 52966
##JCAMP-DX=Revision 4.10 
##DATA TYPE=MASS SPECTRUM
##SAMPLE DESCRIPTION=V.G.Zaikin,TIPS,Russian Acad.Sci.Moscow
##NAMES=HP
##CAS NAME=3-Methyl-2-butenoic acid, propyl ester
##MOLFORM=C8H14O2
##CAS REGISTRY NO=56922-71-5
##MP= -300
##BP= -300
##MW= 142
##$RETENTION INDEX=995
##$CONDENSED SPECTRUM=NO
##NPOINTS= 56
##XYDATA=(XY..XY) 1 
    25         12
    26        103
    27        505
    28         44
    29        501
    30         13
    31         29
    35         11
    36         75
    37         41
    38         98
    39        547
    40         79
    41        282
    42         72
    43        287
    44         35
    45         39
    46          2
    48          2
    49         29
    50        109
    51        158
    52        244
    53        165
    54        116
    55        538
    56         51
    57         29
    58         13
    59         49
    60         13
    61          1
    62          2
    66          6
    67         26
    68          2
    69         14
    71          4
    72          6
    77          6
    78         28
    79        181
    80         11
    82        245
    83        999
    84         65
    85        148
    86          2
   100        553
   101         95
   102          2
   113          2
   127          2
   142         99
   143         12