##TITLE=Library Entry 84793
##JCAMP-DX=Revision 4.10 
##DATA TYPE=MASS SPECTRUM
##SAMPLE DESCRIPTION=James Little,Eastman Chem.Co.,Kingsport,TN
##NAMES=HP
##CAS NAME=Picolinaldehyde, cyclic ethylene acetal
##MOLFORM=C8H9NO2
##CAS REGISTRY NO=5693-54-9
##MP= -300
##BP= -300
##MW= 151
##$RETENTION INDEX=0
##$CONDENSED SPECTRUM=NO
##NPOINTS= 32
##XYDATA=(XY..XY) 1 
    27         86
    28         76
    29         60
    38         42
    39         64
    43         32
    45        343
    50         52
    51        148
    52        143
    53         40
    63         57
    64         46
    65         45
    66         54
    73        690
    74         26
    77         10
    78        237
    79        156
    80         47
    91         10
    92         41
    93        169
    94         19
   106         26
   108        999
   109         74
   120          9
   122         13
   150          8
   151          3