##TITLE=Library Entry 36838
##JCAMP-DX=Revision 4.10 
##DATA TYPE=MASS SPECTRUM
##SAMPLE DESCRIPTION=NIST Mass Spectrometry Data Center, 2010
##NAMES=HP
##CAS NAME=D-Fructopyranose, pentakis(trifluoroacetate)
##MOLFORM=C16H7F15O11
##CAS REGISTRY NO=56942-38-2
##MP= -300
##BP= -300
##MW= 660
##$RETENTION INDEX=1162
##$CONDENSED SPECTRUM=NO
##NPOINTS= 185
##XYDATA=(XY..XY) 1 
    15          3
    20          1
    26          1
    27         20
    28         14
    29         38
    30          2
    31          9
    33          9
    38          1
    39         27
    40         11
    41         55
    42         31
    43         70
    44         13
    45         13
    46          3
    47          7
    49          1
    50         17
    51         24
    52          5
    53         36
    54         11
    55         46
    56          5
    57         20
    58          3
    59         50
    60          2
    61          2
    63          1
    64          1
    65         13
    66          2
    67         13
    68         24
    69        999
    70         16
    71         32
    72          3
    73          7
    75          1
    77          6
    78         29
    79          4
    80          5
    81         42
    82          4
    83         18
    84          2
    85          8
    86          1
    87         15
    88          1
    89         20
    90          2
    91          8
    92          1
    93          6
    94          4
    95         21
    96          2
    97        197
    98          6
    99        136
   100          3
   101          3
   103          4
   105          1
   107          1
   108          6
   109         91
   110          7
   111          5
   112         20
   113          5
   115         10
   117         22
   118          1
   119          1
   121          2
   123          5
   124          1
   125         31
   126          3
   127        270
   128          9
   129          2
   130          3
   131          1
   133          1
   135          7
   136          7
   137         41
   138          3
   139         38
   140         53
   141          4
   143          3
   145          4
   147          1
   149         13
   150          1
   151          4
   152          6
   153         91
   154          9
   155        167
   156          7
   157          2
   159          1
   163          2
   164          6
   165         73
   166         10
   167         51
   168          3
   169          7
   176          1
   177         10
   178          4
   179          1
   180          1
   181         24
   182         13
   183         17
   184          1
   185          1
   189          1
   193         31
   194          3
   195          2
   196         23
   197          2
   205          6
   206          5
   207         15
   208          2
   209         13
   210          1
   211          1
   221          8
   222          2
   223          7
   224          1
   225          1
   233          1
   237          2
   249          3
   252         21
   253          2
   263          1
   264          1
   265        142
   266         11
   267          2
   277         10
   278        309
   279         44
   280          5
   291          7
   292          1
   295          1
   305          7
   306          1
   317          1
   318          5
   319        197
   320         23
   321          4
   323          1
   336          1
   337          3
   385          1
   413         22
   414          3
   415          1
   432          1
   433         10
   434          1
   505          1
   533          2
   547          3