##TITLE=Library Entry 63352
##JCAMP-DX=Revision 4.10 
##DATA TYPE=MASS SPECTRUM
##SAMPLE DESCRIPTION=A.A.Kutin, Moscow, Russia
##NAMES=HP
##CAS NAME=4-Phenyl-morpholine-2,6-dione
##MOLFORM=C10H9NO3
##CAS REGISTRY NO=56956-66-2
##MP= -300
##BP= -300
##MW= 191
##$RETENTION INDEX=0
##$CONDENSED SPECTRUM=NO
##NPOINTS= 61
##XYDATA=(XY..XY) 1 
    33          0
    37          1
    38          6
    39         16
    40          8
    41         29
    42         86
    44          4
    45          1
    50         32
    51         72
    52         12
    53          1
    54          0
    55          0
    59          9
    60          0
    61          1
    62          6
    63         18
    64         10
    65         34
    66          2
    67          0
    74         25
    75         13
    77        213
    78         31
    79          2
    80          0
    85          0
    86          0
    87          1
    89         18
    91        999
    92         75
    93          3
    94          0
   102          1
   104        132
   105         69
   106          8
   107          1
   111          1
   112          0
   116          2
   117         20
   118         77
   119        379
   120         32
   121          1
   134          0
   146          1
   149          0
   163          7
   164          1
   165          0
   191        599
   192         61
   193          7
   194          0