##TITLE=Library Entry 58373
##JCAMP-DX=Revision 4.10 
##DATA TYPE=MASS SPECTRUM
##SAMPLE DESCRIPTION=Exported from NIST MS Search
##NAMES=HP
##CAS NAME=Silane, [(methylsilyl)methyl](silylmethyl)-
##MOLFORM=C3H14Si3
##CAS REGISTRY NO=5695-49-8
##MP= -300
##BP= -300
##MW= 134
##$RETENTION INDEX=0
##$CONDENSED SPECTRUM=NO
##NPOINTS= 53
##XYDATA=(XY..XY) 1 
    28         90
    29         80
    31         80
    41        300
    42         60
    43        599
    44         60
    45        230
    53         70
    55        110
    57         90
    58        150
    59        829
    69        380
    70        130
    71        210
    72        100
    73        170
    74        150
    75        120
    81         90
    82        130
    83        210
    84        100
    85        300
    86        430
    87        769
    88        320
    89        999
    90        130
    91         70
    97         50
    99        120
   100        220
   101        519
   102        110
   103         70
   113         70
   114         60
   115        100
   117        170
   119        629
   120        110
   121         70
   125         40
   127         40
   128         60
   129         90
   130        300
   131        250
   133        659
   134        140
   135         70