##TITLE=Library Entry 17336
##JCAMP-DX=Revision 4.10 
##DATA TYPE=MASS SPECTRUM
##SAMPLE DESCRIPTION=TNO Volatile Compounds in Food - Chemical Concepts
##NAMES=HP
##CAS NAME=2-Penten-4-yn-1-ol, 5-(methylthio)-, (E)-
##MOLFORM=C6H8OS
##CAS REGISTRY NO=56963-47-4
##MP= -300
##BP= -300
##MW= 128
##$RETENTION INDEX=0
##$CONDENSED SPECTRUM=NO
##NPOINTS= 90
##XYDATA=(XY..XY) 1 
    23         10
    24          6
    25         14
    26         40
    27        181
    28          3
    29        174
    30         18
    31        129
    33          5
    34         24
    35          1
    36         17
    37         73
    38        124
    39        578
    40          8
    41        254
    42         45
    43         25
    44         85
    45        999
    46         56
    47        131
    48         45
    49         41
    50         98
    51        152
    52         57
    53        360
    54         22
    55         97
    56         28
    57         46
    58        145
    59         91
    60         12
    61         40
    62         14
    63         31
    64          1
    65        118
    66         39
    67         23
    68         89
    69        972
    70        133
    71        167
    72        145
    73         15
    74         19
    75          2
    77         12
    78          9
    79         13
    80         13
    81        500
    82        262
    83        108
    84        156
    85        999
    86         79
    87         52
    88          6
    92          8
    93         46
    94         15
    95         81
    96        140
    97         47
    98         13
    99         36
   100          8
   101          4
   102          1
   109          5
   110          8
   111         84
   112         11
   113        435
   114         31
   115         18
   116          0
   124          0
   125          1
   127         31
   128        622
   129         44
   130         23
   131          0