##TITLE=Library Entry 25568
##JCAMP-DX=Revision 4.10 
##DATA TYPE=MASS SPECTRUM
##SAMPLE DESCRIPTION=J. Klune, Insect Chem. Ecol. Lab., USDA, Beltsville, MD
 20705
##NAMES=HP
##CAS NAME=13-Methylheptatriacontane
##MOLFORM=C38H78
##CAS REGISTRY NO=56987-87-2
##MP= -300
##BP= -300
##MW= 534
##$RETENTION INDEX=3726
##$CONDENSED SPECTRUM=NO
##NPOINTS= 134
##XYDATA=(XY..XY) 1 
    41        201
    42         65
    43        524
    44         18
    49         13
    54         31
    55        330
    56        189
    57        999
    58         42
    67         79
    68         61
    69        334
    70        175
    71        795
    72         42
    79         22
    81         89
    82         89
    83        312
    84        148
    85        644
    86         57
    91         53
    93         28
    95         87
    96         88
    97        318
    98         81
    99        195
   105         25
   107         21
   109         64
   110         45
   111        191
   112         71
   113        133
   121          6
   123         44
   124         35
   125        104
   126         50
   127        100
   135         12
   137         31
   138         24
   139         44
   140         38
   141         77
   147         12
   149         22
   151         25
   152         20
   153         28
   154         35
   155         59
   163         20
   165         23
   166          6
   167         26
   168        112
   169         59
   177         12
   179         13
   182         27
   183         41
   189          7
   191         22
   193         20
   194         23
   195         26
   196        776
   197        316
   198         40
   210         48
   211         45
   224         46
   225         43
   238         48
   239         46
   250         20
   251          6
   252        121
   253         75
   254         21
   266        121
   267        129
   268         29
   280         24
   281         30
   289          6
   294         40
   295         38
   308         49
   309         39
   322         87
   323        110
   324         45
   336        203
   337        151
   338         54
   351         21
   364        432
   365        423
   366        104
   367          6
   372         44
   374         14
   378         26
   379         23
   392         80
   393        118
   394         59
   406         21
   407         22
   421         22
   434         12
   435         23
   448          6
   449         24
   462          5
   463         26
   476          6
   477         26
   490         19
   491         35
   504         20
   505         54
   506         22
   519         71
   520         26
   532         21
   533         34
   534         35