##TITLE=Library Entry 25397
##JCAMP-DX=Revision 4.10 
##DATA TYPE=MASS SPECTRUM
##SAMPLE DESCRIPTION=J. Klune, Insect Chem. Ecol. Lab., USDA, Beltsville, MD
 20705
##NAMES=HP
##CAS NAME=11,15-Dimethylpentatriacontane
##MOLFORM=C37H76
##CAS REGISTRY NO=56987-84-9
##MP= -300
##BP= -300
##MW= 520
##$RETENTION INDEX=3549
##$CONDENSED SPECTRUM=NO
##NPOINTS= 206
##XYDATA=(XY..XY) 1 
    41        254
    42        105
    43        717
    44         23
    45          0
    47          1
    49          9
    50          0
    51          3
    53         12
    54          5
    55        351
    56        246
    57        999
    58         24
    59          0
    61          0
    65          2
    66          0
    67         39
    68         43
    69        245
    70        177
    71        722
    72         41
    73          0
    77          1
    79          5
    80          1
    81         28
    82         55
    83        191
    84        105
    85        569
    86         37
    87          0
    91          1
    93          1
    94          0
    95         17
    96         74
    97        203
    98         69
    99        192
   100         13
   101          0
   105          1
   108          0
   109          7
   110         20
   111         99
   112         57
   113        135
   114         10
   116          0
   119          1
   121          0
   123          4
   124         12
   125         51
   126        105
   127        101
   128          8
   133          0
   135          0
   137          2
   138          9
   139         23
   140         56
   141         60
   142          5
   147          0
   151          1
   152          5
   153         11
   154         15
   155         45
   156          5
   165          0
   166         20
   167         42
   168        507
   169        172
   170         17
   171          1
   175          0
   180          4
   181          7
   182         33
   183         37
   184          4
   191          0
   193          0
   194          3
   195          4
   196         12
   197         23
   198          3
   208          3
   209          2
   210         76
   211         57
   212          7
   213          0
   222          3
   223          3
   224          8
   225         17
   226          2
   236          2
   237          1
   238        208
   239        302
   240         52
   241          4
   250          1
   251          1
   252          9
   253         15
   254          2
   264          2
   265          1
   266         10
   267         12
   268          2
   278          1
   279          1
   280         48
   281         26
   282          4
   283          0
   292          0
   293          1
   294         17
   295         19
   296          4
   306          9
   307         12
   308        192
   309        140
   310         27
   311          3
   320          0
   321          0
   322         17
   323         12
   324          2
   335          0
   336          7
   337          8
   338          2
   348          0
   349          0
   350         52
   351         51
   352         11
   353          0
   354          0
   364          4
   365          8
   366          2
   378        103
   379        220
   380         59
   381          8
   382          0
   392          4
   393         11
   394          3
   406          4
   407          8
   408          7
   409          1
   420          4
   421          9
   422          3
   434          3
   435          9
   436          3
   437          0
   438          0
   448          4
   449         11
   450          4
   451          0
   452          0
   462          2
   463          8
   464          2
   476          3
   477         10
   478          3
   479          0
   490          5
   491         23
   492          8
   493          1
   504          2
   505         30
   506         12
   507          2
   518          4
   519          4
   520         11
   521          4
   522          0