##TITLE=Library Entry 89958
##JCAMP-DX=Revision 4.10 
##DATA TYPE=MASS SPECTRUM
##SAMPLE DESCRIPTION=Div. of Experiment Therapeutics WRAIR, WRAMC, Washingto
n DC 20307
##NAMES=HP
##CAS NAME=3,5,4'-Trichloro-2'-nitro-.alpha.-phenylcinnamic acid
##MOLFORM=C15H8Cl3NO4
##CAS REGISTRY NO=56988-30-8
##MP= -300
##BP= -300
##MW= 371
##$RETENTION INDEX=0
##$CONDENSED SPECTRUM=NO
##NPOINTS= 224
##XYDATA=(XY..XY) 1 
    41          8
    43         39
    44         14
    45        669
    46         14
    49         44
    50        178
    51        166
    52         28
    53         53
    55         18
    57          3
    60         21
    61         71
    62        192
    63        362
    64         36
    65          9
    67          8
    68         31
    69         24
    72         23
    73        246
    74        241
    75        382
    76         62
    77         47
    78        330
    79         33
    80         28
    81        253
    84         31
    85         77
    86        144
    87        303
    88         88
    89        104
    90        100
    91         20
    92         29
    93         21
    95         14
    96         21
    97        113
    98        247
    99        417
   100         61
   101         45
   102         13
   103         14
   104         46
   105         86
   106         46
   107         22
   108         16
   109        101
   110        140
   111        225
   112         81
   113        999
   114         95
   115        320
   116         43
   117         29
   118         24
   121         22
   122         85
   123        355
   124        295
   125        207
   126        256
   127         58
   128         42
   129          3
   131         25
   132         19
   133         34
   134         29
   135         57
   136         34
   137         46
   138        244
   139         87
   140        110
   141        342
   142         43
   143        108
   144         19
   145        146
   146         19
   147        130
   148         35
   149        102
   150         70
   151         36
   152         34
   153         35
   154         29
   155         28
   156         17
   157         19
   158         20
   159         38
   160         50
   161         68
   162         81
   163        240
   164         76
   165         14
   166         17
   167          5
   168        253
   169        547
   170        128
   171        191
   172         43
   173        168
   174        193
   175        269
   176        120
   177        122
   178         19
   179         16
   180         45
   182         17
   183         21
   184         40
   185         42
   186         54
   187         24
   188         25
   192          4
   194         16
   195          5
   196         25
   197        631
   198        124
   199        300
   200         61
   201         54
   202         17
   203         49
   205         35
   207         25
   208         33
   209         30
   210        155
   211        115
   212        134
   213         57
   214         31
   215         15
   219         16
   220         85
   221         24
   222         65
   223         16
   224         18
   226          8
   228          9
   229          4
   231          8
   232         20
   233        139
   234         39
   235        121
   236         21
   237         44
   238          8
   244         51
   245         27
   246         98
   247        167
   248        101
   249        125
   250         40
   251         25
   259          3
   262         26
   263         50
   264         23
   265         44
   266          9
   267         32
   269         26
   275         10
   276          3
   279          9
   280          9
   281         43
   282         42
   283         54
   284         42
   285         26
   286         17
   290          3
   292         12
   294         16
   296         15
   298         71
   299          8
   300         65
   301         14
   302         28
   307          8
   309          8
   310         62
   311         20
   312         69
   313         17
   314         22
   325         14
   326        106
   327         29
   328        137
   329         27
   330         53
   331          4
   354         11
   356         13
   371         40
   373         55
   374          4
   375         22