##TITLE=Library Entry 27062
##JCAMP-DX=Revision 4.10 
##DATA TYPE=MASS SPECTRUM
##SAMPLE DESCRIPTION=J. Klune, Insect Chem. Ecol. Lab., USDA, Beltsville, MD
 20705
##NAMES=HP
##CAS NAME=11,15-Dimethylhentriacontane
##MOLFORM=C33H68
##CAS REGISTRY NO=56987-74-7
##MP= -300
##BP= -300
##MW= 464
##$RETENTION INDEX=3145
##$CONDENSED SPECTRUM=NO
##NPOINTS= 153
##XYDATA=(XY..XY) 1 
    41        232
    42         91
    43        746
    44         21
    53          8
    54         19
    55        248
    56        210
    57        999
    58         51
    65          1
    66          2
    67         22
    68         31
    69        171
    70        156
    71        818
    72         45
    73          1
    79          2
    80          1
    81         17
    82         54
    83        145
    84        108
    85        659
    86         40
    87          1
    95          9
    96        135
    97        236
    98         79
    99        292
   100         20
   101          0
   109          3
   110         26
   111        114
   112         92
   113        209
   114         16
   123          2
   124         15
   125         61
   126         37
   127        119
   128         10
   137          1
   138         10
   139         28
   140        106
   141         92
   142          9
   152          6
   153         13
   154         17
   155         62
   156          6
   166         26
   167         61
   168        893
   169        334
   170         33
   171          2
   180          4
   181          9
   182         51
   183         51
   184          6
   194          2
   195          4
   196         17
   197         28
   198          4
   208          3
   209          4
   210        132
   211        111
   212         15
   213          1
   222          2
   223          3
   224         70
   225         35
   226          5
   236          1
   237          1
   238        281
   239        534
   240         96
   241          8
   250         13
   251         23
   252        337
   253        180
   254         31
   255          2
   264          1
   265          1
   266         26
   267         19
   268          3
   280         10
   281         11
   282          2
   293          1
   294         88
   295         88
   296         17
   297          1
   308          5
   309          8
   310          1
   322        176
   323        355
   324         86
   325         10
   336          5
   337         10
   338          2
   350          5
   351         11
   352          3
   364          5
   365         10
   366          2
   378          5
   379         11
   380          3
   392          7
   393         16
   394          4
   395          0
   406          4
   407         11
   408          3
   420          4
   421         15
   422          5
   423          0
   434          7
   435         32
   436         10
   437          1
   448          3
   449         46
   450         16
   451          2
   462          1
   463          5
   464         27
   465          9
   466          1