##TITLE=Library Entry 22426
##JCAMP-DX=Revision 4.10 
##DATA TYPE=MASS SPECTRUM
##SAMPLE DESCRIPTION=D.HENNEBERG, MAX-PLANCK INSTITUTE, MULHEIM, WEST GERMAN
Y
##NAMES=HP
##CAS NAME=Undecane, 5-methylene-
##MOLFORM=C12H24
##CAS REGISTRY NO=5698-48-6
##MP= -300
##BP= -300
##MW= 168
##$RETENTION INDEX=0
##$CONDENSED SPECTRUM=NO
##NPOINTS= 85
##XYDATA=(XY..XY) 1 
    25          0
    26          4
    27         72
    29        101
    30          4
    31          0
    33          0
    35          1
    37          2
    38          2
    39         53
    40         16
    41        221
    42         56
    43        148
    44          7
    49          0
    50          2
    51          5
    52          2
    53         26
    54         18
    55        268
    56        999
    57        288
    58          8
    60          0
    63          1
    64          0
    65          5
    66          4
    67         33
    68         32
    69        234
    70        188
    71         17
    72          1
    74          0
    75          0
    77          5
    78          1
    79          6
    80          1
    81         18
    82         10
    83         60
    84         37
    85          6
    87          0
    91          0
    92          0
    93          2
    94          0
    95          4
    96          1
    97         10
    98         34
    99         11
   101          0
   107          0
   109          1
   110          5
   111         52
   112          8
   113          0
   114          0
   115          0
   117          0
   121          1
   124          0
   125          1
   126         10
   127          2
   128          0
   130          0
   135          0
   137          1
   140          2
   143          0
   154          0
   156          0
   157          0
   166          0
   168         11
   169          1