##TITLE=Library Entry 49328
##JCAMP-DX=Revision 4.10 
##DATA TYPE=MASS SPECTRUM
##SAMPLE DESCRIPTION=Div. of Experiment Therapeutics WRAIR, WRAMC, Washingto
n DC 20307
##NAMES=HP
##CAS NAME=3-Chloro-.alpha.-[2-nitrophenyl]cinnamic acid
##MOLFORM=C15H10ClNO4
##CAS REGISTRY NO=56988-11-5
##MP= -300
##BP= -300
##MW= 303
##$RETENTION INDEX=0
##$CONDENSED SPECTRUM=NO
##NPOINTS= 210
##XYDATA=(XY..XY) 1 
    41         21
    42          0
    43          6
    44          3
    45        336
    46         10
    47          2
    49          9
    50        177
    51        271
    52        160
    53         34
    54          2
    55         10
    56          2
    57          3
    60          1
    61         19
    62         94
    63        329
    64        131
    65         97
    66          8
    67          6
    68          4
    70         53
    72          1
    73         31
    74        106
    75        259
    76        182
    77        347
    78         60
    79        999
    80         65
    82        166
    83         49
    84         20
    85         20
    86         48
    87        101
    88         93
    89        305
    90        210
    91        113
    92        136
    93         27
    94          6
    95          3
    96         10
    97         23
    98         45
    99         69
   100         23
   101         49
   102         35
   103          5
   104        237
   105         75
   107        305
   108         24
   109          3
   110         22
   111        179
   112          5
   113        141
   114         27
   115         60
   116          6
   117          7
   118         12
   119         31
   120         20
   121         28
   122         17
   123         29
   124         24
   125         48
   126         59
   127         28
   128         12
   130         18
   131          1
   132          1
   133          8
   134        159
   135        360
   136         37
   137         34
   138         44
   139        242
   141        159
   143         30
   145          6
   146         35
   147          3
   148          6
   149         40
   150        107
   151        147
   152        294
   153         48
   154          8
   155          1
   160          5
   161          6
   162         18
   163        914
   164        211
   165        400
   166        101
   167         89
   168         17
   169         71
   170          5
   171         21
   172          1
   173         15
   174         52
   175         66
   176        309
   177        113
   178        139
   179        139
   180         43
   181         12
   182          2
   184          3
   185          3
   186         14
   187          9
   188          7
   189          4
   190          6
   191          4
   192          3
   193          7
   194         26
   195         61
   196         12
   197          2
   198          1
   199         48
   200          7
   201         34
   202          7
   203         16
   204          2
   205          4
   206          4
   207          9
   208         11
   209          0
   210          9
   211         12
   212         19
   213         67
   214        110
   215         34
   216         35
   217          5
   219          2
   220          1
   221          6
   222         12
   223          3
   224          2
   226          8
   227          2
   228          7
   229          8
   230         62
   231         10
   232         18
   233          2
   235          0
   239          3
   240          5
   241          3
   242         68
   243         21
   244         22
   245          5
   250          0
   251          6
   252          3
   255          3
   256          6
   257          9
   258        221
   259         33
   260         74
   261          9
   268         77
   269         13
   270          1
   271          1
   274          2
   286        100
   287         19
   288         33
   289          6
   290          2
   291          1
   292          1
   302          1
   303         44
   304          9
   305         15
   306          1