##TITLE=Library Entry 24315
##JCAMP-DX=Revision 4.10 
##DATA TYPE=MASS SPECTRUM
##SAMPLE DESCRIPTION=J. Klune, Insect Chem. Ecol. Lab., USDA, Beltsville, MD
 20705
##NAMES=HP
##CAS NAME=13-Methyltritriacontane
##MOLFORM=C34H70
##CAS REGISTRY NO=56987-76-9
##MP= -300
##BP= -300
##MW= 478
##$RETENTION INDEX=3329
##$CONDENSED SPECTRUM=NO
##NPOINTS= 141
##XYDATA=(XY..XY) 1 
    41        217
    42         84
    43        674
    44         25
    47         11
    48          6
    49         41
    51         10
    53         13
    55        373
    56        211
    57        999
    58         43
    67         77
    68         73
    69        303
    70        165
    71        640
    72         38
    79         22
    80         14
    81         86
    82         98
    83        253
    84        107
    85        419
    86         35
    93         15
    94         12
    95         75
    96         83
    97        251
    98         60
    99        157
   100         15
   107         12
   108          5
   109         46
   110         41
   111        149
   112         44
   113        109
   114         12
   119          6
   121         13
   123         31
   124         29
   125         83
   126         32
   127         83
   131         11
   135         13
   137         23
   138         23
   139         43
   140         26
   141         61
   149         12
   151         16
   152         17
   153         27
   154         22
   155         42
   163          9
   165         12
   166         13
   167         22
   168         89
   169         44
   177          4
   179          9
   180         10
   181         12
   182         17
   183         24
   191         12
   193         11
   194         21
   195         29
   196        538
   197        239
   198         30
   207          4
   208         11
   209         10
   210         35
   211         30
   219         25
   224         17
   225         25
   227          5
   238         12
   239         20
   241          5
   252         14
   253         15
   264         14
   266         10
   267         11
   278         20
   280         92
   281         39
   282          4
   283          6
   294         11
   295         27
   297         34
   306         12
   307          6
   308        306
   309        238
   310         50
   322         21
   323         16
   324          5
   336         14
   337         13
   350         10
   351          6
   352          8
   364         10
   365         14
   379         11
   392          4
   393          5
   394          8
   406         11
   407         13
   420          6
   421         15
   434          4
   435         15
   448         10
   449         26
   463         34
   464          6
   465          8
   476          9
   477         10
   478         19
   479          5