##TITLE=Library Entry 27350
##JCAMP-DX=Revision 4.10 
##DATA TYPE=MASS SPECTRUM
##SAMPLE DESCRIPTION=J. Klune, Insect Chem. Ecol. Lab., USDA, Beltsville, MD
 20705
##NAMES=HP
##CAS NAME=15-Methylheptatriacontane
##MOLFORM=C38H78
##CAS REGISTRY NO=56987-88-3
##MP= -300
##BP= -300
##MW= 534
##$RETENTION INDEX=3726
##$CONDENSED SPECTRUM=NO
##NPOINTS= 53
##XYDATA=(XY..XY) 1 
    41        231
    43        566
    55        337
    56        224
    57        999
    67        117
    69        355
    70        198
    71        837
    81        108
    82        121
    83        362
    84        172
    85        670
    95         70
    96        120
    97        382
    98         75
    99        215
   109         35
   111        255
   112         71
   113        149
   125        147
   127        142
   196        274
   197        119
   224        901
   225        398
   238         35
   252        164
   253         70
   266        184
   267        182
   280         74
   294        130
   295        120
   308        225
   309        107
   322        142
   323        168
   336        651
   337        563
   338        137
   350        143
   351        160
   365         33
   372         37
   392        121
   393        161
   519        119
   520         36
   534         34