##TITLE=Library Entry 25361
##JCAMP-DX=Revision 4.10 
##DATA TYPE=MASS SPECTRUM
##SAMPLE DESCRIPTION=J. Klune, Insect Chem. Ecol. Lab., USDA, Beltsville, MD
 20705
##NAMES=HP
##CAS NAME=13,17-Dimethylhentriacontane
##MOLFORM=C33H68
##CAS REGISTRY NO=56987-75-8
##MP= -300
##BP= -300
##MW= 464
##$RETENTION INDEX=3146
##$CONDENSED SPECTRUM=NO
##NPOINTS= 169
##XYDATA=(XY..XY) 1 
    41        307
    42        120
    43        828
    44         26
    49          0
    51          0
    53         11
    54         25
    55        328
    56        251
    57        999
    58         53
    59          0
    65          1
    66          2
    67         32
    68         37
    69        214
    70        183
    71        832
    72         49
    73          1
    77          1
    79          4
    80          2
    81         22
    82         57
    83        174
    84        109
    85        700
    86         44
    87          1
    91          0
    93          1
    94          0
    95         12
    96        129
    97        252
    98         79
    99        290
   100         20
   101          0
   105          0
   109          5
   110         30
   111        120
   112         93
   113        218
   114         17
   115          0
   123          2
   124         18
   125         68
   126         33
   127        148
   128         12
   133          0
   137          1
   138         13
   139         33
   140         22
   141        111
   142         11
   147          0
   151          0
   152         10
   153         19
   154         22
   155         79
   156          9
   157          0
   166          6
   167         13
   168         98
   169         71
   170          8
   171          0
   180          4
   181          7
   182         16
   183         42
   184          5
   194         22
   195         46
   196        695
   197        315
   198         38
   199          2
   208          3
   209          5
   210         44
   211         38
   212          5
   222         19
   223         36
   224        454
   225        221
   226         32
   227          2
   236          2
   237          4
   238        134
   239        109
   240         17
   241          1
   250          0
   251          1
   252         10
   253         13
   254          2
   264          1
   265          2
   266        316
   267        524
   268        106
   269          9
   278          0
   279          0
   280          7
   281         12
   282          2
   294        214
   295        411
   296         88
   297          9
   298          0
   308          6
   309         12
   310          2
   322          6
   323         12
   324          2
   336          4
   337          8
   338          2
   350          5
   351         10
   352          2
   364          5
   365          9
   366          2
   378          4
   379          8
   380          2
   392          6
   393         14
   394          4
   395          0
   400          0
   406          3
   407          9
   408          2
   420          3
   421         13
   422          4
   423          0
   434          6
   435         29
   436          9
   437          1
   448          3
   449         44
   450         15
   451          2
   462          3
   463          8
   464         23
   465          8
   466          1