##TITLE=Library Entry 25415
##JCAMP-DX=Revision 4.10 
##DATA TYPE=MASS SPECTRUM
##SAMPLE DESCRIPTION=J. Klune, Insect Chem. Ecol. Lab., USDA, Beltsville, MD
 20705
##NAMES=HP
##CAS NAME=11,15-Dimethylheptatriacontane
##MOLFORM=C39H80
##CAS REGISTRY NO=56987-89-4
##MP= -300
##BP= -300
##MW= 548
##$RETENTION INDEX=3757
##$CONDENSED SPECTRUM=NO
##NPOINTS= 174
##XYDATA=(XY..XY) 1 
    41        163
    42         64
    43        610
    44         19
    47          1
    49          6
    51          2
    53          7
    54         20
    55        259
    56        192
    57        999
    58         40
    65          1
    66          2
    67         31
    68         36
    69        220
    70        142
    71        663
    72         31
    73          0
    79          4
    80          2
    81         25
    82         42
    83        172
    84         79
    85        474
    86         31
    87          0
    91          2
    93          1
    94          0
    95         16
    96         49
    97        170
    98         68
    99        143
   100         10
   105          2
   109          8
   110         16
   111         86
   112         45
   113         86
   114          7
   123          4
   124          9
   125         39
   126         55
   127         64
   128          5
   133          1
   137          2
   138          6
   139         15
   140         52
   141         44
   142          4
   147          0
   149          1
   152          3
   153          8
   154         10
   155         29
   156          3
   166         11
   167         22
   168        296
   169         99
   170         10
   180          2
   181          5
   182         21
   183         23
   184          3
   194          2
   195          2
   196          6
   197         14
   198          2
   208          2
   209          3
   210         40
   211         33
   212          5
   222          2
   223          2
   224          4
   225          9
   226          1
   236          2
   237          1
   238        126
   239        197
   240         34
   241          3
   250          2
   251          1
   252          5
   253          9
   254          2
   264          1
   266          3
   267          7
   268          2
   280          3
   281          6
   282          1
   292          0
   294          4
   295          6
   296          0
   308         27
   309         15
   310          3
   322          7
   323          7
   324          1
   334          6
   335          7
   336        121
   337         95
   338         21
   339          2
   350         11
   351          8
   352          2
   364         11
   365         13
   366          3
   378         25
   379         29
   380          7
   392          3
   393          5
   394          2
   406         52
   407        129
   408         38
   409          6
   420          3
   421          7
   422          2
   434          3
   435          7
   436          3
   448          3
   449          6
   450          2
   462          2
   463          6
   464          2
   476          2
   477          6
   478          3
   490          0
   491          4
   492          2
   505          5
   506          1
   507          0
   518          3
   519         13
   520          5
   532          0
   533         18
   534          8
   535          1
   546          0
   547          2
   548          5
   549          2