##TITLE=Library Entry 24368
##JCAMP-DX=Revision 4.10 
##DATA TYPE=MASS SPECTRUM
##SAMPLE DESCRIPTION=J. Klune, Insect Chem. Ecol. Lab., USDA, Beltsville, MD
 20705
##NAMES=HP
##CAS NAME=15,19-Dimethylpentatriacontane
##MOLFORM=C37H76
##CAS REGISTRY NO=56987-86-1
##MP= -300
##BP= -300
##MW= 520
##$RETENTION INDEX=3542
##$CONDENSED SPECTRUM=NO
##NPOINTS= 204
##XYDATA=(XY..XY) 1 
    41        279
    42        116
    43        748
    44         26
    45          0
    47          0
    49          2
    50          0
    51          1
    52          0
    53         12
    54         12
    55        404
    56        287
    57        999
    58         13
    59          1
    61          0
    65          2
    66          1
    67         42
    68         52
    69        281
    70        199
    71        733
    72         43
    73          1
    77          1
    79          5
    80          2
    81         31
    82         61
    83        207
    84        103
    85        586
    86         37
    87          1
    91          1
    93          1
    94          1
    95         19
    96         83
    97        232
    98         64
    99        211
   100         14
   101          0
   105          1
   107          0
   108          0
   109          7
   110         24
   111        110
   112         65
   113        146
   114         11
   115          0
   119          0
   121          0
   122          0
   123          4
   124         14
   125         54
   126         27
   127         93
   128          7
   129          0
   133          0
   135          0
   136          0
   137          2
   138         10
   139         24
   140         15
   141         70
   142          7
   149          0
   151          1
   152          7
   153         14
   154         11
   155         54
   156          6
   157          0
   165          0
   166          5
   167         10
   168          9
   169         41
   170          5
   171          0
   180          4
   181          7
   182         10
   183         31
   184          4
   185          0
   189          0
   191          0
   194          3
   195          3
   196         65
   197         35
   198          4
   208          3
   209          3
   210         12
   211         19
   212          3
   222         15
   223         26
   224        447
   225        196
   226         26
   227          2
   236          2
   237          3
   238         36
   239         25
   240          4
   242          0
   250         11
   251         19
   252        243
   253        121
   254         18
   255          1
   264          1
   265          2
   266         85
   267         57
   268          9
   269          1
   278          1
   279          1
   280          9
   281          9
   282          1
   292          0
   293          0
   294        210
   295        298
   296         61
   297          6
   298          0
   307          0
   308          7
   309          9
   310          2
   320          0
   322        147
   323        240
   324         53
   325          6
   326          0
   336          5
   337          8
   338          2
   350          4
   351          7
   352          2
   364          3
   365          5
   366          1
   378          3
   379          5
   380          1
   392          2
   393          5
   394          1
   406          2
   407          5
   408          1
   420          3
   421          5
   422          2
   423          0
   434          2
   435          4
   436          1
   448          3
   449          7
   450          2
   462          1
   463          5
   464          1
   476          2
   477          7
   478          2
   479          0
   490          3
   491         16
   492          6
   493          0
   494          0
   504          1
   505         22
   506          8
   507          1
   518          3
   519          2
   520          9
   521          3
   522          0