##TITLE=Library Entry 36015
##JCAMP-DX=Revision 4.10 
##DATA TYPE=MASS SPECTRUM
##SAMPLE DESCRIPTION=M.Lounasmaa, Acta Chem.Scand., 25,3441(1971)
##NAMES=HP
##CAS NAME=6-Propyl-2,3-dihydropyran-2,4-dione
##MOLFORM=C8H10O3
##CAS REGISTRY NO=5698-53-3
##MP= -300
##BP= -300
##MW= 154
##$RETENTION INDEX=0
##$CONDENSED SPECTRUM=NO
##NPOINTS= 32
##XYDATA=(XY..XY) 1 
    26         77
    27        344
    28        108
    29         77
    37         15
    38         56
    39        176
    40         25
    41        215
    42        248
    43        440
    44         12
    53         56
    54         18
    55        209
    56         18
    69        999
    70         82
    71        196
    83         36
    84        373
    85         46
    97        196
    98         85
   111        826
   112         69
   113        163
   126        380
   127         46
   139         33
   154        323
   155         41