##TITLE=Library Entry 25507
##JCAMP-DX=Revision 4.10 
##DATA TYPE=MASS SPECTRUM
##SAMPLE DESCRIPTION=J. Klune, Insect Chem. Ecol. Lab., USDA, Beltsville, MD
 20705
##NAMES=HP
##CAS NAME=15,19-Dimethylheptatriacontane
##MOLFORM=C39H80
##CAS REGISTRY NO=56987-91-8
##MP= -300
##BP= -300
##MW= 548
##$RETENTION INDEX=3754
##$CONDENSED SPECTRUM=NO
##NPOINTS= 140
##XYDATA=(XY..XY) 1 
    41        160
    42         64
    43        507
    44         17
    49          3
    53          7
    54         23
    55        268
    56        188
    57        999
    58         39
    67         42
    68         43
    69        264
    70        172
    71        807
    72         36
    81         33
    82         55
    83        236
    84        107
    85        644
    86         45
    95         22
    96         70
    97        266
    98         66
    99        202
   100         12
   109         12
   110         24
   111        136
   112         63
   113        140
   114         11
   123          2
   124         16
   125         68
   126         35
   127         97
   128         10
   138         12
   139         27
   140         19
   141         73
   142          6
   152         10
   153         17
   154         15
   155         59
   156          2
   166          5
   167         14
   168         18
   169         46
   170          2
   181          9
   182         14
   183         39
   184          2
   194          2
   195          9
   196        112
   197         56
   198          5
   210         17
   211         26
   222         20
   223         27
   224        633
   225        286
   226         40
   238         53
   239         35
   252         85
   253         45
   254          5
   266        117
   267        101
   268         19
   278         16
   279         21
   280        298
   281        177
   282         30
   294        245
   295        425
   296         89
   297          9
   308         25
   309         26
   322        110
   323        106
   324         25
   336         26
   337         36
   338          9
   350        240
   351        442
   352        108
   353         15
   364         23
   365         29
   366          5
   378          9
   379         18
   380         10
   392         20
   393         36
   394         12
   406          8
   407         20
   421         13
   422          9
   434          2
   435         14
   448          8
   449         15
   462          2
   463         14
   476          9
   477         22
   478          3
   490          2
   491         18
   492          2
   505         23
   506          6
   507          4
   518         11
   519         51
   520         22
   532          2
   533         72
   534         30
   535          5
   546          8
   547         13
   548         21
   549          3