##TITLE=Library Entry 25379
##JCAMP-DX=Revision 4.10 
##DATA TYPE=MASS SPECTRUM
##SAMPLE DESCRIPTION=J. Klune, Insect Chem. Ecol. Lab., USDA, Beltsville, MD
 20705
##NAMES=HP
##CAS NAME=Tritriacontane, 15,19-dimethyl-
##MOLFORM=C35H72
##CAS REGISTRY NO=56987-80-5
##MP= -300
##BP= -300
##MW= 492
##$RETENTION INDEX=3345
##$CONDENSED SPECTRUM=NO
##NPOINTS= 176
##XYDATA=(XY..XY) 1 
    41        229
    42         84
    43        667
    44         20
    45          2
    49          5
    51          2
    53         11
    54         24
    55        277
    56        198
    57        999
    58         40
    65          2
    66          3
    67         33
    68         37
    69        244
    70        150
    71        673
    72         32
    73          2
    77          2
    79          5
    80          3
    81         29
    82         46
    83        168
    84         77
    85        476
    86         30
    87          0
    88          0
    91          2
    93          2
    94          0
    95         19
    96         56
    97        182
    98         51
    99        180
   100         16
   105          1
   109          9
   110         20
   111         95
   112         47
   113        125
   114         11
   115          0
   119          6
   121          0
   123          5
   124         12
   125         50
   126         24
   127         87
   128          7
   131         14
   133          0
   135          0
   137          3
   138          9
   139         25
   140         14
   141         67
   142          7
   149          0
   150          0
   151          1
   152          6
   153         16
   154         11
   155         52
   156          6
   166          4
   167         10
   168          9
   169         40
   170          5
   180          4
   181          7
   182         11
   183         29
   184          4
   194          3
   195          5
   196         55
   197         33
   198          6
   208          1
   209          3
   210         10
   211         19
   212          3
   219         22
   222         23
   223         35
   224        305
   225        138
   226         20
   227          0
   228          1
   236          1
   237          3
   238         28
   239         20
   240          4
   251          0
   252          7
   253         10
   254          2
   264          8
   265          3
   266         66
   267         50
   268         11
   278          0
   279          0
   280          4
   281          8
   282          1
   293          1
   294        138
   295        212
   296         44
   297          5
   308          5
   309          8
   310          1
   320          0
   321          0
   322          3
   323          6
   324          0
   336          3
   337          5
   338          0
   350          3
   351          6
   352          0
   353          0
   364          1
   365          4
   366          0
   378          1
   379          4
   380          0
   392          1
   393          4
   394          0
   406          1
   407          5
   408          1
   409          1
   414          2
   420          3
   421          7
   422          4
   434          0
   435          3
   436          0
   448          0
   449          4
   450          0
   462          2
   463         11
   464          3
   476          1
   477         14
   478          5
   490          4
   491          5
   492         15
   493          5
   495          0