##TITLE=Library Entry 57785
##JCAMP-DX=Revision 4.10 
##DATA TYPE=MASS SPECTRUM
##SAMPLE DESCRIPTION=A.A.Kutin, Moscow, Russia
##NAMES=HP
##CAS NAME=3-Amino-4-methyl-pentanoic acid
##MOLFORM=C6H13NO2
##CAS REGISTRY NO=5699-54-7
##MP= -300
##BP= -300
##MW= 131
##$RETENTION INDEX=0
##$CONDENSED SPECTRUM=NO
##NPOINTS= 37
##XYDATA=(XY..XY) 1 
    38          8
    39         65
    40         47
    41        108
    42        141
    43        318
    44         73
    45         37
    46        115
    50          3
    51          6
    52          5
    53         14
    54         16
    55        132
    56         62
    57         27
    60         15
    67          6
    68          8
    69         30
    70        644
    71         34
    72        100
    73          9
    74          4
    77          4
    84          7
    86          4
    87         39
    88        999
    89         37
    90          4
    98         11
   106          3
   112          4
   130          3