##TITLE=Library Entry 71774
##JCAMP-DX=Revision 4.10 
##DATA TYPE=MASS SPECTRUM
##SAMPLE DESCRIPTION=NIST Mass Spectrometry Data Center, 1998.
##NAMES=HP
##CAS NAME=Allyl Isothiocyanate
##MOLFORM=C4H5NS
##CAS REGISTRY NO=57-06-7
##MP= -300
##BP= -300
##MW= 99
##$RETENTION INDEX=887
##$CONDENSED SPECTRUM=NO
##NPOINTS= 66
##XYDATA=(XY..XY) 1 
    12          1
    13          1
    14          2
    15          6
    24          1
    25          6
    26         34
    27         51
    28         15
    29          2
    30          1
    31          1
    32         33
    33          3
    34          2
    36          6
    37         50
    38         97
    39        618
    40         77
    41        620
    42         22
    43          1
    44         64
    45        110
    46         23
    47          7
    48          1
    50          4
    51         16
    52         15
    53          2
    54         18
    55          2
    56          4
    57         11
    58         61
    59         60
    60         28
    61          3
    62          4
    63          5
    64          8
    65          1
    66          3
    67         23
    68          7
    69         18
    70         82
    71        110
    72        391
    73         22
    74         18
    75          1
    82          2
    83          4
    84         10
    85          1
    94          3
    95          1
    96          3
    98         91
    99        999
   100         67
   101         56
   102          3