##TITLE=Library Entry 1148
##JCAMP-DX=Revision 4.10 
##DATA TYPE=MASS SPECTRUM
##SAMPLE DESCRIPTION=Japan AIST/NIMC Database- Spectrum MS-IW- 733
##NAMES=HP
##CAS NAME=Acexamic acid
##MOLFORM=C8H15NO3
##CAS REGISTRY NO=57-08-9
##MP= -300
##BP= -300
##MW= 173
##$RETENTION INDEX=0
##$CONDENSED SPECTRUM=NO
##NPOINTS= 102
##XYDATA=(XY..XY) 1 
    14          2
    15         23
    17          1
    18          2
    26          3
    27         33
    28         53
    29         35
    30        999
    31         47
    32          2
    38          1
    39         30
    40          7
    41        100
    42         55
    43        532
    44        349
    45         67
    46          2
    48          1
    50          1
    51          2
    52          1
    53          9
    54         15
    55        128
    56         85
    57         22
    58        129
    59         26
    60        357
    61          9
    62          1
    65          3
    66          1
    67         29
    68         30
    69         90
    70         17
    71         11
    72        990
    73        369
    74         19
    75          1
    77          1
    79          3
    80          1
    81          3
    82          5
    83         14
    84         57
    85         59
    86        351
    87        124
    88          8
    89          1
    94          3
    95         17
    96         57
    97         11
    98         19
    99         21
   100        262
   101        167
   102         10
   103          1
   109          1
   110          3
   111         52
   112        136
   113        118
   114        420
   115         29
   116          6
   121          2
   125          1
   126          3
   127         44
   128         19
   129          3
   130        194
   131         22
   132          2
   134          1
   136          1
   137         13
   138          2
   139          1
   140         21
   141          2
   144          4
   149          1
   154          2
   155        275
   156         44
   157          4
   158         10
   159          1
   173        152
   174         44
   175          2