##TITLE=Library Entry 30835
##JCAMP-DX=Revision 4.10 
##DATA TYPE=MASS SPECTRUM
##SAMPLE DESCRIPTION=Japan AIST/NIMC Database- Spectrum MS-NW-1126
##NAMES=HP
##CAS NAME=Hydrazine, 1,1-dimethyl-
##MOLFORM=C2H8N2
##CAS REGISTRY NO=57-14-7
##MP= -300
##BP= -300
##MW= 60
##$RETENTION INDEX=527
##$CONDENSED SPECTRUM=NO
##NPOINTS= 31
##XYDATA=(XY..XY) 1 
    12          1
    13          8
    14         36
    15        266
    16         41
    17         24
    18        350
    19          1
    26          4
    27         29
    28        300
    29         72
    30        298
    31         29
    32          5
    38          5
    39          9
    40         31
    41         41
    42        730
    43        241
    44        125
    45        476
    46         11
    55          3
    56          3
    57         55
    58         37
    59        467
    60        999
    61         27