##TITLE=Library Entry 9210
##JCAMP-DX=Revision 4.10 
##DATA TYPE=MASS SPECTRUM
##SAMPLE DESCRIPTION=NIST Mass Spectrometry Data Center, 1998.
##NAMES=HP
##CAS NAME=Octadecanoic acid
##MOLFORM=C18H36O2
##CAS REGISTRY NO=57-11-4
##MP= -300
##BP= -300
##MW= 284
##$RETENTION INDEX=2172
##$CONDENSED SPECTRUM=NO
##NPOINTS= 197
##XYDATA=(XY..XY) 1 
    15          1
    26          3
    27         70
    29        195
    30          8
    31          8
    36          1
    37          1
    38          3
    39         84
    40         19
    41        688
    42        156
    43        999
    44         37
    45         85
    46          3
    47          3
    49          1
    50          4
    51          6
    52          4
    53         48
    54         61
    55        827
    56        199
    57        875
    58         44
    59         47
    60        881
    61        263
    62         10
    63          3
    64          2
    65         10
    66          7
    67         87
    68         64
    69        432
    70        119
    71        429
    72         27
    73        942
    74         90
    75         12
    76          2
    77          9
    78          4
    79         25
    80         11
    81         68
    82         67
    83        317
    84        128
    85        285
    86         27
    87        207
    88         20
    89          3
    90          1
    91          6
    92          2
    93         19
    94          9
    95         46
    96         57
    97        262
    98        135
    99         94
   100         14
   101         88
   102         32
   103          3
   104          2
   105          4
   106          2
   107         16
   108          7
   109         27
   110         31
   111        125
   112         45
   113         54
   114          8
   115        149
   116         78
   117          7
   118          2
   119          2
   120          2
   121         20
   122          6
   123         13
   124         18
   125         54
   126         18
   127         31
   128          6
   129        500
   130         58
   131          6
   132          1
   133          2
   134          1
   135         14
   136          4
   137          6
   138         10
   139         25
   140         12
   141         21
   142          4
   143         85
   144         13
   145          4
   146          1
   147          2
   148          1
   149          9
   150          2
   151          3
   152          7
   153         11
   154          8
   155         14
   156          6
   157         38
   158         12
   159          2
   162          1
   163          4
   164          2
   165          2
   166          7
   167          7
   168          5
   169          8
   170          1
   171         90
   172         22
   173          8
   174          1
   175          4
   177          2
   178          1
   179          2
   180          6
   181          5
   182          3
   183          4
   184          1
   185        211
   186         30
   187          3
   190          6
   191          1
   192          4
   193          2
   194          3
   195          2
   196          6
   197          2
   198          1
   199         70
   200         11
   201          1
   205          1
   209          2
   210          2
   211          1
   213         28
   214          5
   215          1
   220          1
   222         14
   223          3
   224          5
   225          3
   226          1
   227         55
   228         11
   229          1
   237          1
   241        170
   242         29
   243          3
   248          3
   255         27
   256          6
   265          1
   266          1
   267          4
   268          1
   269          1
   284        256
   285         52
   286          6