##TITLE=Library Entry 29805
##JCAMP-DX=Revision 4.10 
##DATA TYPE=MASS SPECTRUM
##SAMPLE DESCRIPTION=Chemical Concepts
##NAMES=HP
##CAS NAME=2-Propanol, 1,1,1-trichloro-2-methyl-
##MOLFORM=C4H7Cl3O
##CAS REGISTRY NO=57-15-8
##MP= -300
##BP= -300
##MW= 176
##$RETENTION INDEX=963
##$CONDENSED SPECTRUM=NO
##NPOINTS= 78
##XYDATA=(XY..XY) 1 
    25          2
    26         21
    27         85
    29         42
    31        235
    35          4
    36          8
    37         14
    38         17
    39         61
    40          7
    41        198
    42         35
    43        423
    44         14
    45          4
    47         25
    48          6
    49         21
    50         15
    51         30
    52          4
    53         21
    54          3
    55         14
    56          3
    57         10
    58          4
    59        999
    60         36
    61         45
    62         28
    63         48
    64         14
    65         12
    69          5
    71          5
    72          4
    73         12
    74          3
    75          7
    77        190
    78          7
    79         61
    82         23
    83         60
    84         16
    85         40
    86          3
    87         19
    89         14
    91         14
    93          5
    97         95
    98          4
    99         61
   101         10
   105         76
   106          4
   107         26
   109          5
   117         18
   119         18
   121          5
   123          9
   125        279
   126         32
   127        181
   128         21
   129         29
   130          3
   159          3
   161        119
   162          4
   163        113
   164          4
   165         37
   167          4