##TITLE=Library Entry 22724
##JCAMP-DX=Revision 4.10 
##DATA TYPE=MASS SPECTRUM
##SAMPLE DESCRIPTION=Japan AIST/NIMC Database- Spectrum MS-NW-3767
##NAMES=HP
##CAS NAME=Tris(1-(2-methyl)aziridinyl)phosphine oxide
##MOLFORM=C9H18N3OP
##CAS REGISTRY NO=57-39-6
##MP= -300
##BP= -300
##MW= 215
##$RETENTION INDEX=1480
##$CONDENSED SPECTRUM=NO
##NPOINTS= 140
##XYDATA=(XY..XY) 1 
    14          2
    15         25
    26          9
    27         53
    28        124
    29         66
    30         50
    31          2
    32          9
    37          1
    38          2
    39         21
    40          9
    41        107
    42         43
    43         10
    44         11
    45          2
    46         22
    47         75
    48          5
    49         16
    51          3
    52          3
    53          2
    54         49
    55         30
    56        999
    57        146
    58        313
    59         13
    60          6
    61          3
    62          6
    63          5
    64         18
    67          2
    68          6
    69          9
    70         43
    71         19
    72          4
    73          2
    74         44
    75          9
    76         49
    77          8
    78          9
    79          6
    80          2
    81          7
    82         15
    83         18
    84         29
    85          8
    86         76
    87         14
    88         10
    89          5
    90         20
    91          7
    92          6
    93          2
    94          8
    95          7
    96         35
    97          8
    98          3
    99          5
   100          5
   101         16
   102        209
   103         25
   104        460
   105         40
   106         16
   107          4
   108          1
   109          2
   110          2
   111         20
   112         11
   113          5
   114          2
   115          4
   116          6
   117         34
   118         44
   119         67
   120          6
   121          2
   124          1
   127          2
   128          2
   129          4
   130         10
   131         38
   132         23
   133         14
   134          4
   135          1
   137          1
   138         10
   139          1
   140          9
   141         21
   142          9
   143         18
   144          8
   145         29
   146         12
   147         10
   148          1
   153          1
   155          1
   156          1
   157          4
   158         43
   159        275
   160         55
   161         11
   162          1
   164          1
   165          1
   172          5
   173         20
   174          8
   175          2
   186          8
   187         12
   188         12
   189          1
   196          1
   197          3
   200         60
   201          7
   214          7
   215         43
   216         16
   217          2