##TITLE=Library Entry 38943
##JCAMP-DX=Revision 4.10 
##DATA TYPE=MASS SPECTRUM
##SAMPLE DESCRIPTION=NIST Mass Spectrometry Data Center
##NAMES=HP
##CAS NAME=Meperidine
##MOLFORM=C15H21NO2
##CAS REGISTRY NO=57-42-1
##MP= -300
##BP= -300
##MW= 247
##$RETENTION INDEX=1758
##$CONDENSED SPECTRUM=NO
##NPOINTS= 151
##XYDATA=(XY..XY) 1 
    15          5
    26          3
    27         28
    28         14
    29         69
    30          7
    31          2
    38          1
    39         16
    40          3
    41         19
    42        286
    43        139
    44        158
    45          7
    50          8
    51         32
    52          9
    53         32
    54          8
    55         12
    56         31
    57        298
    58         31
    59          3
    60          1
    62          3
    63         15
    64          4
    65         26
    66          3
    67          4
    68          7
    70        513
    71        999
    72         52
    73          2
    74          4
    75          7
    76         13
    77        114
    78         30
    79         19
    81         11
    82         18
    83         10
    84          8
    87         21
    88          4
    89         18
    90          5
    91        244
    92         21
    93          2
    94         25
    95          5
    96        194
    97         17
    98          3
    99         12
   100          2
   101          6
   102         45
   103        314
   104         41
   105         19
   106          2
   107          2
   108          1
   110          5
   111          1
   112          2
   113          2
   114          4
   115        178
   116         95
   117         54
   118         12
   119          3
   120         15
   121          3
   122          1
   123          1
   124          1
   126         11
   127         39
   128         92
   129        102
   130         37
   131        171
   132         33
   133          7
   134          7
   135          1
   136          1
   138          2
   140        137
   141         20
   142          9
   143         17
   144         53
   145         15
   146         14
   147          4
   148          3
   149         12
   150          1
   153          1
   154          5
   155         24
   156         22
   157         17
   158         65
   159         19
   160          5
   161          3
   162          9
   163          1
   167          1
   168          3
   169         23
   170         19
   172        355
   173         82
   174        216
   175         34
   176          5
   177         12
   178          2
   184          2
   185          1
   186          1
   188          1
   190         45
   191          6
   192          1
   200          1
   202         20
   203          3
   204          1
   216          1
   218        178
   219         33
   220          3
   232         58
   233          9
   234          1
   246        198
   247        308
   248         51
   249          5