##TITLE=Library Entry 40523
##JCAMP-DX=Revision 4.10 
##DATA TYPE=MASS SPECTRUM
##SAMPLE DESCRIPTION=Japan AIST/NIMC Database- Spectrum MS-NW-6323
##NAMES=HP
##CAS NAME=Fructose
##MOLFORM=C6H12O6
##CAS REGISTRY NO=57-48-7
##MP= -300
##BP= -300
##MW= 180
##$RETENTION INDEX=0
##$CONDENSED SPECTRUM=NO
##NPOINTS= 116
##XYDATA=(XY..XY) 1 
    12          4
    13          9
    14         34
    15        217
    16          5
    17         17
    18         65
    19         12
    24          2
    25          8
    26         35
    27        126
    28         46
    29        406
    30         75
    31        739
    32         42
    33         23
    36          2
    37          5
    38          8
    39         47
    40         19
    41         79
    42        234
    43        658
    44        237
    45        214
    46          7
    47         25
    49         58
    50          3
    51          4
    52          2
    53         11
    54         14
    55         98
    56         63
    57        293
    58         55
    59         53
    60        498
    61        466
    62         25
    63          3
    66          1
    67          3
    68         37
    69         88
    70         10
    71        244
    72        199
    73        999
    74         78
    75         17
    76          7
    77         59
    78          2
    79          3
    80          1
    81          3
    82          2
    83         10
    84          9
    85        138
    86        147
    87         27
    88          6
    89         44
    90         74
    91         27
    92          2
    94          1
    95          3
    96          4
    97         14
    98          8
    99          4
   100          3
   101         22
   102         23
   103        267
   104         22
   105          5
   107          2
   109          2
   110          2
   111          1
   113         31
   114          6
   115          9
   116          4
   117          1
   119         14
   120          3
   121         10
   122          1
   125          1
   126          6
   127          6
   128          2
   129          1
   131         58
   132          9
   133          9
   134          1
   136          1
   143          1
   144          9
   145          6
   146          2
   149         81
   150          5
   151          1
   162          2
   163          3