##TITLE=Library Entry 1582
##JCAMP-DX=Revision 4.10 
##DATA TYPE=MASS SPECTRUM
##SAMPLE DESCRIPTION=Japan AIST/NIMC Database- Spectrum MS-NW- 332
##NAMES=HP
##CAS NAME=Hydrazinecarboxamide
##MOLFORM=CH5N3O
##CAS REGISTRY NO=57-56-7
##MP= -300
##BP= -300
##MW= 75
##$RETENTION INDEX=0
##$CONDENSED SPECTRUM=NO
##NPOINTS= 17
##XYDATA=(XY..XY) 1 
    15          2
    16         24
    17         22
    18          9
    27          6
    28         20
    29         55
    30         36
    31        292
    32        999
    33          7
    41          3
    42          8
    43         32
    44        257
    45          5
    75         20