##TITLE=Library Entry 16806
##JCAMP-DX=Revision 4.10 
##DATA TYPE=MASS SPECTRUM
##SAMPLE DESCRIPTION=NIST Mass Spectrometry Data Center, 1998.
##NAMES=HP
##CAS NAME=Propylene Glycol
##MOLFORM=C3H8O2
##CAS REGISTRY NO=57-55-6
##MP= -300
##BP= -300
##MW= 76
##$RETENTION INDEX=740
##$CONDENSED SPECTRUM=NO
##NPOINTS= 38
##XYDATA=(XY..XY) 1 
    14          2
    15         15
    18          1
    19         20
    25          1
    26         11
    27         69
    28          9
    29        104
    30         10
    31         99
    32          4
    33         11
    36          1
    37          4
    38          6
    39         17
    40          3
    41         20
    42         30
    43        181
    44         64
    45        999
    46         27
    47          4
    53          2
    54          1
    55          7
    56          1
    57         26
    58          7
    59          4
    60          3
    61         60
    62          1
    73          1
    75          2
    76          4