##TITLE=Library Entry 4392
##JCAMP-DX=Revision 4.10 
##DATA TYPE=MASS SPECTRUM
##SAMPLE DESCRIPTION=Exported from NIST MS Search
##NAMES=HP
##CAS NAME=Propiolactone
##MOLFORM=C3H4O2
##CAS REGISTRY NO=57-57-8
##MP= -300
##BP= -300
##MW= 72
##$RETENTION INDEX=0
##$CONDENSED SPECTRUM=NO
##NPOINTS= 26
##XYDATA=(XY..XY) 1 
    12         10
    13         30
    14        102
    15        159
    16          4
    24          6
    25         29
    26        116
    27         82
    28        373
    29        141
    30         14
    31          3
    36          2
    37          2
    40          6
    41         26
    42        999
    43        315
    44         28
    45         10
    53          5
    55          5
    69          3
    71          3
    73          8