##TITLE=Library Entry 52241
##JCAMP-DX=Revision 4.10 
##DATA TYPE=MASS SPECTRUM
##SAMPLE DESCRIPTION=Virginia Division of Forensic Science
##NAMES=HP
##CAS NAME=Meprobamate
##MOLFORM=C9H18N2O4
##CAS REGISTRY NO=57-53-4
##MP= -300
##BP= -300
##MW= 218
##$RETENTION INDEX=1824
##$CONDENSED SPECTRUM=NO
##NPOINTS= 88
##XYDATA=(XY..XY) 1 
    15         11
    16         22
    17         11
    18         13
    19          2
    26         11
    27        149
    28         27
    29        208
    30         17
    31        172
    32          1
    33          1
    37          2
    39        191
    40         34
    41        416
    42         86
    43        297
    44        635
    45        165
    46         35
    47          3
    50          4
    51         16
    52          8
    53         83
    55        663
    56        289
    57        169
    58         47
    59        110
    62        354
    63         10
    64          2
    65         20
    66          9
    67         96
    68         41
    69        148
    71        446
    72        113
    73         11
    74         37
    75        216
    76         14
    77         10
    78          1
    79         26
    81        208
    83        999
    84        306
    85         69
    86         40
    87          5
    88          2
    89          2
    92         39
    93          5
    94          3
    96        307
    97         33
    98          4
    99         30
   100         27
   101        111
   102          9
   103          1
   104          8
   105          4
   112          2
   114        255
   115         54
   116          3
   128          1
   131          2
   132          7
   135         14
   136          3
   142          2
   144        282
   145         22
   146          1
   147          1
   157          2
   158          1
   174          1
   175          1