##TITLE=Library Entry 53877
##JCAMP-DX=Revision 4.10 
##DATA TYPE=MASS SPECTRUM
##SAMPLE DESCRIPTION=AAFS Toxicology Section MS DB Committee, U. Alberta, Ca
nada
##NAMES=HP
##CAS NAME=Chlortetracycline
##MOLFORM=C22H23ClN2O8
##CAS REGISTRY NO=57-62-5
##MP= -300
##BP= -300
##MW= 478
##$RETENTION INDEX=0
##$CONDENSED SPECTRUM=NO
##NPOINTS= 252
##XYDATA=(XY..XY) 1 
    41         43
    42        183
    43        133
    44        221
    45         44
    46        148
    53         31
    54         19
    55        119
    56         40
    57         88
    58        392
    59         32
    63         20
    65         34
    66         15
    67         44
    68         66
    69        174
    70         91
    71        186
    72         65
    73         24
    74         40
    75         25
    77         58
    78         20
    79         28
    80         23
    81         41
    82        143
    83         53
    84        999
    85        198
    86         43
    87         20
    89         35
    91         41
    92         22
    93         25
    94         37
    95         52
    96         47
    97         74
    98        349
    99         75
   100         51
   101         26
   102         27
   103         19
   105         25
   106         17
   107         32
   108         26
   109         30
   110         37
   111         40
   112         40
   113         43
   114         35
   115         65
   116         20
   117         18
   118         14
   119         22
   121         25
   122         18
   123         53
   124         45
   125         36
   126         55
   127         72
   128         43
   129         35
   131         30
   132         14
   133         15
   134         15
   135         23
   136         23
   137         70
   138         39
   139         45
   140         26
   141         28
   142         17
   143         23
   144         33
   145         27
   147         32
   149         27
   150         27
   151         46
   152        124
   153         93
   154         41
   155         66
   156         14
   157         31
   158         14
   159         16
   160         37
   161         22
   162         15
   163         41
   164         25
   165         46
   166         52
   167         21
   168         36
   169         60
   170        125
   171         33
   173         23
   174         17
   175         16
   177         16
   178         29
   179         32
   180         31
   181         69
   182         28
   183         39
   191         17
   192         17
   193         22
   194         53
   195         38
   196        116
   198         39
   199         49
   201         14
   204         23
   207         38
   208         41
   209         52
   210         28
   211         23
   212         18
   213         33
   214         15
   215         19
   219         20
   220         29
   221         51
   222         35
   225         21
   229         14
   231         21
   233         21
   234         34
   235         47
   236         38
   237         42
   238         61
   239         19
   241         17
   245         15
   246         31
   247         32
   248         22
   249         38
   250         17
   251         22
   257         17
   259         22
   260         19
   261         21
   262         17
   263         23
   264        102
   265         43
   267         17
   273         23
   274         28
   275         37
   276         33
   277         30
   278         19
   281         31
   285         16
   287         14
   288         15
   289         19
   290         28
   291         22
   292         17
   300         20
   301         22
   302         32
   303         25
   307         64
   308         17
   309         31
   313         14
   314         14
   315         17
   316         16
   326         14
   328         17
   329         17
   330         28
   331         16
   332         15
   336         22
   342         31
   344         34
   346         20
   347         14
   348         26
   354         24
   355         17
   356         22
   357         22
   364         57
   365         66
   366         35
   367         27
   370         45
   371         21
   372         53
   373         16
   374         26
   387         41
   388         16
   389         20
   390         18
   398         71
   399         22
   400         95
   401         43
   402         31
   403         16
   405         16
   417         25
   418         58
   419         23
   420         28
   435        113
   436         29
   437         39
   443         40
   444         49
   445         23
   446         26
   460         41
   461         25
   462         18
   463         20
   478         83
   479         19
   480         34