##TITLE=Library Entry 10712
##JCAMP-DX=Revision 4.10 
##DATA TYPE=MASS SPECTRUM
##SAMPLE DESCRIPTION=NIST Mass Spectrometry Data Center, 1998.
##NAMES=HP
##CAS NAME=2,3-Butanedione, monooxime
##MOLFORM=C4H7NO2
##CAS REGISTRY NO=57-71-6
##MP= -300
##BP= -300
##MW= 101
##$RETENTION INDEX=1789
##$CONDENSED SPECTRUM=NO
##NPOINTS= 43
##XYDATA=(XY..XY) 1 
    13          1
    14          6
    15         37
    16          1
    17          1
    18          1
    25          2
    26         11
    27         19
    28         20
    29          9
    30         13
    31         20
    36          1
    37          4
    38         12
    39         21
    40         46
    41         54
    42        170
    43        999
    44         28
    45          4
    49          2
    50          6
    51          8
    52          7
    53          9
    54         12
    55          8
    56          3
    57          4
    58         72
    59          2
    60          3
    69          5
    70          1
    84          6
    85          1
    86          7
   101        174
   102          9
   103          1