##TITLE=Library Entry 36931
##JCAMP-DX=Revision 4.10 
##DATA TYPE=MASS SPECTRUM
##SAMPLE DESCRIPTION=Japan AIST/NIMC Database- Spectrum MS-NW-1727
##NAMES=HP
##CAS NAME=Ergosterol
##MOLFORM=C28H44O
##CAS REGISTRY NO=57-87-4
##MP= -300
##BP= -300
##MW= 396
##$RETENTION INDEX=3080
##$CONDENSED SPECTRUM=NO
##NPOINTS= 364
##XYDATA=(XY..XY) 1 
    14          1
    15          8
    16          1
    17          9
    18         54
    26          3
    27         63
    28         23
    29        110
    30          4
    31          9
    32          2
    38          2
    39         50
    40          9
    41        407
    42         26
    43        477
    44         16
    45          9
    50          2
    51          9
    52          4
    53         84
    54         13
    55        779
    56         40
    57        243
    58         10
    59         18
    60          3
    61          1
    63          3
    64          2
    65         39
    66         12
    67        261
    68         26
    69        999
    70         71
    71        100
    72          6
    73          2
    74          1
    75          1
    76          3
    77        103
    78         22
    79        188
    80         27
    81        473
    82         62
    83        296
    84         22
    85         18
    86          2
    87          2
    88          1
    89          5
    90          4
    91        246
    92         39
    93        228
    94         43
    95        240
    96         30
    97         89
    98         17
    99         12
   100          2
   101          4
   102          5
   103         25
   104         20
   105        239
   106         40
   107        245
   108         43
   109        243
   110         30
   111         37
   112          6
   113          6
   114          2
   115         77
   116         38
   117        123
   118         74
   119        255
   120         45
   121        108
   122         21
   123         83
   124         30
   125        145
   126         16
   127         31
   128        134
   129        155
   130         55
   131        197
   132         55
   133        150
   134         37
   135         75
   136         16
   137         43
   138          7
   139          9
   140          4
   141        142
   142         95
   143        432
   144        116
   145        365
   146         74
   147        146
   148         25
   149         43
   150         14
   151         26
   152         19
   153         40
   154         35
   155        133
   156         69
   157        353
   158        161
   159        303
   160         61
   161         69
   162         16
   163         31
   164         16
   165         47
   166         25
   167         58
   168         40
   169        145
   170         70
   171        214
   172         59
   173         86
   174         21
   175        136
   176         46
   177         50
   178         26
   179         37
   180         24
   181         75
   182         41
   183        158
   184         56
   185        162
   186         63
   187         53
   188         26
   189         25
   190          9
   191         17
   192         10
   193         28
   194         22
   195         87
   196         47
   197        200
   198         67
   199        177
   200         39
   201         40
   202         12
   203         15
   204          7
   205         13
   206          8
   207         23
   208         16
   209         83
   210         46
   211        287
   212         77
   213        147
   214         38
   215         36
   216         16
   217         73
   218         20
   219         14
   220          9
   221         19
   222         14
   223         54
   224         41
   225         82
   226         79
   227        101
   228         36
   229         58
   230         25
   231         25
   232         13
   233         15
   234         10
   235         33
   236         24
   237        114
   238         53
   239         88
   240         28
   241         24
   242         13
   243         19
   244         31
   245         38
   246         21
   247         12
   248          8
   249         27
   250         24
   251        172
   252         56
   253        501
   254        112
   255         77
   256         26
   257         30
   258         12
   259          9
   260          4
   261          5
   262          4
   263          9
   264          7
   265         30
   266         13
   267         33
   268         32
   269         65
   270         33
   271        246
   272         58
   273         23
   274          6
   275          4
   276          2
   277          8
   278          4
   279         21
   280         15
   281         16
   282          7
   283         16
   284          7
   285          9
   286          5
   287          4
   288          2
   289          3
   290          2
   291          7
   292          3
   293         21
   294          9
   295         11
   296          7
   297         14
   298          9
   299          9
   300          9
   301          5
   302          2
   303          3
   304          1
   305          5
   306          2
   307          9
   308          5
   309         17
   310          7
   311         11
   312          6
   313          6
   314          8
   315          4
   316          3
   317          3
   318          1
   319          5
   320          2
   321          7
   322          3
   323         13
   324          7
   325         13
   326          9
   327          4
   328          3
   329          1
   330          2
   331          2
   332          2
   333          7
   334          4
   335         34
   336         13
   337        332
   338        128
   339         40
   340         11
   341          6
   342          4
   343          2
   344          2
   345          2
   346          2
   347          4
   348          5
   349          9
   350          9
   351          9
   352          6
   353         18
   354          7
   355          5
   356          3
   357          2
   358          4
   359          4
   360          8
   361         25
   362         19
   363        811
   364        238
   365         67
   366         16
   367          9
   368         18
   369          8
   370          3
   371          2
   372          3
   373          2
   374          7
   375          6
   376         49
   377         31
   378         96
   379         40
   380         28
   381         36
   382         11
   383          5
   390          3
   391          2
   392         10
   393          5
   394         32
   395         16
   396        695
   397        219
   398         33
   399          4
   400          1