##TITLE=Library Entry 26624
##JCAMP-DX=Revision 4.10 
##DATA TYPE=MASS SPECTRUM
##SAMPLE DESCRIPTION=RADIAN CORP
##NAMES=HP
##CAS NAME=Testosterone propionate
##MOLFORM=C22H32O3
##CAS REGISTRY NO=57-85-2
##MP= -300
##BP= -300
##MW= 344
##$RETENTION INDEX=2838
##$CONDENSED SPECTRUM=NO
##NPOINTS= 91
##XYDATA=(XY..XY) 1 
    18         18
    27         42
    28         69
    29        335
    32         11
    39         38
    41        151
    43         75
    44         11
    53         64
    55        227
    57        999
    58         39
    65         45
    67        137
    69         39
    77        140
    78         29
    79        207
    80         28
    81        117
    83         28
    91        228
    92         40
    93        144
    94         57
    95        115
    96         27
    97         43
   103          6
   105        176
   106         44
   107        137
   108         41
   109        114
   110         29
   111         30
   115         31
   117         58
   118         12
   119        105
   120         38
   121         84
   122         61
   123        114
   124        539
   125         59
   128          7
   129         31
   131         99
   132         38
   133        119
   134         91
   135         50
   136         33
   137         44
   143         26
   144         38
   145         90
   146        139
   147        366
   148         89
   149         50
   157         20
   158          2
   159         50
   160          9
   161         36
   162          9
   165          2
   171         12
   172          3
   173         10
   174          2
   185         93
   186         26
   187          6
   199         10
   213         54
   227          4
   228        103
   229         23
   230         50
   239          2
   259          7
   268          3
   270         13
   273          2
   288          2
   302         38
   344         30