##TITLE=Library Entry 11744
##JCAMP-DX=Revision 4.10 
##DATA TYPE=MASS SPECTRUM
##SAMPLE DESCRIPTION=D.HENNEBERG, MAX-PLANCK INSTITUTE, MULHEIM, WEST GERMAN
Y
##NAMES=HP
##CAS NAME=Progesterone
##MOLFORM=C21H30O2
##CAS REGISTRY NO=57-83-0
##MP= -300
##BP= -300
##MW= 314
##$RETENTION INDEX=2793
##$CONDENSED SPECTRUM=NO
##NPOINTS= 245
##XYDATA=(XY..XY) 1 
    27         77
    28         26
    29        100
    30          2
    31          5
    32          0
    39         97
    41        314
    42         19
    43        999
    44         15
    45         16
    48          1
    49          3
    50          5
    51         22
    52         18
    53        133
    54         13
    55        238
    56          9
    57         10
    58          6
    59          2
    63          8
    64          3
    65         71
    66         29
    67        234
    68         37
    69         67
    70          7
    71        116
    72          6
    75          6
    76          5
    77        210
    78         51
    79        313
    80         51
    81        176
    82         21
    83         46
    84         77
    85         90
    86         12
    87          1
    88          1
    89          4
    90          5
    91        329
    92         58
    93        225
    94         84
    95        216
    96         39
    97         42
    98          5
    99          6
   100          5
   101          3
   102          5
   103         35
   104         17
   105        209
   106         53
   107        188
   108         65
   109        145
   110         38
   111         37
   112          4
   113          5
   114          5
   115         42
   116         23
   117         82
   118         25
   119        131
   120         71
   121        157
   122        123
   123        142
   124        887
   125        101
   126         10
   127         11
   128         34
   129         39
   130         19
   131         98
   132         52
   133        210
   134        100
   135        134
   136         60
   137         99
   138         34
   139          9
   140          3
   141         18
   142         15
   143         40
   144         23
   145         80
   146         45
   147        186
   148         63
   149        103
   150         22
   151         11
   152          3
   153          7
   154          3
   155         21
   156         12
   157         36
   158         14
   159         75
   160         30
   161         57
   162         21
   163         39
   164         10
   165         11
   166          6
   167          3
   168          3
   169         12
   170          9
   171         33
   172         39
   173         96
   174         48
   175         40
   176         23
   177         33
   178         16
   179          5
   180          2
   181          5
   182          3
   183         12
   184         11
   185         38
   186         18
   187         83
   188         25
   189         28
   190         85
   191        187
   192         35
   193         13
   194          4
   195          4
   196          2
   197         15
   198          8
   199         22
   200         16
   201         44
   202         24
   203         14
   204          5
   205          4
   206          2
   208          1
   209          4
   210          2
   211         41
   212         12
   213         19
   214         18
   215         27
   216         21
   217          5
   218          5
   219          4
   221          1
   222          1
   223          3
   224          3
   225         19
   226         12
   227         47
   228         38
   229        362
   230         78
   231         39
   232         13
   233          1
   234          2
   235          3
   236          3
   237          5
   238          6
   239         17
   240          4
   241          8
   242          3
   243         27
   244        130
   245         27
   246          0
   249          2
   251          4
   252          4
   253         28
   254         24
   255         10
   256         19
   257         47
   258         11
   259          4
   263          2
   264          1
   267          6
   268          5
   269         10
   270         13
   271         41
   272        430
   273         97
   274         10
   278          1
   279          4
   281         14
   282          2
   284          4
   285          6
   286         12
   287          2
   288          0
   295          2
   296         46
   297         12
   299         65
   300         13
   301          3
   312          2
   313          4
   314        701
   315        163
   316         22
   317          1