##TITLE=Library Entry 7213
##JCAMP-DX=Revision 4.10 
##DATA TYPE=MASS SPECTRUM
##SAMPLE DESCRIPTION=NIST Mass Spectrometry Data Center
##NAMES=HP
##CAS NAME=Cholesterol
##MOLFORM=C27H46O
##CAS REGISTRY NO=57-88-5
##MP= -300
##BP= -300
##MW= 386
##$RETENTION INDEX=3087
##$CONDENSED SPECTRUM=NO
##NPOINTS= 274
##XYDATA=(XY..XY) 1 
    26          4
    27         36
    29        128
    30          3
    31          9
    38          3
    39         48
    40         13
    41        559
    42         76
    43        999
    44         36
    45          6
    50          3
    51          8
    52          3
    53        125
    54         21
    55        886
    56         81
    57        744
    58         34
    59          8
    64          2
    65         52
    66         21
    67        375
    68         64
    69        318
    70         29
    71        229
    72         12
    74          3
    77        166
    78         54
    79        498
    80         78
    81        582
    82         68
    83        222
    84         21
    85         53
    86          6
    90          2
    91        567
    92        136
    93        522
    94        145
    95        610
    96         68
    97        140
    98         15
    99         13
   100         11
   102          3
   103         42
   104         43
   105        686
   106        166
   107        661
   108        157
   109        336
   110         48
   111        103
   112         10
   113         11
   114          8
   115         63
   116         43
   117        227
   118        113
   119        457
   120        317
   121        355
   122         83
   123        165
   124         62
   125         92
   126         14
   127         19
   128         67
   129        145
   130         75
   131        338
   132        105
   133        373
   134        129
   135        285
   136         59
   137         66
   138         31
   139         12
   141         31
   142         37
   143        232
   144        100
   145        551
   146        143
   147        292
   148         95
   149        187
   150         38
   151         68
   152         30
   153         10
   154          9
   155         29
   156         21
   157        157
   158        158
   159        429
   160        214
   161        368
   162         93
   163        278
   164         51
   165         55
   166         10
   167          4
   168          8
   169         23
   170         11
   171        128
   172         56
   173        189
   174         58
   175         85
   176         31
   177         61
   178        130
   179         46
   180          4
   181          4
   182          4
   183         18
   184         15
   185        118
   186         48
   187         99
   188         28
   189         58
   190         13
   191         62
   192         18
   193         34
   194         11
   195          2
   196          3
   197         20
   198         10
   199        139
   200         39
   201         71
   202         16
   203         27
   204         10
   205         47
   206         29
   207         20
   208          7
   211         11
   212         11
   213        334
   214         96
   215         59
   216         18
   217         31
   218         14
   219         48
   220         30
   221          6
   225          8
   226          4
   227         55
   228         58
   229         77
   230         25
   231        161
   232         48
   233         22
   234         11
   239         12
   240          5
   241         36
   242         11
   243         15
   244          7
   245         33
   246         42
   247         89
   248         29
   249          3
   252          1
   253          6
   254          5
   255        203
   256         44
   257         18
   258          7
   259         24
   260         32
   261         25
   262         12
   263          3
   267          5
   269          4
   271         17
   272          9
   273        165
   274        142
   275        469
   276        108
   277          8
   278          1
   283         11
   284          3
   285         10
   286          5
   287         14
   288          5
   289          3
   290          1
   295          2
   297          6
   298          3
   299         12
   300         21
   301        411
   302         93
   303         20
   304          3
   311         14
   312          6
   313         27
   314         20
   315         14
   316          9
   317          4
   318          3
   325          6
   326         61
   327         42
   328         20
   329         36
   330         10
   331          4
   337          1
   338          2
   339         10
   340         14
   341          5
   342         14
   343         13
   344          7
   345          3
   351          2
   353        285
   354         87
   355         18
   356          4
   357          9
   358          5
   367          4
   368        301
   369        102
   371        259
   372         73
   373         13
   384         16
   385          4
   386        681
   387        209
   388         29
   389          3