##TITLE=Library Entry 89535
##JCAMP-DX=Revision 4.10 
##DATA TYPE=MASS SPECTRUM
##SAMPLE DESCRIPTION=Japan AIST/NIMC Database- Spectrum MS-IW- 829
##NAMES=HP
##CAS NAME=4,5-Imidazoledicarboxylic acid
##MOLFORM=C5H4N2O4
##CAS REGISTRY NO=570-22-9
##MP= -300
##BP= -300
##MW= 156
##$RETENTION INDEX=0
##$CONDENSED SPECTRUM=NO
##NPOINTS= 68
##XYDATA=(XY..XY) 1 
    12          2
    13          1
    14          3
    16          8
    18          2
    25          1
    26          3
    27         21
    28        158
    29         27
    30          2
    33          6
    34          1
    36          4
    38         30
    39         54
    40        209
    41        107
    42         11
    43          2
    44        329
    45         19
    46          2
    50          1
    51          2
    52          4
    53          8
    54          5
    55          6
    56          9
    57         10
    64          2
    65         10
    66         24
    67        348
    68        323
    69         15
    70          1
    71          1
    73          1
    81          1
    82          1
    83          3
    84         14
    85          9
    91          1
    93          9
    94        454
    95        205
    96         11
    97          1
   107          1
   110          1
   111          4
   112        999
   113         66
   114          6
   118          3
   121         81
   122          5
   134          1
   135          1
   138          9
   139         20
   140          1
   156        103
   157         15
   158          1