##TITLE=Library Entry 60291
##JCAMP-DX=Revision 4.10 
##DATA TYPE=MASS SPECTRUM
##SAMPLE DESCRIPTION=J.M.WHITE GEN. MILLS RES. LAB., MINNEAPOLIS, MINN., USA
##NAMES=HP
##CAS NAME=Pregnan-20-one, 3,17-dihydroxy-, (3.beta.,5.beta.)-
##MOLFORM=C21H34O3
##CAS REGISTRY NO=570-53-6
##MP= -300
##BP= -300
##MW= 334
##$RETENTION INDEX=0
##$CONDENSED SPECTRUM=NO
##NPOINTS= 269
##XYDATA=(XY..XY) 1 
    50         28
    51        148
    52         95
    53        570
    54        268
    55        942
    56         72
    57        245
    58        167
    59         60
    60         32
    61         29
    62         10
    63         51
    64         28
    65        277
    66        136
    67        825
    68        210
    69        280
    70         47
    71        359
    72         70
    73         17
    74         15
    75         28
    76         18
    77        675
    78        182
    79        990
    80        200
    81        760
    82        189
    83        157
    84         75
    85         67
    86         12
    87        120
    88         25
    89         32
    90         17
    91        999
    92        218
    93        975
    94        327
    95        570
    96         85
    97        110
    98         25
    99         18
   100        128
   101         27
   102         22
   103         79
   104         69
   105        650
   106        259
   107        800
   108        500
   109        430
   110         81
   111         85
   112         18
   113         20
   114         15
   115        135
   116         60
   117        180
   118         88
   119        358
   120        211
   121        468
   122        192
   123        260
   124         87
   125         52
   126         20
   127         40
   128         95
   129        110
   130         47
   131        199
   132         66
   133        313
   134        190
   135        351
   136        130
   137         88
   138         23
   139         19
   140         10
   141         56
   142         37
   143         90
   144         40
   145        276
   146         87
   147        468
   148        182
   149        248
   150         47
   151         40
   152         25
   153         27
   154         15
   155         37
   156         20
   157         85
   158         48
   159        230
   160        118
   161        391
   162        135
   163        126
   164         30
   165         61
   166         33
   167         32
   168         10
   169         27
   170         18
   171         67
   172         50
   173        194
   174         97
   175        185
   176        168
   177         62
   178         36
   179         41
   180         16
   181         15
   182          5
   183         25
   184         15
   185         50
   186         21
   187        132
   188         91
   189         94
   190         41
   191         42
   192         17
   193         17
   194         10
   195         12
   196          5
   197         30
   198         15
   199         85
   200         32
   201        180
   202         85
   203         85
   204         25
   205         20
   206         15
   207         12
   208         10
   209         12
   210          6
   211         28
   212         18
   213        115
   214         65
   215        488
   216        188
   217        282
   218         70
   219         27
   220         12
   221         10
   222          5
   223         11
   224          8
   225         22
   226         30
   227         62
   228        105
   229        460
   230        710
   231        225
   232         52
   233         74
   234         84
   235         16
   236          5
   237         10
   238         12
   239         32
   240         25
   241         55
   242         58
   243         68
   244        128
   245         50
   246         58
   247         25
   248         35
   249         20
   250          5
   251         15
   252         10
   253         43
   254         33
   255        570
   256        190
   257         65
   258         40
   259         24
   260         10
   261         12
   262         47
   263         17
   265         40
   266          5
   267         18
   268         12
   269         48
   270        180
   271         85
   272         30
   273        290
   274         90
   275         16
   276         15
   277          5
   278          5
   279          5
   280         45
   281         35
   282         20
   283        267
   284         63
   285         30
   286         18
   287         25
   288        314
   289         70
   290         12
   291         80
   292         19
   294          8
   295          5
   296         49
   297         25
   298        438
   299        120
   300         60
   301         88
   302         15
   303          5
   304          5
   306         45
   307          6
   310         10
   312         13
   313          5
   314         55
   315         45
   316        550
   317        132
   318         35
   319          7
   330         10
   332         12
   333          5
   334        127
   335         30