##TITLE=Library Entry 2933
##JCAMP-DX=Revision 4.10 
##DATA TYPE=MASS SPECTRUM
##SAMPLE DESCRIPTION=CARL DJERASSI DEPT OF CHEM STANFORD UNIV STANFORD CALIF
 94305
##NAMES=HP
##CAS NAME=Androstan-11-one, 3-hydroxy-, (3.beta.,5.alpha.)-
##MOLFORM=C19H30O2
##CAS REGISTRY NO=570-27-4
##MP= -300
##BP= -300
##MW= 290
##$RETENTION INDEX=0
##$CONDENSED SPECTRUM=NO
##NPOINTS= 138
##XYDATA=(XY..XY) 1 
    41        999
    42        100
    43        420
    44        100
    45         20
    50         10
    51         50
    52         30
    53        320
    54         70
    55        800
    56         50
    57        220
    58         20
    65        100
    66         50
    67        650
    68        120
    69        200
    70         40
    71         20
    77        270
    78         60
    79        550
    80        150
    81        700
    82        200
    83        100
    84         10
    85         10
    91        450
    92         60
    93        490
    94        170
    95        500
    96        150
    97         60
   103         20
   104         20
   105        350
   106        150
   107        350
   108        370
   109        300
   110         50
   111         20
   115         20
   117         60
   118        100
   119        170
   120        120
   121        200
   122        120
   123         70
   124        500
   125         60
   129         20
   130         10
   131         90
   132         20
   133        150
   134         70
   135        170
   136         90
   137         20
   143         20
   145         70
   146         20
   147        510
   148        170
   149        370
   150         50
   151        370
   152         50
   157         20
   159         30
   160         20
   161         50
   162         40
   163         30
   164        550
   165        120
   166         10
   171         10
   172         10
   173         40
   174         20
   175         40
   176         20
   177        740
   178        140
   179         20
   185         10
   187         30
   188         10
   189         30
   190         20
   191         20
   193        250
   194         40
   199         20
   201         20
   202         10
   203         20
   204         10
   205         20
   207         20
   213         50
   214         10
   215         30
   216         10
   217         40
   218         30
   219         10
   223         10
   228         30
   229         20
   230         10
   231         20
   232         10
   233         10
   239         70
   240         10
   243         20
   244         20
   245         10
   246         70
   247         20
   254         20
   257         90
   258         20
   271         10
   272         70
   273         20
   275         20
   290        500
   291        120
   292         10