##TITLE=Library Entry 96918
##JCAMP-DX=Revision 4.10 
##DATA TYPE=MASS SPECTRUM
##SAMPLE DESCRIPTION=Chemical Concepts
##NAMES=HP
##CAS NAME=Chromium, [(1,2,3,4,5,6-.eta.)-1,3,5,7-cyclooctatetraene](.eta.5-
2,4-cyclopentadien-1-yl)-
##MOLFORM=C13H13Cr
##CAS REGISTRY NO=57002-78-5
##MP= -300
##BP= -300
##MW= 221
##$RETENTION INDEX=0
##$CONDENSED SPECTRUM=NO
##NPOINTS= 124
##XYDATA=(XY..XY) 1 
    26          8
    27         10
    28         20
    29          0
    30          0
    31          0
    36          0
    37          2
    38          7
    39         40
    40          4
    41          1
    44          0
    48          0
    49          0
    50         33
    51         31
    52        761
    53         82
    54         19
    55          0
    59          0
    60          0
    61          2
    62          4
    63         12
    64          2
    65         13
    66          7
    67          0
    69          0
    70          1
    71          0
    73          0
    74          4
    75          3
    76          3
    77         26
    78         32
    79          2
    80          0
    86          0
    87          0
    88          1
    89          3
    90         23
    91          7
    92          1
    93          0
    94          0
    96          0
    98         17
    99          0
   101          3
   102          3
   103         24
   104         27
   105          3
   107          0
   108          0
   109          0
   111          2
   113          0
   114          1
   115         46
   116          4
   117        999
   118        155
   119         34
   120          1
   122          0
   125          0
   127          1
   128          1
   129          6
   130          2
   131          0
   139          0
   140          0
   141          2
   142          3
   143         23
   144          4
   145          1
   150          0
   152          2
   153          2
   154         40
   155         22
   156          5
   157          1
   165          1
   166          0
   167          0
   170          0
   172          4
   173          2
   174          0
   179          0
   180          1
   181          0
   182         11
   183          1
   184          0
   185          0
   190          0
   191          0
   192          0
   193          7
   194          2
   195        118
   196         27
   197          5
   198          0
   206          1
   207          1
   217          2
   218          4
   219         44
   220         60
   221        330
   222         84
   223         17
   224          1