##TITLE=Library Entry 17239
##JCAMP-DX=Revision 4.10 
##DATA TYPE=MASS SPECTRUM
##SAMPLE DESCRIPTION=J.Little, Eastman Chem. Comp.,Kingsport
##NAMES=HP
##CAS NAME=Butane, 1-(1-ethoxyethoxy)-
##MOLFORM=C8H18O2
##CAS REGISTRY NO=57006-87-8
##MP= -300
##BP= -300
##MW= 146
##$RETENTION INDEX=872
##$CONDENSED SPECTRUM=NO
##NPOINTS= 29
##XYDATA=(XY..XY) 1 
    15         16
    27        102
    28        133
    29        250
    31         36
    32         16
    39         36
    41        167
    43        117
    44         37
    45        999
    47        117
    55         27
    56         37
    57        320
    58          9
    61         25
    72         14
    73        948
    74         39
    75        183
    83          3
    85          3
    89         10
   101        176
   102         10
   103         12
   131        176
   132         12