##TITLE=Library Entry 114742
##JCAMP-DX=Revision 4.10 
##DATA TYPE=MASS SPECTRUM
##SAMPLE DESCRIPTION=Institute of Organic Chemistry, Novosibirsk, USSR 1988
##NAMES=HP
##CAS NAME=1,3-Diazacycloheptane-2-thione
##MOLFORM=C5H10N2S
##CAS REGISTRY NO=5700-04-9
##MP= -300
##BP= -300
##MW= 130
##$RETENTION INDEX=0
##$CONDENSED SPECTRUM=NO
##NPOINTS= 32
##XYDATA=(XY..XY) 1 
    54         47
    55         99
    56        323
    57         94
    58         61
    59         26
    60         23
    65         35
    69        323
    70        182
    72        170
    73         85
    74        470
    75         44
    76         38
    83         49
    85         23
    86         23
    87         67
    88         67
    89         17
    96         29
    97         49
   100         32
   101         20
   102         17
   115         44
   128         14
   129         61
   130        999
   131         91
   132         61