##TITLE=Library Entry 33626
##JCAMP-DX=Revision 4.10 
##DATA TYPE=MASS SPECTRUM
##SAMPLE DESCRIPTION=Chemical Concepts
##NAMES=HP
##CAS NAME=8,10-Dodecadien-1-ol
##MOLFORM=C12H22O
##CAS REGISTRY NO=57002-06-9
##MP= -300
##BP= -300
##MW= 182
##$RETENTION INDEX=1475
##$CONDENSED SPECTRUM=NO
##NPOINTS= 113
##XYDATA=(XY..XY) 1 
    25          0
    26          6
    27        106
    28         12
    29        108
    30          2
    31         99
    37          0
    38          3
    39        120
    40         19
    41        388
    42         32
    43         54
    44          4
    45         11
    49          0
    50          4
    51         24
    52         16
    53        182
    54         61
    55        284
    56         17
    57         20
    58          4
    59          3
    61          0
    62          0
    63          5
    64          1
    65         48
    66         65
    67        566
    68        999
    69         99
    70         18
    71         27
    72          3
    73          0
    74          0
    75          0
    76          0
    77         73
    78         21
    79        488
    80        150
    81        951
    82        311
    83         53
    84         24
    85         15
    86          6
    87          0
    89          0
    91         38
    92          9
    93        159
    94        140
    95        169
    96        157
    97         40
    98         70
    99          9
   100         13
   101          1
   103          0
   105          6
   106          2
   107         79
   108         56
   109         64
   110         23
   111         32
   112         20
   113          2
   114          3
   115          0
   116          0
   117          0
   119          1
   120          1
   121         97
   122         38
   123         19
   124          2
   125          8
   126          5
   127          1
   128          0
   133          0
   134          0
   135         74
   136         15
   137          2
   138         14
   139          8
   140          2
   141          0
   149          6
   150          1
   151          3
   152          0
   153          2
   154          0
   163          1
   164         41
   165          5
   167          0
   181          0
   182        308
   183         41
   184          2