##TITLE=Library Entry 82681
##JCAMP-DX=Revision 4.10 
##DATA TYPE=MASS SPECTRUM
##SAMPLE DESCRIPTION=D.HENNEBERG, MAX-PLANCK INSTITUTE, MULHEIM, WEST GERMAN
Y
##NAMES=HP
##CAS NAME=1,2-Ethanediamine, 1,2-diphenyl-
##MOLFORM=C14H16N2
##CAS REGISTRY NO=5700-60-7
##MP= -300
##BP= -300
##MW= 212
##$RETENTION INDEX=0
##$CONDENSED SPECTRUM=NO
##NPOINTS= 132
##XYDATA=(XY..XY) 1 
    27          8
    28        179
    29          4
    30          2
    32          6
    35          0
    36          1
    38          0
    39          7
    40          1
    41          6
    42          1
    43          4
    44          3
    45          0
    47          0
    49          1
    50          6
    51         18
    52          8
    53          3
    54          1
    55          5
    56          1
    57          2
    58          0
    59          1
    60          0
    62          0
    63          3
    64          2
    65          3
    66          0
    67          3
    68          1
    69          3
    70          0
    71          0
    73          0
    74          1
    75          2
    76          5
    77         78
    78         28
    79        187
    80         13
    81          4
    82          0
    83          3
    85          0
    88          0
    89          4
    90          4
    91          8
    92         10
    93          2
    95          3
    96          0
    97          0
    99          0
   102          1
   103          7
   104         63
   105         48
   106        999
   107         85
   108          3
   115          1
   116          3
   117          2
   118          3
   119          0
   120          0
   123          1
   126          0
   128          1
   129          0
   130          0
   131          0
   132          2
   133          1
   134          1
   137          0
   138          0
   139          0
   141          0
   143          0
   144          0
   145          1
   146          2
   147          1
   148          0
   149          2
   150          0
   151          0
   152          3
   153          1
   154          0
   156          0
   157          0
   159          5
   160          1
   161          1
   164          0
   165          7
   166          2
   167          4
   168          3
   169          0
   171          0
   173          4
   174          0
   176          1
   177          1
   178          5
   179          3
   180          5
   181          1
   183          0
   184          0
   187          0
   191          0
   192          1
   193          5
   194         11
   195         20
   196          2
   197          0
   201          2
   202          0
   210          0
   213          0