##TITLE=Library Entry 25015
##JCAMP-DX=Revision 4.10 
##DATA TYPE=MASS SPECTRUM
##SAMPLE DESCRIPTION=NIST Mass Spectrometry Data Center, 2009
##NAMES=HP
##CAS NAME=2-Propanol, 1-(1,1-dimethylethoxy)-
##MOLFORM=C7H16O2
##CAS REGISTRY NO=57018-52-7
##MP= -300
##BP= -300
##MW= 132
##$RETENTION INDEX=862
##$CONDENSED SPECTRUM=NO
##NPOINTS= 55
##XYDATA=(XY..XY) 1 
    14          1
    15          6
    19          3
    26          2
    27         30
    28          8
    29         86
    30          3
    31         58
    37          1
    38          3
    39         56
    40         11
    41        236
    42         35
    43         81
    44         14
    45        219
    46          6
    47          3
    49          1
    50          3
    51         11
    52          1
    53          5
    54          1
    55         23
    56        124
    57        999
    58         54
    59        492
    60         16
    61          4
    71          1
    72          4
    73         16
    74          5
    75        105
    76          4
    77         30
    78          1
    79          1
    85          2
    86          1
    87         29
    88          3
    89          1
    99          1
   100          4
   101         10
   102          5
   104          2
   117        106
   118          8
   119          1