##TITLE=Library Entry 37311
##JCAMP-DX=Revision 4.10 
##DATA TYPE=MASS SPECTRUM
##SAMPLE DESCRIPTION=D.HENNEBERG, MAX-PLANCK INSTITUTE, MULHEIM, WEST GERMAN
Y
##NAMES=HP
##CAS NAME=2-Undecene, 3-methyl-, (Z)-
##MOLFORM=C12H24
##CAS REGISTRY NO=57024-90-5
##MP= -300
##BP= -300
##MW= 168
##$RETENTION INDEX=0
##$CONDENSED SPECTRUM=NO
##NPOINTS= 79
##XYDATA=(XY..XY) 1 
    24          3
    25          1
    26          8
    27         65
    28         29
    29        117
    30          2
    31          1
    35          1
    36          1
    38          1
    39         64
    40         13
    41        375
    42        137
    43        177
    44          3
    45          3
    46          1
    48          0
    49          0
    50          3
    51          5
    53         35
    54         21
    55        475
    56        146
    57        143
    58          6
    59          1
    63          0
    65          5
    66          3
    67         48
    68         29
    69        272
    70        999
    71        211
    72          9
    73          1
    74          0
    75          4
    77          3
    78          2
    79          8
    80          1
    81         22
    82         14
    83        185
    84         29
    85          6
    86          1
    89          0
    91          3
    92          1
    93          0
    95          5
    96          4
    97         39
    98         12
    99          2
   105          0
   109          2
   110          0
   111          7
   112          3
   113          0
   114          0
   115          4
   117          0
   125          0
   129          0
   138          5
   139         10
   140          4
   166          0
   167          0
   168         53
   169          5