##TITLE=Library Entry 57011
##JCAMP-DX=Revision 4.10 
##DATA TYPE=MASS SPECTRUM
##SAMPLE DESCRIPTION=Chemical Concepts
##NAMES=HP
##CAS NAME=1,3-Dioxane, 2-heptyl-
##MOLFORM=C11H22O2
##CAS REGISTRY NO=5702-44-3
##MP= -300
##BP= -300
##MW= 186
##$RETENTION INDEX=0
##$CONDENSED SPECTRUM=NO
##NPOINTS= 89
##XYDATA=(XY..XY) 1 
    25          0
    26          4
    27         43
    28          7
    29         60
    30          3
    31        151
    33          0
    34          0
    36          0
    37          0
    38          1
    39         27
    40         66
    41        161
    42         22
    43         63
    44         27
    45         13
    46          0
    47          0
    50          0
    51          1
    52          0
    53          5
    54          4
    55         43
    56         22
    57         65
    58         56
    59        131
    60          6
    61          1
    63          0
    64          4
    65          1
    66          2
    67         15
    68          7
    69         27
    70          3
    71          6
    72          1
    73          7
    74          1
    75          3
    77          2
    78          0
    79          2
    80          0
    81          9
    82          6
    83          6
    84          7
    85          4
    86          1
    87        999
    88         37
    89          3
    90          0
    91          0
    92          0
    93          0
    95          3
    97          1
    98          0
    99          2
   100          3
   101          1
   102         12
   103          1
   104          0
   109          4
   110          3
   111          1
   113          4
   114          0
   115          4
   116          0
   117          0
   127         18
   128          1
   129          2
   143          0
   157          0
   158          1
   185         28
   186          3
   187          0