##TITLE=Library Entry 23687
##JCAMP-DX=Revision 4.10 
##DATA TYPE=MASS SPECTRUM
##SAMPLE DESCRIPTION=A.A.Kutin, Moscow, Russia
##NAMES=HP
##CAS NAME=Propanoic acid, 2,2-dimethyl-, 2,4-dinitrophenyl ester
##MOLFORM=C11H12N2O6
##CAS REGISTRY NO=57025-45-3
##MP= -300
##BP= -300
##MW= 268
##$RETENTION INDEX=0
##$CONDENSED SPECTRUM=NO
##NPOINTS= 41
##XYDATA=(XY..XY) 1 
    33         11
    37          2
    39         61
    41        259
    43          8
    44          1
    45          0
    46          1
    50          6
    51         11
    53         11
    57        999
    62         21
    63         21
    64          2
    65          0
    66          0
    67          0
    69         25
    70          5
    71          9
    74          4
    75          3
    77          1
    78          1
    79          8
    80          0
    83          0
    85        125
    88          0
    91          3
    93          4
    98          0
    99          0
   107          0
   120          0
   138          0
   154          0
   167          1
   168          1
   184          0