##TITLE=Library Entry 16699
##JCAMP-DX=Revision 4.10 
##DATA TYPE=MASS SPECTRUM
##SAMPLE DESCRIPTION=M. PECHAL, SHOE & LEATHER RES. INST., GOTTWALDOV, CZ
##NAMES=HP
##CAS NAME=2-Hydroxy-3-pentanone
##MOLFORM=C5H10O2
##CAS REGISTRY NO=5704-20-1
##MP= -300
##BP= -300
##MW= 102
##$RETENTION INDEX=821
##$CONDENSED SPECTRUM=NO
##NPOINTS= 47
##XYDATA=(XY..XY) 1 
    15        131
    16         16
    17         39
    18        166
    19        136
    25         10
    26        104
    27        405
    28        214
    29        980
    30         34
    31        301
    32         11
    38         23
    39         82
    40         17
    41        214
    42         56
    43        480
    44         49
    45        999
    46         48
    47         11
    50         18
    51         10
    52         15
    53         24
    54         13
    55        182
    56         63
    57        937
    58        318
    59        307
    60         12
    65         12
    66         21
    67         14
    68         15
    69         31
    71         10
    73         18
    74         15
    84         36
    85          9
    87         10
   102         32
   103         18