##TITLE=Library Entry 84476
##JCAMP-DX=Revision 4.10 
##DATA TYPE=MASS SPECTRUM
##SAMPLE DESCRIPTION=V.G.Zaikin, TIPS, Russian Acad. Sci.
##NAMES=HP
##CAS NAME=1,3-Dimethyl-5-(propen-1-yl)adamantane
##MOLFORM=C15H24
##CAS REGISTRY NO=57040-48-9
##MP= -300
##BP= -300
##MW= 204
##$RETENTION INDEX=0
##$CONDENSED SPECTRUM=NO
##NPOINTS= 50
##XYDATA=(XY..XY) 1 
    51         40
    52         20
    53        110
    54         20
    55        455
    56         30
    57         40
    65         80
    66         40
    67        110
    68         20
    69         80
    70         10
    71         20
    77         10
    79         20
    91        370
    92         80
    93        340
    94         50
    95        120
    96         20
   105        500
   106        110
   107        999
   108        135
   109        160
   117         20
   118         50
   119        210
   120        120
   121        200
   131         20
   132         30
   133        920
   134        130
   135         40
   147        520
   148        130
   149         80
   161         40
   162         20
   163         80
   164         10
   175         30
   189         70
   204        999
   205        165
   206         13
   207          0