##TITLE=Library Entry 8342
##JCAMP-DX=Revision 4.10 
##DATA TYPE=MASS SPECTRUM
##SAMPLE DESCRIPTION=Chemical Concepts
##NAMES=HP
##CAS NAME=N-Phenoxyacetamide
##MOLFORM=C8H9NO2
##CAS REGISTRY NO=57047-65-1
##MP= -300
##BP= -300
##MW= 151
##$RETENTION INDEX=0
##$CONDENSED SPECTRUM=NO
##NPOINTS= 87
##XYDATA=(XY..XY) 1 
    25          6
    26         28
    27         52
    28        109
    29         27
    30          9
    31         19
    33          2
    35          0
    36          4
    37         44
    38        128
    39        480
    40        137
    41        148
    42         54
    43        999
    45         69
    46          6
    47         21
    48          2
    49         10
    50         58
    51        113
    52         36
    53         36
    54         12
    55         55
    56         11
    57         18
    58          9
    59         36
    60         15
    61         23
    62         46
    63        113
    64         63
    65        820
    66        192
    67         41
    68          8
    69          1
    71          1
    72          1
    73          4
    74         15
    75          9
    76         10
    77         77
    78         31
    79         29
    80        101
    81         68
    82         45
    83         14
    84          3
    85          1
    86          1
    87          1
    90          1
    91         27
    92         25
    93        586
    94        667
    95        167
    96         12
    97          1
   103          2
   104          4
   105          7
   106          5
   107         17
   108         33
   109        688
   110        313
   112         48
   113          3
   114          0
   122          1
   126          1
   132         23
   133          4
   134          3
   135          1
   149          2
   151        296
   152         12