##TITLE=Library Entry 58780
##JCAMP-DX=Revision 4.10 
##DATA TYPE=MASS SPECTRUM
##SAMPLE DESCRIPTION=A.KONNECKE KARL-MARX UNIV., LEIPZIG 701, GERMANY, G.D.R
.
##NAMES=HP
##CAS NAME=2H-Tetrazole, 2-(4-bromophenyl)-
##MOLFORM=C7H5BrN4
##CAS REGISTRY NO=57058-02-3
##MP= -300
##BP= -300
##MW= 224
##$RETENTION INDEX=0
##$CONDENSED SPECTRUM=NO
##NPOINTS= 43
##XYDATA=(XY..XY) 1 
    32         36
    36         17
    37        131
    38        200
    39        289
    40         24
    41         11
    44         18
    45         87
    49         37
    50        222
    51         69
    52         36
    61         69
    62        160
    63        658
    64        222
    65         38
    73         31
    74         80
    75        105
    76         80
    77         10
    87         17
    88         38
    89         76
    90        999
    91         85
    92         18
   117         17
   155         18
   157         16
   169        600
   170         51
   171        611
   172         45
   173         22
   196        200
   197         18
   198        200
   199         16
   224         27
   226         27