##TITLE=Library Entry 97876
##JCAMP-DX=Revision 4.10 
##DATA TYPE=MASS SPECTRUM
##SAMPLE DESCRIPTION=Chemical Concepts
##NAMES=HP
##CAS NAME=2-Methylbenzaldehyde, thiosemicarbazone
##MOLFORM=C9H11N3S
##CAS REGISTRY NO=5706-81-0
##MP= -300
##BP= -300
##MW= 193
##$RETENTION INDEX=0
##$CONDENSED SPECTRUM=NO
##NPOINTS= 152
##XYDATA=(XY..XY) 1 
    26          7
    27         41
    28          8
    29          9
    30         13
    31          2
    33         10
    34          8
    35          1
    36          1
    37          7
    38         22
    39        148
    40         14
    41         40
    42         23
    43        789
    44         18
    45         11
    46          4
    47         10
    48         19
    49          3
    50         50
    51        113
    52         46
    53         27
    54          6
    55          8
    56          4
    57         12
    58          5
    59         42
    60        292
    61         22
    62         44
    63        115
    64         43
    65        224
    66         24
    67          6
    68          4
    69          8
    70          4
    71          6
    72          2
    73          4
    74         28
    75         40
    76        876
    77        233
    78        123
    79         82
    80         10
    81          4
    82          2
    83          4
    84          2
    85          4
    86          5
    87         10
    88         11
    89        147
    90        242
    91        329
    92        101
    93         27
    94          4
    95          2
    96          5
    97          3
    98          2
    99          2
   100          1
   101          7
   102        118
   103        102
   104         78
   105         36
   106        111
   107         20
   108          2
   109          2
   110          1
   111          2
   112          1
   113          1
   114          3
   115          7
   116        181
   117        428
   118        999
   119        177
   120         41
   121         13
   122          3
   123          3
   124          2
   125          1
   126          1
   127          1
   128          2
   129          3
   130          5
   131         20
   132         18
   133        163
   134         32
   135         15
   136         12
   137          9
   138          2
   139          1
   140          0
   141          2
   142          2
   143          5
   144          4
   145          1
   146          1
   147          5
   148          3
   149         22
   150         19
   151          8
   152          2
   153          1
   154          0
   155          1
   157          1
   158          3
   159          8
   160         19
   161          3
   162         14
   163          2
   164          1
   165          1
   167          1
   174          1
   175          5
   176         28
   177          4
   178          4
   179          1
   191          1
   192         20
   193        816
   194        113
   195         46
   196          5
   197          1