##TITLE=Library Entry 3191
##JCAMP-DX=Revision 4.10 
##DATA TYPE=MASS SPECTRUM
##SAMPLE DESCRIPTION=NIST Mass Spectrometry Data Center, 1994
##NAMES=HP
##CAS NAME=(Z)-4-Decen-1-ol
##MOLFORM=C10H20O
##CAS REGISTRY NO=57074-37-0
##MP= -300
##BP= -300
##MW= 156
##$RETENTION INDEX=1257
##$CONDENSED SPECTRUM=NO
##NPOINTS= 72
##XYDATA=(XY..XY) 1 
    15         40
    16          0
    17          0
    18          5
    26         28
    27        483
    28         96
    29        603
    30         24
    31        387
    32          7
    37          3
    38         16
    39        424
    40         89
    41        999
    42        177
    43        300
    44        110
    45         41
    46          1
    50         13
    51         40
    52         27
    53        238
    54        420
    55        634
    56        144
    57        241
    58         20
    62          2
    63          8
    65         60
    66         71
    67        691
    68        614
    69        217
    70         74
    71         75
    72          9
    73          3
    75          1
    77         44
    79        176
    80         44
    81        566
    82        288
    83         83
    84         27
    85         11
    86          3
    91         10
    92          1
    93         15
    94          1
    95        190
    96        124
    97         25
    98          3
    99          6
   100          1
   107          1
   109         64
   110         75
   111          8
   112          5
   113          2
   123          4
   128          2
   138         33
   139          3
   156          2