##TITLE=Library Entry 98390
##JCAMP-DX=Revision 4.10 
##DATA TYPE=MASS SPECTRUM
##SAMPLE DESCRIPTION=A.S.Moskovkin,I.M.Karnaukh, Russian Center on Disaster
 Medicine
##NAMES=HP
##CAS NAME=3,5-Dimethyl-2,6-diphenylpiperidin-4-one
##MOLFORM=C19H21NO
##CAS REGISTRY NO=5707-11-9
##MP= -300
##BP= -300
##MW= 279
##$RETENTION INDEX=0
##$CONDENSED SPECTRUM=NO
##NPOINTS= 161
##XYDATA=(XY..XY) 1 
    37          7
    38         12
    39         57
    40         50
    41         37
    42         19
    43         75
    44         15
    45          2
    47         21
    48          9
    49         10
    50         30
    51         66
    52         24
    53         13
    54         11
    55         79
    56         47
    57         42
    58         26
    59          2
    61          2
    62          8
    63         34
    64         14
    65         62
    66          8
    67          6
    68         11
    69         10
    70          3
    71          5
    72          2
    73          2
    74          9
    75         12
    76         27
    77        160
    78        110
    79         62
    80          5
    81          2
    82          7
    83         90
    84         14
    85         59
    86          4
    87         13
    88          4
    89         77
    90         62
    91        380
    92         40
    93          3
    95          2
    96          4
    97         12
    98          2
    99          5
   101          4
   102         25
   103        110
   104        210
   105        100
   106        410
   107         52
   108          4
   112          6
   113         17
   114          7
   115        210
   116        180
   117        830
   118        999
   119        110
   120          8
   125          1
   126          2
   127          6
   128         15
   129         13
   130         30
   131         48
   132        170
   133        520
   134         56
   135          3
   139          3
   140          2
   141          6
   142          4
   143          7
   144         21
   145         28
   146        260
   147         36
   148          2
   151          2
   152         20
   153          4
   154          2
   156          2
   157          3
   158          5
   159          6
   160          7
   161          2
   163          2
   164          3
   165         40
   166         22
   167         36
   168          7
   169          2
   171          2
   172          5
   173          3
   174         15
   175          2
   176          2
   177          2
   178          8
   179          4
   180          6
   181          2
   186          2
   188         20
   189          4
   190          2
   191          3
   192          7
   193         44
   194        820
   195        200
   196         20
   202          8
   203          7
   204          2
   205          2
   206          4
   207          2
   208          6
   209          1
   219          1
   220          4
   221          3
   222         71
   223         13
   234          2
   250          2
   262          1
   264          5
   265          3
   276          5
   277          8
   278          6
   279        510
   280        109
   281         11
   282          1