##TITLE=Library Entry 109287
##JCAMP-DX=Revision 4.10 
##DATA TYPE=MASS SPECTRUM
##SAMPLE DESCRIPTION=NIST Mass Spectrometry Data Center, 1998.
##NAMES=HP
##CAS NAME=Drazoxolon
##MOLFORM=C10H8ClN3O2
##CAS REGISTRY NO=5707-69-7
##MP= -300
##BP= -300
##MW= 237
##$RETENTION INDEX=0
##$CONDENSED SPECTRUM=NO
##NPOINTS= 143
##XYDATA=(XY..XY) 1 
    14          1
    15         10
    16          1
    25          1
    26          8
    27         17
    28         14
    29          2
    30         15
    35          1
    36          2
    37         18
    38         46
    39         99
    40         29
    41         36
    42         46
    43          3
    44         37
    45         20
    47          4
    48          1
    49         14
    50         47
    51         46
    52         56
    53         15
    54         15
    55          2
    57          1
    58          1
    60          3
    61         21
    62         65
    63        215
    64        102
    65         49
    66          8
    67         49
    68          3
    69          8
    70         10
    71          1
    72          9
    73         94
    74         29
    75        116
    76         26
    77         14
    78          3
    79          1
    80          1
    81          1
    82          1
    83          2
    84          5
    85         13
    86          6
    87         10
    88         16
    89         83
    90        435
    91         77
    92         11
    93          1
    96          1
    97          9
    98         55
    99        289
   100         31
   101         94
   102          9
   103          2
   104          1
   105          2
   106          1
   108          1
   109          1
   110          2
   111        138
   112         15
   113         45
   114          7
   115          7
   116          9
   117         22
   118          3
   119          1
   122          1
   123          9
   125        999
   126        124
   127        357
   128         41
   129         13
   130          2
   131          1
   132          1
   137          1
   138          3
   139         82
   140          7
   141         26
   142          3
   143          3
   144          1
   145          1
   151          4
   152         21
   153          4
   154          7
   155          1
   156          1
   158          1
   164          1
   165          1
   166          7
   167          4
   168          3
   169          1
   177          1
   178          1
   179          2
   180          1
   181          1
   192          3
   193          1
   194          1
   195          1
   196         42
   197          4
   198         13
   199          1
   219        178
   220         22
   221         58
   222          7
   223          1
   237        188
   238         23
   239         62
   240          7
   241          1