##TITLE=Library Entry 35462
##JCAMP-DX=Revision 4.10 
##DATA TYPE=MASS SPECTRUM
##SAMPLE DESCRIPTION=Chemical Concepts
##NAMES=HP
##CAS NAME=1H-Imidazole, 1-octadecyl-
##MOLFORM=C21H40N2
##CAS REGISTRY NO=5709-33-1
##MP= -300
##BP= -300
##MW= 320
##$RETENTION INDEX=0
##$CONDENSED SPECTRUM=NO
##NPOINTS= 210
##XYDATA=(XY..XY) 1 
    25          8
    27         61
    28         47
    29        174
    30         12
    31          2
    38          3
    40         55
    41         22
    42        482
    43        102
    44        500
    45         31
    46         30
    50          5
    51          8
    52         11
    53         37
    54        108
    55        533
    56        109
    57        302
    58         23
    59         22
    60          9
    61          2
    63          3
    64          2
    65         17
    66          8
    67         80
    68        181
    69        999
    70        112
    71        127
    72         14
    73         11
    74          2
    75          3
    76         10
    77         16
    78          7
    79         21
    80         17
    81        328
    82        918
    83        231
    84         74
    85         65
    86          7
    87          6
    89          3
    90         15
    92          6
    93         17
    94         29
    95        447
    96        567
    97        131
    99         24
   100          3
   101          4
   102          2
   103          3
   104         13
   105         15
   106          7
   107         29
   108         37
   109        454
   110        400
   111         76
   112         26
   113         24
   114          4
   115          8
   119          9
   120          5
   121         54
   122         58
   123        546
   124        201
   125         41
   126         14
   127         13
   128          6
   129         12
   130          3
   131          3
   132          3
   133         10
   134          4
   135         43
   136         29
   137        412
   138        181
   139         30
   140         11
   141         27
   142         14
   143          4
   145          4
   146          2
   147          6
   148          3
   149         52
   150         29
   151        393
   152        160
   153         25
   154          9
   155         15
   156          4
   158          3
   159          3
   160          3
   161          7
   162          5
   163         23
   164          9
   165        350
   166        138
   167         30
   168          7
   169          7
   170          3
   171          3
   173          2
   175          3
   176          4
   177         20
   178         10
   179        376
   180        130
   181         21
   182          5
   184          2
   185          4
   186          2
   189          3
   191         20
   192          8
   193        376
   194        124
   195         19
   196          5
   197          4
   203          2
   205         19
   206          6
   207        405
   208        122
   209         18
   210          5
   211          4
   217          2
   218          2
   219         12
   220          5
   221        411
   222        122
   223         22
   224          9
   225          3
   233         10
   234          5
   235        423
   236        123
   237         18
   238          3
   239          2
   240          2
   246          9
   247          4
   249        402
   250        117
   251         18
   252          9
   253          3
   254          2
   261          6
   262          3
   263        378
   264        109
   265         16
   266          2
   268          2
   275          5
   276          3
   277        342
   278        103
   279         19
   280          4
   281          2
   288          4
   290          2
   291        302
   292         69
   293         36
   294          7
   302          2
   305        105
   306         26
   307          3
   317          4
   318         13
   319        514
   320        640
   321        143
   322         18