##TITLE=Library Entry 26434
##JCAMP-DX=Revision 4.10 
##DATA TYPE=MASS SPECTRUM
##SAMPLE DESCRIPTION=CARL DJERASSI DEPT OF CHEM STANFORD UNIV STANFORD CALIF
 94305
##NAMES=HP
##CAS NAME=5-Nonanone, 2,2,8,8-tetramethyl-
##MOLFORM=C13H26O
##CAS REGISTRY NO=5709-95-5
##MP= -300
##BP= -300
##MW= 198
##$RETENTION INDEX=0
##$CONDENSED SPECTRUM=NO
##NPOINTS= 43
##XYDATA=(XY..XY) 1 
    40         30
    41        650
    42         60
    43        750
    44         20
    45         10
    48         10
    51         10
    52         10
    53         50
    54         10
    55        200
    56         80
    57        999
    58         40
    65         10
    67         10
    68         10
    69         70
    70         20
    71         40
    72         10
    77         10
    79         10
    81         10
    83         20
    84         10
    85        250
    86         20
    95         20
    97         10
   109         10
   112         10
   113        900
   114         50
   129         10
   141         80
   142         10
   143         10
   183        130
   184         20
   197         10
   198         10