##TITLE=Library Entry 95744
##JCAMP-DX=Revision 4.10 
##DATA TYPE=MASS SPECTRUM
##SAMPLE DESCRIPTION=Inst.fur Organische Chemic, Germany
##NAMES=HP
##CAS NAME=1-Naphthalenol, 4-bromo-
##MOLFORM=C10H7BrO
##CAS REGISTRY NO=571-57-3
##MP= -300
##BP= -300
##MW= 222
##$RETENTION INDEX=0
##$CONDENSED SPECTRUM=NO
##NPOINTS= 54
##XYDATA=(XY..XY) 1 
    37          5
    38         13
    39         46
    40         17
    41         10
    43         10
    44          6
    50         25
    51         24
    53         11
    55         11
    56         13
    57         89
    58         40
    59          7
    61         22
    62         43
    63         89
    64         16
    65         36
    71         40
    73          7
    74         33
    75         28
    76         11
    77         10
    85         12
    86         40
    87         48
    88         58
    89         72
    90          6
    97         31
    98         36
    99          8
   109          6
   110          8
   111         41
   112         40
   113         76
   114        143
   115        999
   116        102
   142         11
   143         65
   144         18
   149         14
   193         47
   195         48
   220         10
   222        768
   223         88
   224        738
   225         85