##TITLE=Library Entry 21303
##JCAMP-DX=Revision 4.10 
##DATA TYPE=MASS SPECTRUM
##SAMPLE DESCRIPTION=NIST Mass Spectrometry Data Center
##NAMES=HP
##CAS NAME=Androstane-3,17-diol, (3.beta.,5.alpha.,17.beta.)-
##MOLFORM=C19H32O2
##CAS REGISTRY NO=571-20-0
##MP= -300
##BP= -300
##MW= 292
##$RETENTION INDEX=2634
##$CONDENSED SPECTRUM=NO
##NPOINTS= 240
##XYDATA=(XY..XY) 1 
    14          1
    19          1
    26          2
    27         49
    28         12
    29        172
    30         11
    31         41
    36          2
    39        119
    40         33
    41        703
    42         56
    43        457
    44         98
    45         43
    46          2
    47          1
    48          1
    50          4
    51         25
    52         19
    53        316
    54         90
    55        999
    56         85
    57        460
    58         49
    59         23
    60          4
    61          4
    62          3
    63          7
    64          4
    65        121
    66         61
    67        733
    68        207
    69        242
    70         64
    71        131
    72         10
    73          5
    74          4
    75          3
    77        326
    78         71
    79        756
    80        163
    81        716
    82        130
    83        160
    84         53
    85         43
    86          6
    87          4
    88          6
    89          5
    91        663
    92        143
    93        812
    94        343
    95        608
    96        119
    97        176
    98         25
    99         13
   100          4
   101         10
   102          5
   103         43
   104         31
   105        519
   106        279
   107        894
   108        365
   109        336
   110         94
   111        152
   112         20
   113          6
   114          1
   115         58
   116         23
   117        111
   118         50
   119        376
   120        260
   121        511
   122        309
   123        341
   124        166
   125         64
   126         16
   127          7
   128         26
   129         45
   130         18
   131        162
   132         46
   133        323
   134        133
   135        257
   136        118
   137         85
   138         61
   139         17
   140          2
   141          9
   142         12
   143         36
   144         18
   145        235
   146         79
   147        394
   148        343
   149        355
   150         66
   151         82
   152         22
   153         24
   154          6
   155          3
   156          3
   157         25
   158         14
   159        161
   160        104
   161        189
   162        101
   163         82
   164         57
   165        559
   166        423
   167         78
   168         12
   169          8
   170          3
   171         26
   172         12
   173        121
   174         71
   175         99
   176         38
   177         33
   178         48
   179         27
   180         15
   181          1
   182          3
   183          2
   184          2
   185         33
   186         10
   187         83
   188         43
   189         39
   190         28
   191         50
   192         85
   193         21
   194          4
   195          2
   196          1
   197          2
   199         50
   200         22
   201        112
   202         39
   203         23
   204         13
   205         26
   206         39
   207          9
   208          3
   212          2
   213         20
   214          5
   215        751
   216        159
   217        387
   218         80
   219         60
   220         27
   221          5
   227          8
   228          5
   229          8
   230         73
   231         31
   232         30
   233        648
   234        135
   235         84
   236         16
   237          2
   238          1
   239          3
   241        106
   242         19
   243          4
   244          2
   245          9
   246         12
   247          4
   248        138
   249         25
   250          3
   251          1
   254          1
   255          6
   256         14
   257          5
   259        169
   260         33
   261          4
   262          1
   263         10
   264          5
   265          1
   266          1
   267          1
   268          1
   270          1
   272          3
   273          2
   274        166
   275         37
   276          1
   277        281
   278         54
   279         10
   284          1
   286          1
   288          1
   290          9
   292        754
   293        157
   294         24
   295          3