##TITLE=Library Entry 14887
##JCAMP-DX=Revision 4.10 
##DATA TYPE=MASS SPECTRUM
##SAMPLE DESCRIPTION=J. MADSEN,DEP. ORG. CHEM.,TECH. UNIV. DENMARK,LYNGBY,DE
NMARK
##NAMES=HP
##CAS NAME=4,5,6,7-Tetraacetoxydecyl isothiocyanate
##MOLFORM=C19H29NO8S
##CAS REGISTRY NO=57103-44-3
##MP= -300
##BP= -300
##MW= 431
##$RETENTION INDEX=0
##$CONDENSED SPECTRUM=NO
##NPOINTS= 224
##XYDATA=(XY..XY) 1 
    26          5
    27         65
    28         24
    29         68
    30          6
    31         17
    39         34
    40         13
    41        190
    42         35
    43        999
    44        157
    45         24
    46          1
    51          3
    52          2
    53         21
    54         13
    55        115
    56         18
    57         93
    58         10
    59          7
    60         25
    61         75
    62          3
    65          8
    66          9
    67         71
    68         37
    69         72
    70        211
    71        191
    72        115
    73         47
    74         10
    75          2
    77          9
    78          7
    79         29
    80         18
    81         47
    82         37
    83         97
    84         29
    85        239
    86        118
    87         13
    88          3
    89          1
    91          9
    92          3
    93         12
    94         23
    95         67
    96         40
    97        339
    98        169
    99         68
   100         37
   101         25
   102         26
   103        193
   104          9
   105          6
   106          5
   107         14
   108         11
   109         28
   110          9
   111         38
   112        155
   113         68
   114         39
   115        217
   116         27
   117         10
   118          3
   119          2
   120          3
   121         15
   122         17
   123         37
   124        133
   125         37
   126         58
   127        156
   128         86
   129         23
   130         89
   131         18
   132         11
   133         28
   134          4
   135          3
   136          9
   137         79
   138         33
   139         26
   140         60
   141         35
   142         82
   143         37
   144         21
   145        172
   146         14
   147          3
   148          9
   149         23
   150        104
   151         59
   152         20
   153         14
   154        107
   155        129
   156         83
   157        249
   158        123
   159         14
   160         11
   162          6
   163          3
   164          2
   165          3
   166         21
   167         40
   168         16
   169         21
   170          7
   171         25
   172        218
   173         31
   174         14
   175          3
   176         17
   177          4
   178          2
   179          3
   180         18
   181         15
   182         19
   183         22
   184         59
   185         19
   186          5
   187         64
   188          8
   190          3
   191         39
   192         23
   193         10
   194         14
   195          5
   196         11
   197         24
   198        245
   199         59
   200         26
   201          4
   202         23
   203          3
   208         33
   209         95
   210         53
   211         17
   212          7
   213          3
   214         97
   215         28
   216          7
   217          6
   218          2
   226         42
   227         95
   228         20
   229         14
   230          3
   232          7
   236          7
   239          3
   240         10
   241          3
   242          3
   244         27
   245          4
   246          1
   251         16
   252         10
   253          3
   254          2
   256          3
   257         35
   258          6
   259         47
   260          7
   268         12
   269         40
   270         14
   271          3
   274         29
   275          3
   276          2
   284          1
   286         11
   287          3
   311          8
   312          6
   313          3
   316         27
   317          5
   318          2
   328          6
   329          9
   330          5
   331          2
   357          2
   370          1
   371        375
   372         86
   373         30
   374          5
   388          3
   431          7
   432          3