##TITLE=Library Entry 26126
##JCAMP-DX=Revision 4.10 
##DATA TYPE=MASS SPECTRUM
##SAMPLE DESCRIPTION=A.A.Kutin, Moscow, Russia
##NAMES=HP
##CAS NAME=9-Oxa-2-azaspiro[5.5]undecane, 8,8-dimethyl-
##MOLFORM=C11H21NO
##CAS REGISTRY NO=57117-92-7
##MP= -300
##BP= -300
##MW= 183
##$RETENTION INDEX=0
##$CONDENSED SPECTRUM=NO
##NPOINTS= 120
##XYDATA=(XY..XY) 1 
    33          0
    34          2
    39         92
    40         53
    41        199
    42        107
    43        356
    44        108
    45         35
    46          4
    48          6
    50          4
    51          7
    52         10
    53         62
    54         38
    55        106
    56        142
    57        999
    58         46
    59         35
    60          8
    61          1
    63          6
    64          1
    65         27
    66         12
    67        112
    68         84
    69         48
    70        103
    71         31
    72         76
    73          8
    74          2
    75          1
    77         38
    78          8
    79         52
    80         27
    81         71
    82        111
    83         40
    84         42
    85         17
    86          4
    88          2
    91         19
    92          5
    93         35
    94         24
    95         45
    96        429
    97        116
    98         46
    99          8
   101          1
   103          1
   104          1
   105          9
   106          5
   107         12
   108         13
   109         24
   110         80
   111         24
   112         27
   113          4
   114          6
   115          3
   118          0
   119          5
   120          2
   121          7
   122         12
   123         10
   124         33
   125         19
   126         61
   127        198
   128         19
   129          4
   130          0
   131          1
   133          1
   134          1
   135          4
   136          5
   137         43
   138         35
   139          8
   140         41
   141          7
   142          1
   143          0
   147          1
   149          9
   150          3
   151          3
   152          9
   153          0
   154          9
   155          5
   156          0
   157          0
   164          1
   165          1
   166          5
   167          1
   168        147
   169         19
   170          1
   171          6
   174          1
   180          1
   181          3
   182         14
   183        167
   184         22
   185          2