##TITLE=Library Entry 49153
##JCAMP-DX=Revision 4.10 
##DATA TYPE=MASS SPECTRUM
##SAMPLE DESCRIPTION=NIST Mass Spectrometry Data Center
##NAMES=HP
##CAS NAME=.alpha.-Thujenal
##MOLFORM=C10H14O
##CAS REGISTRY NO=57129-54-1
##MP= -300
##BP= -300
##MW= 150
##$RETENTION INDEX=1190
##$CONDENSED SPECTRUM=NO
##NPOINTS= 60
##XYDATA=(XY..XY) 1 
    27         32
    29         19
    37          2
    38          7
    39         85
    40         11
    41         99
    42          4
    43         69
    44          3
    50         26
    51         76
    52         31
    53         59
    54          6
    59          3
    60          2
    61          2
    62          8
    63         29
    64          6
    65         64
    66         39
    67         22
    74          7
    75          6
    76          4
    77        400
    78         85
    79        999
    80         85
    81          9
    89          9
    90         18
    91        139
    92         17
    94         14
    95          8
   102          4
   103         24
   104          4
   105        314
   106        241
   107        431
   108        236
   109         58
   115         12
   116          3
   117         13
   119          7
   121         23
   122          5
   131          2
   132          2
   133          4
   135         20
   148          2
   149          2
   150         19
   151          2