##TITLE=Library Entry 54195
##JCAMP-DX=Revision 4.10 
##DATA TYPE=MASS SPECTRUM
##SAMPLE DESCRIPTION=M. VANDEWALLE
##NAMES=HP
##CAS NAME=1,3-Cyclopentanedione, 4-methyl-5-pentyl-
##MOLFORM=C11H18O2
##CAS REGISTRY NO=57157-05-8
##MP= -300
##BP= -300
##MW= 182
##$RETENTION INDEX=0
##$CONDENSED SPECTRUM=NO
##NPOINTS= 33
##XYDATA=(XY..XY) 1 
    41        500
    42        190
    43        200
    53         90
    54         60
    55        590
    56        400
    57        160
    67         60
    68         60
    69        330
    70        410
    71         60
    81         30
    82         40
    83        210
    84        999
    85         70
    97         80
   109         90
   110         50
   111        190
   112        770
   113         60
   125        110
   126         30
   139        200
   140         40
   153         40
   154         20
   167         20
   182        160
   183         20