##TITLE=Library Entry 78141
##JCAMP-DX=Revision 4.10 
##DATA TYPE=MASS SPECTRUM
##SAMPLE DESCRIPTION=R.T.HOLMAN,UNIVERSITY OF MINNESOTA
##NAMES=HP
##CAS NAME=Eicosanoic acid, 2-phenyl-1,3-dioxan-5-yl ester
##MOLFORM=C30H50O4
##CAS REGISTRY NO=57156-90-8
##MP= -300
##BP= -300
##MW= 474
##$RETENTION INDEX=0
##$CONDENSED SPECTRUM=NO
##NPOINTS= 164
##XYDATA=(XY..XY) 1 
    26          5
    27         59
    28         40
    29        190
    30          5
    31         12
    32          7
    39         43
    40         10
    41        370
    42         82
    43        700
    44         28
    45          9
    50          9
    51         29
    52          9
    53         19
    54         48
    55        450
    56        110
    57        710
    58         66
    59         13
    60         23
    61          9
    63          5
    65         10
    67         86
    68         30
    69        270
    70         55
    71        340
    72         22
    73         39
    74          8
    75          6
    76          5
    77        120
    78         50
    79        160
    80         18
    81        110
    82         50
    83        210
    84         52
    85        210
    86         15
    87         11
    89         10
    90         13
    91        190
    92         26
    93         22
    94          7
    95        140
    96         26
    97        170
    98         60
    99         65
   100        190
   101         37
   102          5
   103          6
   104          6
   105        999
   106        140
   107        160
   108         21
   109         89
   110         15
   111         84
   112         20
   113        360
   114         31
   115         14
   116        230
   117         39
   118         32
   119         18
   120          9
   121         26
   122          8
   123         54
   124         10
   125         42
   126          8
   127         55
   128          7
   129        200
   130         20
   131          7
   133         19
   134         10
   135         21
   137         31
   138          6
   139         21
   141         31
   142          8
   143         22
   144         17
   145          6
   147          5
   149         45
   150          5
   151         13
   153         10
   155         57
   156         10
   157         34
   158          5
   162        210
   163        120
   164         14
   165          8
   167          7
   169        160
   170         20
   171         31
   172          5
   179         44
   180          6
   181         11
   183         20
   185         63
   186          8
   195          5
   197         18
   199         11
   211         32
   212          6
   213         14
   220          5
   225         30
   226          5
   227         15
   233         18
   239         10
   241         12
   253         19
   255          5
   267         15
   269          9
   281          7
   283          6
   295         68
   296         16
   297          5
   309         31
   310          7
   311          7
   323          8
   325         11
   352         70
   353         20
   367         12
   368         16
   369          7
   397         23
   398          6
   474         60
   475         41
   476         11