##TITLE=Library Entry 51149
##JCAMP-DX=Revision 4.10 
##DATA TYPE=MASS SPECTRUM
##SAMPLE DESCRIPTION=CARL DJERASSI DEPT OF CHEM STANFORD UNIV STANFORD CALIF
 94305
##NAMES=HP
##CAS NAME=2-Cyclohexen-1-one, 4,5-dimethyl-
##MOLFORM=C8H12O
##CAS REGISTRY NO=5715-25-3
##MP= -300
##BP= -300
##MW= 124
##$RETENTION INDEX=1016
##$CONDENSED SPECTRUM=NO
##NPOINTS= 36
##XYDATA=(XY..XY) 1 
    41        277
    42         59
    43         49
    44         19
    50         39
    51         79
    52         49
    53        188
    54        415
    55        287
    56         39
    62          9
    63         19
    65         39
    66         19
    67        257
    68        257
    69        118
    70         19
    71          9
    77         39
    78         19
    79         69
    80         29
    81        356
    82        999
    83        118
    84         19
    91         29
    95         89
    96        207
    97         29
   109         79
   110         29
   124        386
   125         59