##TITLE=Library Entry 74218
##JCAMP-DX=Revision 4.10 
##DATA TYPE=MASS SPECTRUM
##SAMPLE DESCRIPTION=NIST Mass Spectrometry Data Center, 1998.
##NAMES=HP
##CAS NAME=Mcpb methyl ester
##MOLFORM=C12H15ClO3
##CAS REGISTRY NO=57153-18-1
##MP= -300
##BP= -300
##MW= 242
##$RETENTION INDEX=1770
##$CONDENSED SPECTRUM=NO
##NPOINTS= 136
##XYDATA=(XY..XY) 1 
    14          1
    15         35
    26          3
    27         24
    28          9
    29         42
    30          3
    31          8
    33          1
    37          2
    38          7
    39         68
    40         12
    41        143
    42         59
    43         15
    44          2
    45         16
    46          1
    47          1
    49          2
    50         27
    51         96
    52         26
    53         13
    54          1
    55         13
    56          2
    57          3
    58          1
    59        788
    60         25
    61          8
    62         13
    63         49
    64          9
    65         11
    66          2
    67          1
    68          1
    69        144
    70          8
    71          8
    72          3
    73         24
    74         16
    75         24
    76          9
    77        253
    78         53
    79         22
    80          2
    81          1
    84          3
    85          7
    86          4
    87          9
    88          1
    89         96
    90         23
    91         22
    97          2
    99         30
   101        999
   102         58
   103          9
   104          1
   105         13
   106          1
   107        191
   108         15
   109          1
   111          4
   112         15
   113         23
   114          7
   115         11
   116          2
   117          3
   118          1
   119          2
   120          1
   121          3
   123          2
   124          6
   125         65
   126          8
   127         24
   128          3
   129          2
   130          1
   131          2
   132          1
   133          6
   134          1
   139          4
   140          5
   141         64
   142        144
   143         33
   144         47
   145          6
   146          4
   147          3
   148          3
   149          1
   152          1
   153          3
   154          1
   155         38
   156          5
   157         13
   158          4
   165          2
   166          1
   167          3
   168          4
   169          4
   170          2
   171          1
   181          2
   182          1
   183          3
   184          1
   185          1
   193         11
   194          1
   195          4
   211         67
   212          8
   213         22
   214          3
   242         47
   243          6
   244         15
   245          2