##TITLE=Library Entry 10232
##JCAMP-DX=Revision 4.10 
##DATA TYPE=MASS SPECTRUM
##SAMPLE DESCRIPTION=R.T.HOLMAN,UNIVERSITY OF MINNESOTA
##NAMES=HP
##CAS NAME=12,15-Octadecadiynoic acid, methyl ester
##MOLFORM=C19H30O2
##CAS REGISTRY NO=57156-95-3
##MP= -300
##BP= -300
##MW= 290
##$RETENTION INDEX=0
##$CONDENSED SPECTRUM=NO
##NPOINTS= 161
##XYDATA=(XY..XY) 1 
    25          1
    26         90
    27        420
    28        150
    29        720
    30         60
    31        420
    32         40
    37         20
    38         40
    39        280
    40         70
    41        650
    42        230
    43        999
    44        460
    45        300
    46         30
    47         40
    48         10
    49         10
    50         40
    51         80
    52         40
    53        170
    54         70
    55        500
    56        120
    57        330
    58        100
    59        230
    60         70
    61         60
    62         20
    63         50
    64         60
    65        120
    66         80
    67        280
    68        110
    69        250
    70         90
    71        140
    72         40
    73        120
    74        400
    75         50
    76         20
    77        180
    78        210
    79        280
    80         80
    81        220
    82        120
    83        130
    84         70
    85        100
    86         20
    87        210
    88         40
    89         20
    90         10
    91        970
    92        180
    93        150
    94        160
    95        140
    96         70
    97         90
    98         70
    99         30
   100         20
   101         40
   102         20
   103         60
   104         30
   105        440
   106        830
   107        170
   108         40
   109         60
   110         30
   111         40
   112         30
   113         20
   114         10
   115         70
   116         30
   117         90
   118         30
   119        290
   120        120
   121         60
   122         20
   123         30
   124         20
   125         20
   126         20
   127         20
   128         30
   129         60
   130         20
   131         80
   132         20
   133        150
   134         70
   135         70
   136         20
   137         20
   138         10
   139         20
   140         10
   141         50
   142         10
   143         30
   145         40
   146         10
   147         90
   148         30
   149         30
   150         10
   151         10
   152         10
   153         30
   154         10
   155         30
   156         10
   157         20
   159         20
   160         10
   161         60
   162         10
   163         20
   164         10
   165         10
   166         10
   169         20
   171         10
   173         20
   175         20
   177         10
   178         30
   179         10
   185         20
   187         10
   189         10
   191         10
   197         10
   201         10
   203         10
   205         50
   206         10
   207         20
   220         10
   227         10
   229         10
   259         40
   260         10
   261         10
   275         10
   290         10