##TITLE=Library Entry 32415
##JCAMP-DX=Revision 4.10 
##DATA TYPE=MASS SPECTRUM
##SAMPLE DESCRIPTION=R.T.HOLMAN,UNIVERSITY OF MINNESOTA
##NAMES=HP
##CAS NAME=12,15-Octadecadienoic acid, methyl ester
##MOLFORM=C19H34O2
##CAS REGISTRY NO=57156-97-5
##MP= -300
##BP= -300
##MW= 294
##$RETENTION INDEX=0
##$CONDENSED SPECTRUM=NO
##NPOINTS= 145
##XYDATA=(XY..XY) 1 
    26         10
    27        170
    28        100
    29        260
    30         10
    31         20
    38         10
    39        170
    40         40
    41        720
    42        130
    43        370
    44        140
    45         30
    50         10
    51         20
    52         20
    53        110
    54        290
    55        700
    56         90
    57        140
    58         10
    59        140
    60         10
    63         10
    65         50
    66         50
    67        999
    68        550
    69        350
    70         50
    71         70
    72         10
    73         30
    74        140
    75         20
    77         80
    78         30
    79        210
    80        110
    81        700
    82        650
    83        220
    84         40
    85         40
    86         10
    87         80
    88         10
    91         90
    92         40
    93        100
    94         80
    95        560
    96        400
    97        150
    98         40
    99         20
   101         20
   105         20
   106         10
   107         50
   108         50
   109        260
   110        150
   111         70
   112         10
   113         10
   114         10
   115         30
   116         10
   117         10
   118         20
   120         10
   121         50
   122         30
   123        100
   124         70
   125         30
   126         10
   127         10
   128         10
   129         20
   130         10
   131         10
   133         20
   134         10
   135         50
   136         40
   137         50
   138         40
   139         20
   140         10
   141        110
   142         20
   143         20
   145         10
   147         10
   149         40
   150         50
   151         40
   152         30
   153         20
   154         40
   155         20
   156         10
   158         10
   161         10
   163         30
   164         40
   165         20
   166         20
   167         20
   168         10
   169         20
   171         10
   173         10
   175         10
   177         20
   178         30
   179         10
   180         10
   181         10
   182         10
   183         10
   189         10
   191         10
   192         10
   193         10
   195         10
   205         10
   206         10
   207         10
   209         10
   210         10
   219         10
   220         20
   223         10
   224         10
   262         40
   263         60
   264         10
   265         10
   294         70
   295         20