##TITLE=Library Entry 16897
##JCAMP-DX=Revision 4.10 
##DATA TYPE=MASS SPECTRUM
##SAMPLE DESCRIPTION=E S. WAIGHT
##NAMES=HP
##CAS NAME=Pregnan-20-one, 3-(methoxymethoxy)-, (3.beta.,5.alpha.)-
##MOLFORM=C23H38O3
##CAS REGISTRY NO=57156-80-6
##MP= -300
##BP= -300
##MW= 362
##$RETENTION INDEX=0
##$CONDENSED SPECTRUM=NO
##NPOINTS= 87
##XYDATA=(XY..XY) 1 
    40         68
    41        290
    43        790
    45        999
    53         76
    55        420
    67        410
    68         68
    69        220
    71        230
    77        100
    79        280
    80         74
    81        490
    83        120
    84        560
    85        200
    91        240
    92        160
    93        340
    94        200
    95        450
    96         63
    97         69
   103        240
   106        100
   107        390
   108        230
   109        290
   119        220
   120        110
   121        270
   122        130
   123        110
   131         94
   132         58
   133        180
   134        170
   135        260
   136         64
   137         74
   145        120
   147        210
   148         92
   149        190
   159        140
   160         68
   161        200
   162         75
   163         94
   173         88
   174         88
   175        150
   187         72
   189         61
   192        160
   201         74
   203         55
   213         53
   215        230
   216         96
   217        230
   218         99
   227         53
   229         75
   242         53
   243         58
   244         79
   245        140
   246         74
   255         63
   257        160
   258         72
   259         63
   272        115
   284         83
   285        130
   287        140
   300        510
   301        250
   302        210
   304         78
   315         94
   318         52
   344        125
   362        260
   363         74