##TITLE=Library Entry 60962
##JCAMP-DX=Revision 4.10 
##DATA TYPE=MASS SPECTRUM
##SAMPLE DESCRIPTION=R.T.HOLMAN,UNIVERSITY OF MINNESOTA
##NAMES=HP
##CAS NAME=2,5-Octadecadiynoic acid, methyl ester
##MOLFORM=C19H30O2
##CAS REGISTRY NO=57156-91-9
##MP= -300
##BP= -300
##MW= 290
##$RETENTION INDEX=0
##$CONDENSED SPECTRUM=NO
##NPOINTS= 145
##XYDATA=(XY..XY) 1 
    26         10
    27        150
    28         70
    29        270
    30         10
    31         10
    32         20
    38         10
    39        130
    40         20
    41        550
    42         70
    43        500
    44         20
    45         20
    50         70
    51        100
    52         30
    53         80
    54         60
    55        430
    56         90
    57        300
    58         20
    59        370
    60         20
    61         10
    62         20
    63         80
    64         40
    65        170
    66         60
    67        390
    68         70
    69        260
    70         60
    71        130
    72         10
    73         60
    74        150
    75        100
    76        150
    77        450
    78        250
    79        470
    80        120
    81        350
    82        150
    83        180
    84         70
    85         70
    86         10
    87         40
    88         20
    89         90
    90         50
    91        999
    92        240
    93        310
    94         90
    95        250
    96         90
    97        130
    98        100
    99         30
   100         20
   101         20
   102         20
   103        240
   104        250
   105        710
   106        160
   107        230
   108        100
   109        150
   110         70
   111         70
   112         30
   113         20
   114         10
   115        180
   116         80
   117        610
   118        240
   119        370
   120         90
   121        230
   122        100
   123         80
   124         40
   125         20
   126         10
   127         20
   128         30
   129         80
   130         40
   131        370
   132        110
   133        180
   134         50
   135        130
   136         90
   137         90
   138         30
   139         10
   140         10
   141         80
   142         20
   143         20
   144         10
   145        200
   146         60
   147         90
   148         20
   149        160
   150         80
   151         30
   152         10
   153         10
   154         10
   155         20
   156         10
   157         10
   158         10
   159         90
   160         20
   161         20
   162         10
   163         60
   164         20
   165         10
   166         10
   167         10
   169         10
   171         10
   173         30
   174         10
   175         10
   177         60
   178         40
   179         10
   187         10
   189         10
   191         20
   192         10