##TITLE=Library Entry 66193
##JCAMP-DX=Revision 4.10 
##DATA TYPE=MASS SPECTRUM
##SAMPLE DESCRIPTION=Chemical Concepts
##NAMES=HP
##CAS NAME=1,3-Cyclohexadiene, 5,6-dimethyl-
##MOLFORM=C8H12
##CAS REGISTRY NO=5715-27-5
##MP= -300
##BP= -300
##MW= 108
##$RETENTION INDEX=0
##$CONDENSED SPECTRUM=NO
##NPOINTS= 64
##XYDATA=(XY..XY) 1 
    26          5
    27         50
    28          1
    29         12
    37          4
    38         13
    39        114
    40         15
    41         52
    42          3
    43          2
    44          0
    45          2
    46          0
    49          2
    50         25
    51         66
    52         29
    53         41
    54          7
    55          8
    56          1
    58          0
    61          3
    62         10
    63         26
    64          7
    65         76
    66         23
    67         19
    68          2
    69          0
    73          1
    74          6
    75          6
    76          4
    77        379
    78         70
    79         77
    80         15
    81          4
    82          0
    85          0
    86          1
    87          1
    88          0
    89         15
    90          6
    91        386
    92         49
    93        999
    94         72
    95          3
    98          0
   101          0
   102          1
   103          6
   104          2
   105         20
   106         10
   107         38
   108        310
   109         27
   110          1