##TITLE=Library Entry 80147
##JCAMP-DX=Revision 4.10 
##DATA TYPE=MASS SPECTRUM
##SAMPLE DESCRIPTION=Leung Pu, NIH, Bethesda, Maryland, U.S.
##NAMES=HP
##CAS NAME=.alpha.,.alpha.'-Dihydroxy-.alpha.,.alpha.,.alpha.',.alpha.'-tetr
aphenyl-p-xylene
##MOLFORM=C32H26O2
##CAS REGISTRY NO=57155-57-4
##MP= -300
##BP= -300
##MW= 442
##$RETENTION INDEX=0
##$CONDENSED SPECTRUM=NO
##NPOINTS= 113
##XYDATA=(XY..XY) 1 
    41          5
    43          6
    44          2
    50          9
    51         59
    52          9
    53          3
    55          5
    57          3
    63          3
    65          3
    66          2
    69          1
    75          2
    76         33
    77        490
    78         72
    79         15
    89          2
    90          2
    91         13
    92          1
    94          3
    95          0
   101          3
   102          2
   103          3
   104         63
   105        999
   106         80
   107         12
   113          3
   114          1
   115         12
   119         12
   120          9
   121          1
   123          8
   126          2
   127          5
   128          4
   129          4
   132          3
   134          3
   135          6
   139          4
   141          0
   143          1
   144          1
   145          1
   150          2
   151          7
   152         32
   153         23
   154         25
   155         18
   156          2
   163          5
   164          6
   165         45
   166          9
   167          6
   168          0
   180          2
   181         25
   182         22
   183        111
   184         15
   189          2
   191          3
   202          5
   203          1
   209         12
   210          2
   213          1
   215          7
   216          2
   226          4
   227          0
   228          3
   230          1
   231          1
   239         13
   240          6
   241         18
   242         27
   243         13
   244          2
   258          2
   259         15
   260          3
   287         29
   288          7
   289          0
   316          0
   319         52
   320         26
   321          5
   336          2
   337          5
   347          6
   348          2
   361          1
   362          1
   363          0
   364          1
   365        183
   366         50
   367          7
   425          3
   442         55
   443         18
   444          3