##TITLE=Library Entry 21981
##JCAMP-DX=Revision 4.10 
##DATA TYPE=MASS SPECTRUM
##SAMPLE DESCRIPTION=M. VANDEWALLE
##NAMES=HP
##CAS NAME=1,3-Cyclopentanedione, 4-ethyl-
##MOLFORM=C7H10O2
##CAS REGISTRY NO=57157-03-6
##MP= -300
##BP= -300
##MW= 126
##$RETENTION INDEX=0
##$CONDENSED SPECTRUM=NO
##NPOINTS= 18
##XYDATA=(XY..XY) 1 
    41        780
    42        370
    43        240
    53         60
    54         30
    55        250
    56        999
    57         50
    69        120
    70        150
    71         10
    83         70
    84         20
    97        100
    99         20
   111         15
   126        220
   127         20