##TITLE=Library Entry 11523
##JCAMP-DX=Revision 4.10 
##DATA TYPE=MASS SPECTRUM
##SAMPLE DESCRIPTION=NIST Mass Spectrometry Data Center
##NAMES=HP
##CAS NAME=2-Acetoxybenzonitrile
##MOLFORM=C9H7NO2
##CAS REGISTRY NO=5715-02-6
##MP= -300
##BP= -300
##MW= 161
##$RETENTION INDEX=0
##$CONDENSED SPECTRUM=NO
##NPOINTS= 61
##XYDATA=(XY..XY) 1 
    13          1
    14          5
    15         33
    25          1
    26          6
    27          8
    29          3
    36          1
    37         32
    38         44
    39         86
    40          5
    41         11
    42         32
    43        999
    44         24
    45          3
    49          5
    50         26
    51         23
    52         21
    53          6
    55          1
    60          1
    61         17
    62         33
    63        104
    64        103
    65         14
    66          3
    73          2
    74          9
    75         25
    76         16
    77          4
    78          2
    86          2
    87          6
    88         10
    89          6
    90         70
    91        213
    92         25
    93          1
    99          3
   100          1
   102         18
   103          3
   104          3
   105          5
   118          8
   119        448
   120         39
   121          2
   132          2
   133         24
   134          2
   146          1
   161        156
   162         17
   163          1