##TITLE=Library Entry 13487
##JCAMP-DX=Revision 4.10 
##DATA TYPE=MASS SPECTRUM
##SAMPLE DESCRIPTION=DR. W. P. COCHRANE, AGRICULTURE CANADA, OTTAWA
##NAMES=HP
##CAS NAME=1,6-Methano-1H-indene, 2,3,4,5-tetrachloro-3a,6,7,7a-tetrahydro-
##MOLFORM=C10H8Cl4
##CAS REGISTRY NO=57160-06-2
##MP= -300
##BP= -300
##MW= 268
##$RETENTION INDEX=0
##$CONDENSED SPECTRUM=NO
##NPOINTS= 219
##XYDATA=(XY..XY) 1 
    35         98
    36        234
    37        102
    38        181
    39        431
    40         34
    41         71
    42         28
    43        999
    44         26
    45          5
    46          2
    47         40
    48         10
    49        150
    50        345
    51        568
    52         62
    53         50
    54         39
    55         16
    56          9
    57          8
    58          1
    59          4
    60         40
    61        129
    62        193
    63        399
    64         33
    65         61
    66         33
    67         52
    68         61
    69         20
    70          7
    71         13
    72         55
    73        260
    74        210
    75        419
    76         71
    77        189
    78         27
    79         13
    80        121
    81        166
    82         46
    83         35
    84         88
    85        216
    86        156
    87        155
    88         42
    89         57
    90         16
    91         22
    92          9
    93          4
    94          8
    95          8
    96         32
    97         80
    98        222
    99        399
   100         83
   101        121
   102         67
   103         27
   104          8
   105          2
   106          4
   107         39
   108         23
   109         74
   110         27
   111        225
   112        167
   113        100
   114         65
   115         35
   116         19
   117         10
   118          5
   119          7
   120         11
   121         24
   122         48
   123         44
   124         34
   125         65
   126        165
   127        196
   128        144
   129         16
   130          2
   131          8
   132          6
   133         51
   134         53
   135        158
   136         80
   137         95
   138         25
   139         16
   140          2
   141          2
   142          8
   143          6
   144          5
   145         16
   146        260
   147         85
   148        194
   149        121
   150         50
   151         30
   152          6
   153          1
   155          1
   156          5
   157         20
   158          9
   159         45
   160         36
   161        153
   162        538
   163        280
   164        198
   165         77
   166          8
   167          9
   168          4
   169         11
   170         29
   171         23
   172         22
   173         14
   174          7
   175          4
   176          1
   178          1
   179          2
   180         25
   181          7
   182         30
   183         66
   184         27
   185         46
   186         14
   187         10
   188          2
   189          1
   191          2
   192          1
   193         25
   194          7
   195         27
   196         58
   197        615
   198        190
   199        408
   200        103
   201         76
   202         17
   203          2
   204          6
   205          6
   206          8
   207          5
   208          5
   209          2
   210          1
   211          1
   212          1
   213          1
   214          8
   215          1
   216         11
   217         16
   218         11
   219         21
   220          8
   221         13
   222          2
   223          4
   226          3
   227          4
   229          5
   230          2
   231          9
   232         13
   233        193
   234         32
   235        183
   236         24
   237         60
   238          8
   239          8
   240          1
   241          1
   249          1
   251          1
   253          2
   255          4
   257          2
   259          1
   265          1
   266         23
   267          7
   268        260
   269         34
   270        327
   271         39
   272        156
   273         17
   274         34
   275          4
   276          4