##TITLE=Library Entry 402
##JCAMP-DX=Revision 4.10 
##DATA TYPE=MASS SPECTRUM
##SAMPLE DESCRIPTION=Humboldt-Universitat zu Berlin, Department of Chemistry
, Analytical Group
##NAMES=HP
##CAS NAME=Propanoic acid, 2-(triphenylphosphoranylidene)-, ethyl ester
##MOLFORM=C23H23O2P
##CAS REGISTRY NO=5717-37-3
##MP= -300
##BP= -300
##MW= 362
##$RETENTION INDEX=0
##$CONDENSED SPECTRUM=NO
##NPOINTS= 203
##XYDATA=(XY..XY) 1 
    12          4
    13          3
    14         13
    15         72
    16          8
    17          5
    18         13
    19          9
    26         47
    27        387
    28         98
    29        999
    30         38
    31         19
    38          7
    39         65
    40          5
    41         11
    42         11
    43        154
    44         13
    45         35
    47         79
    48          3
    50         62
    51        263
    52         35
    53         13
    54         13
    55         42
    56         12
    57         42
    58          4
    61          3
    62          5
    63         25
    64          5
    65         45
    66          9
    68          3
    69         10
    70          4
    71          3
    73          5
    74         14
    75         18
    76         26
    77        247
    78        116
    79         21
    80          9
    81         21
    82          9
    83         26
    87          3
    88          3
    89         16
    91         62
    92          7
    93          3
    94          7
    95         13
    96          3
    98          2
    99          3
   101          4
   102         24
   103        103
   104         38
   105        169
   106         21
   107        181
   108        290
   109         85
   110          7
   113          4
   115         62
   116         17
   117          3
   119          2
   120         10
   121         20
   122          3
   123          7
   124          4
   125         14
   126          9
   127          8
   128         19
   129          8
   130          2
   131         22
   132         14
   133        109
   134         30
   135          5
   139         19
   140          3
   141         18
   142          3
   144          6
   145          3
   146          2
   147          2
   149         14
   150          6
   151         13
   152         90
   153         28
   154         20
   155          5
   157         30
   158          6
   159          4
   163          3
   164          3
   165         40
   166          9
   167          4
   168          2
   169          3
   170         17
   171          7
   173          6
   176          3
   177          6
   178         21
   179         12
   180          3
   181         11
   183        340
   184         62
   185         72
   186         38
   187          5
   189          1
   191          3
   192          1
   194          3
   195          4
   196          7
   197          6
   198          1
   199         12
   201         59
   202         10
   203          2
   207          6
   208          2
   209          5
   210          2
   211          3
   212          2
   213          1
   215          2
   220          1
   221          1
   225          1
   226          1
   227          2
   228          6
   229          3
   230          2
   233          2
   239          1
   240          1
   241          1
   245          1
   257          4
   258          1
   259          6
   260          9
   261         23
   262         88
   263         22
   264          3
   270          0
   271          1
   273          1
   277         13
   278          4
   279          2
   287          8
   289         59
   290         40
   291          7
   292          1
   301          1
   303          1
   304          0
   305          1
   315          1
   317         47
   318         10
   319          1
   331          0
   333         30
   334          6
   335          1
   361         23
   362         35
   363          9
   364          1