##TITLE=Library Entry 61911
##JCAMP-DX=Revision 4.10 
##DATA TYPE=MASS SPECTRUM
##SAMPLE DESCRIPTION=A. M. DUFFIELD
##NAMES=HP
##CAS NAME=3-Hepten-2-one, 7-phenyl-, O-methyloxime
##MOLFORM=C14H19NO
##CAS REGISTRY NO=57174-24-0
##MP= -300
##BP= -300
##MW= 217
##$RETENTION INDEX=0
##$CONDENSED SPECTRUM=NO
##NPOINTS= 90
##XYDATA=(XY..XY) 1 
    41        190
    42        320
    43         20
    45         40
    47         50
    51         30
    52        110
    53         40
    54        200
    55        120
    56         80
    57         10
    58         30
    59         70
    63         40
    64         10
    65        230
    66         40
    67         90
    68         70
    69         10
    70         20
    71         40
    72         30
    77        200
    78         80
    79        130
    80        120
    81         90
    82         80
    83         10
    87        130
    88         10
    89         60
    90         10
    91        999
    92        220
    93         50
    94        230
    95        100
    96         30
    97         10
    98         50
    99         20
   100        250
   101         10
   102         10
   103        100
   104        200
   105        290
   106         30
   111         10
   112         80
   113        200
   114         10
   115         60
   116         60
   117        120
   118         60
   124         40
   126        999
   127         80
   128         60
   129        130
   130        480
   131        380
   132         40
   141         20
   142         10
   143         60
   144         50
   145        240
   146         30
   157         10
   158         20
   169         30
   170         20
   171        110
   172         10
   176         10
   182         10
   183         10
   184         20
   185         10
   186        200
   187         30
   188         10
   202         20
   216         10
   217        140