##TITLE=Library Entry 22082
##JCAMP-DX=Revision 4.10 
##DATA TYPE=MASS SPECTRUM
##SAMPLE DESCRIPTION=D.HENNEBERG, MAX-PLANCK INSTITUTE, MULHEIM, WEST GERMAN
Y
##NAMES=HP
##CAS NAME=1,3,2-Dioxaborinane, 2-ethyl-5,5-dimethyl-
##MOLFORM=C7H15BO2
##CAS REGISTRY NO=57186-59-1
##MP= -300
##BP= -300
##MW= 142
##$RETENTION INDEX=0
##$CONDENSED SPECTRUM=NO
##NPOINTS= 76
##XYDATA=(XY..XY) 1 
    27         66
    28         31
    29         92
    30          2
    31          6
    36          0
    37          1
    38          4
    39         58
    40         18
    41        201
    42         22
    43         36
    44          8
    45         17
    46          0
    47          0
    48          0
    49          0
    50          1
    51          3
    52          2
    53         17
    54         11
    55         66
    56        999
    57        100
    58          8
    59         12
    60          0
    61          0
    62          1
    63          0
    65          0
    66          0
    67          4
    68          5
    69         48
    70         18
    71         47
    72          1
    73          1
    75          0
    81          0
    82          1
    83          4
    84          7
    85         16
    86          2
    87          3
    90          0
    95          0
    96          1
    97         39
    98        185
    99        157
   100          6
   101          1
   102          0
   109          1
   110          6
   111         17
   112         67
   113         15
   114          0
   118          0
   124          0
   125          1
   126          1
   127          9
   128          0
   139          0
   141         14
   142         59
   143          4
   144          0