##TITLE=Library Entry 42571
##JCAMP-DX=Revision 4.10 
##DATA TYPE=MASS SPECTRUM
##SAMPLE DESCRIPTION=B.R. PETTIT, QUEEN CHARLOTTE'S MAT. HOSP., LONDON, U.K.
##NAMES=HP
##CAS NAME=Ribonic acid, 2,3,4,5-tetrakis-O-(trimethylsilyl)-, trimethylsily
l ester
##MOLFORM=C20H50O6Si5
##CAS REGISTRY NO=57197-35-0
##MP= -300
##BP= -300
##MW= 526
##$RETENTION INDEX=1799
##$CONDENSED SPECTRUM=NO
##NPOINTS= 95
##XYDATA=(XY..XY) 1 
    41          5
    43         10
    44         14
    45         53
    46          5
    47          9
    55          7
    58          5
    59         24
    72         14
    73        999
    74         83
    75         99
    77          7
    89         10
   101         11
   102         18
   103        287
   104         25
   105         12
   116          8
   117         59
   118          7
   119          5
   129         22
   130         13
   131         18
   133         40
   134          7
   135          5
   141          7
   143         22
   145          5
   147        288
   148         48
   149         31
   150          5
   157         10
   175         10
   189         61
   190         14
   191         23
   192          6
   204         51
   205         99
   206         22
   207         15
   215          5
   217        172
   218         37
   219         26
   220          7
   221         23
   222          5
   223          5
   231          6
   257         13
   277         42
   278         12
   279          6
   291          6
   292        238
   293         72
   294         37
   295          7
   303          5
   305         55
   306         19
   307         78
   308         23
   309         10
   319         12
   320          4
   321          7
   331         15
   332          4
   333         51
   334         14
   335          8
   341          1
   347          4
   355          2
   356          1
   377          3
   379          5
   393          7
   394          2
   401          3
   415          3
   421         12
   422          5
   423          5
   429          4
   430          1
   431          3