##TITLE=Library Entry 34749
##JCAMP-DX=Revision 4.10 
##DATA TYPE=MASS SPECTRUM
##SAMPLE DESCRIPTION=M. VANDEWALLE
##NAMES=HP
##CAS NAME=2-Cyclopenten-1-one, 4-acetyl-3,4-dihydroxy-5-(3-methyl-2-butenyl
)-2-(3-methyl-1-oxobutyl)-
##MOLFORM=C17H24O5
##CAS REGISTRY NO=57195-46-7
##MP= -300
##BP= -300
##MW= 308
##$RETENTION INDEX=0
##$CONDENSED SPECTRUM=NO
##NPOINTS= 80
##XYDATA=(XY..XY) 1 
    39        220
    41        700
    42         80
    43        860
    45         90
    53        140
    55        290
    56        100
    57        810
    60         70
    65         60
    67        150
    68         50
    69        999
    70        160
    71        160
    77        110
    79        120
    81        140
    82         60
    83        150
    84         80
    85        420
    91        100
    93         80
    94         70
    95        190
    96         70
    97        120
   105         50
   107         70
   109        190
   111         90
   113         90
   119         60
   121         90
   122        210
   123        100
   124        230
   125         70
   126         50
   127         90
   136        130
   137         90
   138         50
   139         60
   140         50
   145         60
   149        140
   153         50
   155         80
   163         70
   164         80
   165         50
   167         50
   173         50
   179         70
   180         60
   181         60
   182        140
   183         60
   191        180
   192         60
   197        570
   198        180
   205        130
   209         70
   210         80
   215         60
   223         50
   233        250
   234         60
   239        110
   240        210
   248        360
   249         80
   266        120
   275         30
   290         30
   308         40