##TITLE=Library Entry 12983
##JCAMP-DX=Revision 4.10 
##DATA TYPE=MASS SPECTRUM
##SAMPLE DESCRIPTION=ALPHA Chemicals / NIST MS Data Center.
##NAMES=HP
##CAS NAME=.alpha.-D-Glucopyranosyl bromide, tetraacetate
##MOLFORM=C14H19BrO9
##CAS REGISTRY NO=572-09-8
##MP= -300
##BP= -300
##MW= 410
##$RETENTION INDEX=0
##$CONDENSED SPECTRUM=NO
##NPOINTS= 163
##XYDATA=(XY..XY) 1 
    12          0
    13          1
    14          7
    15         42
    16          0
    17          0
    18          1
    26          1
    27         10
    28         19
    29         11
    31          3
    32          3
    38          0
    39          7
    40          2
    41          9
    42          0
    43        999
    44         25
    45          6
    47          0
    51          1
    52          1
    53          5
    54          3
    55          7
    56          3
    57          6
    58          1
    59          1
    60          5
    61         10
    65          0
    67          1
    68          5
    69         21
    70          9
    71         12
    73         14
    74          1
    79          1
    80          4
    81         36
    82          6
    83          3
    84          4
    85         22
    86          8
    87          1
    89          1
    95          1
    97         77
    98         30
    99         17
   100          1
   101          3
   102          9
   103         30
   104          1
   105          0
   109        234
   110         23
   111          5
   112          8
   113         21
   114          0
   115         76
   116         11
   117          1
   118          0
   123          0
   125          6
   126         39
   127        106
   128          9
   129          3
   130          0
   131          3
   133          0
   135          1
   137          0
   139         29
   140          5
   141          4
   142          1
   143          3
   144          6
   145         26
   146          2
   147          1
   150          0
   151          1
   152          1
   153          0
   155          9
   156          2
   157          6
   158          1
   163          0
   165          0
   169        430
   170         38
   171          5
   173          4
   175          2
   177          3
   179          1
   183          0
   185          1
   186          3
   187         13
   188          4
   189          2
   190          3
   191          1
   193          1
   195          0
   197          1
   199          0
   200          0
   205          0
   206          1
   207          0
   208          1
   210          4
   211         22
   212          2
   217          3
   219          2
   221          1
   223          0
   225          0
   228          3
   229         11
   230          1
   231          1
   232          1
   233          1
   235          0
   237          1
   239          1
   242          0
   246          1
   248         18
   249          2
   250         17
   251          1
   264          0
   271          7
   272          0
   288          5
   289          1
   290          1
   292          0
   307          1
   308          0
   309          2
   331         22
   332          3
   333          0
   351          0
   353          0