##TITLE=Library Entry 16039
##JCAMP-DX=Revision 4.10 
##DATA TYPE=MASS SPECTRUM
##SAMPLE DESCRIPTION=JANCA2, 60(3)642(1977); K. BAILEY ET AL
##NAMES=HP
##CAS NAME=Benzeneethanamine, .alpha.,2,6-trimethyl-, (.+/-.)-
##MOLFORM=C11H17N
##CAS REGISTRY NO=57204-69-0
##MP= -300
##BP= -300
##MW= 163
##$RETENTION INDEX=0
##$CONDENSED SPECTRUM=NO
##NPOINTS= 20
##XYDATA=(XY..XY) 1 
    41        170
    42        190
    43        100
    44        999
    45        180
    51        120
    60        150
    65        150
    77        290
    78        150
    79        130
    91        370
   103        190
   104        150
   105        400
   115        170
   117        180
   119        330
   120        190
   163         10