##TITLE=Library Entry 14800
##JCAMP-DX=Revision 4.10 
##DATA TYPE=MASS SPECTRUM
##SAMPLE DESCRIPTION=J. L. BORGNA 0408
##NAMES=HP
##CAS NAME=Androstane-4,19-diol, 5,6-epoxy-3-fluoro-, diacetate, (3.beta.,4.
beta.,5.beta.,6.beta.)-
##MOLFORM=C23H33FO5
##CAS REGISTRY NO=57207-28-0
##MP= -300
##BP= -300
##MW= 408
##$RETENTION INDEX=0
##$CONDENSED SPECTRUM=NO
##NPOINTS= 68
##XYDATA=(XY..XY) 1 
    41         97
    43        999
    53         60
    55         71
    67         80
    77         91
    79        134
    81         90
    91        200
    93        134
    95         50
   105        131
   107        106
   117         76
   119         66
   128         54
   129        111
   131        114
   133        186
   134        230
   135         69
   141        200
   142         73
   143         97
   144         51
   145        226
   146         51
   147        143
   148         54
   153         74
   154         69
   155         86
   157         57
   159         71
   160        147
   161        163
   162        543
   163        251
   164         51
   167         74
   171         57
   177        226
   178        123
   179         63
   181         67
   187        234
   237         77
   243         66
   257        160
   258         80
   259        109
   273         57
   275        186
   277         54
   288        140
   289         57
   293         60
   306         54
   307         71
   318         77
   336         74
   346         70
   348        629
   349        371
   350         67
   365         66
   366         57
   408         43