##TITLE=Library Entry 56175
##JCAMP-DX=Revision 4.10 
##DATA TYPE=MASS SPECTRUM
##SAMPLE DESCRIPTION=LAC, NIDDK, NIH, Bethesda, MD 20892
##NAMES=HP
##CAS NAME=2-Fluoroimidazole
##MOLFORM=C3H3FN2
##CAS REGISTRY NO=57212-34-7
##MP= -300
##BP= -300
##MW= 86
##$RETENTION INDEX=0
##$CONDENSED SPECTRUM=NO
##NPOINTS= 29
##XYDATA=(XY..XY) 1 
    41         34
    42          8
    43         12
    44         14
    45          7
    46          6
    50          1
    51          3
    52          1
    53          7
    54          1
    55         30
    56          1
    57         26
    58         69
    59        243
    60         13
    64          0
    65          0
    66          4
    67         12
    69          2
    70          0
    71          7
    73          0
    85          2
    86        999
    87         70
    88          1