##TITLE=Library Entry 63432
##JCAMP-DX=Revision 4.10 
##DATA TYPE=MASS SPECTRUM
##SAMPLE DESCRIPTION=Leung Pu, NIH, Bethesda, Maryland, U.S.
##NAMES=HP
##CAS NAME=N,O-Dicarbobenzyloxy-L-tyrosine
##MOLFORM=C25H23NO7
##CAS REGISTRY NO=57228-29-2
##MP= -300
##BP= -300
##MW= 449
##$RETENTION INDEX=0
##$CONDENSED SPECTRUM=NO
##NPOINTS= 146
##XYDATA=(XY..XY) 1 
    41         13
    42          3
    44         73
    45         10
    46          1
    48          3
    49          1
    50         16
    51         34
    52         11
    53          8
    54          2
    55          7
    56          2
    57          5
    59          0
    60          3
    61          3
    62          5
    63         17
    65         81
    66          4
    67          2
    68          0
    69          8
    70          1
    71          1
    73          4
    74          5
    75          2
    77         74
    79         89
    80          7
    81          2
    82          2
    83          1
    84          1
    85          1
    86          1
    87          1
    89         24
    91        999
    92         20
    93          1
    94          1
    95          1
    96          0
    97          1
   100          1
   101          0
   103          1
   105         35
   107        183
   108         67
   109          4
   110          0
   111          1
   112          0
   115          1
   116          1
   117          1
   119         10
   120          3
   121          2
   122          1
   123          0
   124          1
   127          0
   128          1
   129          0
   131          2
   132          0
   133          0
   134          8
   135          5
   136          3
   144          1
   148         14
   149          4
   150          1
   151          0
   152          2
   153          0
   154          0
   160          1
   162          3
   164         30
   165          4
   166          1
   167          1
   169          0
   177          2
   178          2
   179          0
   180          7
   181          3
   182          0
   188          3
   193          2
   195          2
   197        196
   198         24
   199          1
   206          3
   208          1
   209          0
   210          3
   211          1
   219          2
   222          0
   224          5
   225          1
   226          6
   227          0
   240          1
   241          1
   244          1
   252          3
   254         21
   255          3
   256          0
   258          0
   264          0
   268          1
   269          2
   270          3
   271          0
   280          0
   287          4
   288          0
   296          1
   298          6
   299          0
   315          4
   316          0
   331          3
   344          6
   345          0
   358          3
   359          1
   360          1
   388          3
   403          1
   405          1
   431          1
   449          1