##TITLE=Library Entry 70500
##JCAMP-DX=Revision 4.10 
##DATA TYPE=MASS SPECTRUM
##SAMPLE DESCRIPTION=TNO Volatile Compounds in Food - Chemical Concepts
##NAMES=HP
##CAS NAME=2-Thiophenepropanenitrile
##MOLFORM=C7H7NS
##CAS REGISTRY NO=5722-13-4
##MP= -300
##BP= -300
##MW= 137
##$RETENTION INDEX=0
##$CONDENSED SPECTRUM=NO
##NPOINTS= 71
##XYDATA=(XY..XY) 1 
    23          2
    25          4
    26         18
    27         55
    28          2
    32          2
    33          5
    36         13
    37         14
    38         39
    39        135
    41          0
    44          3
    45        287
    46          8
    47         20
    48          1
    49         29
    50         24
    51         41
    52         23
    53        162
    54         21
    55          3
    56          4
    57         21
    58         54
    59          5
    60          8
    61          7
    62         17
    63         18
    64         17
    65         32
    66          4
    67          4
    68          7
    69         78
    70         27
    71         22
    73          0
    74          4
    75          8
    76          3
    77          9
    78          3
    79          6
    81          5
    82         16
    83          2
    84         10
    88          0
    90          1
    92          5
    93          0
    95         10
    97        999
    98         64
    99         45
   108          1
   109         10
   110          6
   111          1
   112          0
   121          0
   134          1
   136          5
   137        287
   138         23
   139         10
   140          1