##TITLE=Library Entry 79587
##JCAMP-DX=Revision 4.10 
##DATA TYPE=MASS SPECTRUM
##SAMPLE DESCRIPTION=Chemical Concepts
##NAMES=HP
##CAS NAME=N.alpha.-benzoyltyrosine ethylamide
##MOLFORM=C18H20N2O3
##CAS REGISTRY NO=57227-40-4
##MP= -300
##BP= -300
##MW= 312
##$RETENTION INDEX=0
##$CONDENSED SPECTRUM=NO
##NPOINTS= 105
##XYDATA=(XY..XY) 1 
    37          1
    38          4
    39         25
    41          3
    42          3
    43          6
    44         23
    45          5
    46          3
    50         27
    51        113
    52         21
    53         19
    54          4
    55         10
    56          2
    57          4
    62          2
    63          7
    64          4
    65         14
    66          3
    67          2
    68          1
    69          3
    71          1
    73          3
    74          9
    75          8
    77        636
    78         58
    79         31
    80          5
    81          4
    82          1
    83          2
    84          1
    89          7
    90          7
    91         17
    92          3
    93          1
    94          5
    95          1
    97          1
    98          1
   101          3
   102          7
   103          9
   105        999
   106         94
   107        411
   108         52
   109          4
   115          1
   116          2
   117          3
   118         12
   119         13
   120        105
   121         15
   122        251
   123         20
   124          1
   131          5
   132          6
   133         21
   134          9
   135          9
   136          2
   137          1
   145          3
   146          8
   147        120
   148         16
   149          3
   150          1
   152          1
   161         51
   162          6
   163          6
   164         46
   165          6
   171          2
   174          7
   175          1
   176          1
   177         11
   178          6
   189          2
   192        478
   193         52
   194          6
   195          1
   206          2
   207          9
   208          2
   238          1
   239          6
   240         39
   241          6
   268          5
   269          1
   313          7
   314          2