##TITLE=Library Entry 73292
##JCAMP-DX=Revision 4.10 
##DATA TYPE=MASS SPECTRUM
##SAMPLE DESCRIPTION=Z.A.MALIK DEPT. CHEM., UNIV. ISLAMABAD, ISLAMABAD, PAKI
STAN
##NAMES=HP
##CAS NAME=Acetamide, N,N-bis(1-methylpropyl)-
##MOLFORM=C10H21NO
##CAS REGISTRY NO=57233-37-1
##MP= -300
##BP= -300
##MW= 171
##$RETENTION INDEX=0
##$CONDENSED SPECTRUM=NO
##NPOINTS= 14
##XYDATA=(XY..XY) 1 
    44         40
    55        100
    56         60
    57        120
    58        160
    70        100
    72        160
    84         60
    86        420
   100        999
   114        200
   142        240
   156         60
   171        200