##TITLE=Library Entry 67282
##JCAMP-DX=Revision 4.10 
##DATA TYPE=MASS SPECTRUM
##SAMPLE DESCRIPTION=R.SELF FOOD RESEARCH INSTITUTE, NORWICH, U.K.
##NAMES=HP
##CAS NAME=Cyclohexanepropanoic acid, 3,4-dihydroxy-
##MOLFORM=C9H16O4
##CAS REGISTRY NO=57231-21-7
##MP= -300
##BP= -300
##MW= 188
##$RETENTION INDEX=0
##$CONDENSED SPECTRUM=NO
##NPOINTS= 86
##XYDATA=(XY..XY) 1 
    26         12
    27        197
    29        165
    39        178
    40         38
    41        488
    42         80
    43        319
    44        111
    45         50
    51         18
    52         10
    53        107
    54        117
    55        481
    56         84
    57        498
    58         47
    59         42
    60        242
    61         33
    65         26
    66         23
    67        303
    68        101
    69        296
    70        148
    71        107
    72         13
    73        222
    74         35
    77         37
    78         17
    79        289
    80         77
    81        562
    82         70
    83        213
    84        274
    85         64
    86         30
    87         16
    91         37
    92         85
    93        124
    94        999
    95        565
    96         72
    97        117
    98         60
    99         99
   100         15
   101         23
   105         10
   107         30
   108        154
   109         69
   110        144
   111        191
   112         33
   113         45
   114         65
   115         58
   116         26
   118         70
   119         18
   121         21
   123         13
   124         53
   125         50
   126         84
   128         18
   129         38
   134         17
   135         14
   136        513
   137         64
   139         14
   140         16
   142         20
   149         23
   152         43
   153         25
   154        107
   155         30
   170         37