##TITLE=Library Entry 83624
##JCAMP-DX=Revision 4.10 
##DATA TYPE=MASS SPECTRUM
##SAMPLE DESCRIPTION=Chemical Concepts
##NAMES=HP
##CAS NAME=Benzenemethanol, .alpha.-2-cyclohexen-1-yl-
##MOLFORM=C13H16O
##CAS REGISTRY NO=5723-89-7
##MP= -300
##BP= -300
##MW= 188
##$RETENTION INDEX=0
##$CONDENSED SPECTRUM=NO
##NPOINTS= 60
##XYDATA=(XY..XY) 1 
    27         18
    28          3
    29          6
    39         26
    40          3
    41         31
    42          2
    43          3
    50          7
    51         31
    52         11
    53         29
    54         23
    55          9
    56          0
    57          2
    62          1
    63          6
    64          1
    65         11
    66          6
    67         48
    68          3
    69          1
    70          0
    71          0
    74          1
    75          2
    76          3
    77        150
    78         23
    79        380
    80         38
    81         41
    82         18
    83          2
    89          3
    90          0
    91         16
    92          3
    93          0
    94          0
    95          0
    96          1
    97          3
   102          1
   103          2
   105         39
   106          7
   107        999
   108         78
   109          5
   115          8
   116          1
   117          1
   127          1
   128          5
   129          3
   170          0
   171          3