##TITLE=Library Entry 64338
##JCAMP-DX=Revision 4.10 
##DATA TYPE=MASS SPECTRUM
##SAMPLE DESCRIPTION=A.A.Kutin, Moscow, Russia
##NAMES=HP
##CAS NAME=Benzaldehyde, 4,5-dimethoxy-3-(phenylmethoxy)-
##MOLFORM=C16H16O4
##CAS REGISTRY NO=57230-04-3
##MP= -300
##BP= -300
##MW= 272
##$RETENTION INDEX=0
##$CONDENSED SPECTRUM=NO
##NPOINTS= 171
##XYDATA=(XY..XY) 1 
    37          0
    38          3
    39         23
    40          1
    41          8
    42          0
    43          1
    45          1
    47          0
    50          6
    51         19
    52          7
    53         15
    54          2
    55          2
    56          0
    57          0
    59          4
    60          0
    61          1
    62          4
    63         14
    65         92
    66         11
    67          5
    69         16
    70          1
    71          0
    72          0
    73          0
    74          1
    75          1
    76          1
    77          6
    78          2
    79         10
    80          4
    81          5
    82          6
    83          1
    84          0
    85          1
    86          0
    87          0
    89         16
    91        999
    92        107
    93          7
    95         36
    96          2
    97          1
    98          0
    99          0
   100          0
   101          0
   102          0
   103          0
   104          0
   105          3
   106          2
   107          6
   108          3
   109          6
   110         26
   111          2
   112          0
   113          1
   115          2
   116          0
   117          0
   118          0
   119          0
   120          2
   121          2
   122          1
   123          5
   124          5
   125         37
   126          3
   127          1
   128          2
   129          1
   130          0
   131          0
   133          0
   134          0
   135          1
   136          4
   137         14
   138         13
   139          3
   140          1
   141          1
   142          0
   143          0
   144          0
   145          0
   147          0
   149          0
   150          0
   151          1
   152          7
   153         10
   154          1
   155          1
   156          0
   157          0
   158          0
   159          0
   163          0
   165         16
   166          5
   167          8
   168          2
   169          1
   170          0
   171          0
   172          0
   173          0
   177          0
   180        195
   181         99
   182         14
   183          3
   184          1
   185          0
   186          0
   187          0
   191          0
   193          0
   194          0
   195          0
   196          1
   197          3
   198          0
   199          0
   200          0
   201          0
   202          0
   208          0
   209          0
   211          3
   212          1
   213          4
   214          0
   215          0
   223          0
   224          0
   225          0
   226          0
   227          1
   229          6
   230          1
   231          0
   239          0
   240          0
   241          2
   243         94
   244         40
   245          5
   246          0
   254          1
   255          1
   256          0
   257          3
   258          0
   268          0
   272        215
   273         39
   274          5
   275          0