##TITLE=Library Entry 98885
##JCAMP-DX=Revision 4.10 
##DATA TYPE=MASS SPECTRUM
##SAMPLE DESCRIPTION=P. Vainiotalo, Dep. Chem., Univ. Joensuu, Joensuu, Finl
and
##NAMES=HP
##CAS NAME=1,3-Dithiolane, 2-methyl-2-propyl-
##MOLFORM=C7H14S2
##CAS REGISTRY NO=57230-59-8
##MP= -300
##BP= -300
##MW= 162
##$RETENTION INDEX=0
##$CONDENSED SPECTRUM=NO
##NPOINTS= 29
##XYDATA=(XY..XY) 1 
    14         30
    18         50
    27         70
    32         90
    39         50
    41        140
    42         20
    45         80
    47         30
    53         20
    55         30
    58         40
    59        300
    60         30
    61        100
    67         30
    69        190
    74         90
    87         60
   101         50
   102         30
   105         30
   119        999
   120         90
   121        100
   147         70
   162        280
   163         40
   164         30