##TITLE=Library Entry 4573
##JCAMP-DX=Revision 4.10 
##DATA TYPE=MASS SPECTRUM
##SAMPLE DESCRIPTION=S. AURICCHIO, IST. CHIMICA, POLITECNICO MILANO, MILANO,
 ITAL
##NAMES=HP
##CAS NAME=1,2,3-Triazole, 5-[(4-bromophenylsulfonyl)methylamino]-1-methyl-
##MOLFORM=C10H11BrN4O2S
##CAS REGISTRY NO=57240-89-8
##MP= -300
##BP= -300
##MW= 330
##$RETENTION INDEX=0
##$CONDENSED SPECTRUM=NO
##NPOINTS= 14
##XYDATA=(XY..XY) 1 
    42        999
    43        600
    50        140
    54        160
    75        180
    76        180
    82        460
    83        140
   111        260
   155        120
   157        120
   185        220
   187        220
   265         60