##TITLE=Library Entry 76780
##JCAMP-DX=Revision 4.10 
##DATA TYPE=MASS SPECTRUM
##SAMPLE DESCRIPTION=Chemical Concepts
##NAMES=HP
##CAS NAME=2,2'-(1,4-Phenylene)bis[4-(2-thienylmethylene)-5(4H)-oxazolone]
##MOLFORM=C22H12N2O4S2
##CAS REGISTRY NO=57244-27-6
##MP= -300
##BP= -300
##MW= 432
##$RETENTION INDEX=0
##$CONDENSED SPECTRUM=NO
##NPOINTS= 105
##XYDATA=(XY..XY) 1 
    34         13
    35         20
    36        159
    38         74
    39        166
    40        355
    42         87
    43        633
    44        322
    45        249
    47         12
    49          9
    50        227
    51         56
    52         25
    53         25
    55         34
    56         85
    58        127
    60        133
    62         20
    63         75
    65        238
    66         15
    67         10
    69         95
    70         21
    71         22
    72         20
    73         31
    74         75
    76        447
    77         47
    78         30
    79          9
    81         11
    82         27
    83         79
    85         10
    87          9
    88          7
    89         14
    90         43
    91         54
    93         32
    94         39
    95         34
    97         40
    98          7
    99          8
   100          6
   102         40
   104        999
   105         59
   106          9
   108         19
   109          8
   111        178
   112        110
   113         15
   114          8
   119        152
   121        147
   122        145
   123         70
   124          9
   125          7
   126          6
   127          6
   128         12
   130         85
   132        616
   133         45
   134         18
   136         18
   139          5
   147          9
   149        524
   150         50
   151          7
   152         11
   154          9
   160         10
   164          7
   166         91
   167          9
   171         14
   177         47
   188          9
   193         20
   198          7
   216          6
   231          6
   254         15
   258         12
   269         12
   281          8
   282        378
   283         63
   284         21
   299         31
   300          6
   432         46
   433         10
   434          5