##TITLE=Library Entry 2033
##JCAMP-DX=Revision 4.10 
##DATA TYPE=MASS SPECTRUM
##SAMPLE DESCRIPTION=MASS SPECTRA OF ORGANIC COMPOUNDS, V. 6, B. H. KENNETT
 ET AL, DIV. OF FOOD RESEARCH, CSIRO, AUSTRALIA
##NAMES=HP
##CAS NAME=2-Heptenal, (Z)-
##MOLFORM=C7H12O
##CAS REGISTRY NO=57266-86-1
##MP= -300
##BP= -300
##MW= 112
##$RETENTION INDEX=958
##$CONDENSED SPECTRUM=NO
##NPOINTS= 39
##XYDATA=(XY..XY) 1 
    26         70
    27        670
    29        390
    30         10
    31         20
    37         10
    38         50
    39        520
    40        110
    41        999
    42        250
    43        410
    45         10
    50         40
    51         60
    52         30
    53        120
    54         50
    55        600
    56        450
    57        530
    58         30
    60         10
    63         10
    65         20
    67         50
    68        260
    69        270
    70        340
    71         70
    77         20
    79         50
    81         50
    82         10
    83        550
    84        120
    94         50
    97         60
   112         70