##TITLE=Library Entry 61588
##JCAMP-DX=Revision 4.10 
##DATA TYPE=MASS SPECTRUM
##SAMPLE DESCRIPTION=Div. of Experiment Therapeutics WRAIR, WRAMC, Washingto
n DC 20307
##NAMES=HP
##CAS NAME=1-[[3-Methyl-3-phenyl]butyryl-4-[5-phenyl-4-oxo-2-oxazolin-2-yl]p
iperazine
##MOLFORM=C24H27N3O3
##CAS REGISTRY NO=57260-21-6
##MP= -300
##BP= -300
##MW= 405
##$RETENTION INDEX=0
##$CONDENSED SPECTRUM=NO
##NPOINTS= 231
##XYDATA=(XY..XY) 1 
    41        513
    42        463
    43        247
    44        152
    45          8
    47          6
    48          2
    49         23
    50         50
    51        196
    52         47
    53         49
    54        137
    55        193
    56        339
    57         73
    58         25
    59          3
    60          2
    61          7
    62         36
    63        135
    64         41
    65         51
    66          5
    67         15
    68         58
    69        524
    70        378
    71         39
    72         11
    73          3
    74          7
    75         10
    76         17
    77        393
    78        135
    79        208
    80         16
    81         17
    82         68
    83         67
    84         59
    85        409
    86        109
    87         17
    88          7
    89        405
    90        385
    91        999
    92         59
    93         11
    94          3
    95         16
    96         26
    97         66
    98         40
    99         15
   100          4
   101          7
   102         18
   103        124
   104         73
   105        229
   106         39
   107         34
   108          6
   109         23
   110         68
   111         61
   112         24
   113         31
   115        151
   116         46
   117        173
   118        225
   119        955
   120         99
   121          7
   122          5
   123          3
   124         74
   125         20
   126         45
   127         32
   128         11
   129         10
   130          9
   131         31
   132        201
   133         36
   134          6
   135          6
   136          9
   137          6
   138         84
   139         85
   140         24
   141          4
   142          2
   143          7
   144         12
   145         83
   146         12
   147          3
   148          0
   149          1
   150          1
   152        110
   153        141
   154         64
   155          5
   156          5
   157          1
   158          8
   159         14
   160         26
   161         82
   162          9
   163          1
   164          2
   165          2
   166          2
   167          9
   168          3
   169         39
   170          7
   171          4
   172          4
   173          7
   174          2
   175          6
   177        307
   178         51
   179          8
   180         22
   181          8
   182          8
   184          0
   185          2
   186         10
   187          6
   188         11
   189         24
   190          9
   191          5
   192          1
   193          1
   194          1
   195          1
   196          3
   197          7
   198          1
   199          0
   200          3
   201          3
   202        120
   203         64
   204         53
   205          8
   206          0
   207          2
   208          1
   212          1
   213          3
   214          9
   215         12
   216         37
   217         10
   218          2
   219         42
   220          6
   221          1
   222          1
   226          0
   227          2
   228         12
   229          7
   230          9
   231          4
   232          5
   233          3
   240          3
   241          1
   242          5
   243          4
   244         31
   245         54
   246         23
   247          7
   248          1
   249          1
   254         10
   255          2
   256          8
   257         10
   258          6
   259          2
   261          1
   265          1
   266          1
   268          1
   270         17
   271          9
   272          3
   273          2
   284          4
   285          2
   286         20
   287         39
   288          6
   298         12
   299          3
   300          5
   301          1
   314         14
   315          2
   320         20
   321         19
   322          3
   337        162
   338         37
   339          5
   340          2
   377          0
   390          2
   391          0
   405        132
   406         45
   407         10
   408          2