##TITLE=Library Entry 24587
##JCAMP-DX=Revision 4.10 
##DATA TYPE=MASS SPECTRUM
##SAMPLE DESCRIPTION=NIST Mass Spectrometry Data Center
##NAMES=HP
##CAS NAME=t-Butyl 1-piperaziencarboxylate
##MOLFORM=C9H18N2O2
##CAS REGISTRY NO=57260-71-6
##MP= -300
##BP= -300
##MW= 186
##$RETENTION INDEX=0
##$CONDENSED SPECTRUM=NO
##NPOINTS= 65
##XYDATA=(XY..XY) 1 
    12          2
    14          4
    15         90
    16          3
    17          2
    18         21
    26         17
    27        143
    28        365
    29        403
    30        154
    31         22
    32          1
    37          2
    38          9
    39        130
    41        483
    42        256
    43        372
    44        924
    45         28
    50          3
    51          5
    52          4
    53         12
    54         35
    55        186
    56        778
    57        999
    58         96
    59         34
    60          1
    68         15
    69         64
    70         65
    71         27
    72          1
    73          1
    74          1
    75          1
    81          3
    83         20
    85        198
    86         25
    88        131
    89          6
    90          1
    99          1
   100          1
   101          4
   103          2
   111          2
   113        186
   114         12
   115          5
   127          4
   129         37
   130        215
   131         16
   132          1
   143          3
   144          1
   171          1
   186         54
   187          7