##TITLE=Library Entry 52719
##JCAMP-DX=Revision 4.10 
##DATA TYPE=MASS SPECTRUM
##SAMPLE DESCRIPTION=A.Namera ET AL.J.Anal.Tox., 22,396(1998)
##NAMES=HP
##CAS NAME=Setiptiline
##MOLFORM=C19H19N
##CAS REGISTRY NO=57262-94-9
##MP= -300
##BP= -300
##MW= 261
##$RETENTION INDEX=0
##$CONDENSED SPECTRUM=NO
##NPOINTS= 91
##XYDATA=(XY..XY) 1 
    50         25
    51         66
    57         25
    59          8
    63         61
    65         10
    70        515
    74          5
    75         25
    76         25
    77         25
    79          5
    80         10
    81         13
    82        246
    83        999
    84         20
    86          8
    88         18
    89         10
    90         10
    91         61
    92         13
    93         18
    94         81
    96         10
    98          8
    99         10
   101         48
   104          5
   106         13
   107         30
   108         15
   109         38
   112         10
   113         18
   114         63
   116         66
   121         13
   122         46
   123          8
   124         15
   128         18
   130         53
   139         33
   142         20
   144          5
   149         15
   150         25
   152         33
   153         10
   163         30
   164         20
   165         56
   166          8
   174          8
   176         33
   179         63
   182          5
   184          5
   187         36
   188         13
   190         53
   191         41
   200         30
   201         61
   202        381
   203        282
   204         56
   205         15
   213         63
   214         13
   215        213
   216         86
   217        299
   218        150
   219         30
   220          5
   226         10
   228         13
   229         10
   230         18
   231         38
   232        119
   233         20
   244         18
   246          8
   258         13
   260         84
   261        459
   262         94