##TITLE=Library Entry 30767
##JCAMP-DX=Revision 4.10 
##DATA TYPE=MASS SPECTRUM
##SAMPLE DESCRIPTION=R RYHAGE MS-LAB KAROLINSKA INSTITUTET STOCKHOLM SWEDEN
##NAMES=HP
##CAS NAME=2,4,6,8,9-Pentathiatricyclo[3.3.1.1(3,7)]decane, 1,3,7-trimethyl-
##MOLFORM=C8H12S5
##CAS REGISTRY NO=57274-30-3
##MP= -300
##BP= -300
##MW= 268
##$RETENTION INDEX=0
##$CONDENSED SPECTRUM=NO
##NPOINTS= 212
##XYDATA=(XY..XY) 1 
    12          0
    13          0
    14          0
    15         11
    16          0
    17          6
    18         32
    24          0
    25          1
    26          7
    27         18
    28          6
    29         12
    30          0
    31          0
    32          4
    33          3
    34          7
    35          0
    36          0
    37          1
    38          4
    39         54
    40         11
    41         65
    42          5
    43         36
    44          4
    45        100
    46          7
    47         14
    48          2
    49          1
    50          3
    51          4
    52          2
    53         14
    54          2
    55         22
    56          4
    57         22
    58         57
    59        999
    60         40
    61         52
    62          2
    63          2
    64          3
    65         30
    66          7
    67         37
    68          6
    69         24
    70          5
    71         12
    72          8
    73         10
    74          4
    75          6
    76         21
    77          9
    78          4
    79          7
    80          2
    81         12
    82          4
    83          8
    84          7
    85         34
    86          3
    87          5
    88          0
    89          0
    90          1
    91         10
    92          2
    93          5
    94          2
    95          6
    96          3
    97         28
    98         22
    99        146
   100         22
   101         38
   102          3
   103          4
   104          9
   105          2
   106          1
   107          2
   108          1
   109          4
   110          4
   111         57
   112        138
   113         77
   114         10
   115          4
   116          4
   117        112
   118         11
   119         16
   120          1
   121          2
   122          1
   123          3
   124          2
   125         42
   126        125
   127        142
   128         20
   129          9
   130          7
   131        453
   132         36
   133         96
   134          6
   135          7
   136         37
   137          3
   138          4
   139          4
   140          2
   141          1
   142          0
   143         22
   144        150
   145        266
   146         36
   147         24
   148          2
   149          9
   150          7
   151          1
   152          1
   153          0
   154          1
   155          3
   156          4
   157          8
   158         15
   159         57
   160          6
   161          5
   162          0
   163          2
   164          0
   165          1
   166          0
   167          2
   168          0
   169          0
   170          0
   171          1
   172          0
   173          0
   175          4
   176         29
   177         76
   178         10
   179          9
   180          1
   181          0
   182          0
   183          0
   185          0
   187          0
   189          2
   190          1
   191         52
   192          5
   193          6
   194          0
   195          0
   196          0
   197          0
   199          2
   200          0
   201          0
   202          0
   203         80
   204        413
   205         53
   206         53
   207          6
   208          3
   209          3
   210          0
   211          0
   217          0
   218          3
   219          0
   220          0
   221          0
   223          0
   231          2
   232          0
   233          0
   235          4
   236          1
   237          0
   240          0
   264          6
   265          1
   266          1
   268        480
   269         60
   270        106
   271         11
   272         10
   273          1