##TITLE=Library Entry 57545
##JCAMP-DX=Revision 4.10 
##DATA TYPE=MASS SPECTRUM
##SAMPLE DESCRIPTION=R RYHAGE MS-LAB KAROLINSKA INSTITUTET STOCKHOLM SWEDEN
##NAMES=HP
##CAS NAME=2,4,6,8,9,10-Hexathiatricyclo[3.3.1.1(3,7)]decane, 1,3,5-tripropy
l-
##MOLFORM=C13H22S6
##CAS REGISTRY NO=57274-48-3
##MP= -300
##BP= -300
##MW= 370
##$RETENTION INDEX=0
##$CONDENSED SPECTRUM=NO
##NPOINTS= 247
##XYDATA=(XY..XY) 1 
    12          0
    13          0
    14          0
    15          1
    16          0
    17          3
    18         14
    25          0
    26          1
    27         24
    28          2
    29         42
    30          1
    32          4
    33          3
    34          7
    35          0
    36          0
    37          1
    38          1
    39         13
    40          1
    41         21
    42          3
    43          9
    44          7
    45        204
    46          6
    47         21
    48          0
    49          0
    50          1
    51          1
    52          0
    53         32
    54          3
    55          7
    56          0
    57          3
    58         21
    59        101
    60          6
    61          7
    62          0
    63          0
    64          1
    65          1
    66          0
    67          2
    68          0
    69          4
    70          2
    71         46
    72          2
    73         11
    74          1
    75          0
    76         16
    77         11
    78          5
    79          2
    80          0
    81          1
    82          0
    83          1
    84          1
    85         28
    86         22
    87        999
    88         53
    89         43
    90          2
    91          1
    92          0
    93          0
    94          0
    95          0
    96          0
    97          1
    98          0
    99          2
   100          0
   101          0
   102          0
   103          6
   104          0
   105          1
   107          0
   109          1
   110          0
   111          1
   112          0
   113          1
   114          0
   115          0
   116          0
   117          1
   118          0
   119          4
   120          4
   121          2
   122          0
   123          0
   124          0
   125          0
   126          0
   127          0
   129          1
   130          1
   131         15
   132         15
   133          2
   134          1
   135          2
   136          0
   137          0
   139          0
   140          0
   141          3
   142          1
   143          1
   144          0
   145         53
   146          3
   147          4
   148          0
   149          0
   150          0
   151          1
   152          0
   153          1
   154          0
   155          1
   156          0
   157          1
   158          1
   159          1
   160          1
   161          1
   162          0
   163          6
   164         87
   165         11
   166         11
   167          1
   168          0
   169          1
   170          0
   171          5
   172          1
   173         31
   174        128
   175         15
   176         10
   177         18
   178          1
   179          2
   180          0
   181          0
   183          0
   184          0
   185          1
   186          4
   187         66
   188          7
   189          6
   190          1
   191          0
   192          2
   193          0
   194          0
   195          0
   197          1
   198          0
   199          0
   200          0
   201          0
   203          1
   204          0
   205         11
   206        242
   207         31
   208         31
   209          3
   210          1
   211          0
   213          0
   215          0
   216          0
   217          1
   218          1
   219         98
   220         12
   221         14
   222          1
   223          0
   227          0
   228          0
   229          4
   230          0
   231          0
   237          0
   239          0
   241          0
   249          0
   250          1
   251         65
   252          8
   253         12
   254          1
   255          1
   258          0
   260          0
   261          1
   262          0
   263          0
   264          0
   265          0
   269          0
   273          0
   283         17
   284          2
   285          3
   286          0
   287          0
   291          0
   293          2
   294          0
   295          0
   305         28
   306          6
   307          5
   308          1
   309          0
   328          0
   330          0
   337          0
   356          1
   357          0
   358          0
   370         87
   371         16
   372         25
   373          4
   374          2
   375          0
   376          0