##TITLE=Library Entry 69345
##JCAMP-DX=Revision 4.10 
##DATA TYPE=MASS SPECTRUM
##SAMPLE DESCRIPTION=R RYHAGE MS-LAB KAROLINSKA INSTITUTET STOCKHOLM SWEDEN
##NAMES=HP
##CAS NAME=2-Butanone, 3-(2,5-dihydro-4,5,5-trimethyl-2-pyrimidinyl)-3-methy
l-, (.+/-.)-
##MOLFORM=C12H20N2O
##CAS REGISTRY NO=57274-42-7
##MP= -300
##BP= -300
##MW= 208
##$RETENTION INDEX=0
##$CONDENSED SPECTRUM=NO
##NPOINTS= 153
##XYDATA=(XY..XY) 1 
    12          1
    13          1
    14          5
    15         67
    16          3
    17          4
    18         23
    25          2
    26         19
    27        207
    28        125
    29        403
    30         42
    31          3
    32          1
    33          2
    34          4
    36          1
    37          4
    38         12
    39        267
    40         71
    41        642
    42        314
    43        678
    44         28
    45          7
    46          2
    47          7
    48          6
    49          2
    50          8
    51         19
    52         21
    53        171
    54         85
    55        714
    56         67
    57         64
    58         25
    59          5
    60          2
    61          1
    62          1
    63          2
    64          3
    65         17
    66         24
    67         85
    68         82
    69        535
    70        178
    71        189
    72         23
    73          2
    74          2
    75          1
    76          1
    77         10
    78          4
    79         22
    80         41
    81         60
    82        857
    83         96
    84         46
    85        135
    86        607
    87         31
    88          2
    89          1
    91         10
    92          7
    93         24
    94         40
    95         46
    96        999
    97        107
    98         20
    99          4
   100          2
   105          7
   106         10
   107         33
   108        100
   109        185
   110        142
   111         25
   112         39
   113         10
   114          8
   115          1
   117          1
   118          1
   119          2
   120          3
   121         13
   122         67
   123        114
   124        571
   125        678
   126         64
   127        182
   128         15
   129          1
   130          1
   131          2
   132          1
   133          3
   134          3
   135         18
   136         12
   137          8
   138        321
   139        785
   140         78
   141          4
   142          2
   146          1
   147          2
   148          3
   149         30
   150         71
   151         37
   152         30
   153          4
   154          1
   155          1
   156          1
   160          4
   161          1
   163          3
   164          3
   165         89
   166        167
   167         85
   168         10
   169          1
   175         21
   176          3
   177          1
   181        750
   182         96
   183          7
   184          2
   191          1
   192          2
   193        821
   194        103
   195          7
   208        207
   209         32
   210          3