##TITLE=Library Entry 30191
##JCAMP-DX=Revision 4.10 
##DATA TYPE=MASS SPECTRUM
##SAMPLE DESCRIPTION=R RYHAGE MS-LAB KAROLINSKA INSTITUTET STOCKHOLM SWEDEN
##NAMES=HP
##CAS NAME=2,4,6,8,9,10-Hexathiatricyclo[3.3.1.1(3,7)]decane, 1,1'-dithiobis
[3,5,7-trimethyl-
##MOLFORM=C14H18S14
##CAS REGISTRY NO=57274-62-1
##MP= -300
##BP= -300
##MW= 634
##$RETENTION INDEX=0
##$CONDENSED SPECTRUM=NO
##NPOINTS= 214
##XYDATA=(XY..XY) 1 
    12          4
    14          2
    15         18
    16          2
    17         12
    18         24
    24          1
    25          3
    26          9
    27         17
    28         18
    29         20
    32         48
    33         11
    34         17
    36          1
    37          1
    38         20
    39          9
    40          1
    41          5
    42          6
    43        137
    44         75
    45         50
    46          9
    47          7
    48          0
    49          1
    50          1
    51          1
    53          2
    54          1
    55          4
    56         11
    57         83
    58        183
    59        999
    60         41
    61         44
    62          1
    64         30
    65          3
    66          4
    67          1
    68          1
    69          6
    70          1
    71          8
    72         35
    73          3
    74          1
    75          1
    76        482
    77         32
    78         44
    79          2
    80          1
    81          1
    82          1
    83         20
    84          3
    85          3
    86          2
    87          0
    88          5
    89          1
    90          3
    91         33
    92        160
    93         10
    94         13
    95          1
    96          1
    97          2
    98          1
   100          1
   101          1
   102          1
   103          2
   104          1
   108          0
   111          2
   115          1
   116          2
   117         22
   118         23
   119          4
   121          2
   123          2
   124          0
   125          2
   127          0
   129          1
   130          1
   131          1
   134          1
   135          2
   136          4
   137          0
   138          0
   143          2
   144          5
   145          3
   146          1
   147          0
   148         39
   149         14
   150        146
   151         20
   152         18
   153          3
   154          1
   155          2
   157          1
   159          1
   160          1
   161          2
   162          8
   163          5
   164          1
   165          0
   167         32
   168          4
   169          6
   170          0
   171          0
   175          2
   176          1
   177          3
   178          1
   179          1
   180          0
   182          1
   183          3
   184          0
   185          1
   186          0
   187          1
   188          1
   189          1
   193          1
   194          7
   195          3
   196          2
   204          2
   206          0
   208          1
   209         62
   210          6
   211         11
   212          1
   213          1
   220          0
   221          4
   222          1
   223          1
   226          1
   227          7
   228          1
   229          1
   231          0
   241          6
   242          1
   243          2
   246          7
   247          0
   248          5
   249          1
   250          3
   252          1
   253          7
   254          1
   255          2
   272          2
   274          1
   278          7
   279          1
   280          6
   281          1
   282          3
   284          1
   285        110
   286         13
   287         32
   288          3
   289          3
   310          0
   312          0
   317         15
   318         44
   319         10
   320         13
   321          2
   322          2
   479         23
   480          5
   481         11
   482          2
   483          2
   484          3
   485          0
   486          1
   511          3
   513          1
   543          5
   544          1
   545          3
   547          0
   634         12
   635          2
   636          7
   637          1
   638          2