##TITLE=Library Entry 72114
##JCAMP-DX=Revision 4.10 
##DATA TYPE=MASS SPECTRUM
##SAMPLE DESCRIPTION=R RYHAGE MS-LAB KAROLINSKA INSTITUTET STOCKHOLM SWEDEN
##NAMES=HP
##CAS NAME=1,3-Dithiane-4-thione, 2,2,6,6-tetramethyl-
##MOLFORM=C8H14S3
##CAS REGISTRY NO=57274-32-5
##MP= -300
##BP= -300
##MW= 206
##$RETENTION INDEX=0
##$CONDENSED SPECTRUM=NO
##NPOINTS= 195
##XYDATA=(XY..XY) 1 
    12          1
    13          1
    14          3
    15         18
    16          1
    17         11
    18         50
    19          1
    20          1
    25          4
    26         18
    27         95
    28         24
    29         90
    30          4
    31          3
    32         32
    33         28
    34         50
    35          4
    36         11
    37         21
    38         48
    39        309
    40         45
    41        352
    42         31
    43         76
    44         46
    45        300
    46         27
    47         71
    48          7
    49          9
    50         19
    51         28
    52         10
    53         85
    54         13
    55        204
    56        114
    57         43
    58        176
    59        904
    60         51
    61         46
    62          6
    63         11
    64         24
    65        142
    66         23
    67         46
    68         12
    69         60
    70         18
    71         76
    72         13
    73         40
    74        514
    75        319
    76         43
    77         34
    78          8
    79         18
    80          4
    81         21
    82         16
    83         66
    84         39
    85        161
    86         19
    87         28
    88          6
    89          8
    90         11
    91         29
    92          7
    93         15
    94          4
    95         16
    96         10
    97        190
    98        114
    99        999
   100        114
   101        185
   102         13
   103         12
   104          4
   105         12
   106         20
   107         18
   108         11
   109         15
   110         14
   111         22
   112         11
   113         10
   114          5
   115         17
   116          7
   117        366
   118         26
   119         44
   120          8
   121         26
   122          8
   123         12
   124          4
   125         13
   126          6
   127          8
   128          5
   129         59
   130        181
   131        104
   132        185
   133         71
   134         32
   135         12
   136          4
   137          8
   138          4
   139         10
   140          4
   141         18
   142          9
   143         10
   144          6
   145          5
   146          3
   147          7
   148          8
   149         13
   150          5
   151          8
   152          7
   153         11
   154          5
   155         10
   156          4
   157         17
   158          5
   159         14
   160          4
   161          7
   162          6
   163         12
   164         40
   165          9
   166          7
   167          8
   168          8
   169          7
   170          8
   171          9
   172         13
   173         23
   174         21
   175         52
   176         10
   177          7
   178          2
   179          3
   180          3
   181         18
   182          4
   183         11
   184          3
   185          6
   186          4
   187          5
   188         14
   189          6
   190          6
   191          9
   192          9
   193          4
   194          4
   195          5
   196          8
   197         12
   198          7
   199          7
   200          7
   201          3
   202          3
   203          2
   204          5
   205         39
   206        423
   207         76
   208         81
   209         12
   210          6