##TITLE=Library Entry 5570
##JCAMP-DX=Revision 4.10 
##DATA TYPE=MASS SPECTRUM
##SAMPLE DESCRIPTION=R RYHAGE MS-LAB KAROLINSKA INSTITUTET STOCKHOLM SWEDEN
##NAMES=HP
##CAS NAME=1-Phenanthrenecarboxylic acid, 7-ethenyl-1,2,3,4,4a,4b,5,6,7,9,10
,10a-dodecahydro-1,4a,7-trimethyl-, ethyl ester, [1R-(1.alpha.,4a.beta.,4b.a
lpha.,7.alpha.,10a.alpha.)]-
##MOLFORM=C22H34O2
##CAS REGISTRY NO=57274-61-0
##MP= -300
##BP= -300
##MW= 330
##$RETENTION INDEX=0
##$CONDENSED SPECTRUM=NO
##NPOINTS= 190
##XYDATA=(XY..XY) 1 
    12         15
    13         34
    14         50
    15        108
    16         35
    17         13
    18         44
    24         10
    25         28
    26         62
    27        157
    29        526
    30         19
    31         27
    37          6
    38         12
    39        106
    40         32
    41        255
    42        197
    43        999
    44        452
    45        100
    46          6
    47          5
    50         11
    51         23
    52         22
    53         70
    54         76
    55        160
    56         42
    57         51
    58         12
    59         35
    60         17
    61         10
    63          8
    64          7
    65         31
    66         18
    67         88
    68         94
    69        189
    70        100
    71         30
    72         24
    73         42
    74         16
    75          8
    76          5
    77         60
    78         20
    79         91
    80         24
    81        102
    82         28
    83         33
    84         15
    85         12
    86          7
    87         32
    88         15
    89          8
    91        116
    92         33
    93         89
    94         28
    95         62
    96         42
    97        159
    98         19
    99         10
   100          9
   101         12
   102          6
   103         16
   104         15
   105         88
   106         30
   107         70
   108         19
   109         62
   110         16
   111         47
   112         56
   113         10
   114          7
   115         28
   116         12
   117         40
   118         14
   119         64
   120         73
   121        440
   122         68
   123        275
   124         28
   125         12
   126          9
   127         10
   128         21
   129         22
   130         10
   131         29
   132         11
   133         58
   134         31
   135         38
   136         13
   137         59
   138         10
   139         34
   140          6
   141         11
   142          9
   143         16
   144          8
   145         26
   146         10
   147         31
   148         41
   149         38
   150          7
   151          9
   152          7
   153         10
   154         94
   155         18
   156          6
   157         15
   158          7
   159         23
   160         10
   161         23
   162          7
   163          8
   165         38
   166          7
   167         25
   168          6
   169          6
   171         12
   172          7
   173         16
   174          8
   175         10
   176         15
   179          6
   180        127
   181         36
   182          8
   183          8
   185         12
   186          6
   187         19
   188         10
   189          6
   194         58
   195         53
   196         49
   198         10
   199         18
   200         21
   201         17
   202         26
   204          7
   208         11
   209          5
   213          7
   214          6
   215          6
   241         42
   242         11
   243          5
   255          5
   256         22
   257        105
   258         24
   259          5
   269          5
   279          7
   301          9
   302         14
   303          6
   315         58
   316         16
   330         85
   331         22
   332          5