##TITLE=Library Entry 30544
##JCAMP-DX=Revision 4.10 
##DATA TYPE=MASS SPECTRUM
##SAMPLE DESCRIPTION=R.RYHAGE MS-LAB KAROLINSKA INSTITUTET STOCKHOLM SWEDEN
##NAMES=HP
##CAS NAME=2,4,6,8,9-Pentathiatricyclo[3.3.1.1(3,7)]decane-1-carboxylic acid
, 3,5,7-trimethyl-
##MOLFORM=C9H12O2S5
##CAS REGISTRY NO=57274-34-7
##MP= -300
##BP= -300
##MW= 312
##$RETENTION INDEX=0
##$CONDENSED SPECTRUM=NO
##NPOINTS= 217
##XYDATA=(XY..XY) 1 
    12          5
    13          0
    14          1
    15         14
    16         22
    17          8
    18         36
    19          0
    22          2
    24          0
    25          1
    26          6
    27         21
    28         27
    29          9
    30          0
    31          0
    32          9
    33          6
    34         13
    35          1
    36          1
    37          2
    38          6
    39         67
    40         11
    41         69
    42          5
    43         15
    44        365
    45        122
    46         13
    47         18
    48          1
    49          1
    50          3
    51          8
    52          3
    53         19
    54          3
    55         18
    56          3
    57         12
    58         66
    59        999
    60         40
    61         50
    62          3
    63          5
    64          8
    65         31
    66          8
    67         35
    68          5
    69         13
    70          4
    71         20
    72          5
    73         13
    74          7
    75          7
    76         28
    77         14
    78          5
    79          9
    80          2
    81          8
    82          3
    83          7
    84          8
    85         33
    86          3
    87          5
    88          1
    89          1
    90          1
    91         13
    92          6
    93          6
    94          2
    95          4
    96          2
    97         30
    98         23
    99        182
   100         18
   101         39
   102          3
   103          6
   104         10
   105          4
   106          2
   107          3
   108          1
   109          3
   110          4
   111         60
   112        105
   113         61
   114          8
   115          4
   116          4
   117         98
   118         10
   119         14
   120          1
   121          2
   122          1
   123          3
   124          3
   125         47
   126        107
   127        156
   128         20
   129         12
   130         13
   131        391
   132         33
   133         81
   134          6
   135          7
   136         27
   137          5
   138          5
   139          4
   140          3
   141          1
   142          1
   143         24
   144        113
   145        208
   146         26
   147         19
   148          2
   149          5
   150          5
   151          1
   152          1
   153          1
   154          1
   155          4
   156          5
   157         20
   158         20
   159         49
   160          7
   161          6
   162         34
   163         29
   164          6
   165          5
   166          0
   167          1
   168          0
   169          2
   170         11
   171         10
   172          3
   173          1
   174          0
   175          6
   176         21
   177         55
   178          7
   179          7
   180          1
   181          0
   182          0
   183          0
   184          0
   185          0
   187          0
   188          5
   189          5
   190          2
   191         40
   192          9
   193          6
   194          3
   195          2
   196          0
   197          0
   199          0
   202          1
   203         56
   204        278
   205         37
   206         37
   207          4
   208          1
   209          2
   210          0
   211          0
   213          0
   221          0
   223          0
   234          1
   235          8
   236          9
   237          2
   238          1
   248          4
   249          0
   250          0
   256          1
   268        313
   269         37
   270         67
   271          7
   272          6
   273          0
   286          0
   300          1
   302          0
   312          4
   313          0
   314          1