##TITLE=Library Entry 30701
##JCAMP-DX=Revision 4.10 
##DATA TYPE=MASS SPECTRUM
##SAMPLE DESCRIPTION=R RYHAGE MS-LAB KAROLINSKA INSTITUTET STOCKHOLM SWEDEN
##NAMES=HP
##CAS NAME=Propanenitrile, 3-[(1,5,7-trimethyl-2,4,6,8,9-pentathiatricyclo[3
.3.1.1(3,7)]dec-3-yl)thio]-
##MOLFORM=C11H15NS6
##CAS REGISTRY NO=57274-41-6
##MP= -300
##BP= -300
##MW= 353
##$RETENTION INDEX=0
##$CONDENSED SPECTRUM=NO
##NPOINTS= 264
##XYDATA=(XY..XY) 1 
    12          0
    13          0
    14          0
    15          6
    16          0
    17          1
    18          4
    24          0
    25          1
    26          9
    27         10
    28          9
    29          1
    30          0
    32          5
    33          3
    34          6
    35          0
    36          0
    37          1
    38          2
    39         22
    40          3
    41         14
    42          2
    43          1
    44          3
    45         43
    46          6
    47          8
    48          0
    49          0
    50          2
    51          6
    52          9
    53         14
    54         26
    55          2
    56          1
    57         13
    58         69
    59        999
    60         38
    61         48
    62          1
    63          0
    64          5
    65          2
    66          1
    67          2
    68          1
    69          8
    70          2
    71         12
    72          2
    73         14
    74          2
    75          2
    76         17
    77         21
    78          1
    79          2
    80          0
    81          1
    82          2
    83         24
    84          7
    85         43
    86          4
    87          5
    88          2
    89          1
    90          1
    91         14
    92         14
    93          4
    94          1
    95          0
    96          0
    97          4
    98          2
    99          6
   100          2
   101          5
   102          0
   103          3
   104          0
   105          0
   106          0
   107          1
   108          0
   109          1
   110          3
   111         13
   112         15
   113          3
   114         83
   115          6
   116         20
   117        162
   118         29
   119         17
   120          3
   121          0
   122          0
   123          1
   124          0
   125          1
   126          1
   127          0
   128          1
   129          3
   130         48
   131         37
   132          6
   133          3
   134          1
   135          1
   136          0
   137          0
   138          2
   139          9
   140          2
   141          1
   142          6
   143         72
   144         46
   145         46
   146          8
   147          4
   148         20
   149         73
   150         88
   151         19
   152         13
   153          1
   154          0
   155          0
   156          2
   157          7
   158          1
   159          0
   160          0
   161          1
   162          3
   163          1
   164          1
   165          2
   166          3
   167          1
   168          0
   169          1
   170        105
   171         12
   172         16
   173          2
   174          4
   175        107
   176         23
   177         23
   178          4
   179          2
   180          0
   181          1
   182          0
   183          0
   184          0
   185          0
   186          0
   187          0
   188         14
   189          2
   190          2
   191          0
   192          0
   194          0
   195          0
   196          8
   197        414
   198        203
   199         55
   200         17
   201          2
   202        284
   203         49
   204         60
   205          8
   206          5
   207          7
   208          2
   209          5
   210          0
   211          1
   212          0
   213          0
   214          0
   215          0
   216          3
   217          0
   218          0
   220          0
   221          0
   222          0
   223          0
   224          0
   225          0
   226          0
   227          0
   228          2
   229         49
   230        243
   231         34
   232         32
   233          3
   234          2
   235          3
   236          2
   237          1
   238          0
   240          0
   241          0
   242          0
   248          0
   256          0
   257          0
   258          0
   260          2
   261          2
   262         71
   263          9
   264         14
   265          1
   266          1
   267         17
   268          2
   269          4
   270          0
   271          0
   272          0
   288         20
   289         74
   290         15
   291         15
   292          2
   293          1
   294          1
   295          0
   296          0
   299          1
   300          4
   301          0
   302          1
   303          0
   304          0
   320          0
   321          0
   322          0
   353        130
   354         22
   355         35
   356          5
   357          4
   358          0
   359          0