##TITLE=Library Entry 30023
##JCAMP-DX=Revision 4.10 
##DATA TYPE=MASS SPECTRUM
##SAMPLE DESCRIPTION=R RYHAGE MS-LAB KAROLINSKA INSTITUTET STOCKHOLM SWEDEN
##NAMES=HP
##CAS NAME=2,4,6,8,9-Pentathiatricyclo[3.3.1.1(3,7)]decane, 3,3'-dithiobis[1
,5,7-trimethyl-
##MOLFORM=C16H22S12
##CAS REGISTRY NO=57274-52-9
##MP= -300
##BP= -300
##MW= 598
##$RETENTION INDEX=0
##$CONDENSED SPECTRUM=NO
##NPOINTS= 245
##XYDATA=(XY..XY) 1 
    12          3
    13          1
    14          2
    15         16
    16          0
    17          4
    18         20
    20          0
    22          0
    23          0
    24          2
    25          5
    26         13
    27         14
    28          3
    29          4
    30          0
    31          0
    32         55
    33         31
    34         48
    35          1
    36          3
    37          8
    38         14
    39         76
    40          9
    41         10
    42          1
    43          1
    44         35
    45        127
    46         14
    47         14
    48          1
    49          4
    50         13
    51         22
    52         23
    53          4
    54          0
    55          1
    56         20
    57        119
    58        285
    59        999
    60         41
    61         44
    62          1
    63          1
    64         61
    65          5
    66          8
    67          2
    68          4
    69         37
    70          8
    71        107
    72         23
    73         12
    74          4
    75          2
    76         57
    77         36
    78          5
    79          3
    80          1
    81          7
    82          9
    83         93
    84         15
    85         36
    86          2
    87          1
    88          7
    89          3
    90          4
    91         11
    92        259
    93         10
    94         22
    95          1
    96          1
    97          6
    98          2
    99          4
   100          5
   101         20
   102          1
   103          3
   104          1
   105          0
   106          0
   107          1
   108          1
   109          2
   110          4
   111         13
   112         13
   113          2
   114          1
   115          5
   116        207
   117        139
   118         28
   119         12
   120          1
   121          0
   122          0
   123          2
   124          0
   125          1
   126          0
   127          0
   128          0
   129          3
   130         10
   131          7
   132          2
   133          1
   134          0
   135          0
   136          0
   137          0
   140          0
   141          3
   142          2
   143         26
   144         51
   145         28
   146          6
   147          2
   148         74
   149         87
   150         22
   151         13
   152          2
   153          1
   154          0
   155          1
   156          1
   157          1
   158          0
   159          1
   160          0
   161          0
   162          0
   163          0
   165          0
   166          0
   167          1
   168          0
   169          0
   170          0
   171          0
   172          0
   173          3
   174         28
   175        133
   176         45
   177         40
   178          6
   179          3
   180          0
   181          2
   182          1
   183          0
   184          0
   185          0
   186          0
   187          0
   200          0
   201          0
   202          2
   203          8
   204          1
   205          1
   206          1
   207          9
   208         20
   209         10
   210          4
   211          1
   212          0
   213          0
   233          0
   234          0
   235          4
   236         12
   237          2
   238          2
   239          0
   240          0
   241          0
   246          1
   248          1
   250          0
   259          0
   266          0
   267         57
   268          6
   269         11
   270          1
   271          1
   272          0
   278          0
   280          0
   282          0
   291          0
   298          0
   299         10
   300         17
   301          5
   302          5
   303          0
   304          0
   316          0
   351          1
   352          0
   353          0
   381          0
   388          0
   390          0
   395          0
   411          0
   443          2
   444          0
   445          1
   446          0
   447          0
   448          0
   474          0
   475          0
   476          0
   477          0
   507          0
   509          0
   533          0
   534          0
   535          0
   598          4
   599          0
   600          2
   601          0
   602          0