##TITLE=Library Entry 57425
##JCAMP-DX=Revision 4.10 
##DATA TYPE=MASS SPECTRUM
##SAMPLE DESCRIPTION=R RYHAGE MS-LAB KAROLINSKA INSTITUTET STOCKHOLM SWEDEN
##NAMES=HP
##CAS NAME=2,4,6,8,9,10-Hexathiatricyclo[3.3.1.1(3,7)]decane-1,3,5-tripropan
enitrile, 7-propyl-
##MOLFORM=C16H19N3S6
##CAS REGISTRY NO=57274-51-8
##MP= -300
##BP= -300
##MW= 445
##$RETENTION INDEX=0
##$CONDENSED SPECTRUM=NO
##NPOINTS= 289
##XYDATA=(XY..XY) 1 
    12          0
    13          0
    14          1
    15         10
    16          0
    17          1
    18          8
    19          0
    24          0
    25          1
    26         14
    27         39
    28         94
    29         47
    30          9
    31         12
    32          6
    33          4
    34         11
    35          1
    36          1
    37          2
    38          4
    39         24
    40          7
    41         33
    42          6
    43         26
    44         11
    45        156
    46          7
    47         16
    48          2
    49          1
    50          4
    51          6
    52          7
    53         30
    54         56
    55         12
    56          2
    57         12
    58        162
    59         79
    60         11
    61          6
    62          1
    63          2
    64          8
    65         15
    66          5
    67          5
    68          1
    69          9
    70         15
    71         55
    72         11
    73          9
    74          2
    75          1
    76         25
    77         14
    78          3
    79          6
    80          3
    81          6
    82          2
    83          4
    84          3
    85         20
    86          9
    87        999
    88         96
    89         47
    90          4
    91          3
    92          7
    93          3
    94          1
    95          2
    96         14
    97         15
    98        602
    99         43
   100         29
   101          3
   102          0
   103          2
   104          2
   105          4
   106          3
   107          1
   108          1
   109          2
   110          2
   111          3
   112          2
   113          1
   114          0
   115          4
   116          2
   117          2
   118          1
   119          5
   120          6
   121          3
   122          1
   123          1
   124          2
   125          2
   126          3
   127          1
   128          0
   129          2
   130          4
   131         11
   132         15
   133          2
   134          1
   135          1
   136          1
   137          1
   138          1
   139          1
   140          0
   141          0
   142          0
   143          1
   144          1
   145         98
   146          8
   147          9
   148          1
   149         12
   150          1
   151          2
   152          1
   153          1
   154          0
   155          2
   156        106
   157         10
   158         10
   159          5
   160          1
   161          1
   162          4
   163          1
   164          2
   165          1
   166          1
   167          0
   168          1
   169          1
   170         16
   171          2
   172          2
   173          0
   174          1
   175          0
   176          0
   177          5
   178          1
   179          1
   180          0
   181          2
   182          2
   183          3
   184         24
   185        217
   186         25
   187         20
   188          8
   189          2
   190          1
   191          1
   192          0
   193          0
   194          1
   195          4
   196         82
   197         11
   198          8
   199          1
   200          0
   201          0
   202          1
   203          1
   204          0
   205          0
   206          1
   207          0
   208          0
   209          1
   210          5
   211          1
   212          1
   213          0
   214          1
   215          0
   216         12
   217        282
   218         35
   219         38
   220          4
   221          5
   222          1
   223          1
   224          2
   225          0
   226          0
   227          2
   228         41
   229         12
   230          6
   231          1
   232          0
   233          0
   234          0
   235          6
   236          1
   237          0
   238          0
   239          1
   240          0
   241          0
   242          0
   243          0
   244          0
   245          0
   246          4
   247          0
   248          1
   249          1
   250         10
   251          7
   252          2
   253          1
   254          0
   255          0
   256          1
   257          0
   258          0
   259          0
   260          0
   261          3
   262          1
   263          0
   264          0
   265          0
   267          1
   268          0
   269          0
   270          0
   271          0
   272          0
   274          0
   278          0
   281          0
   282          0
   283         21
   284          3
   285          3
   286          0
   287          0
   288          0
   294          1
   295          0
   296          0
   304          0
   315         79
   316         12
   317         14
   318          2
   319          1
   326          4
   327          0
   328          1
   329          0
   330          0
   347          0
   368          0
   434          0
   445         33
   446          6
   447          8
   448          1
   449          1
   450          0