##TITLE=Library Entry 30346
##JCAMP-DX=Revision 4.10 
##DATA TYPE=MASS SPECTRUM
##SAMPLE DESCRIPTION=R RYHAGE MS-LAB KAROLINSKA INSTITUTET STOCKHOLM SWEDEN
##NAMES=HP
##CAS NAME=2,4,6,8,9,10-Hexathiatricyclo[3.3.1.1(3,7)]decane-1,3-dipropaneni
trile, 5,7-dimethyl-
##MOLFORM=C12H14N2S6
##CAS REGISTRY NO=57274-49-4
##MP= -300
##BP= -300
##MW= 378
##$RETENTION INDEX=0
##$CONDENSED SPECTRUM=NO
##NPOINTS= 240
##XYDATA=(XY..XY) 1 
    12          0
    13          0
    14          0
    15          5
    16          0
    17          1
    18          3
    24          0
    25          0
    26          3
    27          8
    28          7
    29          0
    31          1
    32          5
    33          2
    34          6
    35          0
    36          0
    37          1
    38          1
    39          5
    40          1
    41          3
    42          1
    43          1
    44          4
    45         35
    46          4
    47          3
    48          0
    49          0
    50          0
    51          1
    52          3
    53          3
    54         26
    55          2
    56          1
    57         12
    58        142
    59        999
    60         34
    61         44
    62          1
    63          0
    64          5
    65          1
    66          1
    67          0
    68          0
    69          6
    70          8
    71         20
    72          4
    73          2
    74          0
    75          0
    76         20
    77          7
    78          2
    79          0
    80          0
    81          0
    82          0
    83          0
    84          1
    85          2
    86          1
    87          0
    88          0
    89          0
    90          1
    91          9
    92          7
    93          2
    94          1
    95          0
    96          8
    97          6
    98        276
    99         17
   100         11
   101          0
   102          0
   103          1
   104          0
   105          1
   106          0
   107          0
   108          0
   109          0
   110          0
   111          1
   112          0
   113          0
   114          0
   115          0
   116          1
   117         82
   118         81
   119         12
   120          7
   121          0
   122          0
   123          1
   124          1
   125          1
   126          0
   127          0
   128          0
   129          1
   130          2
   131         20
   132         11
   133          2
   134          1
   135          0
   136          0
   138          0
   139          0
   141          0
   142          0
   143          2
   144          1
   145          0
   146          0
   147          0
   148          1
   149         22
   150         85
   151          8
   152         11
   153          0
   154          0
   155          1
   156         36
   157        142
   158         15
   159         11
   160          1
   161          0
   162          1
   163          1
   164          1
   165          0
   166          0
   168          0
   169          0
   170          4
   171          0
   172          0
   173          0
   174          0
   175          1
   176          0
   177          0
   178          0
   180          0
   181          0
   182          1
   183          3
   184          9
   185          1
   186          0
   187          0
   188         12
   189        171
   190          3
   191         23
   192          3
   193          1
   194          0
   195          1
   196          7
   197          1
   198          0
   200          0
   201          0
   202          0
   205          0
   207          1
   208          0
   209          0
   210          0
   211          0
   213          0
   214          0
   215          0
   216         25
   217          2
   218          3
   219          0
   220          0
   221          0
   222          6
   223          3
   224          1
   225          0
   226          0
   227          1
   228          7
   229          3
   230          1
   231          0
   239          0
   242          0
   244          1
   246          1
   248        123
   249         15
   250         23
   251          2
   252          1
   253          0
   255          3
   256          0
   257          0
   261          1
   262          0
   263          0
   278          0
   280          1
   282          0
   287         13
   288          1
   289          2
   290          0
   291          0
   301          0
   319          0
   321          0
   339          0
   378         92
   379         18
   380         27
   381          4
   382          3
   383          0
   384          0