##TITLE=Library Entry 30597
##JCAMP-DX=Revision 4.10 
##DATA TYPE=MASS SPECTRUM
##SAMPLE DESCRIPTION=R RYHAGE MS-LAB KAROLINSKA INSTITUTET STOCKHOLM SWEDEN
##NAMES=HP
##CAS NAME=2,4,6,8,9,10-Hexathiatricyclo[3.3.1.1(3,7)]decane-1-propanenitril
e, 3,5,7-trimethyl-
##MOLFORM=C10H13NS6
##CAS REGISTRY NO=57274-37-0
##MP= -300
##BP= -300
##MW= 339
##$RETENTION INDEX=0
##$CONDENSED SPECTRUM=NO
##NPOINTS= 216
##XYDATA=(XY..XY) 1 
    12          0
    13          0
    14          0
    15          7
    17          0
    18          3
    20          0
    24          0
    25          0
    26          2
    27          5
    28          3
    29          0
    31          1
    32          3
    33          1
    34          3
    35          0
    36          0
    37          0
    38          0
    39          3
    40          1
    41          2
    42          0
    43          0
    44          2
    45         20
    46          3
    47          3
    48          0
    49          0
    50          0
    51          1
    52          1
    53          2
    54          8
    55          1
    56          1
    57          9
    58         77
    59        999
    60         34
    61         42
    62          1
    63          0
    64          3
    65          0
    66          0
    67          0
    68          0
    69          2
    70          3
    71          8
    72          2
    73          2
    74          0
    75          0
    76         17
    77          3
    78          1
    79          0
    80          0
    81          0
    82          0
    83          0
    84          0
    85          2
    86          1
    87          0
    88          0
    89          0
    90          1
    91          9
    92          3
    93          3
    94          0
    95          0
    96          2
    97          2
    98         73
    99          4
   100          3
   101          0
   103          1
   104          0
   105          1
   106          0
   111          0
   112          0
   113          0
   114          0
   115          0
   116          0
   117         65
   118        158
   119         16
   120         14
   121          1
   122          0
   123          1
   124          0
   125          3
   126          1
   127          2
   128          0
   129          1
   130          3
   131         26
   132         10
   133          2
   134          0
   135          0
   136          1
   137          0
   138          0
   141          0
   142          0
   143          1
   144          3
   145         19
   146          1
   147          1
   148          0
   149         27
   150        217
   151         27
   152         29
   153          2
   154          1
   155          0
   156          5
   157         43
   158          4
   159          3
   160          0
   161          0
   162          1
   163          2
   164          0
   165          0
   170          0
   173          0
   175          1
   176          0
   177         16
   178          1
   179          2
   180          1
   181          2
   182          2
   183          9
   184         27
   185          3
   186          2
   187          0
   188          8
   189         54
   190         15
   191          7
   192          1
   193          0
   194          0
   195          1
   196          0
   197          0
   204          0
   205          0
   207          1
   208          0
   209        110
   210          9
   211         20
   212          2
   213          1
   214          0
   215          0
   216          7
   217          1
   218          1
   219          0
   221          0
   222          6
   223          0
   224          1
   225          0
   227          0
   228          0
   229          0
   241          1
   242          0
   243          0
   248         40
   249          4
   250          7
   251          1
   252          0
   266          0
   268          0
   280          1
   281          0
   282          0
   286          4
   287          0
   288          1
   290          0
   300          0
   302          0
   325          0
   339        168
   340         24
   341         44
   342          6
   343          5
   344          0
   345          0