##TITLE=Library Entry 57231
##JCAMP-DX=Revision 4.10 
##DATA TYPE=MASS SPECTRUM
##SAMPLE DESCRIPTION=R RYHAGE MS-LAB KAROLINSKA INSTITUTET STOCKHOLM SWEDEN
##NAMES=HP
##CAS NAME=2,4,6,8,9,10-Hexathiatricyclo[3.3.1.1(3,7)]decane, 1,3-dipropyl-
##MOLFORM=C10H16S6
##CAS REGISTRY NO=57274-50-7
##MP= -300
##BP= -300
##MW= 328
##$RETENTION INDEX=0
##$CONDENSED SPECTRUM=NO
##NPOINTS= 218
##XYDATA=(XY..XY) 1 
    12          0
    13          0
    14          0
    15          2
    16          0
    17          4
    18         21
    25          0
    26          3
    27         45
    28          4
    29          6
    30          1
    32          8
    33          5
    34         11
    35          1
    36          0
    37          1
    38          3
    39         24
    40          3
    41         33
    42          5
    43         17
    44         11
    45        339
    46         11
    47         31
    48          0
    49          1
    50          1
    51          3
    52          1
    53         40
    54          4
    55         16
    56          2
    57          6
    58         40
    59        130
    60          9
    61          9
    62          0
    63          0
    64          3
    65          2
    66          0
    67          3
    68          1
    69          8
    70          2
    71         67
    72          4
    73         14
    74          1
    75          1
    76         26
    77         25
    78         24
    79          5
    80          2
    81          1
    82          1
    83          2
    84          2
    85         34
    86         27
    87        999
    88         56
    89         44
    90          4
    91          2
    92          1
    93          0
    95          0
    96          0
    97          3
    98          1
    99          5
   100          1
   101          0
   102          1
   103         22
   104          1
   105          2
   106          0
   107          0
   109          2
   110          0
   111          2
   112          1
   113          2
   114          0
   115          0
   116          2
   117          2
   118          1
   119          4
   120          4
   121          2
   122         10
   123          3
   124          1
   125          0
   126          0
   127          0
   128          0
   129          5
   130          2
   131         16
   132         41
   133          4
   134          4
   135          9
   136          0
   137          1
   139          0
   140          0
   141          1
   142          0
   143          1
   144          3
   145         64
   146          5
   147          6
   148          1
   149          1
   150          1
   151          1
   152          0
   153          0
   154          0
   155          0
   156          0
   157          0
   158          0
   159          0
   160          0
   161          2
   162          2
   163          6
   164        320
   165         32
   166         40
   167          4
   168          2
   169          0
   171          2
   172          0
   173          2
   174         18
   175          2
   176          3
   177         60
   178          5
   179          7
   180          0
   181          0
   183          0
   185          0
   186          1
   187         36
   188          4
   189          3
   190          0
   191          0
   192          0
   195          0
   197          0
   199          0
   200          0
   203          0
   205          1
   206         48
   207          5
   208          7
   209         16
   210          2
   211          3
   212          0
   213          0
   216          0
   217          0
   218          0
   219          8
   220          1
   221          4
   222          0
   223          0
   231          0
   241         10
   242          1
   243          2
   244          0
   245          0
   249          0
   250          0
   251          4
   252          0
   253          0
   263         68
   264         11
   265         12
   266          2
   267          1
   283          0
   286          1
   288          0
   295          0
   314          0
   316          0
   328         66
   329          9
   330         18
   331          2
   332          2
   333          0