##TITLE=Library Entry 8561
##JCAMP-DX=Revision 4.10 
##DATA TYPE=MASS SPECTRUM
##SAMPLE DESCRIPTION=R RYHAGE MS-LAB KAROLINSKA INSTITUTET STOCKHOLM SWEDEN
##NAMES=HP
##CAS NAME=2-Thiabicyclo[2.2.2]octan-5-one, 8-hydroxy-1,3,8-trimethyl-
##MOLFORM=C10H16O2S
##CAS REGISTRY NO=57274-39-2
##MP= -300
##BP= -300
##MW= 200
##$RETENTION INDEX=0
##$CONDENSED SPECTRUM=NO
##NPOINTS= 168
##XYDATA=(XY..XY) 1 
    12          0
    13          0
    14          2
    15         29
    16          1
    17          1
    18          7
    19          1
    22          0
    24          0
    25          0
    26          8
    27         98
    28         36
    29        108
    30          2
    31         18
    32          2
    33          2
    34          4
    35          7
    36          2
    37          4
    38         10
    39        217
    40         34
    41        318
    42         33
    43        999
    44         34
    45         42
    46          8
    47         31
    48          2
    49          2
    50          8
    51         24
    52         11
    53         65
    54         21
    55        152
    56         19
    57         19
    58         34
    59        231
    60         26
    61         49
    62          6
    63         11
    64          2
    65         32
    66         11
    67        188
    68         21
    69        826
    70         41
    71         25
    72         13
    73         40
    74         55
    75         18
    76          5
    77         39
    78          8
    79         46
    80          8
    81         34
    82        123
    83         96
    84         34
    85        760
    86         44
    87         31
    88         22
    89          5
    90          2
    91         32
    92          5
    93         22
    94         10
    95         29
    96          6
    97         25
    98         23
    99        130
   100         71
   101        137
   102         13
   103         13
   104          1
   105         35
   106         13
   107        166
   108         32
   109         34
   110         11
   111         39
   112         44
   113        289
   114         45
   115         53
   116         47
   117         71
   118         15
   119         10
   120          3
   121        239
   122         52
   123         37
   124          8
   125        623
   126         59
   127        144
   128         11
   129         13
   130          1
   131          2
   132          0
   133          5
   134          1
   135          4
   136          1
   137          2
   138          3
   139        115
   140        144
   141        231
   142        130
   143         40
   144          8
   145          2
   146          0
   147          0
   148          1
   149         23
   150          2
   151         11
   152          1
   153          4
   154         32
   155          8
   156          2
   157         10
   158          1
   159          1
   163          0
   164          0
   166          6
   167        202
   168         23
   169          2
   170          0
   171          2
   172         10
   173          1
   174          0
   181          1
   182         12
   183         17
   184          2
   185         57
   186          6
   187          3
   188          0
   200        710
   201         94
   202         39
   203          4