##TITLE=Library Entry 30699
##JCAMP-DX=Revision 4.10 
##DATA TYPE=MASS SPECTRUM
##SAMPLE DESCRIPTION=R RYHAGE MS-LAB KAROLINSKA INSTITUTET STOCKHOLM SWEDEN
##NAMES=HP
##CAS NAME=2,4,6,8,9-Pentathiatricyclo[3.3.1.1(3,7)]decane-1-propanenitrile,
 3,5,7-trimethyl-
##MOLFORM=C11H15NS5
##CAS REGISTRY NO=57274-40-5
##MP= -300
##BP= -300
##MW= 321
##$RETENTION INDEX=0
##$CONDENSED SPECTRUM=NO
##NPOINTS= 190
##XYDATA=(XY..XY) 1 
    14          2
    15         13
    16          1
    17          5
    18         25
    25          3
    26         12
    27         21
    28         15
    29         11
    32          6
    33          5
    34         13
    36          1
    37          2
    38          5
    39         42
    40         11
    41         64
    42          8
    43         35
    44          8
    45         59
    46          6
    47         13
    48          2
    49          1
    50          4
    51          6
    52          4
    53         15
    54         27
    55         31
    56         10
    57         37
    58        131
    59        999
    60         43
    61         45
    62          3
    63          3
    64          5
    65         28
    66         10
    67         31
    68          8
    69         33
    70         10
    71         23
    72          7
    73         17
    74          5
    75          6
    76         27
    77          7
    78          3
    79          7
    80          3
    81         20
    82         11
    83         20
    84          9
    85         26
    86          3
    87          6
    88          2
    89          1
    90          2
    91         11
    92          4
    93          7
    94          4
    95         13
    96          7
    97         26
    98        200
    99        243
   100         33
   101         42
   102          3
   103          3
   104          1
   105          3
   106          1
   107          5
   108          2
   109          8
   110          5
   111         18
   112          5
   113         10
   114          2
   115          3
   116          4
   117         93
   118          7
   119          8
   120          2
   121          4
   122          2
   123          6
   124         12
   125        106
   126         93
   127         87
   128         11
   129          9
   130         10
   131        450
   132         36
   133        175
   134         14
   135         14
   136          3
   137          6
   138          2
   139          5
   140          1
   141          2
   143          8
   144         13
   145          8
   146          1
   147          2
   148          1
   149         13
   150         10
   151          3
   152          2
   153          2
   155          2
   156          5
   157         62
   158         56
   159        312
   160         32
   161         28
   162          3
   163          2
   164         15
   165         50
   166         28
   167          8
   168          2
   169          2
   170         18
   171          3
   172          3
   175          1
   177          1
   178          1
   179          1
   181          1
   183          1
   184         31
   185          3
   186          3
   188          1
   189         12
   190          4
   191        531
   192         51
   193         68
   194          6
   195          4
   196          6
   197        100
   198        106
   199         20
   200         10
   201          1
   203          2
   204          3
   205          2
   206          3
   207          2
   208          2
   230         56
   231          9
   232          9
   256         10
   257        162
   258         23
   259         22
   260          3
   321        231
   322         35
   323         48
   324          8
   325          5