##TITLE=Library Entry 62003
##JCAMP-DX=Revision 4.10 
##DATA TYPE=MASS SPECTRUM
##SAMPLE DESCRIPTION=R RYHAGE MS-LAB KAROLINSKA INSTITUTET STOCKHOLM SWEDEN
##NAMES=HP
##CAS NAME=Glycine, N-[3-phenyl-N-(trifluoroacetyl)-l-alanyl]-, ethyl ester
##MOLFORM=C15H17F3N2O4
##CAS REGISTRY NO=57274-60-9
##MP= -300
##BP= -300
##MW= 346
##$RETENTION INDEX=0
##$CONDENSED SPECTRUM=NO
##NPOINTS= 148
##XYDATA=(XY..XY) 1 
    15         14
    17         16
    18         57
    26         12
    27         78
    29        222
    30        665
    31         29
    38          5
    39         49
    40          7
    41         35
    42         26
    43        110
    44         27
    45         13
    46          5
    50         19
    51         54
    52         15
    53          7
    54          5
    55         20
    56         79
    57         19
    58         18
    59         10
    60         14
    61          5
    62          6
    63         29
    64         12
    65        143
    66         10
    67          6
    68          5
    69        123
    70         24
    71          7
    73          5
    74        104
    75         12
    76         17
    77        153
    78        169
    79         22
    81          7
    83         13
    84         15
    85         12
    86         24
    87          7
    88         20
    89         30
    90         37
    91        999
    92        128
    93         18
    96         23
    97         11
   101          9
   102        144
   103        420
   104        250
   105         36
   106          8
   109          6
   110         25
   111          5
   112          7
   113          5
   114         14
   115          7
   116         13
   117         43
   118         75
   119        213
   120         55
   121         23
   125          8
   126         36
   127          6
   128         48
   129         11
   130         37
   131        818
   132         96
   133         12
   138         10
   139         55
   140         12
   141         13
   142         17
   144          5
   145         11
   146        721
   147         80
   148         22
   149         15
   153         27
   154          8
   158          8
   159         30
   160        111
   161         24
   162         14
   165          5
   167          7
   171         19
   175         12
   178         35
   179          6
   181        135
   182         13
   186         41
   187         61
   188         19
   198         89
   199         17
   203          5
   204          6
   209         30
   214         12
   215        136
   216        277
   217         67
   218          8
   231          9
   232        370
   233        430
   234         83
   235         11
   237          9
   243          8
   244          7
   254          8
   255          7
   259          6
   261         24
   273          7
   277          8
   300          9
   301         74
   302         13
   328         15
   346        203
   347         51
   348          8