##TITLE=Library Entry 12861
##JCAMP-DX=Revision 4.10 
##DATA TYPE=MASS SPECTRUM
##SAMPLE DESCRIPTION=R RYHAGE MS-LAB KAROLINSKA INSTITUTET STOCKHOLM SWEDEN
##NAMES=HP
##CAS NAME=Ethanethioic acid, S,S',S''-methylidyne ester
##MOLFORM=C7H10O3S3
##CAS REGISTRY NO=57274-27-8
##MP= -300
##BP= -300
##MW= 238
##$RETENTION INDEX=0
##$CONDENSED SPECTRUM=NO
##NPOINTS= 133
##XYDATA=(XY..XY) 1 
    12          0
    13          1
    14          6
    15         58
    16          0
    17          0
    18          1
    26          1
    27          1
    28          5
    29          1
    32          3
    33          2
    34          2
    40          0
    41          1
    42         17
    43        999
    44         25
    45         43
    46          2
    47          3
    48          0
    49          0
    50          0
    52          0
    54          0
    55          0
    56          0
    57          2
    58          6
    59         33
    60          3
    61          4
    62          0
    63          0
    64          2
    65          0
    66          0
    69          0
    70          0
    71          0
    75          0
    76         17
    77         22
    78          6
    79          7
    80          0
    81          0
    82          0
    83          0
    84          0
    85          0
    86          0
    87          1
    88          0
    89          0
    90          0
    91          0
    92          1
    93          1
    94          0
    95          0
   102          3
   103          0
   104          0
   105          0
   106          0
   108          0
   109          0
   110          0
   111         13
   112          0
   113          1
   114          0
   115          0
   117          0
   118         10
   119          9
   120         23
   121         96
   122          6
   123          8
   124          0
   125          0
   131          0
   132         10
   133          0
   134          1
   135          0
   136          1
   137          0
   138          0
   145          0
   148          0
   149          0
   150          1
   151          0
   152          1
   153         26
   154          2
   155          3
   156          0
   157          0
   161          2
   162         24
   163        234
   164         18
   165         21
   166          1
   167          0
   169          0
   174         17
   175          1
   176          0
   177          0
   178          0
   179          0
   190          0
   195        139
   196         53
   197         36
   198          8
   199          3
   200          0
   201          0
   213          1
   214          0
   215          0
   238         20
   239          2
   240          3
   241          0