##TITLE=Library Entry 23514
##JCAMP-DX=Revision 4.10 
##DATA TYPE=MASS SPECTRUM
##SAMPLE DESCRIPTION=R RYHAGE MS-LAB KAROLINSKA INSTITUTET STOCKHOLM SWEDEN
##NAMES=HP
##CAS NAME=1-Dodecanol, 2-methyl-, (S)-
##MOLFORM=C13H28O
##CAS REGISTRY NO=57289-26-6
##MP= -300
##BP= -300
##MW= 200
##$RETENTION INDEX=0
##$CONDENSED SPECTRUM=NO
##NPOINTS= 79
##XYDATA=(XY..XY) 1 
    14          8
    15         18
    16          5
    17         11
    18         49
    25          7
    26         43
    27        295
    28        125
    29        467
    30         24
    31        341
    32         10
    37          8
    38         11
    39        165
    40         39
    41        689
    42         57
    43         85
    44         43
    45         64
    50          6
    51         11
    52          6
    53         53
    54         53
    55        563
    56        525
    57        999
    58         71
    59         28
    61          5
    65         10
    66          8
    67         77
    68         61
    69        444
    70        314
    71        452
    72         28
    73          6
    74          5
    77          9
    79         13
    81         44
    82        108
    83        318
    84        211
    85        249
    86         18
    87         10
    91          6
    95         20
    96         59
    97        280
    98        131
    99         49
   100          5
   109          7
   110         27
   111        148
   112         79
   113         31
   124         13
   125         56
   126         54
   127         16
   138          7
   139         25
   140         42
   141          7
   153         10
   154         45
   155          7
   167          5
   168          6
   182         26
   183          5