##TITLE=Library Entry 52602
##JCAMP-DX=Revision 4.10 
##DATA TYPE=MASS SPECTRUM
##SAMPLE DESCRIPTION=R RYHAGE MS-LAB KAROLINSKA INSTITUTET STOCKHOLM SWEDEN
##NAMES=HP
##CAS NAME=Isoheptadecanol
##MOLFORM=C17H36O
##CAS REGISTRY NO=57289-07-3
##MP= -300
##BP= -300
##MW= 256
##$RETENTION INDEX=2415
##$CONDENSED SPECTRUM=NO
##NPOINTS= 92
##XYDATA=(XY..XY) 1 
    14          8
    15         16
    16         33
    17        107
    18         24
    19         10
    26         19
    27        194
    29        285
    30          8
    31        226
    39         74
    40         18
    41        147
    42        144
    43        784
    44         35
    45         16
    51          5
    53         35
    54         71
    55        784
    56        844
    57        939
    58         44
    59         11
    65          8
    66         12
    67        178
    68        345
    69        879
    70        380
    71        333
    72         23
    73         23
    74         16
    75          5
    77          8
    79         15
    80         10
    81        122
    82        491
    83        999
    84        356
    85        261
    86         18
    87         15
    93          5
    95         71
    96        170
    97        760
    98        198
    99         62
   100          5
   109         28
   110         71
   111        352
   112        145
   113         42
   123         12
   124         31
   125        141
   126         73
   127         16
   137          6
   138         16
   139         56
   140         38
   141          9
   149         21
   152         12
   153         24
   154         41
   155          9
   166          6
   167         25
   168         26
   169          9
   180         15
   181         14
   182        108
   183         17
   194         13
   195         35
   196         21
   209          7
   210        112
   211         21
   223         20
   224          7
   238         97
   239         19