##TITLE=Library Entry 30780
##JCAMP-DX=Revision 4.10 
##DATA TYPE=MASS SPECTRUM
##SAMPLE DESCRIPTION=R RYHAGE MS-LAB KAROLINSKA INSTITUTET STOCKHOLM SWEDEN
##NAMES=HP
##CAS NAME=2,4,6,8-Tetrathiatricyclo[3.3.1.1(3,7)]decane, 1,3,9,9,10,10-hexa
methyl-, (.+/-.)-
##MOLFORM=C12H20S4
##CAS REGISTRY NO=57289-41-5
##MP= -300
##BP= -300
##MW= 292
##$RETENTION INDEX=0
##$CONDENSED SPECTRUM=NO
##NPOINTS= 254
##XYDATA=(XY..XY) 1 
    12          0
    13          0
    14          0
    15          3
    16          1
    17          5
    18         28
    25          0
    26          3
    27         46
    28         16
    29         39
    30          1
    31          0
    32          6
    33          1
    34          3
    35          4
    36          6
    37          1
    38          3
    39         73
    40         12
    41        239
    42         13
    43         31
    44         12
    45        145
    46          7
    47         51
    48          4
    49          3
    50          3
    51         13
    52          5
    53         94
    54          9
    55         75
    56          5
    57         29
    58         28
    59        999
    60         38
    61         64
    62          2
    63          3
    64          4
    65         36
    66         10
    67         70
    68          6
    69         62
    70          7
    71         42
    72          7
    73         20
    74          6
    75         14
    76          5
    77         29
    78          5
    79         60
    80          9
    81        100
    82          8
    83         34
    84          7
    85         55
    86         19
    87         50
    88         13
    89          8
    90          1
    91         12
    92          2
    93         13
    94          3
    95          6
    96          3
    97         59
    98         41
    99        104
   100         17
   101         53
   102          8
   103          8
   104          2
   105          6
   106          1
   107          8
   108          4
   109         10
   110          4
   111         34
   112         23
   113        316
   114         38
   115        239
   116         20
   117         36
   118          4
   119         13
   120          3
   121          5
   122          2
   123          3
   124          2
   125         38
   126         18
   127        128
   128         13
   129         12
   130         12
   131        444
   132         34
   133         82
   134          7
   135          8
   136          6
   137          7
   138          2
   139         19
   140         46
   141        538
   142         84
   143        136
   144         19
   145         55
   146         18
   147        324
   148         29
   149         38
   150         17
   151          3
   152          3
   153          6
   154          1
   155          5
   156         26
   157         17
   158         13
   159         29
   160          4
   161         12
   162          1
   163          4
   164          0
   165          1
   166          0
   167         10
   168          4
   169         30
   170          4
   171          8
   172          7
   173        153
   174         17
   175         17
   176          2
   177          2
   178          3
   179          1
   180          1
   181          1
   182          0
   183          0
   184          0
   185          2
   186          0
   187          0
   188          0
   189          1
   190          0
   191         19
   192          2
   193          3
   194          0
   195          7
   196          1
   197          0
   198          0
   199          2
   200          2
   201         34
   202          4
   203          3
   204          1
   205        623
   206         77
   207         94
   208          9
   209          5
   210          0
   211          0
   212          0
   213          2
   214          0
   215          1
   216          0
   217          1
   218          0
   219          0
   220          0
   221          0
   222          0
   223          1
   224          0
   225          0
   226          0
   227         49
   228         11
   229          5
   230          1
   231          0
   232          0
   233          4
   234          0
   235          0
   236          0
   237          0
   238          0
   239          0
   243          0
   244          0
   245          2
   246          0
   247          0
   248          0
   249          0
   259          0
   260          5
   261          0
   262          0
   263          0
   264          0
   265          0
   266          0
   267          0
   268          0
   276          1
   277          1
   278          1
   279          0
   280          0
   281          0
   282          0
   283          0
   292        700
   293        122
   294        136
   295         22
   296         10
   297          1
   298          0