##TITLE=Library Entry 30737
##JCAMP-DX=Revision 4.10 
##DATA TYPE=MASS SPECTRUM
##SAMPLE DESCRIPTION=R RYHAGE MS-LAB KAROLINSKA INSTITUTET STOCKHOLM SWEDEN
##NAMES=HP
##CAS NAME=2,4,6,8,9,10-Hexathiatricyclo[3.3.1.1(3,7)]decane-1-carboxamide,
 3,5,7-trimethyl-
##MOLFORM=C8H11NOS6
##CAS REGISTRY NO=57289-12-0
##MP= -300
##BP= -300
##MW= 329
##$RETENTION INDEX=0
##$CONDENSED SPECTRUM=NO
##NPOINTS= 212
##XYDATA=(XY..XY) 1 
    14          0
    15         10
    16          1
    17          1
    18          5
    25          0
    26          2
    27          4
    28         21
    29          1
    33          7
    34          3
    35          6
    36          0
    37          0
    38          0
    39          1
    40          1
    41          0
    42          1
    43         11
    44         25
    45         33
    46          4
    47          3
    48          0
    49          0
    50          0
    51          0
    52          0
    53          1
    54          1
    55          1
    56          1
    57         10
    58         43
    59        999
    60         34
    61         47
    62          1
    64          6
    65          0
    66          1
    67          0
    68          0
    69          0
    70          0
    71          3
    72          2
    73          2
    74          0
    75          0
    76         24
    77          7
    78          4
    79          0
    80          0
    83          1
    84          0
    85          3
    86          1
    87          0
    88          2
    89          4
    90          1
    91          8
    92          8
    93          5
    94          0
    95          0
    97          1
    98          0
    99          0
   100          0
   101          0
   102          0
   103          3
   104          5
   105          7
   106          1
   107          0
   108          0
   109          0
   110          0
   111          0
   112          0
   113          1
   114          0
   115          0
   116          1
   117         19
   118         72
   119          7
   120         19
   121          3
   122          8
   123          2
   124          1
   125          2
   126          0
   127          0
   128          2
   129          1
   130          2
   131          6
   132          1
   133          0
   134          0
   135          2
   136          3
   137          3
   138          5
   139          0
   140          3
   141          0
   142          1
   143          0
   144          2
   145          9
   146          3
   147         43
   148         14
   149         19
   150        131
   151         17
   152         19
   153          2
   154          5
   155          0
   156          2
   157          0
   160          2
   161          2
   162          7
   163         13
   164         62
   165          6
   166          8
   167          0
   168          0
   169          2
   170          0
   171          0
   172          0
   173          2
   174         78
   175          7
   176          8
   177          3
   178          7
   179         31
   180         33
   181          6
   182          4
   183          2
   184          0
   185          0
   187          1
   188          0
   189          1
   190          0
   191          0
   192          0
   193          0
   194          0
   195          1
   196         15
   197          1
   198          2
   200          0
   204          0
   205          0
   206        112
   207         11
   208         16
   209         14
   210          2
   211          2
   212          7
   213          0
   214          1
   220          3
   221          1
   222          1
   223          0
   224          0
   227          0
   238        189
   239         19
   240         36
   241          3
   242          2
   247          1
   265          1
   267          0
   270          1
   271          0
   272          0
   286          3
   287          0
   288          1
   311          2
   312          0
   313          0
   315          1
   329        189
   330         28
   331         56
   332          7
   333          7
   334          0
   335          0