##TITLE=Library Entry 57727
##JCAMP-DX=Revision 4.10 
##DATA TYPE=MASS SPECTRUM
##SAMPLE DESCRIPTION=R RYHAGE MS-LAB KAROLINSKA INSTITUTET STOCKHOLM SWEDEN
##NAMES=HP
##CAS NAME=Pentacosanoic acid, 2,10-dimethyl-, methyl ester, [S-(R*,S*)]-
##MOLFORM=C28H56O2
##CAS REGISTRY NO=57289-53-9
##MP= -300
##BP= -300
##MW= 424
##$RETENTION INDEX=0
##$CONDENSED SPECTRUM=NO
##NPOINTS= 234
##XYDATA=(XY..XY) 1 
    12          1
    14          1
    15          6
    16         10
    19          2
    20          1
    22          2
    25          1
    26          4
    27         27
    28         46
    29         80
    30         33
    31          8
    32          4
    33          1
    36          1
    37          1
    38          3
    39         32
    40         10
    41        297
    42         79
    43        636
    44        240
    45         25
    46          2
    50          4
    51          4
    52          4
    53         27
    54         37
    55        575
    56        209
    57        735
    58         53
    59         35
    60         11
    61          6
    62          4
    63          2
    64         23
    65          8
    66          5
    67         75
    68         46
    69        430
    70        114
    71        302
    72         26
    73         45
    74        142
    75         36
    76          5
    77          9
    78          3
    79         15
    80          7
    81         60
    82         36
    83        233
    84         46
    85        132
    86         10
    87         77
    88        999
    89         46
    90          5
    91          8
    92          2
    93         11
    94          5
    95         41
    96         19
    97        120
    98         22
    99         20
   100          5
   101        275
   102         22
   103          3
   104          2
   105          4
   106          1
   107          7
   108          3
   109         18
   110          9
   111         48
   112         14
   113         11
   114          4
   115         23
   116          3
   117          2
   118          1
   119          2
   120          1
   121          6
   122          2
   123          9
   124          4
   125         16
   126          7
   127          8
   128          3
   129         12
   130         12
   131          2
   132          1
   133          2
   134          1
   135          5
   136          2
   137          6
   138          3
   139         15
   140          4
   141          6
   142          1
   143         46
   144         17
   145          3
   146          1
   147          1
   148          1
   149         14
   150          3
   151          4
   152          2
   153          6
   154          3
   155          5
   156          1
   157         50
   158          9
   159          2
   161          1
   162          1
   163          4
   164          1
   165          3
   166          2
   167         20
   168          6
   169          4
   170          1
   171         17
   172          9
   173          4
   174          1
   175          1
   176          1
   177          2
   178          1
   179          2
   180          2
   181          5
   182          2
   183          3
   184          1
   185          2
   186          1
   187          1
   189          1
   190          1
   191          2
   192          1
   193          2
   194          1
   195          2
   196          2
   197          3
   198          2
   199         15
   200          3
   201          2
   202          4
   203          1
   204          6
   205          2
   206          1
   207          2
   208          1
   209          2
   210          2
   211          2
   212          1
   213          5
   214          2
   215          1
   217          7
   219          1
   220          1
   221          1
   222          1
   223          2
   224          1
   225          2
   226          1
   227          6
   228          2
   229          1
   231          1
   233          1
   234          1
   235          1
   236          1
   237          2
   238          3
   239          3
   240          1
   241          2
   242          1
   255          3
   269          8
   270          3
   278          4
   297         50
   298         12
   299          3
   300          2
   365          7
   366          2
   367         26
   368          7
   381         17
   382          5
   393          6
   394          2
   410          3
   424        191
   425         59
   426         10