##TITLE=Library Entry 52252
##JCAMP-DX=Revision 4.10 
##DATA TYPE=MASS SPECTRUM
##SAMPLE DESCRIPTION=Chemical Concepts
##NAMES=HP
##CAS NAME=Cyclopentanone, 3-butyl-
##MOLFORM=C9H16O
##CAS REGISTRY NO=57283-81-5
##MP= -300
##BP= -300
##MW= 140
##$RETENTION INDEX=0
##$CONDENSED SPECTRUM=NO
##NPOINTS= 81
##XYDATA=(XY..XY) 1 
    26         13
    27        162
    28         27
    29        161
    30          3
    31          1
    33          0
    34          0
    37          2
    38          7
    39        153
    40         31
    41        399
    42        213
    43        275
    44         10
    45          1
    46          1
    49          0
    50          9
    51         13
    52          9
    53         61
    54         63
    55        849
    56        678
    57        124
    58          9
    59          0
    62          1
    63          3
    65          8
    66          5
    67         60
    68         34
    69        240
    70        233
    71         28
    72         13
    73          1
    74          1
    75          0
    77          6
    78          0
    79         12
    80          7
    81         90
    82         68
    83        999
    84        137
    85         29
    86          3
    91          2
    92          1
    93         34
    94         12
    95          7
    96        272
    97        111
    98         90
    99          6
   105          0
   107         14
   108          0
   109          5
   110          1
   111        442
   112        168
   113         14
   114          0
   121          2
   122          1
   123          0
   124          1
   125         27
   126          2
   138          0
   139          2
   140        400
   141         45
   142          2