##TITLE=Library Entry 107320
##JCAMP-DX=Revision 4.10 
##DATA TYPE=MASS SPECTRUM
##SAMPLE DESCRIPTION=R RYHAGE MS-LAB KAROLINSKA INSTITUTET STOCKHOLM SWEDEN
##NAMES=HP
##CAS NAME=2,6-Naphthalenedione, octahydro-1,1,8a-trimethyl-, cis-
##MOLFORM=C13H20O2
##CAS REGISTRY NO=57289-16-4
##MP= -300
##BP= -300
##MW= 208
##$RETENTION INDEX=0
##$CONDENSED SPECTRUM=NO
##NPOINTS= 84
##XYDATA=(XY..XY) 1 
    18         14
    27         61
    29         57
    39         94
    40         29
    41        294
    42         67
    43        142
    44         11
    51         20
    52         15
    53         98
    54         33
    55        294
    56         37
    57         51
    65         33
    66         16
    67        208
    68         82
    69        321
    70        101
    71         68
    77         53
    78         14
    79         76
    80         20
    81        157
    82         49
    83        165
    84         33
    85         86
    86         65
    91         48
    92         12
    93         94
    94         34
    95        176
    96         98
    97        251
    98         46
    99         13
   100         31
   105         37
   106         14
   107         79
   108         39
   109        188
   110        188
   111         32
   112         29
   119         29
   120         27
   121         55
   122        188
   123        999
   124        153
   125        149
   126         20
   133         35
   134         25
   135         46
   136         26
   137        184
   138         47
   139         30
   147         88
   148         27
   149         13
   150         11
   151         47
   152         40
   153         30
   162         34
   165         64
   166         17
   175         32
   180         15
   190         46
   193         74
   194         11
   208        800
   209        118
   210         13