##TITLE=Library Entry 70358
##JCAMP-DX=Revision 4.10 
##DATA TYPE=MASS SPECTRUM
##SAMPLE DESCRIPTION=R RYHAGE MS-LAB KAROLINSKA INSTITUTET STOCKHOLM SWEDEN
##NAMES=HP
##CAS NAME=2-Tetracosanol, acetate
##MOLFORM=C26H52O2
##CAS REGISTRY NO=57289-49-3
##MP= -300
##BP= -300
##MW= 396
##$RETENTION INDEX=0
##$CONDENSED SPECTRUM=NO
##NPOINTS= 251
##XYDATA=(XY..XY) 1 
    14          2
    15         10
    16          1
    17        107
    18         46
    19          0
    26          5
    27         22
    28         36
    29         72
    30         10
    31          2
    32          2
    38          2
    39         20
    40          6
    41         20
    42         60
    43         95
    44        171
    45         26
    46          2
    52          2
    53         12
    54         45
    55        416
    56         21
    57        686
    58        102
    59         80
    60         18
    61         73
    62          8
    63          2
    64          5
    65          4
    66         13
    67         99
    68        102
    69        458
    70        260
    71        428
    72         30
    73         14
    74          8
    75          2
    76          2
    77          4
    78         14
    79         12
    80         12
    81        113
    82        284
    83        664
    84        226
    85        332
    86         26
    87        532
    88         28
    89          6
    91          6
    92          2
    93          8
    94          8
    95         85
    96        288
    97        999
    98        208
    99        145
   100         17
   101         13
   102         84
   103         19
   104          5
   109         50
   110        152
   111        693
   112        188
   113        113
   114         16
   115         13
   116         10
   117          7
   118          2
   119          4
   120          2
   121          6
   122         12
   123         47
   124         14
   125        484
   126        149
   127         90
   128         12
   129         16
   130         28
   131          6
   132          2
   133          4
   134          2
   135          6
   136          9
   137         37
   138        122
   139        340
   140        131
   141         72
   142          9
   143          6
   144          2
   146          2
   147          2
   148          2
   149         25
   150          5
   151         14
   152        101
   153        237
   154        112
   155         61
   156          9
   157          5
   158          2
   159          2
   160          2
   161          2
   163          4
   164          2
   165          9
   166         88
   167        224
   168        101
   169         52
   170          8
   171          5
   172          2
   173          3
   175          2
   176          2
   177          4
   178          2
   179          8
   180         82
   181        176
   182         95
   183         41
   184          6
   185         12
   186          2
   187          2
   189          2
   191          2
   192          2
   193          6
   194         76
   195        152
   196         81
   197         36
   198         25
   199         42
   200         56
   201         33
   202         73
   203          2
   204         18
   205          2
   206          2
   207          9
   208         70
   209        128
   210         76
   211         30
   212          5
   213          4
   215          2
   219          2
   220          2
   221          5
   222         65
   223        108
   224         66
   225         25
   226          5
   227          5
   228          4
   229          2
   231          2
   233          2
   235          5
   236         56
   237         90
   238         62
   239         22
   240          5
   241          8
   242          3
   247          2
   248          2
   249          4
   250         48
   251         76
   252         53
   253         20
   254          4
   255          4
   256          4
   257          2
   263          2
   264         39
   265         62
   266         53
   267         29
   268          6
   269          2
   270          2
   277          2
   278         26
   279         49
   280         42
   281         14
   282          4
   283          4
   284         12
   285         22
   286          5
   291          2
   292         28
   293         48
   294         56
   295         17
   296          5
   297          4
   298          2
   306         12
   307         30
   308        126
   309         29
   310          6
   311          2
   320          2
   321         10
   322         14
   323          6
   324          4
   335         90
   336        300
   337         50
   352         34
   353         30
   354          9
   358          2