##TITLE=Library Entry 10479
##JCAMP-DX=Revision 4.10 
##DATA TYPE=MASS SPECTRUM
##SAMPLE DESCRIPTION=Philip Morris R&D
##NAMES=HP
##CAS NAME=(R,S)-5-Ethyl-6-methyl-3E-hepten-2-one
##MOLFORM=C10H18O
##CAS REGISTRY NO=57283-79-1
##MP= -300
##BP= -300
##MW= 154
##$RETENTION INDEX=1144
##$CONDENSED SPECTRUM=NO
##NPOINTS= 66
##XYDATA=(XY..XY) 1 
    36          1
    38          1
    39         55
    40          9
    41        156
    42         14
    43        999
    44         27
    45          7
    50          4
    51          9
    52          1
    53         34
    54         10
    55        224
    56         21
    57         14
    58         60
    59          4
    62          0
    63          1
    65         10
    66          5
    67         31
    68         17
    69        181
    70         23
    71         37
    72          2
    77         12
    78          1
    79         25
    80          2
    81         33
    82          5
    83         46
    84         65
    85          3
    91          5
    92          0
    93          5
    94          6
    95         29
    96         33
    97        413
    98         24
    99          6
   105          0
   107         17
   108          2
   109          7
   110         30
   111        314
   112        310
   113         24
   121         11
   122          1
   123          1
   125         83
   126          8
   136         16
   137          1
   139         29
   140          1
   154         36
   155          1