##TITLE=Library Entry 66667
##JCAMP-DX=Revision 4.10 
##DATA TYPE=MASS SPECTRUM
##SAMPLE DESCRIPTION=NIST Mass Spectrometry Data Center
##NAMES=HP
##CAS NAME=3,4-Dichloro-1,2,5-thiadiazole
##MOLFORM=C2Cl2N2S
##CAS REGISTRY NO=5728-20-1
##MP= -300
##BP= -300
##MW= 154
##$RETENTION INDEX=0
##$CONDENSED SPECTRUM=NO
##NPOINTS= 49
##XYDATA=(XY..XY) 1 
    12          4
    24         15
    26         25
    27          1
    32        196
    33          1
    34          8
    35         62
    37         20
    38         26
    44          9
    46        101
    47         56
    48          5
    49         19
    52         49
    53          1
    58        113
    59          4
    60          5
    61         63
    63         20
    67         59
    69         21
    70          6
    72          2
    73         24
    75          8
    77          2
    78          1
    79          1
    84         21
    87          4
    89          1
    93        999
    94         25
    95        382
    96         10
    97         15
   108          3
   110          2
   119          1
   154        554
   155         22
   156        383
   157         14
   158         74
   159          2
   160          2