##TITLE=Library Entry 6296
##JCAMP-DX=Revision 4.10 
##DATA TYPE=MASS SPECTRUM
##SAMPLE DESCRIPTION=R RYHAGE MS-LAB KAROLINSKA INSTITUTET STOCKHOLM SWEDEN
##NAMES=HP
##CAS NAME=2-Hexadecenoic acid, 2,3-dimethyl-, methyl ester, (E)-
##MOLFORM=C19H36O2
##CAS REGISTRY NO=57289-45-9
##MP= -300
##BP= -300
##MW= 296
##$RETENTION INDEX=0
##$CONDENSED SPECTRUM=NO
##NPOINTS= 241
##XYDATA=(XY..XY) 1 
    18         26
    26          6
    27        167
    28         52
    29        304
    30         13
    31         36
    32         15
    33          3
    37          2
    38          6
    39        175
    40         43
    41        910
    42        164
    43        999
    44         57
    45         29
    46          4
    50          3
    51          6
    52         13
    53        123
    54        125
    55        693
    56        174
    57        445
    58         72
    66         28
    67        303
    68        264
    69        402
    70        136
    71        282
    72         30
    73         41
    74        341
    75         85
    76          6
    77         12
    78          8
    79         61
    80         39
    81        402
    82        206
    83        323
    84        254
    85        159
    86         19
    87        867
    88         61
    89          6
    90          2
    91         20
    92          6
    93         42
    94         47
    95        338
    96        331
    97        338
    98        238
    99         71
   100        205
   101        195
   102         18
   103          6
   104          4
   105         11
   106          6
   107         41
   108         41
   109        197
   110        166
   111        197
   112         80
   113        515
   114        226
   115         91
   116         16
   117          5
   118          4
   119         25
   120         11
   121         42
   122         24
   123        148
   124         93
   125        100
   126         36
   127        208
   128         90
   129         53
   130         19
   131          5
   132          3
   133         22
   134         23
   135         34
   136         17
   137         97
   138         79
   139         85
   140         32
   141        167
   142         33
   143         59
   144          9
   145          4
   146          1
   147         16
   148         18
   149         27
   150         15
   151         62
   152         68
   153         45
   154         16
   155         41
   156         13
   157         23
   158          6
   159          2
   160          1
   161         13
   162          7
   163         12
   164         13
   165         42
   166         54
   167         28
   168         10
   169         42
   170         12
   171         17
   172          5
   173          1
   175          8
   176          4
   177          7
   178          7
   179         28
   180        107
   181         30
   182          8
   183         30
   184          7
   185         20
   186         10
   187          2
   189          6
   190          3
   191          6
   192          7
   193         22
   194         30
   195         10
   196         12
   197         18
   198          4
   199         96
   200         24
   201          4
   202          3
   203          4
   204          2
   205          3
   206          5
   207         19
   208         18
   209          8
   210         10
   211          7
   212          4
   213         55
   214         16
   215          2
   217          2
   218          2
   219          3
   220         46
   221         34
   222        157
   223         42
   224          6
   225          8
   226          4
   227         22
   228         24
   229          5
   233          3
   234          6
   235         25
   236         55
   237         14
   238          3
   239         17
   240          2
   241         11
   242          5
   245          1
   246         23
   247         11
   248          4
   249          7
   250          7
   251          6
   252          5
   253         25
   254         11
   255         15
   256          6
   260          1
   261          3
   262          3
   263         11
   264        306
   265        248
   266         46
   267         18
   268          5
   269          3
   275          3
   276          2
   277         51
   278         29
   279         34
   280          7
   281          4
   282          1
   283          2
   284          2
   285          1
   291          7
   292          7
   293          8
   294          5
   295          7
   296         77
   297         76
   298         27
   299          6