##TITLE=Library Entry 89891
##JCAMP-DX=Revision 4.10 
##DATA TYPE=MASS SPECTRUM
##SAMPLE DESCRIPTION=R RYHAGE MS-LAB KAROLINSKA INSTITUTET STOCKHOLM SWEDEN
##NAMES=HP
##CAS NAME=2-Hexadecenoic acid, 2,3-dimethyl-, methyl ester, (Z)-
##MOLFORM=C19H36O2
##CAS REGISTRY NO=57289-46-0
##MP= -300
##BP= -300
##MW= 296
##$RETENTION INDEX=0
##$CONDENSED SPECTRUM=NO
##NPOINTS= 211
##XYDATA=(XY..XY) 1 
    15         17
    16          2
    17          5
    18         16
    26          4
    27         68
    28         23
    29        166
    30          7
    31         12
    32          4
    33          1
    38          3
    39         79
    40         27
    41        412
    42         82
    43        465
    44         25
    45         18
    46          2
    50          1
    51          5
    52          6
    53        111
    54         61
    55        349
    56         71
    57        238
    58         24
    59         90
    60          3
    64          2
    65         14
    66         21
    67        169
    68        123
    69        182
    70         46
    71        115
    72         13
    73         13
    74        238
    75         90
    76          4
    77         15
    78          5
    79         44
    80         24
    81        322
    82        109
    83        144
    84         77
    85         86
    86          7
    87        275
    88         20
    89          2
    91         11
    92          1
    93         23
    94         22
    95        161
    96        154
    97        157
    98         74
    99         31
   100        296
   101         59
   102          6
   104          1
   105          4
   106          1
   107         15
   108         14
   109         92
   110         55
   111         88
   112         26
   113        999
   114        117
   115         36
   116          5
   117          1
   118          1
   119          9
   120          4
   121         16
   122         10
   123         63
   124         28
   126          4
   127         64
   128         29
   129         17
   130          5
   131          1
   133          7
   134          6
   135         11
   136          5
   137         36
   138         28
   139         28
   140          9
   141         48
   142         11
   143         22
   144          4
   145          1
   147          5
   148          4
   149          9
   150          5
   151         23
   152         24
   153         20
   154          5
   155         24
   156          6
   157         10
   158          3
   161          4
   162          2
   163          3
   164          3
   165         14
   166         15
   167         11
   168          3
   169         23
   170          6
   171          7
   172          3
   175          2
   176         11
   177          2
   178          1
   179          9
   180         29
   181          8
   182          2
   183         20
   184          4
   185         14
   186         13
   187          2
   189          2
   191          1
   192          1
   193          6
   194         10
   195          3
   196          3
   197         15
   198          2
   199        199
   200         33
   201          4
   202          1
   203          1
   207          6
   208          4
   209          2
   210          3
   211          3
   212          1
   213         66
   214         12
   215          1
   220         14
   221          4
   222         52
   223         18
   224          3
   225          3
   227          8
   228          6
   229          1
   235          7
   236          7
   237          2
   239          8
   240          2
   241          4
   242          3
   243          1
   246          6
   247          3
   248          1
   249          2
   250          1
   251          1
   253         12
   254          4
   255          3
   256          1
   263          3
   264         65
   265         98
   266         21
   267          6
   268          3
   277          2
   278          2
   279          2
   295          3
   296        224
   297         66
   298         10
   299          1