##TITLE=Library Entry 10970
##JCAMP-DX=Revision 4.10 
##DATA TYPE=MASS SPECTRUM
##SAMPLE DESCRIPTION=Japan AIST/NIMC Database- Spectrum MS-NW-7281
##NAMES=HP
##CAS NAME=(-)-8-p-Menthen-2-yl, acetate, trans
##MOLFORM=C12H20O2
##CAS REGISTRY NO=57287-13-5
##MP= -300
##BP= -300
##MW= 196
##$RETENTION INDEX=1330
##$CONDENSED SPECTRUM=NO
##NPOINTS= 123
##XYDATA=(XY..XY) 1 
    14          1
    15         11
    18          2
    26          2
    27         67
    28         14
    29         75
    30          3
    31          5
    32          3
    37          1
    38          4
    39        123
    40         33
    41        290
    42         32
    43        999
    44         25
    45         11
    46          1
    50          6
    51         22
    52         13
    53        107
    54         26
    55        196
    56         25
    57         26
    58         16
    59          9
    60          8
    61          6
    62          2
    63          7
    64          2
    65         31
    66         20
    67        198
    68        286
    69        140
    70         20
    71         31
    72         39
    73          4
    74          2
    75          3
    76          1
    77         65
    78         19
    79        419
    80        124
    81        252
    82        117
    83         61
    84         35
    85         19
    86          7
    87          2
    88          1
    89          2
    90          1
    91         77
    92        109
    93        682
    94        339
    95        194
    96         33
    97         90
    98         16
    99          8
   100          5
   101          3
   102          1
   103          6
   104          2
   105         48
   106         17
   107        763
   108        198
   109         54
   110         21
   111         61
   112         13
   113         11
   114          2
   115          3
   116          1
   117          5
   118          1
   119         17
   120         10
   121        707
   122         78
   123         32
   124          9
   125          8
   126          4
   127          4
   128          1
   129          1
   131          1
   132          2
   133          2
   134          8
   135         30
   136        757
   137        115
   138         16
   139         10
   140          3
   141          1
   148          2
   149          2
   150          9
   151          6
   152         24
   153         12
   154         58
   155          8
   167          1
   168          1
   196          8
   197          2