##TITLE=Library Entry 44804
##JCAMP-DX=Revision 4.10 
##DATA TYPE=MASS SPECTRUM
##SAMPLE DESCRIPTION=R RYHAGE MS-LAB KAROLINSKA INSTITUTET STOCKHOLM SWEDEN
##NAMES=HP
##CAS NAME=Heptadecanoic acid, 7-bromo-, methyl ester
##MOLFORM=C18H35BrO2
##CAS REGISTRY NO=57289-62-0
##MP= -300
##BP= -300
##MW= 362
##$RETENTION INDEX=0
##$CONDENSED SPECTRUM=NO
##NPOINTS= 154
##XYDATA=(XY..XY) 1 
    15         26
    27         56
    28         26
    29        124
    31          7
    39         64
    41        403
    42         83
    43        358
    44         15
    45         17
    53         34
    54         39
    55         53
    56         71
    57        164
    58         12
    59        139
    60          5
    65          6
    67         72
    68         31
    69        300
    70         36
    71         63
    72          5
    73         36
    74        999
    75        222
    76         13
    77          6
    79         16
    80          7
    81         57
    82         20
    83        153
    84         42
    85         23
    87        562
    88         64
    89          6
    93         13
    95         47
    96         20
    97        115
    98         38
    99         12
   100          5
   101         65
   102          7
   107         36
   109         48
   110         10
   111         47
   112         10
   113          9
   115         28
   116         11
   121         19
   123         21
   124          6
   125         24
   127          6
   129         61
   130         15
   135         35
   137         31
   138          5
   139         16
   141          5
   143        156
   144         18
   148          5
   149         16
   150          6
   151         11
   153         13
   157         20
   163         15
   164          5
   165          9
   166          6
   167         13
   171         17
   172          6
   177         11
   179         10
   181          8
   185         45
   186          9
   191          8
   193          7
   195          6
   199         63
   200         11
   205          8
   207         11
   208          8
   209         10
   213         10
   219          5
   221         12
   223         13
   227          7
   233         34
   234          7
   241          9
   249          8
   250         23
   251        102
   252         19
   255         15
   263         40
   264          6
   265         40
   266          6
   269          5
   277         24
   279         24
   280          7
   282         13
   283        486
   284        100
   285         13
   286          5
   288         23
   289          5
   290         19
   291          8
   293          5
   303         10
   305         25
   306          6
   307         15
   311          5
   319        100
   320         20
   321         98
   322         18
   329          6
   330          5
   331         87
   332         20
   333         98
   334         21
   335         19
   336          5
   361         16
   362        486
   363         12
   364        524
   365         13
   366         56
   367          7