##TITLE=Library Entry 58264
##JCAMP-DX=Revision 4.10 
##DATA TYPE=MASS SPECTRUM
##SAMPLE DESCRIPTION=R RYHAGE MS-LAB KAROLINSKA INSTITUTET STOCKHOLM SWEDEN
##NAMES=HP
##CAS NAME=Pentacosanoic acid, 6-methyl-, methyl ester, (S)-
##MOLFORM=C27H54O2
##CAS REGISTRY NO=57289-52-8
##MP= -300
##BP= -300
##MW= 410
##$RETENTION INDEX=0
##$CONDENSED SPECTRUM=NO
##NPOINTS= 209
##XYDATA=(XY..XY) 1 
    15          6
    16         16
    17         16
    18          7
    27         12
    28         76
    29         33
    30         20
    31          7
    32          5
    39         13
    40          5
    41        108
    42         30
    43        133
    44          6
    45         18
    48          5
    53         11
    54         15
    55        245
    56         86
    57        317
    58         20
    59         36
    60         14
    61          5
    64         24
    67         42
    68         31
    69        260
    70         74
    71        210
    72         17
    73         33
    74        455
    75        169
    76         11
    77          8
    78          5
    79         13
    80         70
    81         64
    82         99
    83        254
    84         67
    85        151
    86         12
    87        264
    88        999
    89         53
    90          7
    91         10
    93         15
    94         10
    95         67
    96         36
    97        183
    98        138
    99         46
   100         23
   101        571
   102         56
   103          7
   104          6
   105         10
   107         13
   108          9
   109         50
   110         41
   111        157
   112         77
   113         34
   114         10
   115        146
   116         44
   117          9
   119          6
   121         19
   122          8
   123         30
   124         33
   125         56
   126         20
   127         22
   128          7
   129         34
   130         31
   131          6
   133          5
   135         14
   136          6
   137         22
   138         12
   139          3
   140         12
   141         20
   142          6
   143        182
   144         50
   145          9
   149         47
   150          8
   151         10
   152          8
   153         18
   154          7
   155         14
   156         16
   157        145
   158         27
   159          5
   163         11
   165          8
   166          9
   167         62
   168         16
   169         12
   171         39
   172         28
   173         13
   177          7
   179          5
   180          8
   181         15
   182          5
   183          7
   185         10
   191          6
   194          7
   195          8
   196          5
   197          8
   198         55
   199        116
   200        125
   201         72
   202        161
   204         37
   205          5
   207         10
   208          7
   209          7
   211          7
   213         13
   220         63
   222          7
   223          7
   224          5
   227         15
   228          8
   236          7
   237          7
   238          5
   239          7
   241          7
   250          8
   251          5
   252          6
   253          5
   255          7
   256          9
   257          5
   264         11
   265          7
   267          5
   269         15
   270          7
   278         15
   279         11
   281          5
   292          9
   293          8
   294          5
   297         94
   298         27
   299         10
   300         13
   305          5
   308          5
   311          5
   325          6
   334        384
   335        108
   336        208
   337          8
   339          7
   348         12
   349          5
   351         21
   352          7
   353         75
   354         21
   360         39
   361         23
   362          6
   363          6
   367         55
   368         16
   375          6
   376         10
   377         12
   378         38
   379         12
   380          5
   409         10
   410        769
   411        233
   412         38