##TITLE=Library Entry 96958
##JCAMP-DX=Revision 4.10 
##DATA TYPE=MASS SPECTRUM
##SAMPLE DESCRIPTION=R RYHAGE MS-LAB KAROLINSKA INSTITUTET STOCKHOLM SWEDEN
##NAMES=HP
##CAS NAME=2,4,6,8-Tetrathiabicyclo[3.3.1]nonane, 1,3,3,5,7,7-hexamethyl-
##MOLFORM=C11H20S4
##CAS REGISTRY NO=57289-15-3
##MP= -300
##BP= -300
##MW= 280
##$RETENTION INDEX=0
##$CONDENSED SPECTRUM=NO
##NPOINTS= 165
##XYDATA=(XY..XY) 1 
    14          0
    15          5
    16          0
    17          1
    18          2
    25          1
    26          2
    27         16
    28          7
    29          6
    30          0
    31          0
    32          9
    33          7
    34         16
    35          1
    36          1
    37          3
    38          7
    39         90
    40         16
    41        161
    42          9
    43          4
    44         13
    45         71
    46          7
    47         30
    48          1
    49          2
    50          1
    51          4
    52          1
    53         16
    54          2
    55         10
    56          1
    57          8
    58         53
    59        846
    60         30
    61         48
    62          2
    63          4
    64          6
    65         28
    66         11
    67         30
    68          3
    69          8
    70          2
    71         17
    72          4
    73         36
    74        117
    75         75
    76         19
    77          6
    78          2
    79          6
    80          0
    81          7
    82          2
    83          6
    84          9
    85        132
    86          8
    87          9
    88          1
    89          0
    90          0
    91          7
    92          2
    93          3
    94          0
    95          1
    96          1
    97         61
    98         36
    99        136
   100        500
   101         50
   102         22
   103          3
   105          7
   106          9
   107         34
   108          4
   109          3
   110          1
   111         10
   112          3
   113         16
   114          3
   115         94
   116          9
   117        999
   118         63
   119         86
   120          4
   121          3
   122          0
   123          1
   124          3
   125         13
   126          3
   127          9
   128          1
   129          4
   130         24
   131        346
   132        221
   133         55
   134         23
   135          2
   136          1
   137          1
   138          2
   139        109
   140         15
   141        153
   142         17
   143         10
   144          2
   145          0
   146          0
   147          1
   148          1
   149          1
   150          0
   152          0
   154          0
   157          5
   158          1
   159          9
   160          1
   161          1
   162          0
   163          0
   165         94
   166          9
   167         14
   168          1
   169          1
   170          0
   171          1
   172         44
   173        826
   174        159
   175         84
   176         14
   177          3
   178          0
   191          1
   206         13
   207          4
   208          2
   209          1
   280        557
   281         84
   282        101
   283         15
   284          7
   285          1
   286          0