##TITLE=Library Entry 35920
##JCAMP-DX=Revision 4.10 
##DATA TYPE=MASS SPECTRUM
##SAMPLE DESCRIPTION=R RYHAGE MS-LAB KAROLINSKA INSTITUTET STOCKHOLM SWEDEN
##NAMES=HP
##CAS NAME=Decanedioic acid, 3,4,7,8-tetramethyl-, dimethyl ester
##MOLFORM=C16H30O4
##CAS REGISTRY NO=57289-32-4
##MP= -300
##BP= -300
##MW= 286
##$RETENTION INDEX=0
##$CONDENSED SPECTRUM=NO
##NPOINTS= 167
##XYDATA=(XY..XY) 1 
    15         61
    26          6
    27         50
    28         25
    29        133
    30          7
    31         16
    39         87
    40         23
    41        392
    42        133
    43        263
    44         18
    45         36
    51          7
    52          5
    53         60
    54         21
    55        462
    56         84
    57        434
    58         11
    59        557
    60         19
    61          7
    65         13
    66          7
    67         88
    68         55
    69        999
    70        158
    71         86
    72         11
    73        132
    74        284
    75         31
    77         17
    78          5
    79         27
    80          6
    81        105
    82         87
    83        441
    84         60
    85         53
    86          8
    87        298
    88         27
    89          5
    91         13
    93         28
    94         11
    95        165
    96         56
    97        350
    98         76
    99         34
   100         18
   101        851
   102        107
   103         16
   105          8
   107         52
   108         20
   109        140
   110        100
   111        504
   112        115
   113         30
   114          7
   115         89
   116         11
   119         11
   121         47
   122         10
   123         67
   124         44
   125        172
   126        172
   127         36
   128         26
   129        125
   130         14
   133          7
   135         78
   136         26
   137         57
   138         43
   139        158
   140         20
   141         22
   142        368
   143        158
   144         16
   147         12
   148         11
   149         14
   150          5
   151         23
   152         28
   153        315
   154         75
   155         29
   156         14
   157         44
   158          7
   161         22
   162         11
   163        151
   164         24
   165         19
   166          7
   167         10
   169         10
   171         10
   175          9
   176          5
   177         45
   178         10
   179         30
   180         80
   181        441
   182         63
   183         18
   184          6
   185        124
   186        245
   187         40
   188          6
   189          8
   193          8
   194         12
   195         17
   196          6
   197          5
   199          5
   200          7
   201         65
   202          9
   205         26
   206          5
   207         34
   208          7
   210         13
   211         11
   212         99
   213        777
   214        101
   215         13
   221         14
   222          7
   223         34
   224          5
   226         20
   227         32
   228          6
   236          9
   237         30
   238          9
   239         10
   253          5
   254          5
   255        224
   256         38
   257          5
   267          7
   287          7