##TITLE=Library Entry 61143
##JCAMP-DX=Revision 4.10 
##DATA TYPE=MASS SPECTRUM
##SAMPLE DESCRIPTION=Japan AIST/NIMC Database- Spectrum MS-NW-2354
##NAMES=HP
##CAS NAME=N-Cbz-glycyl-L-tyrosine benzyl ester
##MOLFORM=C26H26N2O6
##CAS REGISTRY NO=57294-46-9
##MP= -300
##BP= -300
##MW= 462
##$RETENTION INDEX=0
##$CONDENSED SPECTRUM=NO
##NPOINTS= 225
##XYDATA=(XY..XY) 1 
    12          8
    13          2
    14          6
    15          8
    16          9
    17          1
    18          3
    25          3
    26         22
    27         71
    28        295
    29         40
    30         74
    31         33
    32          3
    36          5
    37         11
    38         29
    39        123
    40         15
    41         35
    42         19
    43         47
    44        124
    45          7
    46          3
    48          1
    49          7
    50         60
    51        118
    52         54
    53         33
    54          7
    55         21
    56         54
    57         13
    58          5
    59          2
    60          9
    61         11
    62         27
    63         68
    64         21
    65        219
    66         17
    67          4
    68          4
    69          7
    70          5
    71          5
    72          4
    73         10
    74         16
    75         18
    76         14
    77        221
    78         93
    79        291
    80         30
    81          8
    82          4
    83          4
    84          6
    85         13
    86          6
    87          6
    88          2
    89         66
    90         63
    91        999
    92        133
    93         11
    94         12
    95          4
    96          2
    97          4
    98          4
    99          2
   100          6
   101         47
   102          8
   103         10
   104         13
   105         34
   106         56
   107        678
   108        282
   109         24
   110          4
   111          1
   112          4
   113          3
   114         12
   115         11
   116         14
   117         11
   118         27
   119         56
   120        137
   121         17
   122          2
   123          4
   124          1
   125          1
   126          3
   127          2
   128          4
   129          5
   130          5
   131         13
   132         15
   133         40
   134         25
   135         37
   136         53
   137          7
   138          1
   139          1
   140          3
   141          2
   142          1
   143          2
   144         20
   145         15
   146         15
   147        123
   148         35
   149          5
   150          1
   151          2
   152          2
   153          2
   154          2
   155          2
   156          2
   157          2
   158          6
   159          5
   160         21
   161         34
   162         49
   163         25
   164         26
   165         21
   166          4
   167          4
   168          2
   169          1
   170          2
   171          2
   172          2
   173          3
   174         23
   175          5
   176          7
   177          4
   178          9
   179          6
   180          5
   181          5
   182          2
   183          3
   184          2
   185          1
   186          1
   187          1
   188          2
   189         11
   190          4
   191          4
   192          4
   193          2
   194         11
   195          9
   196          9
   197         10
   198          3
   199          1
   201          4
   202          6
   203          5
   204          4
   205          1
   206          1
   207          4
   208         68
   209        175
   210         29
   211          4
   212          1
   216          1
   217          9
   218         35
   219        144
   220         23
   221          4
   222          1
   223          1
   224          1
   225          2
   226          3
   231          1
   233          1
   234          1
   235          3
   236         23
   237          6
   238          2
   239          3
   245         27
   246          5
   247          2
   248          2
   251          1
   252          1
   253          5
   254        280
   255         53
   256          6
   263          3
   264          1
   265          1
   270          1
   344          1
   354          1