##TITLE=Library Entry 69284
##JCAMP-DX=Revision 4.10 
##DATA TYPE=MASS SPECTRUM
##SAMPLE DESCRIPTION=Japan AIST/NIMC Database- Spectrum MS-IW-2834
##NAMES=HP
##CAS NAME=5-Cyclohexyl-1-pentene
##MOLFORM=C11H20
##CAS REGISTRY NO=5729-54-4
##MP= -300
##BP= -300
##MW= 152
##$RETENTION INDEX=1124
##$CONDENSED SPECTRUM=NO
##NPOINTS= 85
##XYDATA=(XY..XY) 1 
    15          3
    26          4
    27         96
    28         17
    29        118
    30          2
    36          1
    37          1
    38          4
    39        160
    40         22
    41        543
    42         42
    43         78
    44          3
    45          1
    50          5
    51         14
    52          9
    53         78
    54        187
    55        938
    56         70
    57         30
    58          2
    62          1
    63          4
    64          1
    65         16
    66         41
    67        796
    68        250
    69        343
    70         34
    71          8
    72          1
    73          1
    77         17
    78          6
    79         41
    80         53
    81        959
    82        657
    83        525
    84         38
    85          7
    86          1
    91         11
    92          3
    93         13
    94         15
    95        318
    96        999
    97        198
    98         11
    99          1
   103          1
   104          2
   105          5
   106          1
   107          5
   108         19
   109        603
   110        253
   111         36
   112          2
   113          1
   115          1
   117          3
   119          2
   121          2
   122          1
   123         31
   124         48
   125          5
   131          2
   132          1
   134          2
   135          1
   137          7
   138          1
   151          1
   152         99
   153         11
   154          1