##TITLE=Library Entry 75934
##JCAMP-DX=Revision 4.10 
##DATA TYPE=MASS SPECTRUM
##SAMPLE DESCRIPTION=K. Kirk, LBC, NIDDK, NIH, Bethesda, MD 20892
##NAMES=HP
##CAS NAME=Butanoic acid, 4-(((1,1-dimethylethoxy)carbonyl)amino)-
##MOLFORM=C9H17NO4
##CAS REGISTRY NO=57294-38-9
##MP= -300
##BP= -300
##MW= 203
##$RETENTION INDEX=0
##$CONDENSED SPECTRUM=NO
##NPOINTS= 122
##XYDATA=(XY..XY) 1 
    41        441
    42         95
    43        237
    44         67
    45        194
    46         18
    47          3
    48          0
    49          0
    50          4
    51          7
    52          4
    53         15
    54         15
    55         74
    56        184
    57        964
    58         89
    59        521
    60         49
    61          4
    62          5
    63          1
    64          0
    65          1
    66          1
    67          1
    68          7
    69         57
    70          6
    71          3
    72          3
    73         33
    74         43
    75         10
    76          1
    77          3
    78          9
    79          1
    80          0
    81          1
    82          5
    83          5
    84        105
    85         16
    86        237
    87         64
    88         64
    89          6
    90          0
    91          2
    92          1
    93          1
    94          2
    95          8
    96          4
    97          6
    98         15
    99          5
   100         61
   101        228
   102        999
   103        210
   104        718
   105         28
   106         12
   107          8
   108          1
   109          1
   110          2
   112        578
   113         26
   114          5
   115          6
   116          5
   117          1
   118          1
   119          1
   120          1
   121          1
   122          0
   123          0
   124          7
   125          1
   126         22
   127          4
   128          3
   129        259
   130        342
   131         21
   132          3
   136          0
   137          0
   138          0
   139          0
   140          0
   142          2
   143          0
   144         29
   145          5
   146         60
   147        555
   148        166
   149         14
   150          2
   157          0
   158          0
   159          0
   161          2
   162          0
   165          0
   168          0
   170          1
   171          0
   174          0
   175          0
   184          0
   185          0
   186          0
   188          1
   203         13
   204          1