##TITLE=Library Entry 34566
##JCAMP-DX=Revision 4.10 
##DATA TYPE=MASS SPECTRUM
##SAMPLE DESCRIPTION=Chemical Concepts
##NAMES=HP
##CAS NAME=7-Oxabicyclo[4.1.0]heptan-2-one, 3-methyl-6-(1-methylethyl)-
##MOLFORM=C10H16O2
##CAS REGISTRY NO=5729-99-7
##MP= -300
##BP= -300
##MW= 168
##$RETENTION INDEX=1261
##$CONDENSED SPECTRUM=NO
##NPOINTS= 113
##XYDATA=(XY..XY) 1 
    25         10
    26         59
    27        375
    28        123
    29        197
    30          7
    31         30
    34          4
    36          3
    37         13
    38         32
    39        367
    40         97
    41        893
    42        206
    43        459
    44         41
    45         28
    46          5
    47          6
    49          5
    50         30
    51         60
    52         36
    53        167
    54         93
    55        565
    56        124
    57         77
    58         15
    59         27
    60          5
    61          8
    62          8
    63         18
    64          6
    65         43
    66         28
    67        188
    68         51
    69        999
    70        175
    71         92
    72         13
    73         16
    74          9
    75          6
    76          5
    77         54
    78         18
    79        115
    80         36
    81        260
    82        212
    83        212
    84         58
    85         63
    86          8
    87          7
    88          4
    89          5
    90          3
    91         55
    92         13
    93         36
    94         13
    95        110
    96         39
    97        262
    98        104
    99        219
   100         33
   101          4
   103          5
   105         17
   106          8
   107        130
   108         29
   109         54
   110         57
   111         74
   112         19
   113          7
   115          8
   117          7
   119          5
   120          5
   121         26
   122         12
   123         56
   124         37
   125        497
   126        132
   127         13
   128          3
   133          4
   134          4
   135         54
   136          8
   137          9
   138         12
   139        571
   140         88
   141         10
   149          5
   150         24
   151          6
   152          7
   153         35
   154          6
   168        200
   169         28
   170          5