##TITLE=Library Entry 93701
##JCAMP-DX=Revision 4.10 
##DATA TYPE=MASS SPECTRUM
##SAMPLE DESCRIPTION=J.E. WILKINSON S-CUBED, SAN DIEGO, CA.
##NAMES=HP
##CAS NAME=1,4-Epoxynaphthalene, 1,4-dihydro-
##MOLFORM=C10H8O
##CAS REGISTRY NO=573-57-9
##MP= -300
##BP= -300
##MW= 144
##$RETENTION INDEX=0
##$CONDENSED SPECTRUM=NO
##NPOINTS= 42
##XYDATA=(XY..XY) 1 
    40          4
    41          9
    43          3
    50        102
    51         68
    52          7
    53          1
    55          1
    58         40
    59          1
    61         12
    62         81
    63        198
    65         78
    68          0
    74         57
    75         32
    76         12
    77          7
    84          0
    85          7
    86         27
    87         28
    89        214
    90         58
    97          0
    98          5
    99          0
   101          2
   102          2
   109          0
   110          0
   113         27
   115        999
   116        568
   118        292
   119         12
   126          4
   127          2
   128          4
   144        163
   145         12