##TITLE=Library Entry 82715
##JCAMP-DX=Revision 4.10 
##DATA TYPE=MASS SPECTRUM
##SAMPLE DESCRIPTION=Div. of Experiment Therapeutics WRAIR, WRAMC, Washingto
n DC 20307
##NAMES=HP
##CAS NAME=2,8-Bis[trifluoromethyl]-.alpha.-[3-pyridyl]-4-quinolinemethanol
##MOLFORM=C17H10F6N2O
##CAS REGISTRY NO=57302-92-8
##MP= -300
##BP= -300
##MW= 372
##$RETENTION INDEX=0
##$CONDENSED SPECTRUM=NO
##NPOINTS= 232
##XYDATA=(XY..XY) 1 
    41         18
    42          6
    43         17
    44         13
    45          4
    47          8
    49         34
    50        113
    51        402
    52        204
    53        347
    54         24
    55         45
    56          8
    57         21
    62         26
    63         64
    64         24
    65         12
    67          8
    69        202
    70          8
    73          4
    74         47
    75         94
    76         37
    77         26
    78        462
    79        301
    80        904
    81         64
    82         10
    83          4
    84         41
    86         40
    87         24
    88         19
    89          8
    90          5
    91         19
    92         18
    93         14
    94         13
    95         21
    96          4
    97          8
    98         11
    99         48
   100         26
   101         33
   102         15
   103         11
   104         12
   106        999
   107        111
   108        892
   109         47
   110          8
   111         13
   112         13
   113         13
   114         12
   115          7
   116         11
   117         11
   118         11
   119         28
   120         13
   123         17
   124         20
   125         27
   126         31
   127         20
   128         39
   130          3
   131         13
   132         18
   133          8
   135          5
   136          6
   137         12
   138         12
   139          4
   141          3
   142         15
   143         26
   144         14
   145         43
   146         23
   147          8
   149         44
   150         49
   151         46
   152         22
   153          5
   155          6
   156         15
   157         11
   158         13
   161          8
   162         13
   163         16
   164         14
   165          5
   167         15
   168         18
   169        128
   170         20
   171          3
   174          6
   175         19
   176        273
   177         52
   178         19
   179          4
   180          4
   181         10
   182         14
   183          9
   186         10
   187         10
   188         20
   189         16
   190          9
   193          7
   194         45
   195         25
   196        202
   197         30
   198          3
   199          6
   200         18
   201          9
   202          7
   203          7
   204          8
   205         18
   206         33
   207         20
   208         23
   209          4
   211          3
   212          6
   213          9
   214         97
   215         28
   216         22
   217         12
   218          9
   219          9
   220         11
   221          3
   224         67
   225         19
   226         33
   227         22
   228         12
   231          5
   232          5
   233         14
   234         15
   235         14
   236          7
   237         11
   238          9
   239          7
   244         29
   245        186
   246        777
   247         98
   248         12
   249          3
   252          4
   253          9
   254         13
   255         26
   256          9
   257          9
   258         18
   259          4
   263          5
   264         77
   265        153
   266        411
   267         38
   268          3
   270          3
   273         16
   274         44
   275         30
   276         20
   277          4
   282          4
   283         17
   284         14
   285         93
   286         50
   288          8
   292         37
   293          9
   294         29
   295          3
   296          9
   301         12
   302         10
   303        141
   304         38
   305          5
   307          3
   315          5
   322          5
   323         38
   324         12
   325          3
   334         23
   335         15
   336          3
   341          4
   343         49
   344         15
   351          9
   352          5
   353        150
   354         67
   355         63
   356         11
   369          5
   370          5
   371        132
   372        592
   373        128
   374         13