##TITLE=Library Entry 41832
##JCAMP-DX=Revision 4.10 
##DATA TYPE=MASS SPECTRUM
##SAMPLE DESCRIPTION=STER PREG MOTM L SE30 01 2959 E M.HORN
##NAMES=HP
##CAS NAME=Pregnane-3,20-dione, 11-[(trimethylsilyl)oxy]-, bis(O-methyloxime
), (5.beta.,11.beta.)-
##MOLFORM=C26H46N2O3Si
##CAS REGISTRY NO=57305-27-8
##MP= -300
##BP= -300
##MW= 462
##$RETENTION INDEX=2862
##$CONDENSED SPECTRUM=NO
##NPOINTS= 304
##XYDATA=(XY..XY) 1 
    41        330
    42        450
    43        130
    44        140
    45        210
    46         10
    47         75
    48         10
    49         15
    50         15
    51         20
    52         20
    53         95
    54         85
    55        270
    56         80
    57        110
    58        105
    59         90
    60         20
    61         55
    63         20
    65         45
    66         35
    67        220
    68        170
    69        150
    70        470
    71         75
    72         50
    73        999
    74        220
    75        550
    76         50
    77        150
    78         50
    79        330
    80        140
    81        280
    82        150
    83         80
    84         90
    85         30
    86         20
    87        240
    88         20
    89         55
    90         10
    91        330
    92        310
    94        160
    95        180
    96         95
    97         35
    98         50
    99         65
   100        999
   101         95
   102         15
   103         75
   104         45
   105        290
   106        125
   107        180
   108        190
   109         90
   110         55
   111         30
   112         70
   113         75
   114         55
   115         70
   116         40
   117        130
   118         80
   119        190
   120        180
   121        150
   122        100
   123         40
   124         50
   125         25
   126        120
   127         30
   128         40
   129         95
   130         60
   131        170
   132         80
   133        120
   134        105
   135         65
   136         55
   137         25
   138         70
   139         50
   140         75
   141         50
   142         60
   143        380
   144        100
   145        150
   146         90
   147        130
   148         70
   149         35
   150         25
   151         25
   158         50
   159         90
   160         50
   161         45
   162         45
   163         25
   164         25
   165         30
   166         50
   167         25
   168         30
   169         95
   170         55
   171         85
   172         85
   173         60
   174        130
   175         30
   176         25
   177         15
   178         25
   179         25
   180         15
   181         40
   182         40
   183         50
   184         55
   185         80
   186         60
   187         45
   188         40
   189         20
   190         20
   191         20
   192         20
   193         25
   194         30
   195         45
   196         40
   197         35
   198         40
   199         45
   200         65
   201         25
   202         35
   203         15
   204         20
   205         20
   206         25
   207        100
   208         30
   209         40
   210         35
   211         50
   212         45
   213         25
   214         30
   215         20
   216         25
   217         10
   218         10
   219         15
   220         15
   221         25
   222         25
   223         25
   224         30
   225         40
   226         85
   227         30
   228         50
   229         15
   230         10
   231         10
   232         20
   233         15
   234         15
   235         20
   236         20
   237         20
   238         45
   239         15
   240         50
   241         60
   242        210
   243         50
   244         15
   246         15
   247         15
   248         10
   249         15
   250         10
   251         20
   252         35
   253         20
   254         60
   255         20
   256         15
   257         20
   258         95
   259         25
   260         40
   261         15
   262         10
   263         10
   264         10
   266         15
   267         15
   268         65
   269         30
   270         35
   271         15
   272         50
   273        150
   274         85
   275         20
   276         10
   277         10
   280         10
   281         30
   282         20
   283         15
   284         30
   285         15
   286         55
   287         15
   288         10
   292         20
   293         15
   294         35
   295         30
   296         10
   297         10
   298         15
   299         15
   300         25
   301         10
   302         10
   307         10
   308         85
   309         35
   310         40
   311         20
   312         20
   313         15
   314         35
   315         10
   317         10
   324         20
   325         20
   326         15
   327         20
   332         35
   333         20
   334         10
   339         10
   340         20
   341        600
   342        150
   343         35
   344         10
   346         20
   347         10
   348         10
   350         10
   357         35
   358         15
   359          5
   362         10
   363        140
   364         50
   365         20
   371         15
   372         55
   373         25
   374         15
   376         80
   377         30
   378         10
   388         10
   389         15
   399         15
   400         20
   401         25
   415         10
   416          5
   417         10
   431        220
   432         85
   433         20
   447         25
   448         10
   461          5
   462         25
   463         15
   464          5