##TITLE=Library Entry 43090
##JCAMP-DX=Revision 4.10 
##DATA TYPE=MASS SPECTRUM
##SAMPLE DESCRIPTION=STER PREG MOTM L SE30 01 3189 E M.HORN
##NAMES=HP
##CAS NAME=Pregnane-3,20-dione, 11,21-bis[(trimethylsilyl)oxy]-, bis(O-methy
loxime), (5.alpha.,11.beta.)-
##MOLFORM=C29H54N2O4Si2
##CAS REGISTRY NO=57305-39-2
##MP= -300
##BP= -300
##MW= 550
##$RETENTION INDEX=0
##$CONDENSED SPECTRUM=NO
##NPOINTS= 409
##XYDATA=(XY..XY) 1 
    41        150
    42         65
    43         85
    44         50
    45        220
    46         10
    47         25
    48          5
    50          5
    51          5
    52          5
    53         50
    54         65
    55        200
    56         50
    57         45
    58         55
    59        125
    60         20
    61         35
    63          5
    65         25
    66         20
    67        160
    68         55
    69         85
    70         70
    71         30
    72         60
    73        999
    74        250
    75        480
    76         40
    77        100
    78         25
    79        230
    80         95
    81        220
    82         65
    83         35
    84         40
    85         30
    86         15
    87         25
    88         35
    89        290
    90         30
    91        230
    92         50
    93        265
    94         85
    95        140
    96         55
    97         30
    98        220
    99         40
   100         35
   101         40
   102         20
   103        400
   104         70
   105        240
   106         95
   107        150
   108         85
   109         60
   110         55
   111         25
   112         45
   113         30
   114         30
   115         35
   116         45
   117        100
   118         80
   119        200
   120        115
   121        100
   122         65
   123         35
   124         40
   125         25
   126         70
   127         30
   128         45
   129         80
   130         75
   131        140
   132        130
   133        135
   134         75
   135         45
   136         30
   137         20
   138         30
   139         65
   140         55
   141         40
   142         70
   143        330
   144        155
   145        155
   146         90
   147        130
   148         50
   149         35
   150         20
   151         15
   152         50
   153         35
   154         50
   155         55
   156         90
   157         80
   158        230
   159        110
   160         70
   161         90
   162         40
   163         15
   164         15
   165         20
   166         30
   167         30
   168         30
   169         80
   170         70
   171         65
   172        140
   173         55
   174         45
   175        210
   176         45
   177         20
   178         25
   179         20
   180         20
   181         40
   182         35
   183         40
   184         50
   185         40
   186         45
   187         30
   188        999
   189        170
   190         70
   191         30
   192         35
   193         25
   194         35
   195         40
   196         30
   197         30
   198         30
   199         30
   200         30
   201         30
   202         20
   203         10
   204         35
   205         15
   206         15
   207         45
   208         30
   209         30
   210         30
   211         25
   212         35
   213         25
   214         55
   215         15
   216         15
   217         10
   218         15
   219         10
   220         15
   221         45
   222         35
   223         35
   224         30
   225         25
   226         45
   227         20
   228         25
   229         10
   230         10
   231          5
   232         10
   233         10
   234         15
   235         15
   236         20
   237         15
   238         25
   239         15
   240         25
   241         20
   242         55
   243         15
   244         20
   245         10
   246         10
   247         10
   248         15
   249         10
   250         10
   251         15
   252         25
   253         15
   254         30
   255         10
   256         10
   257         10
   258        140
   259         35
   260         40
   261         15
   262         15
   263         10
   264         10
   265         10
   266         20
   267         15
   268         55
   269         15
   270         35
   271         15
   272         15
   273         70
   274         25
   275         10
   276         15
   277         10
   278         15
   279         15
   280         10
   281         25
   282         15
   283         10
   284         40
   285         30
   286         40
   287         10
   288          5
   289          5
   290         10
   291         10
   292         10
   293         15
   294         40
   295         50
   296         25
   297         15
   298         55
   299         30
   300         60
   301         15
   302          5
   303          5
   304          5
   305          5
   306          5
   307         20
   308         15
   309         10
   310         10
   311         10
   312         10
   313         10
   314          5
   315          5
   316         10
   317          5
   318          5
   320          5
   321          5
   322         15
   323         10
   324          5
   325         30
   326         20
   327         15
   328         10
   329          5
   330         20
   331         15
   332         10
   333         15
   334         10
   335          5
   338          5
   339         45
   340         10
   341         10
   342          5
   343          5
   344         10
   345          5
   346          5
   347          5
   348         10
   349          5
   350         10
   351          5
   352          5
   353          5
   354          5
   355         20
   356         15
   357        140
   358         40
   359         10
   360         10
   361          5
   362         25
   363        430
   364        110
   365         35
   366         10
   367         15
   368          5
   369         10
   370          5
   371         10
   372          5
   373          5
   374         20
   375         25
   376        230
   377         65
   378         20
   379          5
   380          5
   382          5
   383         15
   384          5
   385         15
   386          5
   387          5
   388         15
   389         10
   390          5
   397         20
   398         15
   399         20
   400         10
   401         25
   402         15
   403         15
   404         10
   405          5
   406          5
   412         10
   413         20
   414         10
   415         20
   416         15
   417         10
   418          5
   420          5
   427          5
   428         10
   429        410
   430        150
   431         45
   432         15
   433          5
   434          5
   435          5
   443          5
   445         10
   446         10
   447         50
   448         20
   449          5
   459          5
   460         20
   461         10
   462          5
   473          5
   474         10
   475          5
   487          5
   488         10
   489         30
   490         20
   491         15
   492         10
   493          5
   502          5
   503         10
   504         10
   505         20
   506         10
   507          5
   517         10
   518         40
   519        310
   520        150
   521         60
   522         15
   523          5
   535         10
   536          5
   550        200
   551         90
   552         30
   553         10