##TITLE=Library Entry 51695
##JCAMP-DX=Revision 4.10 
##DATA TYPE=MASS SPECTRUM
##SAMPLE DESCRIPTION=J. Daly, M. Garraffo, T. Spande, LBC-NIDDK-NIH, Bethesd
a, MD
##NAMES=HP
##CAS NAME=(1S,7'S)-2,2-Dimethyl-7'-nitrohexahydrospiro[cyclopentane-1,1'-py
rrolizine]
##MOLFORM=C13H22N2O2
##CAS REGISTRY NO=57308-84-6
##MP= -300
##BP= -300
##MW= 238
##$RETENTION INDEX=0
##$CONDENSED SPECTRUM=NO
##NPOINTS= 69
##XYDATA=(XY..XY) 1 
    51          4
    52          4
    53         27
    54         14
    55         55
    56          8
    57          3
    64          1
    65         15
    66          6
    67         34
    68         17
    69         11
    77         24
    78          8
    79         24
    80         40
    82        999
    83         63
    84          5
    91         17
    92          7
    93         11
    94         21
    95         35
    96         18
   104          3
   105          5
   106         17
   107          8
   108         56
   109         24
   110          4
   115          1
   117          3
   118          6
   120         23
   122         65
   123         12
   124          2
   129         23
   130          3
   132          4
   133          3
   134         12
   135         10
   136          7
   146          2
   148          6
   149          4
   150         15
   162          2
   163          2
   164          8
   165         31
   166          5
   167          5
   168          7
   169          3
   176          5
   177          6
   178          3
   191         29
   192         38
   193          7
   195          3
   208          1
   238         16
   239          2