##TITLE=Library Entry 60106
##JCAMP-DX=Revision 4.10 
##DATA TYPE=MASS SPECTRUM
##SAMPLE DESCRIPTION=STER ANDR BOTM L 00 0000 E M.HORN
##NAMES=HP
##CAS NAME=Androst-5-en-17-one, 3-[(trimethylsilyl)oxy]-, O-(phenylmethyl)ox
ime, (3.beta.)-
##MOLFORM=C29H43NO2Si
##CAS REGISTRY NO=57305-10-9
##MP= -300
##BP= -300
##MW= 465
##$RETENTION INDEX=0
##$CONDENSED SPECTRUM=NO
##NPOINTS= 180
##XYDATA=(XY..XY) 1 
    41        109
    42         20
    43         40
    44         29
    45         60
    47         29
    50         29
    51         60
    52         27
    53         29
    54         14
    55         84
    56         20
    57         29
    58         11
    59         29
    61         30
    63         14
    65         49
    66         20
    67         84
    68         89
    69         36
    70         20
    71         14
    72         16
    73        469
    74         54
    75        240
    76         24
    77        140
    78         49
    79        120
    80         29
    81        109
    82         29
    83         21
    84         40
    85         14
    89         20
    90         14
    91        999
    92        100
    93         96
    94         29
    95         60
    96        124
    97         20
   101         20
   103         21
   104         14
   105        144
   106         69
   107        124
   108         44
   109         49
   110         24
   111          9
   112          9
   113          9
   115         29
   116         20
   117         49
   118         24
   119         80
   120         49
   121         49
   122         36
   123         27
   124         11
   125          9
   126          9
   127          9
   128         29
   129        449
   130         74
   131         89
   132         27
   133         67
   134         49
   135         34
   136         20
   141         20
   142         20
   143         49
   144         29
   145         69
   146         29
   147         87
   149         20
   150          9
   155         27
   156         20
   157         49
   158         21
   159         60
   160         34
   161         20
   162         10
   169         29
   170          9
   171         29
   172         21
   173         20
   174         11
   175         11
   176         11
   177         14
   181         14
   182         11
   183         20
   184         14
   185         14
   186         21
   187         10
   188         10
   191         24
   193         20
   196         20
   197         29
   198         14
   199         14
   200          9
   201          9
   202         14
   207        149
   208         34
   209         34
   210         14
   211         29
   212         20
   213         21
   214         21
   215         24
   221         29
   222          9
   223          9
   226         21
   227          9
   228         27
   229         29
   230         74
   231         14
   251          9
   252         20
   253         64
   254         49
   256          9
   266          9
   267          9
   268        220
   269         69
   270         20
   281         40
   282          9
   283          9
   284          9
   301          9
   303         20
   304          9
   336         80
   337         24
   341         14
   342         14
   343         29
   344         29
   345         20
   346          9
   355         11
   357         16
   358        194
   359         87
   360         44
   361          9
   375         20
   376          9
   450         29
   451         10
   465         24
   466          9