##TITLE=Library Entry 44454
##JCAMP-DX=Revision 4.10 
##DATA TYPE=MASS SPECTRUM
##SAMPLE DESCRIPTION=STER PREG MOTM L 00 0000 E M.HORN
##NAMES=HP
##CAS NAME=Pregn-4-ene-3,20-dione, 11-hydroxy-17,21-bis[(trimethylsilyl)oxy]
-, bis(O-methyloxime), (11.beta.)-
##MOLFORM=C29H52N2O5Si2
##CAS REGISTRY NO=57305-44-9
##MP= -300
##BP= -300
##MW= 564
##$RETENTION INDEX=3374
##$CONDENSED SPECTRUM=NO
##NPOINTS= 414
##XYDATA=(XY..XY) 1 
    41        245
    42         90
    43        265
    44        290
    45        240
    46         20
    47         80
    48         15
    49         10
    50         17
    51         30
    52         25
    53         70
    54         65
    55        307
    56         50
    57         70
    58         50
    59        178
    60         30
    61         50
    62         10
    63          8
    64         10
    65         48
    66         50
    67        160
    68         55
    69        120
    70         55
    71         40
    72         70
    73        999
    74        325
    75        805
    76         60
    77        170
    78         58
    79        221
    80         85
    81        115
    82         70
    83         50
    84        338
    85         60
    86         30
    87          8
    88         25
    89        208
    90         35
    91        318
    92         80
    93        230
    94         98
    95         13
    96         50
    97         50
    98         27
    99         30
   100         71
   101         50
   102         20
   103        560
   104        127
   105        250
   106         90
   107        120
   108         70
   109         80
   110         50
   111         35
   112         31
   113         31
   114        330
   115        125
   116         95
   117        150
   118        125
   119        175
   120        198
   121        135
   122         90
   123         60
   124         35
   125         67
   126         36
   127         27
   128        100
   129        180
   130        130
   131        200
   132        160
   133        165
   134        100
   135         65
   136         50
   137         50
   138         55
   139         28
   140         31
   141         60
   142         60
   143        220
   144        140
   145        155
   146        105
   147        330
   148         85
   149        120
   150         85
   151        175
   152        235
   153        105
   154         68
   155         80
   156         81
   157         78
   158         98
   159         90
   160        108
   161         90
   162         50
   163         48
   164         30
   165         48
   166         38
   167         48
   168        255
   169        128
   170        115
   171         60
   172        158
   173         97
   174         50
   175         35
   176         60
   177         40
   178         35
   179         31
   180         31
   181         60
   182        120
   183         70
   184         70
   185         55
   186         51
   187         30
   188         58
   189         30
   190         90
   191         65
   192        110
   193         40
   194         50
   195         55
   196         60
   197         65
   198        320
   199         76
   200         55
   201         25
   202        135
   203         50
   204         61
   205         35
   206         30
   207         98
   208         55
   209         60
   210         60
   211         40
   212         40
   213         35
   214         48
   215         25
   216         78
   217         35
   218         40
   219         35
   220         50
   221         60
   222         70
   223         50
   224         85
   225         50
   226         45
   227         35
   228         35
   229         21
   230         30
   231         20
   232         25
   233         38
   234         35
   235         45
   236         37
   237         47
   238         40
   239         40
   240        125
   241         31
   242         50
   243         50
   244        105
   245         70
   246        181
   247         80
   248         40
   249         40
   250         40
   251         17
   252         28
   253         20
   254         37
   255         15
   256         80
   257         60
   258        155
   259         45
   260         60
   261         30
   262         35
   263         55
   264         67
   265         45
   266         35
   267         17
   268         20
   269         10
   270         40
   271         85
   272         38
   273         20
   274         30
   275         30
   276         85
   277         35
   278         20
   279         12
   280         40
   281         95
   282         50
   283         20
   284         20
   285         15
   286         16
   287         20
   288        125
   289        450
   290        110
   291         30
   292         11
   293          7
   294         40
   295         25
   296        107
   297         36
   298         36
   299         20
   300         30
   301         11
   302         20
   303         27
   304         20
   305          8
   307         17
   308         12
   309         21
   310          6
   311         13
   312         30
   313         30
   314         50
   315         10
   316         10
   317          5
   318          5
   319         10
   320          7
   321         20
   322         13
   323          8
   324          6
   325         13
   326         10
   327          7
   328          6
   329         21
   330         21
   331         50
   332         15
   333         10
   335         25
   336         10
   337         12
   338         10
   339         17
   340         15
   341         10
   342          6
   343          5
   345          5
   346         10
   350          5
   351          7
   352         11
   353         70
   354         40
   355         20
   356         10
   357         20
   358          6
   366         16
   367         15
   368          6
   369         15
   370         20
   371         15
   372         25
   373         11
   379         10
   380          5
   381         20
   382         10
   383          5
   384         65
   385         40
   386         20
   387         12
   388         15
   389         11
   390          5
   391          8
   393         15
   394         30
   395         17
   396          5
   397         17
   398          6
   399         17
   400         18
   401         10
   402         40
   403         48
   404         45
   405         15
   406          6
   409         10
   410          8
   411         30
   412         80
   413         41
   414         15
   415         30
   416         11
   421         20
   422          5
   423          5
   424          5
   425         78
   426         30
   427         11
   428         12
   429         25
   430         21
   431         10
   441         21
   442         75
   443        445
   444        180
   445         60
   446         15
   456         15
   457          7
   459         21
   460          6
   461         70
   462         20
   463          5
   472         10
   473          7
   474        135
   475         60
   476         20
   477          5
   501          7
   502         15
   503         20
   504         10
   505          8
   506          5
   515         70
   516         30
   517         20
   518          5
   519          6
   531         31
   532         50
   533        999
   534        440
   535        180
   536         40
   537          7
   546          5
   547          5
   548          5
   549         25
   550          8
   562         10
   563          7
   564        311
   565        125
   566         51
   567         15