##TITLE=Library Entry 60130
##JCAMP-DX=Revision 4.10 
##DATA TYPE=MASS SPECTRUM
##SAMPLE DESCRIPTION=STER ANDR BOTM L SE30 01 3443 E M.HORN
##NAMES=HP
##CAS NAME=Androst-5-en-17-one, 3,16-bis[(trimethylsilyl)oxy]-, O-(phenylmet
hyl)oxime, (3.beta.,16.beta.)-
##MOLFORM=C32H51NO3Si2
##CAS REGISTRY NO=57305-15-4
##MP= -300
##BP= -300
##MW= 553
##$RETENTION INDEX=0
##$CONDENSED SPECTRUM=NO
##NPOINTS= 307
##XYDATA=(XY..XY) 1 
    40         49
    41         40
    42          9
    43         34
    44         24
    45         54
    46          4
    47         20
    50          9
    51         24
    52          9
    53         14
    54          4
    55         44
    56          9
    57          9
    58          4
    59         29
    60          4
    61         20
    63          4
    65         24
    66          9
    67         40
    68         29
    69         20
    70         14
    71          4
    72         14
    73        674
    74         80
    75        360
    76         29
    77        104
    78         20
    79         89
    80          9
    81        124
    82          9
    83         14
    84          9
    85          9
    87          4
    89         20
    90          9
    91        999
    92         69
    93        100
    94         24
    95         60
    96          9
    97          9
    98          4
    99          4
   100         24
   101         29
   102          9
   103         49
   104         34
   105        154
   106         64
   107         74
   108         49
   109         20
   110          9
   111          4
   113         20
   114         14
   115         24
   116         24
   117         60
   118         24
   119         74
   120         34
   121         40
   122          9
   123          9
   124          4
   125          4
   126          4
   127          9
   128         64
   129        289
   130         80
   131         80
   132         40
   133         64
   134         29
   135         44
   136          9
   137          9
   139          4
   140          9
   141         20
   142         34
   143         64
   144         60
   145         69
   146         34
   147         84
   148         20
   149         29
   150          4
   151          9
   153          9
   154          9
   155         34
   156         29
   157         69
   158         84
   159         80
   160         29
   161         20
   162          4
   163          4
   164          4
   165         29
   166         14
   167         14
   168         29
   169         49
   170         24
   171         54
   172         24
   173         44
   174         24
   175         44
   176         14
   177          4
   178          9
   179         29
   180         14
   181         34
   182         24
   183         44
   184         44
   185         34
   186         24
   187          9
   188          9
   189          4
   191          9
   192          9
   193         14
   194         20
   195         24
   196         60
   197         54
   198         29
   199         80
   200         29
   201          9
   202          4
   205          9
   206          9
   207         40
   208         24
   209         29
   210         44
   211         34
   212         29
   213         89
   214         94
   215         34
   216          9
   217          4
   218          9
   219         14
   220         14
   221         44
   222         20
   223         34
   224         69
   225         20
   226         29
   227         14
   228          9
   229          4
   231          9
   232         44
   233         14
   234         20
   235         14
   236          9
   237         24
   238         34
   239         84
   240         60
   241         14
   242          4
   246          4
   247         14
   248         24
   249        100
   250        300
   251        129
   252         34
   253         14
   254          9
   255         14
   256         14
   257         14
   258          4
   259          2
   260          4
   262          4
   263          4
   264         24
   265        100
   266        200
   267         54
   268         20
   269          4
   271          4
   272          4
   273          4
   274          9
   275          4
   281         20
   282         40
   283         24
   284          4
   285          4
   286          4
   287          4
   288          4
   289          9
   295          9
   299          4
   300          9
   301          9
   302         14
   303         49
   304         29
   305         14
   313          9
   314         20
   315          9
   316          9
   317         20
   318          4
   326          9
   327          9
   328          9
   329          9
   330          4
   331          4
   340         20
   341         14
   342          9
   343          4
   344          4
   353          9
   354         20
   355         49
   356        164
   357         44
   358         24
   359          4
   369          4
   370          4
   371          9
   372         20
   373         14
   374          9
   389          4
   414          4
   415          9
   416          9
   417         40
   418         24
   419          4
   424          4
   428          4
   430         24
   431         14
   432         49
   433         20
   434          9
   435          4
   436          4
   440          4
   441          9
   442         20
   443         40
   444         49
   445         74
   446        589
   447        340
   448        140
   449         29
   450         14
   451          4
   459          4
   460          9
   461         14
   462        114
   463         40
   464         14
   465          4
   538         34
   539          9
   540          4
   551          9
   552          4
   553         20
   554          9