##TITLE=Library Entry 41554
##JCAMP-DX=Revision 4.10 
##DATA TYPE=MASS SPECTRUM
##SAMPLE DESCRIPTION=STER PREG MOTM L 00 0000 E M.HORN
##NAMES=HP
##CAS NAME=Pregnan-20-one, 3,11-dihydroxy-17,21-bis[(trimethylsilyl)oxy]-, O
-methyloxime, (3.alpha.,5.beta.,11.beta.)-
##MOLFORM=C28H53NO5Si2
##CAS REGISTRY NO=57305-36-9
##MP= -300
##BP= -300
##MW= 539
##$RETENTION INDEX=0
##$CONDENSED SPECTRUM=NO
##NPOINTS= 348
##XYDATA=(XY..XY) 1 
    41        520
    42        281
    43        700
    44        180
    45        260
    46         20
    47        100
    48         10
    49         10
    50         20
    51         27
    52         20
    53        115
    54         60
    55        720
    56        135
    57        230
    58        100
    59        190
    60         40
    61        120
    62         20
    63         20
    64         10
    65         48
    66         20
    67        497
    68        120
    69        380
    70        120
    71        160
    72        110
    73        999
    74        420
    75        999
    76        140
    77        260
    78         50
    79        480
    80        100
    81        700
    82        100
    83        210
    84        450
    85        100
    86        350
    87         61
    88         43
    89        260
    90         20
    91        530
    92        120
    93        620
    94        190
    95        610
    96        300
    97        230
    98        120
    99         60
   100        120
   101        180
   102         40
   103        560
   104         90
   105        710
   106        240
   107        710
   108        190
   109        320
   110        120
   111        100
   112         40
   113         90
   114        480
   115        160
   116        370
   117        250
   118        208
   119        450
   120        135
   121        300
   122         90
   123        140
   124         80
   125         57
   126         78
   127        100
   128         80
   129        360
   130        230
   131        400
   132        770
   133        430
   134        160
   135        180
   136         80
   137         60
   138         40
   139         40
   140         90
   141         90
   142        101
   143        360
   144        205
   145        400
   146        120
   147        420
   148        120
   149        191
   150         70
   151         40
   152         20
   153         30
   154         30
   155        140
   156        201
   157        380
   158        170
   159        330
   160        150
   161        180
   162         70
   163         80
   164         21
   165         40
   166         21
   167         60
   168         50
   169        170
   170         81
   171        200
   172        150
   173        200
   174        360
   175        170
   176        101
   177         70
   178         60
   179         40
   180         30
   181         80
   182         60
   183        160
   184        130
   185        200
   186        155
   187        150
   188        110
   189         61
   190         40
   191         60
   192         40
   193         37
   194         35
   195         91
   196         60
   197        140
   198         80
   199        200
   200         80
   201        100
   202         80
   203         90
   204         50
   205         30
   206         20
   207        360
   208         80
   209         90
   210         61
   211        160
   212        100
   213        255
   214        121
   215        131
   216        120
   217         50
   218         30
   219         20
   220         20
   221        100
   222         50
   223        240
   224         80
   225        380
   226        111
   227        320
   228        170
   229        105
   230         40
   231         80
   232         40
   233         41
   234         30
   235         40
   236         45
   237        120
   238         65
   239         60
   240         50
   241        110
   242         80
   243         61
   244         70
   245         40
   246         30
   247         40
   248         10
   249         71
   250         50
   251        160
   252         90
   253        220
   254        100
   255        100
   256         30
   257         10
   258         20
   259         27
   260         20
   261         10
   262         10
   263         20
   264         40
   265         80
   266         40
   267         50
   268         95
   269        160
   270        175
   271        140
   272         40
   273         61
   274         20
   275         80
   276         30
   277         20
   278         20
   279         20
   280         20
   281        125
   282        160
   283         60
   284         20
   285         40
   286         40
   287        110
   288        120
   289         40
   290         20
   291         20
   292        570
   293        230
   294         50
   295         30
   296         20
   297         10
   298         20
   299         20
   300         50
   301         20
   302         10
   303         10
   304         20
   305         20
   306         20
   307         10
   308         50
   309         40
   310        999
   311        300
   312         60
   313         40
   314         10
   315         20
   316         20
   317         10
   323         70
   324         20
   325         10
   326         20
   327         25
   328        200
   329         50
   330         10
   331         10
   340         60
   341         40
   342         80
   343         40
   344        100
   345         20
   353         10
   354         70
   355         20
   356         20
   357         20
   358         30
   359         70
   360         40
   361         10
   362         10
   370         10
   371         50
   381        240
   382         80
   383         20
   384         10
   398         10
   399        330
   400        100
   401         30
   402         10
   412         20
   413         20
   415         10
   417         80
   418         40
   419         10
   420         20
   428         30
   429         20
   430         21
   431         18
   435         60
   436         20
   448        130
   449         50
   450         15
   471         60
   472         20
   473         10
   489        160
   490         80
   491         30
   503         20
   504         20
   505         10
   506         10
   507         40
   508        350
   509        140
   510         60
   511         20
   521         30
   522         10
   539         10
   540          5