##TITLE=Library Entry 44310
##JCAMP-DX=Revision 4.10 
##DATA TYPE=MASS SPECTRUM
##SAMPLE DESCRIPTION=STER PREG MOTM L SE30 01 2893 E M.HORN
##NAMES=HP
##CAS NAME=Pregnane-3,20-dione, 17-[(trimethylsilyl)oxy]-, bis(O-methyloxime
), (5.alpha.)-
##MOLFORM=C26H46N2O3Si
##CAS REGISTRY NO=57305-28-9
##MP= -300
##BP= -300
##MW= 462
##$RETENTION INDEX=0
##$CONDENSED SPECTRUM=NO
##NPOINTS= 156
##XYDATA=(XY..XY) 1 
    41        250
    42        210
    43        200
    44         90
    45        160
    47         50
    53         90
    54         70
    55        300
    56         80
    57         70
    58         60
    59        100
    65         40
    66         50
    67        250
    68        100
    69        110
    70        110
    71         50
    72        100
    73        999
    74        190
    75        380
    76         30
    77        120
    78         50
    79        250
    80        100
    81        220
    82        100
    83         60
    84         70
    86         40
    87         40
    89        110
    91        230
    92         70
    93        230
    94        110
    95        150
    96         90
    97         40
    98         40
    99         40
   100         70
   101         50
   103         70
   104         50
   105        180
   106         90
   107        160
   108        110
   109        100
   110         50
   113         80
   114        120
   115        110
   116         70
   117        100
   118         70
   119        150
   120        100
   121        100
   122         70
   123         50
   124         50
   126         80
   127         40
   128         40
   129         90
   130         60
   131        100
   132         90
   133        120
   134         80
   135         70
   136         50
   138         60
   140         40
   141         40
   142        100
   143         90
   144         80
   145        120
   146         70
   147        110
   148         50
   149         50
   152         60
   153         50
   154         50
   155         60
   156        510
   157        150
   158        310
   159        120
   160         60
   161        110
   162         50
   168         40
   169         80
   170        260
   171         80
   172        320
   173         80
   174         70
   175         80
   178         40
   182         60
   183         50
   184         80
   185         60
   186         50
   187        140
   188        310
   189         70
   190         50
   198         60
   200        170
   201         60
   202         40
   207         50
   218         50
   220         40
   224         40
   225        100
   226         40
   242         40
   268         50
   270         50
   274         40
   275        100
   286         50
   300        120
   301         50
   309         40
   310         40
   311         40
   313         50
   319        130
   320         70
   332         50
   341        220
   342         80
   360         50
   372         50
   401         60
   402         40
   431        999
   432        360
   433        110
   447         70
   448         40
   462        150
   463         70