##TITLE=Library Entry 42298
##JCAMP-DX=Revision 4.10 
##DATA TYPE=MASS SPECTRUM
##SAMPLE DESCRIPTION=NIST Mass Spectrometry Data Center
##NAMES=HP
##CAS NAME=16.beta.,17.alpha.-Estriol, 3TMS derivative
##MOLFORM=C27H48O3Si3
##CAS REGISTRY NO=57305-22-3
##MP= -300
##BP= -300
##MW= 504
##$RETENTION INDEX=2930
##$CONDENSED SPECTRUM=NO
##NPOINTS= 320
##XYDATA=(XY..XY) 1 
    29          4
    39          1
    41         10
    42          1
    43         10
    44          6
    45         55
    46          4
    47          6
    51          1
    52          1
    53          5
    54          1
    55         18
    56          2
    57          4
    58          3
    59         28
    60          3
    61          8
    62          1
    63          1
    65          2
    66          1
    67         14
    68          2
    69          7
    70          2
    71          4
    72          5
    73        999
    74         87
    75        102
    76          6
    77         14
    78          3
    79         19
    80          3
    81         31
    82          3
    83          4
    85          4
    86          1
    87          3
    88          1
    89          5
    90          1
    91         22
    92          3
    93         23
    94          4
    95         14
    96          2
    97          5
    98          1
    99          4
   100          1
   101         13
   102          3
   103         63
   104          7
   105         21
   106          3
   107         21
   108          4
   109         12
   110          1
   111          2
   113          6
   114          2
   115         35
   116         10
   117         42
   118          5
   119         15
   120          3
   121          6
   122          1
   123          2
   125          2
   126          1
   127         11
   128         22
   129        237
   130         33
   131         38
   132          5
   133         49
   134          8
   135         10
   136          1
   137          2
   139          2
   140          2
   141         21
   142          9
   143         43
   144          7
   145         13
   147        206
   148         35
   149         33
   150          5
   151          7
   152          4
   153          7
   154          5
   155         29
   156          9
   157         12
   158          3
   159         11
   160          2
   161         15
   162          4
   163         33
   164          8
   165         18
   166          6
   167         19
   168          6
   169         16
   170          4
   171          7
   172          2
   173          5
   174          1
   175         10
   176          4
   177         38
   178         10
   179         24
   180         13
   181         13
   182         12
   183         21
   184          4
   185         10
   186          3
   187         12
   188          5
   189         32
   190          8
   191         16
   192          8
   193         13
   194          3
   195          6
   196          2
   197          4
   198          1
   199          8
   200          5
   201         25
   202          7
   203         38
   204         23
   205         83
   206         19
   207          8
   208          1
   209          4
   210          1
   211          3
   212          1
   213          6
   214          4
   215         24
   216         13
   217         48
   218         48
   219         21
   220          5
   221          3
   222          1
   223          2
   225          3
   226          1
   227          8
   228          2
   229         69
   230         25
   231         85
   232         47
   233         13
   234          3
   235          4
   236          1
   237          5
   238          1
   239          9
   240          3
   241         10
   242         11
   243         25
   244         47
   245         24
   246          7
   247          2
   249          1
   250          1
   251          6
   252          2
   253         11
   254          8
   255         31
   256         20
   257         41
   258         16
   259          6
   260          1
   263          1
   264          1
   265          2
   266          1
   267         12
   268         15
   269         34
   270         84
   271         37
   272         16
   273          4
   274          1
   279          2
   280          1
   281         13
   282         16
   283         52
   284         29
   285         50
   286         31
   287          8
   288          2
   289          1
   291          1
   293          2
   294          2
   295         49
   296         77
   297        126
   298         47
   299         41
   300         11
   301          3
   302          1
   304          1
   305          1
   306          2
   307          3
   308          2
   309         24
   310         20
   311        175
   312         46
   313         14
   314          4
   315          2
   317          1
   318          1
   319          3
   320          1
   321          1
   322          3
   323         13
   324         59
   325         46
   326         14
   327          4
   328          2
   331          1
   332          1
   333          1
   341          3
   342         11
   343          4
   345        168
   346         52
   347         23
   348          4
   349          1
   357          3
   358          4
   359          5
   360         24
   361          8
   362          3
   363          1
   371          1
   372          1
   373          1
   385          6
   386         99
   387         48
   388         20
   389          5
   390          1
   397          1
   399         16
   400          5
   401          4
   402          2
   403          1
   412          1
   413          5
   414         35
   415         14
   416          6
   417          1
   487          1
   488          1
   489         19
   490          8
   491          4
   492          2
   502          2
   504        146
   505         68
   506         31
   507          9
   508          2