##TITLE=Library Entry 60076
##JCAMP-DX=Revision 4.10 
##DATA TYPE=MASS SPECTRUM
##SAMPLE DESCRIPTION=STER ANDR BOTM L SE30 01 3475 E M.HORN
##NAMES=HP
##CAS NAME=Androst-5-en-16-one, 3,17-bis[(trimethylsilyl)oxy]-, O-(phenylmet
hyl)oxime, (3.beta.,17.beta.)-
##MOLFORM=C32H51NO3Si2
##CAS REGISTRY NO=57305-16-5
##MP= -300
##BP= -300
##MW= 553
##$RETENTION INDEX=0
##$CONDENSED SPECTRUM=NO
##NPOINTS= 176
##XYDATA=(XY..XY) 1 
    41         40
    43         54
    44          9
    45         64
    47         14
    51         20
    53         14
    55         34
    57          9
    58          9
    59         29
    61         20
    65         34
    67         34
    69         20
    72         20
    73        994
    74         89
    75        300
    76         24
    77         69
    78         14
    79         54
    80          9
    81         80
    82          9
    84          9
    89         14
    91        999
    92         84
    93         64
    94         14
    95         34
    98          9
   100         20
   101         14
   102          9
   103         64
   104         24
   105         84
   106         24
   107         44
   108          9
   109         14
   113         54
   114         29
   115         29
   116         20
   117         44
   118         74
   119         60
   120         29
   121         24
   122          9
   127          9
   128         49
   129        169
   130         49
   131         74
   132         40
   133         54
   134          9
   135         20
   141         14
   142         20
   143         54
   144        149
   145         69
   146         20
   147         24
   148          9
   154          9
   155         24
   156         20
   157         69
   158         34
   159         34
   160         14
   161          9
   165         14
   167          9
   168          9
   169         24
   170         14
   171         34
   172         14
   173         14
   179          9
   180          9
   181         20
   182         14
   183         24
   184         14
   185         20
   186          9
   187          9
   194          9
   195         20
   196         14
   197         20
   198         14
   199         14
   200          9
   206          9
   207         24
   208         14
   209         20
   210         14
   211         29
   212         14
   213         40
   214          9
   221         40
   222         14
   223         20
   224         14
   225         20
   226          9
   227         14
   237          9
   238          9
   249         29
   250         80
   251         20
   252         14
   254          9
   264          4
   266         80
   267         20
   281          4
   282          9
   283          4
   287          4
   301          4
   302          4
   303          4
   314          4
   315          4
   316          4
   317          9
   326          4
   327          4
   340          4
   341          9
   342          4
   343          4
   344          4
   354          9
   355          4
   356         74
   357         24
   358          9
   372         14
   373          4
   405          4
   416          4
   417          4
   430          9
   431          4
   432         24
   433          9
   434          4
   446        180
   447         94
   448         34
   449          9
   450          4
   462         49
   463         24
   464          9
   538         44
   539         20
   540          9
   553         14
   554          9
   555          4