##TITLE=Library Entry 41532
##JCAMP-DX=Revision 4.10 
##DATA TYPE=MASS SPECTRUM
##SAMPLE DESCRIPTION=STER ANDR MOTM L 00 0000 E M.HORN
##NAMES=HP
##CAS NAME=Androst-9(11)-en-17-one, 3-[(trimethylsilyl)oxy]-, O-methyloxime,
 (3.alpha.,5.alpha.)-
##MOLFORM=C23H39NO2Si
##CAS REGISTRY NO=57305-05-2
##MP= -300
##BP= -300
##MW= 389
##$RETENTION INDEX=0
##$CONDENSED SPECTRUM=NO
##NPOINTS= 209
##XYDATA=(XY..XY) 1 
    41        500
    42        149
    43        180
    44        149
    45        289
    46         29
    47        140
    48         20
    49         29
    50         20
    51         40
    52         29
    53        149
    54         69
    55        400
    56         89
    57         69
    58         49
    59        209
    60         40
    61        160
    62          9
    63         29
    64         29
    65         89
    66         69
    67        349
    68        109
    69        120
    70         80
    71         60
    72         49
    73        999
    74        160
    75        999
    76        120
    77        320
    78         80
    79        460
    80        100
    81        309
    82        109
    83         89
    84         60
    85         29
    86         20
    87         40
    88         20
    89         60
    90         20
    91        609
    92        120
    93        340
    94         89
    95        229
    96         49
    97         40
    98         20
    99         29
   100         40
   101        109
   102         29
   103         80
   104         89
   105        680
   106        149
   107        320
   108        109
   109        100
   110         40
   111         20
   112         29
   113         40
   114         40
   115        129
   116        100
   117        260
   118        109
   119        309
   120         89
   121         89
   122         49
   123         29
   124         29
   125         69
   126         29
   127         49
   128        109
   129        300
   130        140
   131        349
   132        129
   133        160
   134         60
   135         60
   136         29
   137          9
   138         49
   139         20
   140         20
   141        100
   142        100
   143        320
   144        160
   145        400
   146        120
   147        140
   148         49
   149         40
   150         20
   151         20
   152         29
   153         29
   154         40
   155        100
   156         80
   157        280
   158        160
   159        360
   160        149
   161         60
   162         40
   163         29
   164         29
   165         29
   166         20
   167         40
   168         40
   169        100
   170         80
   171        149
   172        120
   173         69
   174         69
   175         29
   176         40
   177         20
   178         20
   179         20
   180         20
   181         49
   182         49
   183         89
   184         60
   185         69
   186         60
   187         40
   188         49
   189         20
   190         40
   191         29
   192          9
   193         29
   194         20
   195         60
   196         40
   197        100
   198         60
   199         80
   200         40
   207         89
   208         40
   209         49
   210         49
   211        100
   212         49
   213        100
   214         29
   215         20
   224         49
   225         40
   226         40
   227         29
   228         20
   237         40
   238         89
   239         40
   240         29
   251         40
   252        109
   253        999
   254        229
   255         49
   266         20
   267         29
   268         89
   269         40
   281         29
   284        120
   285         40
   299         20
   300          9
   301         20
   302         20
   303         20
   304         29
   342         20
   343        309
   344        109
   345         29
   357         60
   358         80
   359         29
   374        429
   375        129
   376         29
   389        260
   390         89
   391         20