##TITLE=Library Entry 44449
##JCAMP-DX=Revision 4.10 
##DATA TYPE=MASS SPECTRUM
##SAMPLE DESCRIPTION=STER PREG MOTM L SE30 01 2958 E M.HORN
##NAMES=HP
##CAS NAME=Pregnane-3,20-dione, 17,21-bis[(trimethylsilyl)oxy]-, bis(O-methy
loxime), (5.beta.)-
##MOLFORM=C29H54N2O4Si2
##CAS REGISTRY NO=57305-38-1
##MP= -300
##BP= -300
##MW= 550
##$RETENTION INDEX=0
##$CONDENSED SPECTRUM=NO
##NPOINTS= 373
##XYDATA=(XY..XY) 1 
    40         15
    41        120
    42         50
    43        115
    44         30
    45         95
    46          5
    47         25
    52         10
    53         40
    54         50
    55        210
    56         40
    57         60
    58         25
    59         60
    60         15
    61         15
    63          5
    65         15
    66         15
    67        160
    68         50
    69         90
    70         50
    71         40
    72         35
    73        999
    74        180
    75        255
    76         20
    77         65
    78         15
    79        175
    80         55
    81        220
    82         60
    83         40
    84         70
    85         25
    86         15
    87         20
    88         10
    89        125
    90         15
    91        150
    92         30
    93        190
    94         70
    95        130
    96         40
    97         35
    98         20
    99         40
   100         45
   101         35
   102         15
   103        305
   104         45
   105        180
   106         60
   107        145
   108         65
   109         60
   110         30
   111         20
   112         20
   113         35
   114         70
   115         60
   116         45
   117         80
   118         50
   119        110
   120         60
   121         70
   122         40
   123         30
   124         20
   125         15
   126         30
   127         20
   128         45
   129         85
   130         50
   131        115
   132         65
   133        125
   134         50
   135         40
   136         20
   137         15
   138         25
   139         15
   140         25
   141         40
   142         30
   143        110
   144         50
   145        115
   146         50
   147        230
   148         55
   149         40
   150         15
   151         10
   152         35
   153         20
   154         45
   155         35
   156         40
   157         55
   158         50
   159         65
   160         35
   161         50
   162         25
   163         25
   164         15
   165         15
   166         20
   167         20
   168        125
   169         65
   170         50
   171         40
   172        125
   173         70
   174         45
   175         30
   176         20
   177         10
   178         10
   179         10
   180         15
   181         30
   182         80
   183         40
   184         35
   185         40
   186         35
   187         25
   188         30
   189         15
   190         10
   191         25
   192         15
   193         15
   194         15
   195         25
   196         25
   197         25
   198         85
   199         40
   200         35
   201         30
   202        100
   203         30
   204         35
   205         20
   206         15
   207         30
   208         20
   209         20
   210         15
   211         25
   212         20
   213         20
   214         55
   215         20
   216         55
   217         20
   218         15
   219         10
   220         15
   221         30
   222         20
   223         15
   224         15
   225         15
   226         20
   227         25
   228         35
   229         15
   230         30
   231         10
   232         15
   233         10
   234         10
   235         10
   236         10
   237         10
   238         15
   239         10
   240         30
   241         10
   242         35
   243         45
   244        150
   245         60
   246        130
   247         30
   248         35
   249         15
   250         10
   251         15
   252         15
   253         10
   254         15
   255         10
   256         20
   257         20
   258         40
   259         25
   260         60
   261         20
   262         15
   263         15
   264         10
   265          5
   266         25
   267         15
   268         55
   269         25
   270         20
   271         10
   272         10
   273          5
   274         15
   275         35
   276         60
   277         15
   278         10
   279         10
   280         10
   281         15
   282         10
   283         10
   284         25
   285         10
   286         25
   287         10
   288         35
   289         15
   290         15
   291          5
   292          5
   293         10
   294          5
   295         15
   296         10
   297          5
   298         30
   299         15
   300         65
   301         20
   302         15
   303          5
   304          5
   305          5
   306          5
   307         25
   308         15
   309         15
   310          5
   311         10
   312         15
   313         10
   314          5
   315         20
   316         15
   317         10
   318          5
   325         20
   326         10
   327          5
   328         10
   329          5
   330         15
   331          5
   332         10
   333          5
   338         10
   339         70
   340         25
   341         10
   343         15
   345         10
   346          5
   347          5
   354          5
   355         20
   356         15
   357         25
   358         25
   359         10
   360         10
   361         10
   368          5
   369         15
   370         25
   371         15
   372          5
   374         15
   375         15
   376          5
   377          5
   383          5
   384          5
   385         30
   386         15
   387         10
   388         55
   389         35
   390         60
   391         20
   392          5
   397         40
   398         35
   399         35
   400         15
   401         25
   402         10
   403          5
   407         15
   408          5
   412          5
   413          5
   414          5
   415         25
   416         15
   417         10
   418          5
   420         15
   421          5
   422          5
   427          5
   428         35
   429        380
   430        140
   431         45
   432         15
   433          5
   434          5
   435          5
   445         10
   446         15
   447        160
   448         60
   449         20
   450          5
   459          5
   460         30
   461         15
   487         10
   488         20
   489         35
   490         30
   491         20
   492         10
   493          5
   519        999
   520        435
   521        170
   522         45
   523         10
   535         15
   536          5
   537          5
   550        245
   551        120
   552         40
   553         10