##TITLE=Library Entry 60131
##JCAMP-DX=Revision 4.10 
##DATA TYPE=MASS SPECTRUM
##SAMPLE DESCRIPTION=STER ESTR BOTM L 00 0000 E M.HORN
##NAMES=HP
##CAS NAME=Estra-1,3,5(10)-trien-17-one, 3-[(trimethylsilyl)oxy]-, O-(phenyl
methyl)oxime
##MOLFORM=C28H37NO2Si
##CAS REGISTRY NO=57305-09-6
##MP= -300
##BP= -300
##MW= 447
##$RETENTION INDEX=0
##$CONDENSED SPECTRUM=NO
##NPOINTS= 147
##XYDATA=(XY..XY) 1 
    41        105
    42         25
    43         45
    44         65
    45         70
    47         20
    50         30
    51         60
    52         25
    53         35
    54         20
    55         50
    56         20
    57         25
    58         20
    59         40
    61         25
    63         20
    65         45
    66         20
    67         40
    68         90
    70         20
    71         15
    72         10
    73        590
    74         65
    75        130
    76         25
    77        140
    78         40
    79         75
    80         20
    81         40
    82         20
    83         15
    84         30
    89         30
    90         20
    91        999
    92        105
    93         40
    94         20
    95         35
    96        170
    97         30
   103         20
   104         10
   105        100
   106         85
   107         80
   108         65
   109         40
   110         20
   115         40
   116         15
   117         30
   119         25
   120         15
   121         20
   122         35
   123         20
   127         20
   128         35
   129         35
   130         15
   131         20
   132         10
   134         20
   135         25
   141         20
   142         10
   143         15
   145         30
   146         15
   147         10
   148         30
   149         25
   160         25
   161         10
   162         40
   163         10
   164         20
   177         60
   178         20
   179         40
   180         20
   185         15
   187         20
   189         40
   190         15
   192         20
   193         40
   194         10
   195         10
   199         10
   201         25
   202         20
   203         50
   204         20
   205        100
   206         30
   207         20
   210         15
   215         30
   216         20
   217         40
   218        100
   219         40
   220         15
   229        100
   230         40
   231        120
   232         60
   233         20
   243         20
   244         30
   245         20
   249         10
   265         20
   267         30
   268         15
   269         25
   270         17
   271         25
   272         10
   281         10
   282         50
   283         60
   284         50
   285         30
   286         17
   323         20
   324         20
   325         30
   326         65
   327         20
   338         20
   339         40
   340        170
   341        165
   342         50
   432         30
   433         10
   447        185
   448         70
   449         20