##TITLE=Library Entry 30757
##JCAMP-DX=Revision 4.10 
##DATA TYPE=MASS SPECTRUM
##SAMPLE DESCRIPTION=R RYHAGE MS-LAB KAROLINSKA INSTITUTET STOCKHOLM SWEDEN
##NAMES=HP
##CAS NAME=2,4,6,8,9-Pentathiatricyclo[3.3.1.1(3,7)]decane, 3,7-dimethyl-
##MOLFORM=C7H10S5
##CAS REGISTRY NO=57304-96-8
##MP= -300
##BP= -300
##MW= 254
##$RETENTION INDEX=0
##$CONDENSED SPECTRUM=NO
##NPOINTS= 208
##XYDATA=(XY..XY) 1 
    12          1
    13          1
    14          1
    15          7
    16          1
    17          7
    18         32
    25          2
    26         14
    27         29
    28         10
    29         12
    30          0
    31          0
    32          9
    33          7
    34         16
    35          2
    36          1
    37          3
    38          9
    39        112
    40         19
    41        119
    42          8
    43         16
    44          8
    45        296
    46         21
    47         31
    48          3
    49          2
    50          7
    51         13
    52          5
    53         25
    54          4
    55         25
    56          6
    57         22
    58         77
    59        999
    60         32
    61         54
    62          4
    63          8
    64          6
    65         58
    66         14
    67         77
    68         11
    69         35
    70          7
    71         21
    72          6
    73         19
    74          8
    75         16
    76         39
    77         29
    78         15
    79         14
    80          5
    81         17
    82          5
    83         11
    84         11
    85         61
    86          6
    87         11
    88          1
    89          3
    90          4
    91         48
    92         33
    93          7
    94          2
    95          8
    96          4
    97         54
    98         32
    99        351
   100         36
   101         54
   102          4
   103          9
   104          7
   105          3
   106          1
   107          3
   108          1
   109          6
   110          6
   111        129
   112        612
   113        364
   114         54
   115         17
   116          8
   117        332
   118         20
   119         51
   120          3
   121          4
   122         54
   123          5
   124          8
   125         13
   126          9
   127          4
   128          1
   129          8
   130         12
   131        338
   132         28
   133         45
   134          3
   135          3
   136         19
   137          6
   138          2
   139          1
   140          1
   141          3
   142          3
   143         45
   144        148
   145        338
   146         38
   147         29
   148          3
   149          9
   150          1
   151          1
   152          1
   153          1
   154          0
   155          2
   156          2
   157          2
   158          1
   159          1
   160          0
   161          1
   162          0
   163          1
   164          0
   165          1
   166          1
   167          2
   168          1
   169          1
   170          0
   171          2
   173          0
   174          0
   175          6
   176        341
   177        141
   178         58
   179         18
   180          3
   181          2
   182          0
   183          1
   185          0
   189        122
   190        248
   191         38
   192         32
   193          4
   194          1
   195          0
   196          0
   197          0
   199          1
   200          0
   201          0
   202          0
   203          1
   204          5
   205          1
   206          1
   207          0
   208          1
   209          1
   210          0
   211          0
   217          1
   218          1
   219          0
   221          4
   222          3
   223          1
   224          0
   225          0
   231          0
   232          0
   233          0
   235          0
   237          0
   254        741
   255         83
   256        164
   257         16
   258         16
   259          1
   260          1