##TITLE=Library Entry 60077
##JCAMP-DX=Revision 4.10 
##DATA TYPE=MASS SPECTRUM
##SAMPLE DESCRIPTION=STER ANDR BOTM L 00 0000 E M.HORN
##NAMES=HP
##CAS NAME=Androstan-17-one, 3,11-bis[(trimethylsilyl)oxy]-, O-(phenylmethyl
)oxime, (3.alpha.,5.alpha.,11.beta.)-
##MOLFORM=C32H53NO3Si2
##CAS REGISTRY NO=57305-18-7
##MP= -300
##BP= -300
##MW= 555
##$RETENTION INDEX=0
##$CONDENSED SPECTRUM=NO
##NPOINTS= 254
##XYDATA=(XY..XY) 1 
    41        174
    42         29
    43         69
    44         60
    45        109
    46          9
    47         60
    49         11
    50         34
    51         60
    52         29
    53         40
    54         20
    55        129
    56         40
    57         49
    58         24
    59         67
    60         14
    61         60
    62         11
    63         24
    65         64
    66         20
    67        154
    68        127
    69         60
    70         27
    71         20
    72         24
    73        944
    74        130
    75        741
    76         69
    77        164
    78         60
    79        160
    80         40
    81        164
    82         40
    83         40
    84         29
    85         24
    87         16
    89         36
    90         27
    91        999
    92        149
    93        189
    94         78
    95        116
    96         71
    97         30
    98         20
    99         20
   100         29
   101         47
   102         20
   103         69
   104         29
   105        229
   106        124
   107        200
   108        100
   109        114
   110         34
   111         20
   112         11
   113         29
   114          9
   115         40
   116         24
   117         87
   118         49
   119        116
   120         60
   121         80
   122         40
   123         27
   124         16
   125         20
   126         20
   127         29
   128         29
   129        111
   130         44
   131        124
   132         54
   133        136
   134         69
   135         80
   136         29
   137         11
   138          9
   141         27
   142         40
   143        156
   144         60
   145        114
   146         64
   147        300
   148         80
   149        104
   150         29
   151          9
   152          9
   153         11
   155         44
   156         34
   157         60
   158        104
   159        109
   160         96
   161         49
   162         29
   163         60
   164         18
   165         20
   166         14
   167         20
   168         94
   169         94
   170         40
   171         54
   172         40
   173         49
   174         40
   175         20
   176         20
   177         21
   179         21
   180         18
   181         29
   182         80
   183        129
   184         64
   185         60
   186         40
   187         24
   188         20
   189          9
   191         40
   192         14
   193         34
   194         29
   195         49
   196         71
   197         67
   198         49
   199         60
   200         29
   201        120
   202         47
   203          9
   205          9
   206          9
   207        100
   208         69
   209         89
   210         60
   211         89
   212         40
   213         29
   214         24
   215         16
   216         14
   217         14
   219         14
   220         11
   221         69
   222         29
   223         30
   224         20
   225         24
   226         31
   227         24
   228         21
   229          9
   230          9
   233         14
   234         20
   235         14
   236         20
   237         21
   238         24
   239         20
   240         24
   241         14
   242         14
   249         21
   250         11
   251         34
   252         44
   253         89
   254         54
   255         20
   256         20
   265          9
   266         36
   267         40
   268        309
   269         89
   270         20
   273         29
   274         40
   275         14
   281         69
   282         29
   283         20
   284         30
   285          9
   295         28
   301          9
   302          9
   316         20
   339         49
   340         20
   341         29
   342         20
   343         60
   344         44
   345         20
   346         11
   355         40
   356         21
   357         20
   358        289
   359         94
   360         49
   361         14
   369         20
   374         29
   375         14
   376         11
   391          9
   429         20
   432         14
   433          9
   434         29
   435          9
   436          9
   447         11
   448        491
   449        209
   450        104
   451         29
   464         89
   465         36
   466         20
   467          9
   540         11
   541          9
   555         27
   556          9