##TITLE=Library Entry 44453
##JCAMP-DX=Revision 4.10 
##DATA TYPE=MASS SPECTRUM
##SAMPLE DESCRIPTION=STER PREG MOTM L SE30 01 3223 E M.HORN
##NAMES=HP
##CAS NAME=Pregn-4-ene-3,11,20-trione, 17,21-bis[(trimethylsilyl)oxy]-, 3,20
-bis(O-methyloxime)
##MOLFORM=C29H50N2O5Si2
##CAS REGISTRY NO=57305-43-8
##MP= -300
##BP= -300
##MW= 562
##$RETENTION INDEX=0
##$CONDENSED SPECTRUM=NO
##NPOINTS= 379
##XYDATA=(XY..XY) 1 
    41        270
    42         80
    43        245
    44        400
    45        300
    46         30
    47         90
    48          6
    49          8
    50         30
    51         25
    52         20
    53         70
    54         60
    55        335
    56         50
    57         81
    58         70
    59        170
    60         30
    61         60
    62          7
    63         20
    64          8
    65         60
    66         45
    67        110
    68         80
    69        130
    70         40
    71         50
    72         70
    73        999
    74        360
    75        940
    76         70
    77        175
    78         50
    79        180
    80         61
    81        190
    82         80
    83         45
    84        415
    85         67
    86         27
    87         10
    88         25
    89        260
    90         40
    91        295
    92         80
    93        211
    94         80
    95        135
    96         50
    97         45
    98         40
    99         30
   100         75
   101         30
   102         25
   103        770
   104        130
   105        250
   106         80
   107        125
   108         70
   109         65
   110         50
   111         30
   112         30
   113         27
   114        351
   115        140
   116        105
   117        185
   118        155
   119        167
   120        260
   121        155
   122         60
   123         50
   124         20
   125         20
   126         25
   127         35
   128        110
   129        221
   130        177
   131        175
   132        180
   133        180
   134        100
   135         60
   136         48
   137         30
   138         20
   139         12
   140         30
   141         60
   142         60
   143        260
   144        160
   145        145
   146        110
   147        330
   148         80
   149         80
   150         70
   151         60
   152        220
   153         55
   154         70
   155         60
   156         80
   157         75
   158        167
   159        180
   160        230
   161         70
   162         30
   163         40
   164         40
   165         50
   166         18
   167         50
   168        360
   169        145
   170        105
   171         60
   172        125
   173         70
   174         60
   175         30
   176         75
   177         40
   178         35
   179         35
   180         30
   181         45
   182        165
   183        100
   184        100
   185         61
   186        100
   187         70
   188         85
   189         21
   190         95
   191         90
   192         55
   193         50
   194         45
   195         60
   196         61
   197         55
   198        240
   199         67
   200         67
   201         35
   202        167
   203         70
   204         80
   205         40
   206         25
   207        120
   208         65
   209         50
   210         45
   211         55
   212         50
   213         50
   214         40
   215         30
   216         80
   217         35
   218         85
   219         30
   220         35
   221         46
   222         50
   223         50
   224         60
   225         30
   226         30
   227         30
   228         40
   229         20
   230         35
   231         20
   232         20
   233         20
   234         28
   235         40
   236         40
   237         30
   238         47
   239         35
   240         55
   241         25
   242         55
   243         60
   244         60
   245         40
   246         98
   247         35
   248         25
   249         30
   250         30
   251         21
   252         60
   253         45
   254         60
   255         30
   256         65
   257         66
   258        115
   259         91
   260         50
   261         20
   262         30
   263         35
   264         30
   265         30
   266         30
   267         20
   268         25
   269         20
   270         45
   271         27
   272         30
   273         20
   274         25
   275         15
   276         47
   277         22
   278         32
   279         30
   300         25
   301         16
   302          5
   303          7
   304          6
   305         10
   306          6
   307         20
   308         13
   309         25
   310         21
   311         30
   312         50
   313         27
   314         20
   315          8
   317          6
   319         25
   320         16
   321         12
   322          7
   323         20
   324         20
   325         11
   326         21
   327         28
   328         30
   329         90
   330         20
   331         11
   332          5
   334          5
   335          7
   336          7
   337         32
   338         18
   339         13
   340         11
   341         13
   342         13
   343         10
   344          8
   345          7
   346         10
   349          7
   350         13
   351         50
   352         22
   353         11
   354         10
   355         20
   356         40
   357         30
   358         10
   359         25
   367         10
   368         15
   369         45
   370         65
   371         30
   372         25
   373         10
   377          6
   379          8
   380         10
   381         10
   382         35
   383         20
   384         10
   386         20
   387         10
   388          8
   389          7
   395          8
   397         27
   398         11
   399         20
   400         70
   401         75
   402        145
   403         55
   404         15
   408          6
   409         40
   410         60
   411         35
   412         11
   413         35
   414         12
   415         10
   424          5
   425          8
   426          6
   427         21
   428         45
   429         15
   430         12
   432         10
   439         10
   440         35
   441        710
   442        220
   443         65
   444         20
   445         10
   457         25
   458         20
   459        255
   460        100
   461         30
   469          7
   470          8
   471         10
   472        110
   473         30
   474         11
   499         15
   500         40
   501         20
   502         10
   513          8
   514         10
   515         13
   516          6
   529         20
   530         50
   531        999
   532        450
   533        200
   534         50
   535         10
   547         40
   548         20
   549          8
   560         10
   561         20
   562        460
   563        255
   564        100
   565         25