##TITLE=Library Entry 57586
##JCAMP-DX=Revision 4.10 
##DATA TYPE=MASS SPECTRUM
##SAMPLE DESCRIPTION=ASES Database, Dalian Institute, P.R. China
##NAMES=HP
##CAS NAME=3-Iodo-1-nitropropane
##MOLFORM=C3H6INO2
##CAS REGISTRY NO=57308-87-9
##MP= -300
##BP= -300
##MW= 215
##$RETENTION INDEX=0
##$CONDENSED SPECTRUM=NO
##NPOINTS= 28
##XYDATA=(XY..XY) 1 
    28        151
    29         29
    30        178
    31          9
    32         40
    37         10
    38         29
    39        262
    40         48
    41        781
    42        140
    43         19
    44         19
    46         40
    54         19
    55         20
    57         50
    60        248
    88        999
    89         49
   127        100
   128         29
   141        109
   154         29
   155         20
   169         60
   181         29
   215         40