##TITLE=Library Entry 60071
##JCAMP-DX=Revision 4.10 
##DATA TYPE=MASS SPECTRUM
##SAMPLE DESCRIPTION=STER ANDR BOTM L 00 0000 E M.HORN
##NAMES=HP
##CAS NAME=Androstane-11,17-dione, 3-[(trimethylsilyl)oxy]-, 17-[O-(phenylme
thyl)oxime], (3.alpha.,5.alpha.)-
##MOLFORM=C29H43NO3Si
##CAS REGISTRY NO=57305-11-0
##MP= -300
##BP= -300
##MW= 481
##$RETENTION INDEX=0
##$CONDENSED SPECTRUM=NO
##NPOINTS= 127
##XYDATA=(XY..XY) 1 
    41        120
    42         20
    43         49
    44         60
    45         60
    47         40
    50         20
    51         29
    52         20
    53         29
    54         20
    55         80
    56         29
    57         29
    58          9
    59         40
    61         40
    63         20
    65         29
    67         80
    68        149
    69         40
    71         20
    73        400
    74         60
    75        260
    76         40
    77         89
    78         29
    79         80
    80          9
    81         69
    82         20
    83         20
    85          9
    89         20
    91        999
    92        100
    93         69
    94         40
    95         49
    96         69
    97         29
   103         29
   105         89
   106         40
   107         49
   108         29
   109         49
   110         20
   115         20
   117         20
   119         29
   120          9
   121         29
   122          9
   124          9
   125          9
   129         34
   130         14
   131         20
   133         60
   134          9
   135         69
   136         14
   137         11
   142          9
   145         20
   146          9
   147        180
   148         29
   149         27
   155         11
   157          9
   158          9
   159          9
   161         11
   163         11
   165          9
   173          9
   175          9
   176          9
   177         14
   179          9
   191         40
   192         11
   193         29
   197         80
   198         20
   199         11
   207        100
   208         64
   209         49
   210          9
   215         14
   221         69
   222         20
   223         14
   251          9
   259          9
   265         20
   266          9
   267         20
   268          9
   269          9
   271         14
   281        100
   282         29
   283         20
   284         40
   285          9
   295         20
   299         20
   327          9
   341         20
   345          9
   356          9
   359          9
   360         40
   361          9
   374         40
   375         14
   380          5
   453          4
   466          9
   467          4
   481          3