##TITLE=Library Entry 43095
##JCAMP-DX=Revision 4.10 
##DATA TYPE=MASS SPECTRUM
##SAMPLE DESCRIPTION=STER PREG MOTM L SE30 01 2903 E M.HORN
##NAMES=HP
##CAS NAME=Pregnan-20-one, 3,21-bis[(trimethylsilyl)oxy]-, O-methyloxime, (3
.alpha.,5.alpha.)-
##MOLFORM=C28H53NO3Si2
##CAS REGISTRY NO=57305-33-6
##MP= -300
##BP= -300
##MW= 507
##$RETENTION INDEX=2929
##$CONDENSED SPECTRUM=NO
##NPOINTS= 328
##XYDATA=(XY..XY) 1 
    41        135
    42         35
    43         60
    44         30
    45        150
    46         10
    47         35
    50          5
    51          5
    52          5
    53         40
    54         40
    55        230
    56         30
    57         30
    58         45
    59        130
    60         20
    61         60
    62          5
    63          5
    65         15
    66         15
    67        230
    68         45
    69         80
    70         35
    71         15
    72         45
    73        999
    74        175
    75        970
    76         70
    77         95
    78         20
    79        290
    80         60
    81        300
    82         40
    83         50
    84         25
    85         25
    86         10
    87         15
    88         40
    89        295
    90         30
    91        215
    92         40
    93        280
    94         70
    95        215
    96         30
    97         20
    98        200
    99         25
   100         25
   101         40
   102         30
   103        290
   104         55
   105        210
   106         65
   107        265
   108         60
   109        120
   110         30
   111         20
   112         15
   113         20
   114         30
   115         40
   116         35
   117         60
   118         55
   119        170
   120         60
   121        120
   122         30
   123         40
   124         15
   125         10
   126         15
   127         20
   128         30
   129        130
   130         75
   131         95
   132        100
   133        150
   134         60
   135         95
   136         20
   137         15
   138         10
   139         10
   140         10
   141         15
   142         75
   143         65
   144        130
   145        130
   146         45
   147        170
   148         45
   149         60
   150         10
   151          5
   152          5
   153          5
   154         10
   155         80
   156         95
   157         55
   158        270
   159        130
   160         60
   161         95
   162         40
   163         20
   164          5
   165          5
   166          5
   167          5
   168         10
   169         25
   170         35
   171         45
   172         70
   173         60
   174         35
   175        700
   176        150
   177         40
   178         10
   179          5
   180         10
   181         10
   182         10
   183         25
   184         20
   185         35
   186         20
   187         35
   188        999
   189        160
   190         50
   191         10
   192          5
   193          5
   194          5
   195         10
   196         10
   197         20
   198         10
   199         25
   200         20
   201         55
   202         25
   203         10
   204          5
   205          5
   206          5
   207         30
   208         10
   209         15
   210          5
   211         15
   212         10
   213         25
   214         35
   215         75
   216         20
   217         15
   218          5
   219          5
   220          5
   221         20
   222         10
   223         20
   224         10
   225         15
   226         15
   227         15
   228         15
   229         15
   230         15
   231         20
   232          5
   233          5
   234          5
   235          5
   236          5
   237         10
   238          5
   239         10
   240         10
   241        165
   242         40
   243         40
   244         20
   245          5
   246         10
   247          5
   248          5
   249          5
   250          5
   251          5
   252          5
   253         10
   254         10
   255         75
   256         25
   257         95
   258         25
   259          5
   263          5
   264          5
   265         10
   266          5
   267         15
   268         20
   269         10
   270          5
   278          5
   279         35
   280         15
   281         20
   282         55
   283         40
   284         10
   285          5
   291          5
   294          5
   295         10
   296         30
   297         10
   298          5
   305          5
   312          5
   313          5
   314         40
   315         15
   316         10
   317          5
   318          5
   320         10
   321          5
   330          5
   331          5
   332         10
   333          5
   340          5
   341         10
   342          5
   343          5
   344          5
   345          5
   346          5
   354         20
   355         20
   356         15
   357         10
   358         35
   359         10
   360          5
   369         15
   370         20
   371         10
   372         20
   373         10
   374         10
   375          5
   384         15
   385         10
   386        130
   387         45
   388         20
   389          5
   401          5
   402         20
   403         15
   404        160
   405         50
   406         15
   407          5
   415          5
   416         15
   417         10
   418         10
   419          5
   429         10
   430         15
   431         10
   432          5
   442          5
   443         15
   444         20
   445         45
   446         50
   447         40
   448         25
   449         15
   450         10
   451          5
   459          5
   460         40
   461         20
   462         20
   463         10
   464          5
   475         20
   476        900
   477        380
   478        150
   479        350
   480         10
   481          5
   492         30
   493         15
   494          5
   505          5
   506         10
   507        600
   508        260
   509        100
   510         25
   511          5