##TITLE=Library Entry 43781
##JCAMP-DX=Revision 4.10 
##DATA TYPE=MASS SPECTRUM
##SAMPLE DESCRIPTION=DRUR BARB MMOT L SE30 05 2315 E M.HORN
##NAMES=HP
##CAS NAME=2,4,6(1H,3H,5H)-Pyrimidinetrione, 5-[2-(methoxyimino)-3-[(trimeth
ylsilyl)oxy]propyl]-1,3-dimethyl-5-phenyl-
##MOLFORM=C19H27N3O5Si
##CAS REGISTRY NO=57305-03-0
##MP= -300
##BP= -300
##MW= 405
##$RETENTION INDEX=0
##$CONDENSED SPECTRUM=NO
##NPOINTS= 276
##XYDATA=(XY..XY) 1 
    41         33
    42         27
    43         98
    44         26
    45        130
    46         10
    47         15
    50          8
    51         31
    52         12
    53          7
    54         20
    55         46
    56         41
    57         83
    58         90
    59        190
    60         12
    61         21
    62          5
    63         20
    64          5
    65         15
    66         10
    67         15
    68         12
    69         35
    70         31
    71         40
    72         31
    73        999
    74        150
    75        220
    76         25
    77        150
    78         30
    79         22
    80          5
    81         23
    82         11
    83         37
    84         47
    85         36
    86         10
    87         11
    88         58
    89        550
    90         47
    91        110
    92         10
    93         50
    94          8
    95         35
    96         10
    97         30
    98         13
    99         21
   100         26
   101         30
   102         95
   103        400
   104         55
   105         55
   106         30
   107         13
   108          5
   109         15
   110         10
   111         16
   112         15
   113         15
   114         40
   115         43
   116         35
   117         62
   118        160
   119         80
   120         10
   121         15
   123         17
   124          5
   125         13
   126          7
   127         25
   128        200
   129        160
   130         85
   131         48
   132         45
   133         37
   134          7
   135         12
   136         13
   137         20
   138         61
   139          8
   140         10
   141         15
   142         65
   143         36
   144         41
   145         38
   146         30
   147         30
   148         11
   149         22
   150          5
   151         12
   152          6
   153          8
   154          7
   155         13
   156         30
   157        150
   158         47
   159         30
   160         35
   161         20
   162          8
   163         11
   164          5
   165          7
   166          5
   167          7
   168         10
   169         67
   170        380
   171        120
   172         47
   173         18
   174         30
   175         13
   176         70
   177         15
   178          5
   179         21
   180          5
   181         30
   182          8
   183          8
   184         15
   185         16
   186         20
   187         20
   188         26
   189         15
   190          8
   191         12
   192          7
   193          7
   194         50
   195         12
   196         20
   197         13
   198         20
   199         76
   200         48
   201         12
   202         12
   203         25
   204         22
   205         16
   206         30
   207         26
   208         10
   209         15
   210          6
   211          5
   213         13
   214         22
   215         36
   216         18
   217         13
   218        410
   219         90
   220         20
   221         16
   222          5
   225          5
   226          8
   227        180
   228         27
   229         46
   230         17
   231         23
   232         40
   233          6
   234          5
   238         42
   239          6
   240          6
   241         40
   242         23
   243        110
   244         68
   245         93
   246         28
   247          6
   252          5
   253          6
   254         10
   255         18
   256        180
   257        200
   258         43
   259         11
   260         18
   261          6
   262          5
   266         15
   267         11
   268          6
   269         70
   270         57
   271         50
   272         50
   273         40
   274         12
   275          5
   281         11
   282         11
   283        100
   284        999
   285        170
   286         38
   287         10
   289         12
   290          5
   295          6
   299          5
   300          5
   301         10
   302         30
   303         30
   304          8
   313          5
   315         13
   316          6
   317          7
   327          5
   328          7
   329         11
   330         10
   331          8
   339          5
   341          5
   342          6
   343         35
   344         81
   345         35
   346         26
   347         13
   348          7
   355         10
   356         13
   357         16
   358         26
   359         26
   360         45
   361         13
   362          5
   369          5
   372         16
   373        100
   374        610
   375        220
   376         50
   377         10
   388          5
   390        240
   391         50
   392         18
   393          5
   405        360
   406         70
   407         25