##TITLE=Library Entry 70566
##JCAMP-DX=Revision 4.10 
##DATA TYPE=MASS SPECTRUM
##SAMPLE DESCRIPTION=DRUS BARB METH L SE30 05 1865 E M.HORN
##NAMES=HP
##CAS NAME=2,4,6(1H,3H,5H)-Pyrimidinetrione, 1,3,5-trimethyl-5-(7-oxabicyclo
[4.1.0]hept-1-yl)-
##MOLFORM=C13H18N2O4
##CAS REGISTRY NO=57304-98-0
##MP= -300
##BP= -300
##MW= 266
##$RETENTION INDEX=0
##$CONDENSED SPECTRUM=NO
##NPOINTS= 150
##XYDATA=(XY..XY) 1 
    41        420
    42        100
    43         80
    44         15
    45          5
    48          5
    50         10
    51         25
    52         30
    53        120
    54         65
    55        390
    56        140
    57         55
    58        130
    59          5
    62         15
    63          5
    64          5
    65         35
    66         45
    67        170
    68        175
    69        260
    70         65
    71         20
    73         15
    74          5
    75          5
    77         50
    78         15
    79        125
    80         35
    81        115
    82         40
    83        255
    84         50
    85         70
    86          5
    87          5
    89         20
    91         30
    92          5
    93         20
    94         20
    95        135
    96        245
    97        999
    98         90
    99         10
   100          5
   103          5
   105         15
   106         10
   107         25
   108         45
   109         50
   110         30
   111         20
   112         50
   113        165
   114         25
   115          5
   119         10
   120         10
   121         15
   122         25
   123         50
   124         80
   125         25
   126         15
   127         15
   128         10
   132          5
   133          5
   134         15
   135         15
   136         20
   137         35
   138         60
   139         25
   140         15
   141         40
   142         40
   143         20
   144          5
   145         10
   147         10
   148         10
   149         15
   150         60
   151        150
   152        275
   153         60
   154         25
   155         10
   157         50
   158         10
   162         10
   163        110
   164         20
   165         15
   166         35
   167         20
   168         25
   169         45
   170        950
   171        850
   172         75
   173         10
   176         10
   178          5
   179         10
   180         10
   181         70
   182         10
   183         70
   184          5
   191         10
   192          5
   193         10
   194         20
   195        145
   196         30
   197        110
   198         10
   205          5
   208          5
   209         20
   210         10
   219          5
   220         10
   221         10
   222          5
   223        130
   224         15
   225         10
   233         70
   234         15
   235         20
   237         10
   238         30
   239         10
   251        540
   252         70
   253         10
   265         10
   266        190
   267         40
   268         10