##TITLE=Library Entry 41726
##JCAMP-DX=Revision 4.10 
##DATA TYPE=MASS SPECTRUM
##SAMPLE DESCRIPTION=STER ANDR BOTM L 00 0000 E M.HORN
##NAMES=HP
##CAS NAME=Androstan-17-one, 3,11-bis[(trimethylsilyl)oxy]-, O-(phenylmethyl
)oxime, (3.alpha.,5.beta.,11.beta.)-
##MOLFORM=C32H53NO3Si2
##CAS REGISTRY NO=57305-17-6
##MP= -300
##BP= -300
##MW= 555
##$RETENTION INDEX=0
##$CONDENSED SPECTRUM=NO
##NPOINTS= 205
##XYDATA=(XY..XY) 1 
    41        144
    42         36
    43         80
    44         80
    45        129
    47         54
    49         14
    50         24
    51         54
    52         20
    53         29
    54         20
    55        109
    56         29
    57         49
    58         20
    59        124
    60         20
    61         54
    63         27
    65         60
    66         20
    67        129
    68        127
    69         49
    70         24
    71         24
    72         24
    73        999
    74        109
    75        600
    76         49
    77        140
    78         54
    79        140
    80         29
    81        134
    82         29
    83         34
    84         20
    85         21
    87         20
    89         40
    90         20
    91        999
    92        109
    93        149
    94         60
    95        100
    96        100
    97         34
    98         16
    99         20
   100         36
   101         29
   102         10
   103         60
   104         29
   105        154
   106         89
   107        140
   108         60
   109         69
   110         29
   111         16
   113         16
   115         29
   116         29
   117         69
   118         40
   119        104
   120         40
   121         49
   122         24
   123         21
   124         14
   127         21
   128         24
   129         69
   130         29
   131        100
   132         29
   133        109
   134         47
   135         49
   136         20
   141         29
   142         29
   143        109
   144         44
   145         64
   146         49
   147        204
   148         49
   149         89
   150         20
   155         34
   156         29
   157         40
   158         49
   159         69
   160         49
   161         36
   162         29
   163         29
   164         14
   165         20
   166         11
   167         20
   168         49
   169         64
   170         34
   171         49
   172         34
   173         24
   174         40
   175         20
   176         20
   177         29
   179         20
   181         27
   182         49
   183         71
   184         40
   185         40
   186         29
   187         20
   191         49
   192         10
   193         34
   194         20
   195         40
   196         40
   197         60
   198         34
   199         49
   200         24
   201        100
   202         34
   207        100
   208         89
   209         89
   210         44
   211         49
   212         34
   213         21
   214         20
   215         20
   221         80
   222         29
   223         31
   224         20
   225         20
   226         29
   227         20
   249         20
   251         29
   252         24
   253         40
   255         49
   256          9
   257          9
   265         20
   266         20
   267         40
   268        209
   269         60
   270         20
   272         20
   274         29
   281         89
   282         40
   283         29
   284         29
   289         49
   290         20
   295         29
   341         29
   342         24
   343         34
   344         20
   345         16
   355         40
   356         20
   357         14
   358        109
   359         44
   360         21
   369          9
   374         29
   375          9
   429         20
   430          9
   434         21
   447         20
   448        200
   449        114
   450         49
   451         14
   464         49
   465         29
   466         14
   540         16
   541          9
   555         10