##TITLE=Library Entry 44312
##JCAMP-DX=Revision 4.10 
##DATA TYPE=MASS SPECTRUM
##SAMPLE DESCRIPTION=STER PREG MOTM L SE30 01 3010 E M.HORN
##NAMES=HP
##CAS NAME=Pregnane-3,20-dione, 21-[(trimethylsilyl)oxy]-, bis(O-methyloxime
), (5.alpha.)-
##MOLFORM=C26H46N2O3Si
##CAS REGISTRY NO=57305-26-7
##MP= -300
##BP= -300
##MW= 462
##$RETENTION INDEX=3058
##$CONDENSED SPECTRUM=NO
##NPOINTS= 329
##XYDATA=(XY..XY) 1 
    41        390
    42        170
    43        170
    44         70
    45        330
    46         20
    47         40
    49         10
    50         15
    51         20
    52         25
    53        170
    54        190
    55        530
    56        140
    57         90
    58        120
    59        260
    60         45
    61         35
    62         10
    63         20
    65         85
    66         60
    67        530
    68        170
    69        280
    70        250
    71         60
    72         90
    73        999
    74        290
    75        550
    76         40
    77        250
    78         70
    79        610
    80        230
    81        590
    82        150
    83         75
    84         75
    85         75
    86         40
    87        140
    88         75
    89        770
    90         80
    91        500
    92        120
    93        600
    94        220
    95        400
    96        140
    97         55
    98        410
    99         55
   100        110
   101         25
   102         30
   103        550
   104         95
   105        420
   106        160
   107        370
   108        170
   109        125
   110        110
   111         45
   112         75
   113         70
   114         70
   115         60
   116         65
   117        150
   118        140
   119        230
   120        170
   121        180
   122        105
   123         65
   124         50
   125         30
   126        330
   127         45
   128         70
   129        105
   130        120
   131        160
   132        200
   133        190
   134        120
   135         80
   136         50
   137         25
   138         65
   139         45
   140         65
   141         50
   142        100
   143        110
   144        250
   145        170
   146        130
   147        170
   148         85
   149         75
   150         25
   151         25
   152         70
   153         60
   154         50
   155         45
   156        190
   157        100
   158        370
   159        150
   160        140
   161        130
   162         55
   163         50
   164         30
   165         20
   166         35
   167         15
   168         25
   169         35
   170         65
   171         85
   172        160
   173         90
   174         65
   175        550
   176        140
   177         35
   178         20
   179         15
   180         15
   181         20
   182         25
   183         35
   184         45
   185         50
   186         60
   187         50
   188        960
   189        210
   190         60
   191         25
   192         40
   193         20
   194         15
   195         25
   196         10
   197         25
   198         20
   199         35
   200         45
   201         50
   202         45
   203         20
   204         15
   205         10
   206         25
   207         95
   208         35
   209         35
   210         15
   211         25
   212         30
   213         40
   214         80
   215         35
   216         20
   217         15
   218         25
   219         10
   220         10
   221         20
   222         10
   223         20
   224         20
   225         20
   226         25
   227         30
   228         50
   229         25
   230         30
   232         20
   234         15
   235         10
   236         10
   237         15
   238         15
   239         15
   240         35
   241         25
   242         35
   243         15
   244         45
   245         35
   246         35
   247         10
   248         10
   250         10
   251         10
   252         15
   253         20
   254         50
   255         25
   256         50
   257         20
   258         45
   259         10
   260         60
   261         20
   262         40
   263         10
   264         15
   265         15
   266         15
   267         10
   268         40
   269         20
   270         75
   271         25
   272         20
   273         10
   274         30
   275        370
   276         95
   277         25
   279         10
   280         15
   281         30
   282         25
   283         20
   284         15
   285         15
   286         85
   287         40
   288        650
   289        140
   290         20
   291         10
   292         15
   293         10
   294         10
   295         20
   296         10
   297         45
   298         30
   299         25
   300        100
   301         35
   302         80
   303         25
   309         10
   310         10
   311         10
   312         15
   313         25
   314         20
   315         10
   316         10
   324         35
   325         15
   326         10
   327         30
   328         30
   329         35
   330         10
   331         10
   332         35
   333         10
   334         10
   341         55
   342         15
   343         15
   344         10
   345          5
   346          5
   347         20
   348          5
   354          5
   355          5
   356          5
   357          5
   358         15
   359        280
   360         65
   361         20
   362         10
   364         20
   365          5
   368          5
   369         20
   370         15
   371         10
   372         10
   373          5
   385         20
   386         25
   387         10
   399         25
   400         15
   401         70
   402         50
   403         50
   404         25
   405         10
   414         10
   415         25
   416         10
   417         15
   428          5
   429         15
   430         50
   431        999
   432        410
   433        120
   434         25
   435         10
   447         15
   448          5
   462        400
   463        150
   464         35
   465         10