##TITLE=Library Entry 44433
##JCAMP-DX=Revision 4.10 
##DATA TYPE=MASS SPECTRUM
##SAMPLE DESCRIPTION=John Halket,Royal Holloway, University of London, UK
##NAMES=HP
##CAS NAME=16.beta.,17.beta.-Estriol, 3TMS derivative
##MOLFORM=C27H48O3Si3
##CAS REGISTRY NO=57305-21-2
##MP= -300
##BP= -300
##MW= 504
##$RETENTION INDEX=2830
##$CONDENSED SPECTRUM=NO
##NPOINTS= 313
##XYDATA=(XY..XY) 1 
    29          3
    39          2
    41          9
    43         10
    44          6
    45         48
    46          4
    47          6
    53          5
    54          2
    55         15
    56          1
    57          3
    58          3
    59         26
    60          3
    61          8
    65          3
    66          2
    67         14
    68          2
    69          7
    70          2
    71          5
    73        999
    74         91
    75        106
    76          7
    77         13
    78          2
    79         20
    80          3
    81         34
    82          3
    83          3
    85          5
    87          3
    88          1
    89          6
    90          1
    91         24
    92          5
    93         25
    94          6
    95         17
    96          2
    97          5
    99          5
   101         11
   102          4
   103         68
   104          8
   105         23
   106          3
   107         22
   108          5
   109         13
   110          1
   111          3
   113          8
   114          3
   115         36
   116         10
   117         43
   118          6
   119         17
   120          3
   121          7
   123          3
   125          2
   126          2
   127         13
   128         22
   129        275
   130         35
   131         41
   132          7
   133         54
   134          9
   135         12
   136          2
   137          2
   139          3
   140          2
   141         26
   142         10
   143         51
   144          9
   145         16
   147        204
   148         34
   149         32
   150          5
   151          9
   152          6
   153          9
   154          6
   155         42
   156         13
   157         14
   158          4
   159         12
   160          3
   161         20
   162          6
   163         39
   164          9
   165         21
   166          7
   167         25
   168          9
   169         23
   170          5
   171         14
   173          7
   174          2
   175         11
   176          5
   177         55
   178         16
   179         37
   180         18
   181         17
   182         21
   183         36
   184          8
   185         16
   186          4
   187         14
   188          6
   189         47
   190         12
   191         22
   192         13
   193         18
   194          5
   195          9
   196          3
   197          6
   198          2
   199         13
   200          8
   201         39
   202         12
   203         84
   204         45
   205        140
   206         31
   207         13
   208          4
   209          7
   210          2
   211          5
   212          1
   213         10
   214          8
   215         41
   216         26
   217         80
   218         71
   219         36
   220          9
   221          6
   222          3
   223          5
   224          1
   225          6
   226          2
   227         14
   228          6
   229        109
   230         50
   231        148
   232         82
   233         23
   234          6
   235          7
   236          2
   237          7
   238          3
   239         16
   240          5
   241         19
   242         18
   243         47
   244         76
   245         47
   246         12
   247          4
   249          2
   250          1
   251         10
   252          6
   253         22
   254         14
   255         69
   256         40
   257         76
   258         36
   259         12
   260          3
   261          1
   265          6
   266          4
   267         25
   268         39
   269         78
   270        196
   271         81
   272         31
   273          9
   274          2
   275          1
   277          1
   279          5
   280          4
   281         35
   282         34
   283        125
   284         66
   285        100
   286         66
   287         18
   288          4
   289          1
   291          2
   292          1
   293          4
   294          5
   295        104
   296        168
   297        288
   298        108
   299         86
   300         22
   301          6
   305          3
   306          5
   307          5
   308          4
   309         59
   310         50
   311        422
   312        116
   313         34
   314          8
   315          3
   316          1
   317          2
   318          2
   319          6
   320          4
   321          3
   322          3
   323         41
   324        160
   325        104
   326         30
   327         10
   328          2
   329          1
   330          1
   331          2
   332          3
   333          2
   341          6
   342         14
   343          8
   345        415
   346        132
   347         54
   348         11
   349          2
   355          2
   357          8
   358          9
   359         14
   360         91
   361         30
   362         11
   363          2
   371          5
   372          3
   373          3
   374          1
   385         27
   386        291
   387        149
   388         58
   389         15
   390          3
   397          1
   399         45
   400         17
   401         14
   402          4
   403          1
   413         14
   414        129
   415         47
   416         17
   417          4
   489         67
   490         30
   491         13
   492          4
   502          4
   504        632
   505        280
   506        125
   507         34
   508          8
   509          1