##TITLE=Library Entry 41579
##JCAMP-DX=Revision 4.10 
##DATA TYPE=MASS SPECTRUM
##SAMPLE DESCRIPTION=STER ANDR TMSI L 00 0000 E M.HORN
##NAMES=HP
##CAS NAME=Androst-16-ene, 3,17-bis[(trimethylsilyl)oxy]-, (3.alpha.,5.beta.
)-
##MOLFORM=C25H46O2Si2
##CAS REGISTRY NO=57305-19-8
##MP= -300
##BP= -300
##MW= 434
##$RETENTION INDEX=2533
##$CONDENSED SPECTRUM=NO
##NPOINTS= 178
##XYDATA=(XY..XY) 1 
    41        240
    42         29
    43        169
    44         80
    45        424
    46         40
    47        149
    49          9
    51          9
    53         69
    54         24
    55        329
    56         40
    57        100
    58         49
    59        200
    60         49
    61        149
    62         24
    65         29
    67        229
    68         40
    69        100
    70         29
    71         49
    72         80
    73        999
    74        409
    75        999
    76        200
    77        200
    78         40
    79        249
    80         40
    81        300
    82         29
    85         49
    89         29
    91        340
    92         60
    93        309
    94         60
    95        209
    96         34
    97         40
    99         29
   101         69
   103         60
   104         29
   105        320
   106         69
   107        249
   108         40
   109        100
   110          9
   111         29
   113         29
   115         49
   116         29
   117        149
   118         40
   119        160
   120         40
   121         89
   123         20
   125          9
   127        100
   128         29
   129        240
   130         60
   131        220
   132         49
   133        129
   134         20
   135         69
   141         60
   142         60
   143        160
   144         40
   145        180
   146         49
   147        149
   148         34
   149         60
   151         40
   153         29
   154         20
   155        249
   156        140
   157        160
   158         49
   159        109
   160         40
   161        109
   162         20
   163         20
   165         60
   166         29
   167        280
   168        140
   169        580
   170        100
   171         89
   172         20
   173         60
   174         20
   175         49
   179         40
   180         29
   181        249
   182        349
   183        160
   184         49
   185         69
   186         20
   187         60
   188         20
   193         40
   194         29
   195         89
   196         20
   197         69
   198         29
   199         49
   200         29
   201         29
   202         80
   203         20
   205         20
   207         80
   208         20
   209         29
   210         20
   211         29
   213         49
   214         40
   215         29
   219         40
   220         29
   221         89
   222         20
   223         20
   233         29
   234          9
   235         40
   236          9
   239        320
   240         60
   247         40
   248          9
   253         40
   254         49
   255         60
   256          9
   272         20
   273          9
   275         20
   328         49
   329        820
   330        249
   331         80
   332          9
   343         29
   344         40
   345         20
   346          9
   355          9
   418         40
   419        860
   420        329
   421        129
   422         40
   433         49
   434        999
   435        369
   436        160
   437         49
   438          9