##TITLE=Library Entry 43936
##JCAMP-DX=Revision 4.10 
##DATA TYPE=MASS SPECTRUM
##SAMPLE DESCRIPTION=R RYHAGE MS-LAB KAROLINSKA INSTITUTET STOCKHOLM SWEDEN
##NAMES=HP
##CAS NAME=Silane, (9,10-dimethyl-2,4,6,8-tetrathiatricyclo[3.3.1.1(3,7)]dec
-1-yl)trimethyl-
##MOLFORM=C11H20S4Si
##CAS REGISTRY NO=57304-97-9
##MP= -300
##BP= -300
##MW= 308
##$RETENTION INDEX=0
##$CONDENSED SPECTRUM=NO
##NPOINTS= 286
##XYDATA=(XY..XY) 1 
     2          0
    24          1
    25          5
    26         20
    27         42
    28          3
    29         45
    30          5
    31         10
    32          1
    33          3
    34          7
    35          3
    36         25
    37          5
    38         12
    39         62
    40         17
    41        102
    42         27
    43        117
    44        171
    45        257
    46         15
    47         37
    48         19
    49          4
    50          9
    51         14
    52         10
    53         42
    54         14
    55         80
    56         27
    57         77
    58         31
    59         74
    60         17
    61         19
    62          4
    63         12
    64         57
    65         19
    66         11
    67         34
    68         18
    69         54
    70         24
    71         62
    72         40
    73        999
    74         94
    75        200
    76         23
    77         42
    78         10
    79         25
    80         10
    81         30
    82         22
    83         51
    84         25
    85        122
    86         15
    87         37
    88          6
    89         10
    90         16
    91         97
    92         13
    93         62
    94         13
    95         37
    96         16
    97         74
    98         31
    99         40
   100         12
   101         14
   102          6
   103         37
   104          8
   105         40
   106         10
   107         12
   108          7
   109         18
   110         10
   111         31
   112         11
   113         21
   114          7
   115         22
   116         12
   117        288
   118         34
   119         45
   120          5
   121         12
   122          8
   123         17
   124         14
   125         57
   126         16
   127         21
   128         22
   129         40
   130         94
   131         94
   132         21
   133         20
   134          7
   135         19
   136          6
   137         21
   138         23
   139         24
   140         10
   141         14
   142         10
   143         21
   144         10
   145         26
   146         15
   147         37
   148         10
   149         37
   150          9
   151         10
   152          7
   153         12
   154          7
   155         17
   156          8
   157         37
   158         13
   159         31
   160          5
   161          7
   162          5
   163         16
   164          3
   165         11
   166          5
   167         22
   168         21
   169         45
   170         40
   171         77
   172         14
   173         10
   174          2
   175         80
   176         12
   177         18
   178          5
   179         11
   180          5
   181         11
   182          6
   183          8
   184          5
   185          5
   186          4
   187          8
   188          4
   189        100
   190         19
   191         30
   192          6
   193          7
   194         29
   195         12
   196          8
   197         17
   198          5
   199         10
   200          6
   201          6
   202         18
   203        134
   204         24
   205         18
   206          4
   207         23
   208          6
   209         14
   210          6
   211         15
   212          4
   213          8
   214          4
   215         14
   216          3
   217          4
   218          3
   219          3
   220          2
   221          9
   222          4
   223          6
   224          7
   225         22
   226          9
   227         13
   228          6
   229         40
   230          9
   231          8
   232          2
   233          2
   234          6
   235        174
   236         34
   237         30
   238          6
   239          7
   240         12
   241          7
   242          7
   243         21
   244         14
   245          5
   246          2
   247          4
   248          2
   249          3
   250          2
   251          2
   252          2
   253         10
   254          5
   255          4
   256          2
   257          2
   258          2
   259          5
   260          2
   261          2
   262          1
   263          2
   264          1
   265          2
   266          1
   267          4
   268          1
   269          3
   270          1
   271          2
   272          2
   273          1
   274          6
   275         60
   276         12
   277         11
   278          2
   279          2
   280          2
   281         10
   282          4
   283          5
   284          2
   285          4
   286          2
   287          2
   288          1
   289          1
   290          1
   291          0
   292          1
   293         12
   294          3
   295          5
   296          5
   304          1
   305          1
   306          2
   307          2
   308        397
   309         85
   310         97
   311         17
   312         14
   313          6
   314          2
   315          1