##TITLE=Library Entry 60074
##JCAMP-DX=Revision 4.10 
##DATA TYPE=MASS SPECTRUM
##SAMPLE DESCRIPTION=STER PREG BOTM L SE30 01 3607 E M.HORN
##NAMES=HP
##CAS NAME=Pregnane-11,20-dione, 3,21-bis[(trimethylsilyl)oxy]-, 20-[O-(phen
ylmethyl)oxime], (3.alpha.,5.beta.)-
##MOLFORM=C34H55NO4Si2
##CAS REGISTRY NO=57325-88-9
##MP= -300
##BP= -300
##MW= 597
##$RETENTION INDEX=0
##$CONDENSED SPECTRUM=NO
##NPOINTS= 141
##XYDATA=(XY..XY) 1 
    41        120
    42         30
    43         70
    44         80
    45         60
    47         30
    50         20
    51         40
    52         20
    53         30
    54         20
    55         75
    56         20
    57         35
    58         30
    59         50
    60         15
    61         40
    63         20
    65         35
    66         15
    67         70
    68        110
    69         50
    70         30
    71         20
    72         20
    73        805
    74         90
    75        280
    76         35
    77        110
    78         30
    79         90
    80         30
    81        100
    82         30
    83         30
    84         30
    85         20
    87         20
    88         25
    89         50
    90         30
    91        999
    92        110
    93        100
    94         40
    95         80
    96         20
    97         30
    98         15
   100         10
   101         25
   103        140
   104         40
   105        120
   106         60
   107        105
   108         60
   109         50
   110         20
   111         15
   114         20
   115         30
   116         35
   117         40
   118         20
   119         50
   120         30
   121         50
   122         25
   123         25
   125         15
   129         60
   130         30
   131         55
   132         30
   134         25
   135         40
   136         20
   142         20
   143         40
   144         40
   145         55
   146         25
   147         25
   148         50
   149         40
   150         10
   151         10
   155         20
   156         20
   157         30
   158         50
   159         30
   160         15
   161         50
   162         20
   163         25
   165         30
   172         25
   173         30
   174         40
   175         35
   176         25
   177         30
   186         10
   187         15
   188         10
   192         15
   193         30
   195         30
   202         30
   205         25
   241         25
   243         50
   251        140
   252         40
   253         20
   264        105
   265         40
   266         15
   296         20
   297         35
   298         27
   310         10
   369         27
   400         35
   416         30
   417         15
   490         40
   491         25
   492         20
   494         10
   506         45
   507         40
   508         20
   582         10
   597         30
   598         20