##TITLE=Library Entry 66579
##JCAMP-DX=Revision 4.10 
##DATA TYPE=MASS SPECTRUM
##SAMPLE DESCRIPTION=A.A.Kutin, Moscow, Russia
##NAMES=HP
##CAS NAME=4-Cyclopentyl-N-phenylbutanamide
##MOLFORM=C15H21NO
##CAS REGISTRY NO=5732-64-9
##MP= -300
##BP= -300
##MW= 231
##$RETENTION INDEX=0
##$CONDENSED SPECTRUM=NO
##NPOINTS= 66
##XYDATA=(XY..XY) 1 
    38          2
    39         34
    40          9
    41        106
    42         15
    43         11
    44          1
    50          3
    51         13
    52          4
    53         12
    54          8
    55         66
    56          4
    57          5
    62          2
    63          3
    64          7
    65         38
    66         30
    67         32
    68          4
    69         50
    70          3
    77         43
    78          4
    79         19
    80          3
    81          4
    82          1
    83          4
    90          1
    91         18
    92         73
    93        999
    94         97
    95         31
    96          3
    97          2
   104          3
   105          3
   106         12
   107          2
   109          2
   117          2
   118          2
   119          7
   120         18
   121         18
   122          2
   130          2
   132          2
   133          2
   134         24
   135        137
   136         13
   137          1
   138          1
   139          4
   148         16
   149          2
   162          2
   188          1
   230          1
   231         31
   232          6