##TITLE=Library Entry 41727
##JCAMP-DX=Revision 4.10 
##DATA TYPE=MASS SPECTRUM
##SAMPLE DESCRIPTION=STER PREG BOTM SE30 01 3600 E M.HORN
##NAMES=HP
##CAS NAME=Pregnan-20-one, 3,11,21-tris[(trimethylsilyl)oxy]-, O-(phenylmeth
yl)oxime, (3.alpha.,5.beta.,11.beta.)-
##MOLFORM=C37H65NO4Si3
##CAS REGISTRY NO=57326-18-8
##MP= -300
##BP= -300
##MW= 671
##$RETENTION INDEX=0
##$CONDENSED SPECTRUM=NO
##NPOINTS= 246
##XYDATA=(XY..XY) 1 
    41        100
    42         24
    43         60
    44         49
    45         80
    46          9
    47         34
    50         20
    51         44
    52         21
    53         21
    54         20
    55         89
    56         24
    57         40
    58         24
    59         44
    60         11
    61         34
    62         14
    63         14
    65         44
    66         14
    67        100
    68         76
    69         49
    70         29
    71         16
    72         21
    73        999
    74        140
    75        509
    76         49
    77        109
    78         40
    79        111
    80         29
    81        114
    82         34
    83         40
    84         29
    85         14
    87         14
    88         14
    89         49
    90         20
    91        999
    92        129
    93        129
    94         44
    95        109
    96         64
    97         29
    98         16
    99         14
   100         21
   101         29
   102         20
   103        240
   104         44
   105        161
   106         89
   107        144
   108         49
   109         44
   110         14
   113         20
   114         14
   115         29
   116         54
   117         69
   118         40
   119         80
   120         36
   121         49
   122         20
   126         20
   127         20
   128         20
   129         84
   130         40
   131        100
   132         80
   133        114
   134         29
   135         74
   136         20
   137         14
   141         16
   142         44
   143        160
   144         69
   145        104
   146         36
   147        189
   148         49
   149         49
   150          9
   151          9
   155         40
   156         31
   157         60
   158        129
   159         80
   160         40
   161         44
   162         20
   163         20
   165         40
   166         11
   167         20
   168         11
   169         40
   170         29
   171         54
   172         40
   173         40
   174         76
   175         29
   176         20
   177         21
   179         14
   180         14
   181         30
   182         20
   183         29
   184         20
   185         40
   186         24
   187         20
   188         27
   189         14
   191         49
   192         16
   193         40
   194         20
   195         40
   196         20
   197         44
   198         29
   199         31
   200         24
   201         14
   202          9
   205          9
   206          9
   207        100
   208         80
   209         69
   210         20
   211         20
   212         14
   213         40
   214         14
   215         20
   221         80
   222         40
   223         40
   224         20
   225         29
   226         20
   227         29
   228         49
   229         14
   234         14
   235          9
   236          9
   238         20
   239         24
   240         24
   241          9
   249         14
   251        136
   252         40
   253         60
   254         29
   255         44
   256         20
   262          9
   263          9
   264        487
   265        114
   266         40
   267         36
   268         16
   269         11
   277         20
   278         10
   279         14
   280         34
   281        100
   282         60
   283         29
   294         16
   295         40
   296         14
   310         24
   325         11
   327         16
   328          9
   341         34
   342         11
   343          9
   355         60
   356         29
   357         11
   367          9
   368          9
   369         18
   370         29
   371         16
   372          9
   382         24
   383          9
   384         49
   385         20
   389         29
   390          9
   400         29
   401         14
   415         10
   429         29
   430         11
   446         16
   460          9
   472         20
   473         16
   474         80
   475         60
   476         27
   478         11
   490         24
   491          9
   563         16
   564         80
   565         60
   566         29
   567         14
   568         16
   580         40
   581         20
   582         14
   656         11
   671         36
   672         20
   673          9