##TITLE=Library Entry 44467
##JCAMP-DX=Revision 4.10 
##DATA TYPE=MASS SPECTRUM
##SAMPLE DESCRIPTION=STER PREG BOTM L SE30 01 3485 E M.HORN
##NAMES=HP
##CAS NAME=Pregnan-20-one, 3,17,21-tris[(trimethylsilyl)oxy]-, O-(phenylmeth
yl)oxime, (3.beta.,5.beta.)-
##MOLFORM=C37H65NO4Si3
##CAS REGISTRY NO=57326-13-3
##MP= -300
##BP= -300
##MW= 671
##$RETENTION INDEX=0
##$CONDENSED SPECTRUM=NO
##NPOINTS= 483
##XYDATA=(XY..XY) 1 
    40          3
    41         28
    42          5
    43         62
    44         13
    45         31
    46         11
    50          7
    51         15
    52          7
    53         10
    54          3
    55         96
    56          7
    57         11
    58          7
    59         19
    60          7
    61         18
    62          3
    65         19
    66          3
    67         72
    68         15
    69         39
    70          7
    71          5
    72         15
    73        999
    74         98
    75        387
    76         31
    77         86
    78         15
    79         91
    80         19
    81        142
    82         19
    83         24
    84         47
    85         10
    86          5
    87          5
    88          4
    89         16
    90         46
    91        697
    92         77
    93        135
    94         33
    95        120
    96         15
    97         13
    98          8
    99          8
   100         16
   101         16
   102         21
   103        271
   104         42
   105        201
   106         55
   107        209
   108         59
   109         67
   110         11
   111          7
   112         41
   113         15
   114         48
   115         38
   116         24
   117         49
   118         27
   119         74
   120         34
   121         83
   122         23
   123         21
   124          3
   125          7
   126          8
   127         15
   128         29
   129         95
   130         40
   131         81
   132         44
   133        108
   134         33
   135         81
   136         16
   137          8
   138          5
   139          5
   140         11
   141         28
   142         35
   143         79
   144         41
   145        129
   146         50
   147        240
   148         44
   149         50
   150         13
   151         11
   152          7
   153         10
   154         38
   155         46
   156         38
   157         42
   158         38
   159         81
   160         27
   161         72
   162         16
   163         19
   164          7
   165         31
   166         13
   167         18
   168         62
   169         58
   170         33
   171         32
   172         58
   173         56
   174         27
   175         21
   176          9
   177          8
   178          6
   179         16
   180         18
   181         29
   182         34
   183         31
   184         65
   185         36
   186         22
   187         31
   188         23
   189         19
   190         10
   191         21
   192         15
   193         11
   194         11
   195         20
   196         15
   197         26
   198         50
   199         31
   200         19
   201         34
   202         34
   203         23
   204         23
   205         15
   206          8
   207         15
   208         15
   209         20
   210         26
   211         19
   212         28
   213         33
   214         27
   215         55
   216         26
   217         18
   218         11
   219          9
   220         15
   221         19
   222         13
   223         13
   224         10
   225         16
   226         11
   227         31
   228         24
   229         57
   230         50
   231         19
   232         18
   233         19
   234          8
   235         11
   236          8
   237         10
   238         11
   239         26
   240         13
   241         24
   242         29
   243        116
   244         75
   245         34
   246        103
   247         31
   248         21
   249         16
   250          8
   251         21
   252         19
   253         82
   254         38
   255        186
   256         52
   257         28
   258         31
   259         29
   260        103
   261         36
   262         81
   263         20
   264         19
   265          8
   266          8
   267         13
   268         10
   269         11
   270         19
   271         73
   272         47
   273         24
   274         96
   275         34
   276         19
   277         11
   278         10
   279         11
   280         27
   281         18
   282         16
   283         11
   284          5
   285          3
   286          5
   287          5
   288          8
   289          7
   290          5
   291          8
   292         15
   293         10
   294         25
   295         11
   296          8
   297          7
   298         19
   299          7
   300          3
   301          3
   302          3
   303          4
   304          4
   305          4
   306          3
   307          3
   308          3
   309          5
   310         24
   311         10
   312          3
   313          3
   314          3
   315          3
   316          5
   317          5
   318          8
   319          7
   320          5
   321         11
   322          4
   323          3
   324          3
   325          7
   326         10
   327         15
   328         83
   329         46
   330         21
   331         10
   332          7
   333          3
   334          7
   335          3
   336         13
   337          7
   338          3
   339         11
   340          7
   341          8
   342         10
   343         24
   344         19
   345         29
   346         15
   347         11
   348          7
   349          7
   350          7
   351         15
   352         73
   353         26
   354         15
   355         11
   356         23
   357          8
   358         10
   359         10
   360         13
   361         47
   362         18
   363          8
   364         19
   365          7
   366          7
   367          8
   368          9
   369          8
   370         27
   371         20
   372         16
   373          4
   374          3
   379          3
   380          7
   381         10
   382         26
   383         23
   384        170
   385         52
   386         21
   387          5
   388          5
   389          3
   393          3
   395          3
   396          3
   397          5
   398          5
   399          7
   400         29
   401         16
   402         15
   403          5
   404          4
   405          5
   406          8
   407          3
   413          3
   414          3
   415          7
   416          7
   417          8
   418         24
   419         46
   420         27
   421         11
   422         12
   423          5
   428          3
   429          7
   430         10
   431          8
   432         13
   433         40
   434         44
   435         47
   436         15
   437          7
   438          7
   439          5
   440          8
   441         18
   442         58
   443         28
   444         28
   445         58
   446         35
   447         19
   448         10
   451          4
   456          3
   457          8
   458         11
   459         10
   460         27
   461         19
   462         13
   463          7
   464          3
   468          5
   469          8
   470         15
   471         23
   472         48
   473         82
   474        255
   475        129
   476         59
   477         19
   478         11
   479          5
   485          3
   486          5
   487          5
   488          7
   489         10
   490         73
   491         38
   492         27
   493         11
   494          5
   526          5
   527          7
   528         52
   529         23
   530         12
   531          3
   532         10
   533          8
   534          8
   535         11
   536          7
   537          3
   544          7
   545          3
   546          5
   547          7
   548         11
   549         13
   550         35
   551         18
   552         11
   553          7
   554          5
   555          8
   556         16
   557         23
   558         34
   559         39
   560         46
   561         54
   562         85
   563        155
   564        775
   565        403
   566        217
   567         93
   568        124
   569         62
   570         23
   571         15
   572         15
   573         18
   574         23
   575         31
   576         41
   577         46
   578         57
   579         64
   580        643
   581        341
   582        162
   583         55
   584         21
   585          8
   586          5
   655          8
   656         34
   657         23
   658         10
   659          3
   670          5
   671         27
   672         15
   673          5