##TITLE=Library Entry 41886
##JCAMP-DX=Revision 4.10 
##DATA TYPE=MASS SPECTRUM
##SAMPLE DESCRIPTION=STER PREG MOTM L SE30 01 3268 E M.HORN
##NAMES=HP
##CAS NAME=Pregn-4-ene-3,11,20-trione, 6,17,21-tris[(trimethylsilyl)oxy]-, 3
,20-bis(O-methyloxime), (6.beta.)-
##MOLFORM=C32H58N2O6Si3
##CAS REGISTRY NO=57326-06-4
##MP= -300
##BP= -300
##MW= 650
##$RETENTION INDEX=0
##$CONDENSED SPECTRUM=NO
##NPOINTS= 520
##XYDATA=(XY..XY) 1 
    41        120
    42         50
    43        180
    44         70
    45        260
    46         15
    47         65
    48         10
    49         10
    50         20
    51         20
    52         15
    53         45
    54         50
    55        310
    56         45
    57         55
    58         40
    59        150
    60         30
    61         55
    62         10
    63         10
    64          5
    65         25
    66         20
    67         90
    68         65
    69        140
    70         40
    71         35
    72         75
    73        999
    74        640
    75        950
    76         65
    77        100
    78         35
    79        155
    80         70
    81        160
    82         50
    83         35
    84        190
    85         40
    86         25
    87         15
    88         20
    89        350
    90         40
    91        230
    92         55
    93        215
    94         70
    95        110
    96         50
    97         45
    98         35
    99         35
   100        100
   101         55
   102         30
   103        999
   104        175
   105        230
   106        100
   107        100
   108         55
   109         65
   110         30
   111         30
   112         20
   113         50
   114        200
   115        120
   116        110
   117        180
   118        115
   119        120
   120        105
   121        110
   122         40
   123         30
   124         20
   125         20
   126         45
   127         45
   128        120
   129        280
   130        210
   131        280
   132        170
   133        250
   134         90
   135         50
   136         40
   137         25
   138         30
   139         20
   140         35
   141         80
   142         85
   143        350
   144        165
   145        110
   146         85
   147        570
   148        140
   149         95
   150         65
   151         35
   152         35
   153         40
   154         90
   155         90
   156        130
   157        120
   158        230
   159        115
   160         90
   161         50
   162         35
   163         55
   164         95
   165         65
   166         70
   167         80
   168        400
   169        200
   170        150
   171         80
   172        210
   173         90
   174         80
   175         35
   176         35
   177         30
   178         40
   179         75
   180         70
   181        100
   182        220
   183        105
   184        105
   185         65
   186         70
   187         35
   188        125
   189         50
   190         80
   191         80
   192         55
   193        105
   194         80
   195        100
   196         80
   197         70
   198        250
   199         65
   200         65
   201         40
   202        150
   203         70
   204        120
   205         80
   206         80
   207        250
   208        160
   209        110
   210         95
   211         65
   212         45
   213         30
   214         65
   215         40
   216        125
   217         60
   218         65
   219         75
   220         65
   221        230
   222        140
   223        105
   224         80
   225         45
   226         45
   227         35
   228         40
   229         30
   230         55
   231         45
   232         90
   233        105
   234         80
   235         65
   236         80
   237         70
   238        160
   239         95
   240        105
   241         35
   242         60
   243         80
   244        120
   245         75
   246        210
   247         90
   248         85
   249         55
   250         90
   251         80
   252         75
   253         65
   254         50
   255         25
   256         45
   257         70
   258        190
   259         95
   260         85
   261         65
   262         65
   263         75
   264         90
   265         40
   266         35
   267         40
   268         50
   269         30
   270         60
   271         45
   272         40
   273         30
   274         45
   275         40
   276        105
   277         70
   278        155
   279         80
   280         55
   281        130
   282        100
   283         60
   284         60
   285         35
   286         35
   287         25
   288        120
   289         55
   290         45
   291         35
   292         30
   293         25
   294         45
   295         70
   296         45
   297         35
   298         35
   299         20
   300         25
   301         20
   302         25
   303         20
   304         25
   305         20
   306         40
   307         35
   308         50
   309         55
   310        160
   311         55
   312         40
   313         25
   314         35
   315         20
   316         20
   317         30
   318         20
   319         15
   320         15
   321         25
   322         20
   323         20
   324         30
   325         40
   326         50
   327         25
   328         80
   329         30
   330         20
   331         15
   332         15
   333         10
   334         15
   335         35
   336         25
   337         20
   338         25
   339         25
   340         45
   341         50
   342         45
   343         45
   344         40
   345         20
   346         20
   347         10
   348         15
   349         50
   350         25
   351         20
   352         35
   353         50
   354         40
   355         85
   356         65
   357         35
   358         30
   359         15
   360         80
   361         25
   362         15
   363         10
   364         10
   365         15
   366         45
   367         65
   368         60
   369         55
   370         75
   371         30
   372         35
   373         20
   374         20
   375         55
   376         20
   377         15
   378         10
   379         25
   380         30
   381         35
   382         20
   383         15
   384         75
   385         35
   386         35
   387         15
   388         10
   389          5
   390         10
   391         10
   392         10
   393         20
   394         15
   395         25
   396         15
   397         15
   398         40
   399         50
   400         55
   401         25
   402         45
   403         15
   404          5
   405          5
   406          5
   407         35
   408         55
   409         45
   410         20
   411         35
   412         15
   413         10
   414         10
   415         20
   416         15
   417         10
   418          5
   421          5
   422          5
   423         15
   424         15
   425         35
   426         20
   427         15
   428         10
   429         55
   430         50
   431         25
   432         10
   433          5
   434          5
   435          5
   436          5
   437         10
   438         45
   439        600
   440        200
   441         75
   442         40
   443         30
   444         20
   445         10
   446         15
   447         10
   448          5
   451          5
   452          5
   453          5
   454          5
   455         20
   456         15
   457         30
   458         25
   459         20
   460         30
   461         15
   462          5
   463          5
   466          5
   467         10
   468         10
   469         35
   470         60
   471         30
   472         15
   473         10
   474         30
   475         15
   476         15
   477         10
   478          5
   479          5
   480          5
   481          5
   482          5
   483         15
   484         15
   485         20
   486         15
   487         10
   488         25
   489         25
   490         45
   491         20
   492          5
   496          5
   497         45
   498         40
   499         45
   500         30
   501         40
   502         20
   503         25
   504         15
   505         10
   506          5
   507          5
   511          5
   512          5
   513         35
   514         20
   515         30
   516         15
   517         10
   518          5
   519          5
   520          5
   527          5
   528         50
   529        440
   530        190
   531         80
   532         30
   533         10
   534          5
   544          5
   545         60
   546         40
   547        130
   548         55
   549         25
   550         10
   558         10
   559         15
   560         50
   561         25
   562         15
   563          5
   573          5
   574          5
   575          5
   577          5
   587         40
   588         35
   589         50
   590         40
   591         30
   592         10
   603         15
   604         15
   605         15
   617          5
   618         50
   619        430
   620        250
   621        120
   622         45
   623         20
   624          5
   635        150
   636         80
   637         35
   638         10
   639          5
   650        250
   651        130
   652         65
   653         25
   654         10