##TITLE=Library Entry 41755
##JCAMP-DX=Revision 4.10 
##DATA TYPE=MASS SPECTRUM
##SAMPLE DESCRIPTION=STER PREG BOTM L SE30 01 3629 E M.HORN
##NAMES=HP
##CAS NAME=Pregnan-20-one, 3,11,21-tris[(trimethylsilyl)oxy]-, O-(phenylmeth
yl)oxime, (3.beta.,5.beta.,11.beta.)-
##MOLFORM=C37H65NO4Si3
##CAS REGISTRY NO=57325-97-0
##MP= -300
##BP= -300
##MW= 671
##$RETENTION INDEX=0
##$CONDENSED SPECTRUM=NO
##NPOINTS= 233
##XYDATA=(XY..XY) 1 
    41         50
    42         10
    43         35
    44         35
    45         60
    47         25
    50         15
    51         30
    52         10
    53         15
    54         15
    55         75
    56         15
    57         20
    58         15
    59         50
    60         10
    61         35
    63         10
    65         40
    66         10
    67         80
    68         25
    69         20
    70         20
    71         10
    72         20
    73        999
    74        140
    75        550
    76         45
    77        120
    78         20
    79        120
    80         25
    81        150
    82         20
    83         25
    84         20
    85         10
    87         10
    88         15
    89         40
    90         15
    91        999
    92        110
    93        140
    94         35
    95         90
    97         10
    98         10
    99         10
   100         10
   101         25
   102         10
   103        310
   104         50
   105        190
   106         80
   107        190
   108         50
   109         50
   110         10
   113         15
   114         15
   115         25
   116         50
   117         55
   118         30
   119         70
   120         35
   121         55
   122         20
   123         15
   126         15
   127         20
   128         20
   129         80
   130         40
   131        100
   132         75
   133         70
   134         30
   135         45
   136         10
   141         20
   142         65
   143        200
   144         75
   145        130
   146         50
   147        140
   148         30
   149         35
   150         10
   154         10
   155         40
   156         35
   157         60
   158        140
   159         80
   160         30
   161         35
   162         15
   165         30
   166         10
   167         15
   168         15
   169         50
   170         25
   171         40
   172         50
   173         40
   174         75
   175         15
   176         10
   179         15
   180         10
   181         30
   182         30
   183         30
   184         20
   185         25
   186         25
   187         20
   188         20
   189         10
   193         10
   194         20
   195         55
   196         35
   197         25
   198         20
   199         30
   200         30
   201         15
   202         10
   205         15
   206         15
   210         15
   211         20
   212         15
   213         70
   214         20
   215         25
   219         15
   220         10
   221         30
   222         30
   223         40
   224         20
   225         20
   226         15
   227         30
   228         25
   229         10
   233         10
   234         15
   235         15
   236         10
   237         15
   238         20
   239         35
   240         15
   241         15
   248         20
   249         15
   250         10
   251        200
   252         55
   253         40
   254         15
   255         65
   256         15
   261         10
   262         15
   263         15
   264        580
   265        170
   266         60
   278         15
   279         15
   280         50
   281         10
   310         20
   318         25
   330         10
   344         10
   345         10
   370         20
   371         15
   372         15
   382         15
   383         10
   384         60
   385         25
   386         10
   388         35
   389         10
   400         35
   443         10
   446         20
   447         10
   448         10
   458         10
   460         15
   461         10
   462         10
   472         10
   473         15
   474        140
   475         75
   476         30
   477         10
   478         15
   490         40
   491         15
   534         10
   564        110
   565         75
   566         40
   567         20
   568         20
   569         10
   580         40
   581         25
   582         15
   656         10
   657          5
   671         60
   672         35
   673         15
   674          5