##TITLE=Library Entry 41730
##JCAMP-DX=Revision 4.10 
##DATA TYPE=MASS SPECTRUM
##SAMPLE DESCRIPTION=STER PREG BOTM L SE30 01 3450 E M.HORN
##NAMES=HP
##CAS NAME=Pregnan-20-one, 3,17,21-tris[(trimethylsilyl)oxy]-, O-(phenylmeth
yl)oxime, (3.alpha.,5.beta.)-
##MOLFORM=C37H65NO4Si3
##CAS REGISTRY NO=57326-00-8
##MP= -300
##BP= -300
##MW= 671
##$RETENTION INDEX=0
##$CONDENSED SPECTRUM=NO
##NPOINTS= 385
##XYDATA=(XY..XY) 1 
    41         60
    42         10
    43         90
    44         20
    45         60
    46          5
    47         25
    49          5
    50         15
    51         30
    52         10
    53         20
    54         10
    55        170
    56         15
    57         15
    58         10
    59         35
    60         10
    61         30
    62          5
    63         10
    64          5
    65         35
    66         10
    67        130
    68         25
    69         55
    70         15
    71         10
    72         20
    73        999
    74        155
    75        610
    76         50
    77        125
    78         25
    79        150
    80         30
    81        230
    82         25
    83         50
    84         80
    85         15
    86         10
    87          5
    88          5
    89         30
    90         10
    91        999
    92        100
    93        200
    94         45
    95        180
    96         20
    97         25
    98         10
    99         15
   100         25
   101         30
   102         15
   103        430
   104         65
   105        310
   106         35
   107        270
   108         65
   109         95
   110         15
   111         10
   112         55
   113         20
   114         75
   115         55
   116         35
   117         75
   118         35
   119        125
   120         40
   121        105
   122         20
   123         25
   124          5
   125          5
   126         15
   127         20
   128         30
   129        165
   130         50
   131        110
   132         50
   133        140
   134         35
   135        110
   136         20
   137         15
   138          5
   139         10
   140         15
   141         35
   142         45
   143        115
   144         55
   145        135
   146         40
   147        290
   148         55
   149         70
   150         15
   151         10
   152         10
   153         15
   154         65
   155         65
   156         45
   157         55
   158         50
   159        125
   160         35
   161        105
   162         25
   163         25
   164         10
   165         45
   166         15
   167         25
   168         80
   169         75
   170         50
   171         55
   172         70
   173         75
   174         35
   175         35
   176         15
   177         10
   178          5
   179         20
   180         15
   181         35
   182         40
   183         35
   184         85
   185         50
   186         25
   187         40
   188         25
   189         25
   190         10
   191         30
   192         15
   193         15
   194         15
   195         25
   196         20
   197         30
   198         60
   199         50
   200         25
   201         45
   202         50
   203         30
   204         25
   205         15
   206         10
   207         20
   208         15
   209         20
   210         25
   211         25
   212         15
   213         40
   214         35
   215        100
   216         35
   217         30
   218         15
   219         10
   220         15
   221         20
   222         15
   223         15
   224         10
   225         25
   226         15
   227         30
   228         30
   229         75
   230         65
   231         25
   232         20
   233         20
   234         10
   235         10
   236         10
   237         10
   238         10
   239         30
   240         15
   241         20
   242         25
   243        110
   244         85
   245         30
   246        105
   247         30
   248         25
   249         15
   250          5
   251         15
   252         10
   253         90
   254         50
   255        250
   256         65
   257         25
   258         35
   259         25
   260         95
   261         35
   262         65
   263         15
   264         10
   265         10
   266         10
   267         10
   268         10
   269         10
   270         15
   271         65
   272         35
   273         10
   274         75
   275         25
   276         15
   277         15
   278         10
   279         10
   280         25
   281         15
   282         10
   283         10
   284          5
   285          5
   286          5
   287          5
   288         10
   289          5
   290          5
   291          5
   292         15
   293         10
   294         40
   295         15
   296          5
   298         20
   299          5
   300          5
   301          5
   302          5
   303          5
   304          5
   305          5
   306          5
   308          5
   310         30
   311         10
   312          5
   313          5
   314          5
   315          5
   316          5
   317         10
   318          5
   319          5
   320          5
   321         10
   322          5
   323          5
   327          5
   328         65
   329         40
   330         10
   331          5
   334          5
   336         10
   337          5
   339         10
   340          5
   341          5
   342          5
   343         25
   344         15
   345         20
   346         10
   347         10
   351          5
   352         75
   353         25
   354         10
   355          5
   356         15
   357          5
   358          5
   360          5
   361         40
   362         15
   363          5
   364         20
   370         30
   371         25
   372         10
   382         10
   383         10
   384        110
   385         35
   386         15
   400         20
   401         10
   402         10
   403          5
   406          5
   418         15
   419         30
   420         20
   421         10
   422         10
   423          5
   433         25
   434         35
   435         35
   436         15
   437          5
   442         45
   443         20
   444         20
   445         45
   446         30
   447         15
   448          5
   458          5
   460         20
   461         10
   462         10
   463          5
   472         15
   473         40
   474        160
   475         80
   476         35
   477         15
   478          5
   490         45
   491         25
   492         20
   493          5
   509          5
   528         40
   529         15
   530          5
   549          5
   550         20
   551         10
   552          5
   562         10
   563         35
   564        430
   565        240
   566        105
   567         40
   568         70
   569         30
   570         10
   571          5
   580        360
   581        180
   582         80
   583         25
   584         10
   656         20
   657         10
   658          5
   671         15
   672         10
   673          5