##TITLE=Library Entry 41733
##JCAMP-DX=Revision 4.10 
##DATA TYPE=MASS SPECTRUM
##SAMPLE DESCRIPTION=STER PREG BOTM L SE30 01 3771 E M.HORN
##NAMES=HP
##CAS NAME=Pregn-5-en-20-one, 3,11,17,21-tetrakis[(trimethylsilyl)oxy]-, O-(
phenylmethyl)oxime, (3.beta.,11.beta.)-
##MOLFORM=C40H71NO5Si4
##CAS REGISTRY NO=57326-03-1
##MP= -300
##BP= -300
##MW= 757
##$RETENTION INDEX=0
##$CONDENSED SPECTRUM=NO
##NPOINTS= 322
##XYDATA=(XY..XY) 1 
    41        160
    42         40
    43        160
    44        280
    45        210
    46         20
    47         80
    48         20
    50         80
    51        120
    52         40
    53         50
    55        150
    56         20
    57         30
    58         30
    59         70
    61         70
    62         20
    63         50
    64         20
    65         60
    66         30
    67        130
    68        190
    69         60
    70         30
    71         20
    72         40
    73        999
    74        320
    75        830
    76        120
    77        370
    78        100
    79        160
    80         30
    81        115
    82         30
    84        345
    85         50
    86         30
    87         30
    88         20
    89         80
    90         40
    91        999
    92        150
    93        140
    94         30
    95         90
    96         90
    97         50
    98         45
    99         20
   100         35
   101         40
   102         30
   103        360
   104         90
   105        325
   106        355
   107        170
   108        130
   109         50
   111         20
   112         40
   113         30
   114        300
   115        150
   116         80
   117        180
   118         70
   119        180
   120         60
   121         60
   123         20
   126         20
   127         30
   128         85
   129        365
   130        135
   131        220
   132         80
   133        230
   134         40
   135        130
   137         20
   140         30
   141         50
   142        110
   143        235
   144        100
   145        240
   146         80
   147        770
   148        110
   149        150
   150         30
   151         30
   152         30
   153         35
   154        100
   155        120
   156        125
   157        190
   158         70
   159         85
   160         20
   161         30
   162         20
   163         50
   164         20
   165        115
   166         30
   167        110
   168        235
   169        295
   170         80
   171        130
   172        120
   173         70
   174         30
   177         40
   178         35
   179        100
   180         40
   181        135
   182        100
   183         90
   184        135
   185         95
   186         30
   187         40
   188         20
   189         30
   191        150
   192        100
   194         80
   195        220
   196         80
   197        160
   198         40
   199         50
   200         25
   201         30
   202         70
   203         40
   204         50
   205         80
   206         50
   210         70
   211        250
   212         50
   213         70
   214         45
   215         20
   216         20
   217         20
   218         30
   219         75
   220         50
   224         55
   225         95
   226         65
   227         35
   229         50
   230         75
   231         55
   232         60
   233        110
   234         50
   235        140
   236         50
   237         80
   238         50
   239         30
   240         40
   241         30
   243         50
   244         75
   245         60
   246        365
   247        120
   248         90
   249        160
   250         50
   251        210
   252         70
   253         40
   255         30
   256         30
   257         30
   258         60
   259         50
   260        215
   261         65
   262         90
   263         40
   264         30
   265         50
   266         20
   269         70
   271         30
   274        105
   276         50
   277         35
   278         30
   284         30
   285         40
   286         30
   297         60
   298         20
   299         40
   300         30
   301         40
   303         30
   306         30
   311         30
   313         30
   314         30
   315         30
   321         30
   323         20
   324         60
   325         75
   326         50
   327         65
   328         40
   329         20
   336         30
   337         25
   338         70
   339        125
   340         50
   341        175
   342         90
   343         60
   344         25
   345         20
   351         20
   352        165
   353         75
   354         20
   359         50
   360         30
   366         30
   367         50
   368         30
   378         20
   380         65
   381         25
   392         25
   396         25
   405         30
   415         90
   416         60
   417         20
   431         45
   432         25
   438         30
   439         20
   454         30
   456         40
   457         50
   458         25
   469         20
   470        100
   471         60
   472         35
   486         50
   487         25
   505         50
   506         30
   519         15
   520        145
   521         70
   522         50
   523         15
   531         30
   532         20
   533         25
   546         40
   547         30
   548         20
   558         30
   559         30
   560        160
   561        115
   562        100
   563         35
   564         20
   574         20
   576         60
   577         70
   578         35
   579         25
   636         40
   637         10
   638         15
   648         30
   649         50
   650        370
   651        430
   652        175
   653         90
   654         45
   655         20
   666        315
   667        220
   668        100
   669         45
   670         20
   742         15
   743         10
   744          5
   755         10
   756         10
   757         35
   758         25
   759         10
   760          5