##TITLE=Library Entry 43102
##JCAMP-DX=Revision 4.10 
##DATA TYPE=MASS SPECTRUM
##SAMPLE DESCRIPTION=STER PREG MOTM L SE30 01 2843 E M.HORN
##NAMES=HP
##CAS NAME=Pregnan-20-one, 3,11,17-tris[(trimethylsilyl)oxy]-, O-methyloxime
, (3.alpha.,5.beta.,11.beta.)-
##MOLFORM=C31H61NO4Si3
##CAS REGISTRY NO=57325-77-6
##MP= -300
##BP= -300
##MW= 595
##$RETENTION INDEX=0
##$CONDENSED SPECTRUM=NO
##NPOINTS= 397
##XYDATA=(XY..XY) 1 
    41         45
    42         30
    43         60
    44         40
    45         40
    46          5
    47         15
    49          5
    50         10
    51          5
    52          5
    53         10
    54          5
    55         95
    56         10
    57         10
    58         10
    59         40
    60         10
    61         25
    62          5
    63          5
    64          5
    65          5
    66          5
    67         70
    68         15
    69         40
    70         20
    71         10
    72         30
    73        999
    74        160
    75        510
    76         35
    77         45
    78         10
    79         85
    80         20
    81        105
    82         20
    83         25
    84         25
    85         15
    86         10
    87         10
    88          5
    89         65
    90         10
    91        105
    92         20
    93        115
    94         30
    95        105
    96         20
    97         15
    98         10
    99         15
   100         30
   101         40
   102          5
   103         60
   104         15
   105        140
   106         35
   107        120
   108         30
   109         40
   110         10
   111         10
   112          5
   113         35
   114         95
   115         50
   116         35
   117         80
   118         35
   119         90
   120         30
   121         55
   122         15
   123         15
   124          5
   125          5
   126         10
   127         20
   128         20
   129        110
   130         30
   131        100
   132         35
   133         80
   134         30
   135         30
   136         10
   137          5
   138         10
   139          5
   140          5
   141         30
   142         75
   143        130
   144         60
   145        105
   146         35
   147        110
   148         25
   149         35
   150         10
   151         10
   152         15
   153         10
   154         35
   155         60
   156        450
   157        130
   158        380
   159        145
   160         45
   161         25
   162         10
   163         10
   164         10
   165         15
   166         10
   167         20
   168         50
   169        120
   170        220
   171         95
   172        250
   173         70
   174         55
   175        105
   176         20
   177         10
   178         10
   179         15
   180         10
   181         35
   182         55
   183         60
   184         80
   185         75
   186         55
   187        180
   188        999
   189        150
   190         55
   191         25
   192         10
   193         30
   194         20
   195         40
   196         30
   197         35
   198         25
   199         45
   200        130
   201         45
   202         20
   203         10
   204          5
   205         10
   206         10
   207         25
   208         25
   209         30
   210         25
   211         50
   212         55
   213         50
   214         40
   215         60
   216         20
   217         15
   218         10
   219         20
   220         15
   221         20
   222         25
   223         25
   224         25
   225         30
   226         25
   227        110
   228         95
   229         25
   230         20
   231         15
   232         10
   233         20
   234         15
   235         20
   236         15
   237         25
   238         15
   239         45
   240         20
   241         15
   242         10
   243         10
   244          5
   245         10
   246         10
   247         10
   248         10
   249         25
   250         15
   251         20
   252         40
   253         95
   254         35
   255         10
   256         10
   257         10
   258          5
   259         10
   260         10
   261         10
   262         10
   263         10
   264          5
   265          5
   266         15
   267         10
   268         10
   269         10
   270         15
   271         10
   272         40
   273         15
   274          5
   275         10
   276         10
   277         20
   278         15
   279          5
   280          5
   281          5
   282          5
   283         15
   284         10
   285          5
   286          5
   287          5
   288          5
   289         10
   290         10
   291         10
   292         10
   293         10
   294        260
   295         60
   296         15
   297          5
   298          5
   299          5
   300          5
   301         10
   302          5
   303         10
   304          5
   305          5
   306          5
   309          5
   310         15
   311          5
   312          5
   313         10
   314          5
   315         15
   316         10
   317         25
   318         20
   319          5
   320          5
   324         15
   325         20
   326         15
   327         15
   328         10
   329         10
   330          5
   331          5
   332          5
   340          5
   341          5
   342         15
   343         40
   344         15
   345          5
   354          5
   355          5
   356         35
   357         15
   358         10
   359          5
   360          5
   362         20
   363         10
   364          5
   367         10
   368         10
   369          5
   370          5
   379          5
   382          5
   383          5
   384        260
   385         80
   386         25
   387          5
   391          5
   392          5
   393          5
   394          5
   400         30
   401         10
   402          5
   403          5
   404          5
   405          5
   406          5
   407          5
   408          5
   414          5
   415         25
   416         15
   417         15
   418         10
   419          5
   420          5
   421          5
   422          5
   431          5
   432         10
   433         15
   434         10
   435          5
   446         15
   447          5
   448         10
   449          5
   450          5
   452         45
   453         20
   454          5
   457          5
   458          5
   459          5
   460          5
   472         10
   473         15
   474        270
   475        110
   476         40
   477         10
   478          5
   490         70
   491         30
   492         10
   493          5
   504          5
   505         15
   506         10
   507         10
   508         10
   509          5
   521          5
   522         15
   523         10
   524          5
   535          5
   536          5
   537          5
   538          5
   548          5
   549          5
   550          5
   562          5
   563         25
   564        600
   565        285
   566        130
   567         40
   568         10
   569          5
   580        105
   581         50
   582         25
   583          5
   595        300
   596        150
   597         70
   598         20
   599          5