##TITLE=Library Entry 41735
##JCAMP-DX=Revision 4.10 
##DATA TYPE=MASS SPECTRUM
##SAMPLE DESCRIPTION=STER ANDR BOTM L SE30 01 3460 E M.HORN
##NAMES=HP
##CAS NAME=Androst-5-en-17-one, 3,11-bis[(trimethylsilyl)oxy]-, O-(phenylmet
hyl)oxime, (3.beta.,11.beta.)-
##MOLFORM=C32H51NO3Si2
##CAS REGISTRY NO=57325-80-1
##MP= -300
##BP= -300
##MW= 553
##$RETENTION INDEX=0
##$CONDENSED SPECTRUM=NO
##NPOINTS= 339
##XYDATA=(XY..XY) 1 
    40         85
    41         50
    42         15
    43         55
    44         30
    45        100
    46         10
    47         35
    49         10
    50         30
    51         90
    52         20
    53         25
    54         20
    55         70
    56         25
    57         35
    58         10
    59         55
    60         15
    61         45
    62          5
    63         20
    65         40
    66         10
    67         50
    68         20
    69         30
    70         20
    71         25
    72         15
    73        999
    74        150
    75        630
    76         45
    77        240
    78         35
    79        200
    80         25
    81        130
    82         20
    83         30
    84         10
    85         30
    86          5
    87         10
    89         35
    90         10
    91        999
    92         85
    93        140
    94         55
    95         85
    96         80
    97         30
    98         10
    99         15
   100         10
   101         50
   102         10
   103         90
   104         25
   105        370
   106        140
   107        170
   108         75
   109         45
   110         25
   111         20
   112         10
   113         15
   114         15
   115         40
   116         50
   117         75
   118         55
   119        110
   120         85
   121         55
   122         50
   123         20
   124         10
   125         15
   126         10
   127         30
   128         40
   129        350
   130        110
   131        190
   132         60
   133         50
   134         50
   135         25
   136         15
   137         10
   138          5
   139          5
   140         10
   141         45
   142         40
   143        150
   144         55
   145        130
   146        160
   147         40
   148         35
   149         35
   150         10
   151         15
   152         15
   153         20
   154         15
   155         70
   156         50
   157         95
   158         60
   159         40
   160         30
   161         15
   162         15
   163         25
   164         10
   165         25
   166         20
   167         30
   168         85
   169         80
   170         55
   171         75
   172         60
   173         40
   174         15
   175         10
   176         15
   177         10
   178         15
   179         35
   180         25
   181         50
   182         60
   183        170
   184         60
   185         65
   186         35
   187         10
   188         10
   189         10
   190         10
   191         20
   192         10
   193         50
   194         40
   195         75
   196        230
   197         65
   198         45
   199         40
   200         15
   201        150
   202         55
   203         15
   204         10
   205         15
   206         15
   207          5
   208         30
   209        170
   210        100
   211        140
   212         55
   213         25
   214         20
   215         10
   216         10
   217         10
   218         10
   219         20
   220         30
   221          5
   222         40
   223         40
   224         65
   225         55
   226         55
   227         20
   228         35
   229         15
   230         10
   231         15
   232         10
   233         30
   234         30
   235         25
   236         50
   237         30
   238         25
   239         25
   240         15
   241         15
   242         15
   243         10
   244         10
   245         15
   246         10
   247         55
   248         25
   249         30
   250        150
   251         60
   252         80
   253         25
   254         15
   255          5
   256          5
   258         10
   259         10
   260         10
   261         15
   262         15
   263         15
   264         25
   265         60
   266        150
   267         70
   268         25
   269         10
   270          5
   271          5
   272         15
   273         10
   274         15
   275          5
   276          5
   278          5
   280          5
   281         10
   282         40
   283         20
   284         10
   285         10
   286         15
   287         10
   288          5
   289         15
   290          5
   291          5
   295         10
   296          5
   297          5
   298          5
   299         15
   300         15
   301         25
   302         15
   303         10
   313         10
   314         10
   315         15
   316         35
   317         15
   318         35
   319         10
   324         10
   325         15
   326         10
   327         10
   328         15
   329          5
   330         20
   331         15
   332          5
   334         30
   335         10
   336          5
   337         20
   338         10
   339         10
   340         60
   341         55
   342        105
   343         25
   344         15
   345          5
   346          5
   353         10
   354         15
   355         25
   356        160
   357         85
   358         45
   359         15
   360          5
   369          5
   370          5
   371         10
   372         80
   373         40
   374         20
   375         10
   389         25
   390         10
   391         10
   392          5
   422         20
   423         10
   424         45
   425         20
   426          5
   429         15
   430         30
   431         35
   432         50
   433         30
   434         15
   435         10
   436         20
   437         15
   443         10
   444         20
   445         70
   446        470
   447        260
   448        240
   449         70
   450         20
   451         10
   461         10
   462         50
   463         45
   464         15
   465          5
   503          5
   538         20
   539         10
   551         15
   552         10
   553         65
   554         30
   555         15