##TITLE=Library Entry 43676
##JCAMP-DX=Revision 4.10 
##DATA TYPE=MASS SPECTRUM
##SAMPLE DESCRIPTION=STER PREG BOTM L SE30 01 3615 E M.HORN
##NAMES=HP
##CAS NAME=Pregnan-20-one, 3,11,21-tris[(trimethylsilyl)oxy]-, O-(phenylmeth
yl)oxime, (3.alpha.,5.alpha.,11.beta.)-
##MOLFORM=C37H65NO4Si3
##CAS REGISTRY NO=57325-98-1
##MP= -300
##BP= -300
##MW= 671
##$RETENTION INDEX=0
##$CONDENSED SPECTRUM=NO
##NPOINTS= 222
##XYDATA=(XY..XY) 1 
    41        100
    42         20
    43         70
    44         60
    45         60
    47         40
    50         20
    55         90
    56         30
    57        100
    58         20
    59         60
    61         30
    65         30
    67        100
    68         60
    69         80
    70         30
    71         40
    72         20
    73        999
    74        120
    75        630
    76         40
    77        120
    78         20
    79        120
    80         20
    81        140
    82         40
    83         50
    84         40
    85         30
    89         60
    91        880
    92        120
    93        160
    94         40
    95        100
    96         40
    97         60
    98         20
    99         30
   100         30
   101         40
   103        340
   104         40
   105        200
   106         70
   107        220
   108         60
   109         80
   110         20
   111         20
   113         30
   114         30
   115         30
   116         70
   117         60
   118         40
   119        100
   120         50
   121         70
   122         30
   123         30
   125         20
   126         20
   127         30
   128         20
   129        140
   130         60
   131        110
   132        110
   133        120
   134         60
   135         70
   136         20
   141         40
   142         60
   143        220
   144        100
   145        150
   146         80
   147        180
   148         80
   149         70
   151         20
   155         60
   156         60
   157         60
   158        200
   159        120
   160         60
   161         60
   165         40
   167         20
   168         20
   169         50
   170         40
   171         60
   172         50
   173         70
   174         80
   175         30
   176         20
   181         40
   182         20
   183         40
   184         30
   185         40
   186         40
   187         40
   188         40
   189         20
   191         40
   193         40
   194         30
   195         50
   196         40
   197         50
   198         30
   199         40
   200         30
   201         20
   207        170
   208         40
   209         50
   210         30
   211         20
   212         20
   213         80
   214         30
   215         40
   221         80
   222         30
   223         70
   224         30
   225         40
   226         20
   227         40
   228         70
   229         30
   239         60
   240         40
   248         30
   249         30
   251        360
   252         70
   253         90
   254         40
   255         70
   256         30
   262         20
   263         30
   264        999
   265        280
   266        100
   267         40
   268         20
   274         20
   275         30
   276         40
   277         50
   278         20
   280         80
   281        100
   282         60
   294         30
   295         30
   310         30
   318         40
   329         20
   330         20
   339         30
   341         30
   355         30
   356         60
   368         30
   370         50
   371         40
   382         30
   384         60
   385         30
   388         50
   400         70
   401         20
   446         80
   447         20
   458         40
   460         40
   461         30
   462         30
   472         20
   473         50
   474        380
   475        220
   476         80
   477         40
   478         50
   479         20
   490         80
   491         40
   492         20
   534         30
   550         20
   562         30
   563         50
   564        360
   565        260
   566        120
   567         60
   568         70
   569         40
   580        120
   581         70
   582         40
   656         60
   657         50
   671        310
   672        140
   673        100
   674         40