##TITLE=Library Entry 41589
##JCAMP-DX=Revision 4.10 
##DATA TYPE=MASS SPECTRUM
##SAMPLE DESCRIPTION=STER PREG MOTM L SE30 01 3257 E, M.HORNING
##NAMES=HP
##CAS NAME=Pregnane-3,20-dione, 11,17,21-tris[(trimethylsilyl)oxy]-, bis(O-m
ethyloxime), (5.alpha.,11.beta.)-
##MOLFORM=C32H62N2O5Si3
##CAS REGISTRY NO=57325-81-2
##MP= -300
##BP= -300
##MW= 638
##$RETENTION INDEX=0
##$CONDENSED SPECTRUM=NO
##NPOINTS= 447
##XYDATA=(XY..XY) 1 
    41        205
    42        115
    43        240
    44         95
    45        285
    46         25
    47         75
    48         10
    49         10
    50         20
    51         30
    52         40
    53         80
    54        105
    55        370
    56         90
    57        100
    58         70
    59        200
    60         40
    61         60
    62         15
    63         15
    64         10
    65         30
    66         30
    67        200
    68         80
    69        165
    70         80
    71         60
    72        115
    73        999
    74        590
    75        999
    76         75
    77        115
    78         35
    79        280
    80        110
    81        270
    82        110
    83         70
    84        170
    85         60
    86         40
    87         40
    88         30
    89        325
    90         40
    91        275
    92         70
    93        295
    94        120
    95        180
    96         90
    97         65
    98         40
    99         45
   100         90
   101        120
   102         40
   103        830
   104        130
   105        335
   106        125
   107        205
   108        115
   109        110
   110         60
   111         40
   112         55
   113         80
   114        170
   115        130
   116        120
   117        180
   118        125
   119        235
   120        130
   121        140
   122         70
   123         50
   124         40
   125         35
   126         80
   127         65
   128        110
   129        220
   130        130
   131        230
   132        135
   133        240
   134        110
   135         65
   136         40
   137         30
   138         55
   139         60
   140         70
   141        100
   142         90
   143        335
   144        155
   145        230
   146        120
   147        575
   148        130
   149         95
   150         40
   151         35
   152         90
   153         55
   154        110
   155        105
   156        150
   157        150
   158        110
   159        200
   160         90
   161         60
   162         45
   163         60
   164         35
   165         40
   166         45
   167         65
   168        235
   169        215
   170        140
   171        105
   172        275
   173        145
   174         70
   175         30
   176         25
   177         25
   178         40
   179         40
   180         50
   181         85
   182        125
   183         95
   184        105
   185         75
   186         70
   187         40
   188         50
   189         25
   190         40
   191         80
   192         50
   193         60
   194         65
   195         85
   196         65
   197         60
   198        140
   199         85
   200         55
   201         40
   202        230
   203         70
   204         90
   205         60
   206         45
   207        175
   208         80
   209         70
   210         60
   211         50
   212         60
   213         40
   214        100
   215         45
   216         80
   217         40
   218         30
   219         45
   220         50
   221        135
   222         70
   223         55
   224         45
   225         40
   226         55
   227         40
   228         60
   229         30
   230         50
   231         30
   232         55
   233         70
   234         45
   235         40
   236         30
   237         30
   238         40
   239         35
   240         40
   241         25
   242         50
   243         50
   244        300
   245        130
   246        395
   247        110
   248         60
   249         30
   250         30
   251         20
   252         30
   253         20
   254         30
   255         20
   256         45
   257         50
   258        130
   259         60
   260        130
   261         40
   262         30
   263         45
   264         45
   265         30
   266         70
   267         40
   268         30
   269         20
   270         50
   271         30
   272         60
   273         50
   274         35
   275         45
   276        195
   277         60
   278         35
   279         20
   280         20
   281         85
   282         65
   283         35
   284         90
   285         30
   286         20
   287         15
   288         65
   289         25
   290         20
   291         10
   293         10
   294         40
   295         50
   296         80
   297         45
   298        260
   299         70
   300         70
   301         30
   302         20
   303         10
   304         15
   305         30
   306         15
   307         10
   308         10
   309         15
   310         20
   311         15
   312         20
   313         20
   314         40
   315         20
   316         15
   317         10
   318         20
   319         10
   320         15
   321         10
   322         15
   323         30
   324         15
   325         15
   326         20
   327         15
   328         20
   329         10
   330         20
   331         10
   332         10
   333         10
   334         15
   335         10
   336         20
   337         90
   338         30
   339         15
   340         10
   341         40
   342         20
   343         15
   344         10
   346         10
   348         10
   349         10
   350         10
   351         10
   352         10
   353         15
   354         20
   355         75
   356         45
   357         25
   358         30
   359         15
   360         20
   361         10
   362         20
   363         70
   364         25
   365         10
   366         10
   367         10
   368         30
   369         40
   370         20
   371         10
   372         30
   373         15
   374         20
   375         10
   376         10
   383         20
   384         10
   385         10
   386         45
   387         50
   388         70
   389         30
   390         10
   391         10
   395         25
   396         30
   397         25
   398         15
   399         25
   400         10
   401         15
   402         10
   403         20
   404         10
   405         10
   406          5
   410         10
   411         10
   412          5
   413         20
   414         15
   415         20
   416         10
   417         10
   418         10
   419          5
   420         10
   425         10
   426         20
   427        280
   428        110
   429         75
   430         30
   431         20
   432         10
   433         10
   434          5
   440         10
   441         20
   442         20
   443         20
   444         10
   445         10
   446         15
   447         10
   448         10
   449          5
   458         20
   459         10
   475         20
   476         20
   477         40
   478         20
   479         10
   485         10
   486         10
   487         25
   488         20
   489         40
   490         20
   491         10
   500          5
   501         10
   502         10
   503         35
   504         20
   505         15
   506         10
   514         10
   515         20
   516         45
   517        400
   518        185
   519         80
   520         30
   521         10
   533         10
   534         10
   535         40
   536         20
   537         10
   547         10
   548         40
   549         20
   550         10
   574         10
   575         30
   576         40
   577         70
   578         50
   579         40
   580         30
   581         20
   582         10
   606         60
   607        999
   608        530
   609        255
   610         85
   611         30
   612         10
   623         20
   624         10
   625          5
   637         30
   638        290
   639        155
   640         75
   641         10