##TITLE=Library Entry 44484
##JCAMP-DX=Revision 4.10 
##DATA TYPE=MASS SPECTRUM
##SAMPLE DESCRIPTION=STER PREG BOTM L SE30 01 3797 E M.HORN
##NAMES=HP
##CAS NAME=Pregn-5-en-20-one, 3,16,17,21-tetrakis[(trimethylsilyl)oxy]-, O-(
phenylmethyl)oxime, (3.beta.,16.alpha.)-
##MOLFORM=C40H71NO5Si4
##CAS REGISTRY NO=57326-04-2
##MP= -300
##BP= -300
##MW= 757
##$RETENTION INDEX=0
##$CONDENSED SPECTRUM=NO
##NPOINTS= 614
##XYDATA=(XY..XY) 1 
    40          5
    41         22
    42          2
    43         24
    44          5
    45         36
    47         11
    49          2
    50          8
    51         11
    52          2
    53          2
    55         30
    56          2
    57          8
    58          2
    59         16
    60          2
    61          8
    62          2
    63          2
    65         11
    67         16
    68          8
    69         19
    70          2
    71          5
    72         24
    73        999
    74         96
    75        244
    76         16
    77         44
    78          8
    79         33
    80          8
    81         47
    82         11
    83          8
    84         30
    85          8
    87          2
    89         11
    90         24
    91        313
    92         38
    93         52
    94         11
    95         33
    96          2
    97          5
    98          2
    99          5
   100          8
   101         16
   102         16
   103        144
   104         24
   105         88
   106         27
   107         44
   108         13
   109         11
   110          2
   112          2
   113          8
   114         24
   115         19
   116         22
   117         69
   118         55
   119         52
   120         19
   121         24
   122          5
   123          5
   127         11
   128         30
   129        216
   130         47
   131         69
   132         24
   133         60
   134         13
   135         16
   136          5
   139          2
   140          2
   141         16
   142         24
   143         74
   144         30
   145         69
   146         27
   147        205
   148         36
   149         30
   150          8
   151          5
   152          5
   153         11
   154         13
   155         33
   156         22
   157         66
   158         27
   159         60
   160         11
   161         11
   163          8
   164          2
   165         22
   166         11
   167         16
   168         22
   169         47
   170         24
   171         38
   172         27
   173         22
   174          8
   175         16
   177          5
   178          2
   179         11
   180         16
   181         30
   182         30
   183         44
   184         19
   185         27
   186          8
   187         11
   188         11
   189          8
   190          5
   191         47
   192         16
   193         22
   194         13
   195         30
   196         24
   197         38
   198         13
   199         27
   200         11
   201         13
   202         22
   203         13
   204         24
   205         36
   206         19
   207         24
   208         16
   209         24
   210         16
   211         24
   212         13
   213         33
   214         24
   215         16
   216         16
   217         80
   218         27
   219         47
   220         22
   221         33
   222         22
   223         13
   224         11
   225         22
   226          8
   227         11
   228         11
   229         16
   230          8
   231         13
   232         16
   233         27
   234         19
   235         13
   236         13
   237         13
   238         11
   239         44
   240         13
   241         11
   242         22
   243         16
   244         11
   245         13
   246         11
   247         16
   248         19
   249         19
   250         13
   251         60
   252         22
   253          8
   254         11
   255          8
   256         24
   257         16
   258         13
   259          5
   260         11
   261          8
   262          8
   263          5
   264          5
   265          5
   266          8
   267         11
   268          8
   269         11
   270         13
   271         11
   272         11
   273         16
   274         11
   275         11
   276          8
   277          8
   278          8
   279          2
   280          5
   281         11
   282          8
   283         11
   284         13
   285         11
   286         11
   287         11
   288          8
   289          8
   290          5
   291          2
   292          2
   293          5
   294          8
   295         11
   296         11
   297          8
   298          8
   299          8
   300          5
   301         11
   302         11
   303         11
   304         13
   305          8
   306          5
   307          2
   308          5
   309          5
   310          8
   311          5
   312          5
   313          8
   314         11
   315         11
   316          8
   317         11
   318         11
   319          5
   320          5
   321          5
   322          2
   323          5
   324         13
   325         16
   326         11
   327         16
   328         11
   329         19
   330         11
   331          5
   332          8
   333          5
   334         11
   335          8
   336         13
   337         11
   338         11
   339         30
   340         19
   341         49
   342         22
   343         11
   344          8
   345          8
   346          5
   347          5
   348          8
   349          5
   350          5
   351          5
   352         11
   353          8
   354          5
   355         13
   356         13
   357         16
   358          5
   359          8
   360          5
   361         11
   362          8
   363         11
   364         47
   365         22
   366         11
   367         11
   368         11
   369          5
   370          5
   371          2
   372          2
   373          2
   374          2
   375          2
   376          8
   377          5
   378          5
   379          5
   380         11
   381          5
   382          5
   384          5
   385          2
   386         22
   387          2
   389          2
   390          2
   391         11
   392          5
   393          2
   394          2
   395          2
   396          2
   397          5
   398          5
   399          2
   400          2
   401          2
   402          2
   403          2
   404          2
   405          2
   409          2
   410          2
   411          5
   412          2
   413          5
   414         11
   415         19
   416         11
   417         16
   418         11
   419          8
   420          2
   421          2
   422          2
   423          2
   424          2
   425          8
   426          8
   427          8
   428         11
   429         22
   430         24
   431         55
   432         30
   433         13
   434         11
   435          8
   436          8
   437          8
   438         11
   439         33
   440         24
   441         11
   442         22
   443         16
   444         13
   445         11
   446         52
   447         27
   448         13
   449          5
   450          2
   451          2
   452          5
   453          5
   454         11
   455          5
   456         13
   457         13
   458         16
   459          8
   460         11
   461          8
   462          5
   463          5
   464          5
   465          8
   466          8
   467         11
   468         11
   469         11
   470         74
   471         33
   472         16
   473         11
   474         11
   475          8
   476         11
   477          5
   478          8
   479          8
   480          8
   481          8
   482          8
   483          5
   484          5
   485          8
   486         13
   487         16
   488         24
   489         16
   490          5
   491          8
   492          5
   493          2
   494          2
   495          2
   496          5
   497          2
   498          5
   499          8
   500          5
   501          5
   502          8
   503         11
   504         22
   505         30
   506         16
   507          8
   508          2
   510          2
   511          2
   512          5
   513          5
   514          5
   515          5
   516          5
   517          8
   518          8
   519         11
   520         19
   521         30
   522         13
   523         11
   524          5
   525          2
   526          5
   527          5
   528         11
   529          8
   530          8
   531         11
   532         11
   533         22
   534         13
   535          5
   536          2
   538          5
   539          8
   540          5
   541          8
   542          5
   543          8
   544         13
   545         11
   546         24
   547         13
   548         24
   549         11
   550         11
   551         11
   552         13
   553         16
   554         27
   555         27
   556         22
   557         22
   558         30
   559         52
   560        302
   561        158
   562         88
   563         33
   564         16
   565         11
   566         11
   567         11
   568         11
   569         11
   570         11
   571         13
   572         13
   573         13
   574         16
   575         16
   576        127
   577         66
   578         36
   579         19
   580         11
   581          2
   582          2
   583          2
   584          2
   585          5
   586          2
   587          2
   588          2
   589          2
   591          2
   592          2
   594          2
   595          2
   598          2
   609          2
   610          2
   620          2
   629          2
   630          5
   631          2
   632          5
   633          5
   634         11
   635         11
   636         19
   637         13
   638         13
   639         33
   640         44
   641         44
   642         66
   643         66
   644         66
   645         66
   646         66
   647         88
   648         88
   649        177
   650        888
   651        533
   652        377
   653        138
   654        105
   655         47
   656         30
   657         22
   658         22
   659         22
   660         22
   661         22
   662         22
   663         22
   664         22
   665         22
   666        233
   667        172
   668         94
   669         38
   670         11
   671          2
   672          2
   673          2
   674          2
   675          2
   676          2
   677          2
   683          2
   732          2
   733          2
   734          2
   735          2
   736          5
   737          2
   738          2
   739          2
   740          5
   741          5
   742         22
   743         16
   744         11
   745          5
   746          2
   747          2
   748          2
   750          2
   751          2
   752          2
   753          2
   754          2
   755          2
   756          8
   757         24
   758         19
   759         11
   760          2