##TITLE=Library Entry 60132
##JCAMP-DX=Revision 4.10 
##DATA TYPE=MASS SPECTRUM
##SAMPLE DESCRIPTION=STER PREG BOTM L SE30 01 3423 E M.HORN
##NAMES=HP
##CAS NAME=Pregna-5,16-dien-20-one, 3-[(trimethylsilyl)oxy]-, O-(phenylmethy
l)oxime, (3.beta.)-
##MOLFORM=C31H45NO2Si
##CAS REGISTRY NO=57325-71-0
##MP= -300
##BP= -300
##MW= 491
##$RETENTION INDEX=0
##$CONDENSED SPECTRUM=NO
##NPOINTS= 243
##XYDATA=(XY..XY) 1 
    40         55
    41         25
    42         25
    43         25
    44         25
    45         25
    47         10
    50         10
    51         20
    52          5
    53         10
    55         35
    56          5
    57          5
    58          5
    59         15
    61         10
    63          5
    65         25
    66          5
    67         30
    68         10
    69         10
    70         15
    72          5
    73        270
    74         35
    75        150
    76         15
    77         80
    78         20
    79         75
    80         10
    81         65
    82         20
    83         15
    84         10
    85          5
    89         10
    90          5
    91        999
    92         65
    93         70
    94         15
    95         35
    96         20
    97          5
    98         15
    99          5
   101         10
   103         15
   104         10
   105        105
   106         50
   107         50
   108         35
   109         15
   110         25
   111          5
   112          5
   115         15
   116         15
   117         45
   118         25
   119         55
   120         30
   121         45
   122         15
   123         10
   124          5
   127          5
   128         15
   129        180
   130         45
   131         50
   132         35
   133         55
   134         55
   135         25
   136         40
   137         15
   138          5
   141         10
   142         10
   143         35
   144         25
   145         45
   146         30
   147         45
   148         20
   149         15
   150         15
   151          5
   152          5
   153          5
   154          5
   155         15
   156         10
   157         30
   158         25
   159         60
   160         20
   161         15
   162         10
   163         10
   164         10
   165          5
   166          5
   167          5
   168         10
   169         15
   170         10
   171         25
   172         35
   173         30
   174         25
   175         10
   176         15
   178          5
   179          5
   181         15
   182          5
   183         15
   184         10
   185         15
   186         15
   187         55
   188         15
   189         10
   190          5
   191          5
   192          5
   193          5
   194          5
   195         10
   196         10
   197         15
   198         10
   199         15
   200         20
   201         10
   202         10
   207         15
   208          5
   209         10
   210         10
   211         15
   212         10
   213         55
   214         20
   215         10
   216          5
   221         10
   222          5
   223         10
   224         10
   225          5
   226         15
   227         15
   228         25
   229         10
   230          5
   235          5
   237         10
   238          5
   239         10
   240         25
   241         10
   242         10
   249          5
   250          5
   251         15
   252         10
   253         15
   254         25
   255         10
   256         10
   263          5
   264          5
   265          5
   266         10
   267          5
   268         20
   269          5
   270         10
   277          5
   278         10
   279         10
   280         15
   281         15
   282         10
   292         10
   293         10
   294         40
   295         10
   296          5
   308         10
   309         10
   310         80
   311         25
   313          5
   341          5
   342          5
   343         10
   344         10
   355          5
   356         10
   357          5
   359          5
   360          5
   361         10
   362         70
   363         15
   368         10
   369          5
   370         20
   371         10
   372          5
   382         10
   383         15
   384         80
   385         70
   386         50
   387         15
   399         10
   400         70
   401         25
   402         10
   446          5
   448         10
   462         15
   463          5
   474         10
   475         10
   476         90
   477         40
   478         10
   489         15
   490         20
   491        255
   492         90
   493         25
   494         10