##TITLE=Library Entry 42160
##JCAMP-DX=Revision 4.10 
##DATA TYPE=MASS SPECTRUM
##SAMPLE DESCRIPTION=STER PREG TMSI L SE30 01 2912 E M.HORN
##NAMES=HP
##CAS NAME=Silane, [[(3.alpha.,5.beta.,20S)-pregn-11-ene-3,11,17,20-tetrayl]
tetrakis(oxy)]tetrakis[trimethyl-
##MOLFORM=C33H66O4Si4
##CAS REGISTRY NO=57325-83-4
##MP= -300
##BP= -300
##MW= 638
##$RETENTION INDEX=0
##$CONDENSED SPECTRUM=NO
##NPOINTS= 177
##XYDATA=(XY..XY) 1 
    41        100
    42         30
    43         85
    44         60
    45         90
    47         40
    50         20
    51         20
    52         15
    53         20
    54         15
    55         75
    56         20
    57         30
    58         20
    59         50
    60         10
    61         25
    63         15
    64         25
    65         20
    66         25
    67         50
    68         40
    69         45
    70         20
    71         20
    72         25
    73        999
    74        115
    75        270
    76         25
    77         50
    78         20
    79         50
    81         50
    82         10
    83         30
    85         30
    87         15
    89         15
    91         60
    92         15
    93         55
    94         20
    95         50
    96         20
    97         20
    99         10
   101         30
   102         15
   103         40
   104         10
   105         50
   106         15
   107         35
   109         15
   110         15
   111         10
   112         25
   113         20
   114         30
   115         30
   116         20
   117        999
   118        115
   119         90
   120         10
   121         30
   123         15
   128         20
   129         45
   130         25
   131         70
   132         20
   133         70
   134         20
   135         30
   141         20
   142         15
   143         75
   144         25
   145         40
   146         15
   147        245
   148         50
   149         50
   150         10
   155         30
   156         20
   157         40
   158         15
   159         25
   161         10
   163         15
   165         15
   167         15
   168         15
   169        105
   170         20
   171         25
   177         10
   179         20
   180         10
   181         20
   182         10
   183         20
   185         15
   191         30
   192         15
   193         50
   194         20
   195         35
   197         20
   205         30
   207        100
   208         30
   209         35
   211         15
   217         30
   218         20
   219         30
   220         10
   221         20
   223         20
   225         15
   229         20
   231         40
   232         20
   233         50
   234         20
   235         20
   245         40
   246         20
   247         40
   248         10
   249         10
   251         25
   257         20
   258         15
   259         30
   260         20
   261         20
   271         20
   273         20
   281         25
   282         10
   283         10
   285         25
   299         35
   301         20
   311         10
   313         10
   315         15
   341        110
   342         50
   343         20
   353         15
   368         30
   371         30
   431         90
   432         50
   433         30
   434         10
   443         10
   458         10
   461         10
   521         40
   522         20
   523         15
   533         20
   548         15
   549         10
   623         15
   638         60
   639         35
   640         25