##TITLE=Library Entry 62852
##JCAMP-DX=Revision 4.10 
##DATA TYPE=MASS SPECTRUM
##SAMPLE DESCRIPTION=STER PREG BOTM L SE30 01 3525 E M.HORN
##NAMES=HP
##CAS NAME=Pregnan-20-one, 3,6-bis[(trimethylsilyl)oxy]-, O-(phenylmethyl)ox
ime, (3.alpha.,5.beta.,6.alpha.)-
##MOLFORM=C34H57NO3Si2
##CAS REGISTRY NO=57326-07-5
##MP= -300
##BP= -300
##MW= 583
##$RETENTION INDEX=0
##$CONDENSED SPECTRUM=NO
##NPOINTS= 173
##XYDATA=(XY..XY) 1 
    41         35
    42         30
    43         20
    44         60
    45         20
    51         15
    53         10
    55         55
    56         10
    57         30
    58         10
    59         10
    61         15
    65         25
    67         50
    68         30
    69         25
    70        190
    71         20
    72         10
    73        375
    74         35
    75        130
    76         10
    77         45
    78         10
    79         65
    80         10
    81        105
    82         20
    83         45
    84         30
    85         10
    86         45
    89         10
    91        999
    92         90
    93         90
    94         30
    95         90
    96         20
    97         10
    98         10
   100         10
   101         10
   103         20
   105         75
   106         25
   107         55
   108         20
   109         20
   110         10
   112         20
   115         10
   117         25
   118         10
   119         40
   120         15
   121         30
   122         10
   123         10
   124         10
   129         40
   130         10
   131        120
   132         25
   133         60
   134         20
   135         25
   136         10
   142         10
   143         20
   144         15
   145         45
   146         40
   147         80
   148         20
   149         15
   150         30
   155         20
   156         10
   157         30
   158         15
   159         45
   160         15
   161         20
   162         10
   163        450
   164         80
   165         10
   169         20
   171         15
   172         10
   173         25
   174         20
   175         10
   176        280
   177         45
   181         10
   183         15
   185         15
   187         10
   189         25
   190         15
   191         10
   195         10
   197         20
   199         15
   200         10
   201         10
   207         25
   208         10
   209         10
   211         10
   213         25
   214         10
   221         10
   223         10
   225         10
   227         20
   228         10
   237         10
   239         25
   240         15
   241         20
   242         10
   253         10
   254         15
   255         20
   256         10
   279         10
   280         10
   281         15
   282         20
   294          5
   295          5
   296         40
   297         10
   298          5
   312         30
   313         10
   317          5
   318          5
   329          5
   330          5
   331          5
   348         10
   355          5
   370          5
   371          5
   372          5
   386         45
   387         15
   388         10
   389          5
   402         15
   403         15
   404         35
   405         10
   462          5
   476        120
   477         55
   478         30
   479         10
   492         15
   493          5
   566          2
   567          1
   568          3
   569          1
   583          2
   584          2
   585          0