##TITLE=Library Entry 43559
##JCAMP-DX=Revision 4.10 
##DATA TYPE=MASS SPECTRUM
##SAMPLE DESCRIPTION=STER PREG MOTM L SE30 01 3311 E M.HORN
##NAMES=HP
##CAS NAME=Pregn-4-en-3-one, 11,17,20,21-tetrakis[(trimethylsilyl)oxy]-, O-m
ethyloxime, (11.beta.,20R)-
##MOLFORM=C34H67NO5Si4
##CAS REGISTRY NO=57325-92-5
##MP= -300
##BP= -300
##MW= 681
##$RETENTION INDEX=0
##$CONDENSED SPECTRUM=NO
##NPOINTS= 334
##XYDATA=(XY..XY) 1 
    41         95
    42         37
    43        105
    44         70
    45        160
    46         15
    47         45
    48         11
    49         10
    50         15
    51         20
    52         17
    53         35
    54         20
    55        135
    56         30
    57         50
    58         30
    59        110
    60         20
    61         40
    62         10
    63         15
    65         20
    66         25
    67         65
    68         60
    69         75
    70         20
    71         35
    72         50
    73        999
    74        370
    75        600
    76         45
    77         75
    78         25
    79        105
    80         35
    81        110
    82         60
    83         35
    84         20
    85         35
    86         10
    87         15
    88         20
    89         80
    90         15
    91        140
    92         40
    93        155
    94         50
    95         70
    96         32
    97         35
    98         11
    99         20
   100         15
   101         80
   102         16
   103        295
   104         60
   105        160
   107         82
   108         40
   109         41
   110         25
   111         21
   112         15
   113         25
   114         11
   115         57
   116         45
   117        290
   118         80
   119        120
   120         90
   121         60
   122         47
   123         46
   124         15
   125         20
   126         20
   127         30
   128         35
   129        600
   130        115
   131        180
   132         60
   133        191
   134         50
   135         55
   136         35
   137         40
   138         20
   139         20
   140         10
   141         50
   142         50
   143        340
   144        100
   145        111
   146         61
   147        890
   148        160
   149        135
   150         50
   151         57
   152         57
   153         41
   154        130
   155        120
   156         65
   157         85
   158         55
   159         45
   160         45
   161         40
   162         20
   163         30
   164         20
   165         30
   166         21
   167         40
   168         57
   169        145
   170         61
   171         70
   172         65
   173         35
   174         20
   175         31
   176         40
   177         35
   178         25
   179         37
   180         25
   181         75
   182         65
   183         60
   184         40
   185         30
   186         30
   187         20
   188         21
   189        135
   190         95
   191        500
   192        105
   193         95
   194         55
   195        135
   196         55
   197         50
   198         35
   199         35
   200         17
   201         20
   202         25
   203         20
   204         55
   205        220
   206         60
   207        257
   208         80
   209         75
   210         50
   211         37
   212         31
   213         20
   214         20
   215         35
   216         25
   217        177
   218         50
   219         55
   220         30
   221        135
   222         70
   223         61
   224         65
   225         41
   226         40
   227         21
   228         17
   229         30
   230         60
   231         87
   232         40
   233         60
   234         35
   235         35
   236         31
   237         80
   238         65
   239         30
   240         45
   241         20
   242         55
   243        999
   244        265
   245        125
   246         50
   247         70
   248         31
   249         60
   250         55
   251         25
   252         15
   253         10
   254         21
   255         25
   256         45
   257         40
   258         41
   259         25
   260         20
   261         25
   262         30
   263         17
   264        157
   265        160
   266        107
   267         31
   268         15
   269         17
   270         40
   271         30
   272         11
   273         10
   275         20
   276         27
   277         20
   278         17
   279         11
   280         20
   281        115
   282         60
   283         45
   284         20
   285         15
   286         12
   287         10
   289         17
   290         30
   291         20
   292         30
   293         25
   294         31
   295         41
   296        800
   297        187
   298         47
   299         17
   300         10
   305         27
   306         27
   307         15
   308         47
   309         16
   310         10
   311         10
   312         15
   313         20
   314         11
   316         10
   319         15
   320         16
   321         11
   322         75
   323         20
   324         11
   325         11
   326         10
   333         35
   334         15
   335         10
   338         11
   339         15
   340         20
   396         20
   397         15
   398        130
   399         45
   400         15
   402         21
   403         10
   411         35
   412         50
   413         20
   415         10
   429         25
   430         10
   444         10
   446         25
   447         11
   456         20
   457         16
   458         50
   459         20
   460         10
   470         10
   471         10
   474         10
   475         20
   476        255
   477        100
   478         40
   479         10
   486         20
   487         30
   488        355
   489        150
   490         60
   491         15
   501         70
   502         40
   503         20
   504         11
   560         10
   578        160
   579         76
   580         40
   581         15
   591         45
   592         21
   593         10
   651         15
   652         10
   653          5
   681         35
   682         21
   683         11