##TITLE=Library Entry 41378
##JCAMP-DX=Revision 4.10 
##DATA TYPE=MASS SPECTRUM
##SAMPLE DESCRIPTION=STER CHOL MTMS L 00 0000 E M.HORN
##NAMES=HP
##CAS NAME=Methyl glycocholate, 3TMS derivative
##MOLFORM=C36H69NO6Si3
##CAS REGISTRY NO=57326-16-6
##MP= -300
##BP= -300
##MW= 695
##$RETENTION INDEX=0
##$CONDENSED SPECTRUM=NO
##NPOINTS= 325
##XYDATA=(XY..XY) 1 
    41        135
    42         60
    43        130
    44         65
    45        120
    46         10
    47         75
    49         15
    50         25
    51         30
    52         25
    53         30
    54         25
    55        185
    56         65
    57         90
    58         70
    59         85
    60         20
    61         40
    62         15
    63         25
    65         25
    66         25
    67         95
    68         40
    69         90
    70         40
    71         55
    72         80
    73        999
    74        105
    75        710
    76         65
    77        155
    78         30
    79        100
    80         25
    81        145
    82         40
    83         70
    84         65
    85         60
    86        315
    87         40
    88         20
    89         50
    90        110
    91        130
    92         30
    93        140
    94         45
    95        120
    96         40
    97         50
    98         35
    99         45
   100         90
   101         60
   102         25
   103        100
   104         25
   105        135
   106         45
   107        100
   108         40
   109         70
   110         35
   111         30
   112         30
   113         25
   114         20
   115        185
   116        195
   117        460
   118        100
   119        160
   120         50
   121         65
   122         40
   123         50
   124         35
   125         25
   126         25
   127         25
   128         50
   129        185
   130         70
   131        235
   132         80
   133        130
   134         45
   135         70
   136         20
   137         20
   138         20
   139         25
   140         15
   141         30
   142         35
   143         80
   144         60
   145        125
   146         40
   147        310
   148         60
   149         80
   150         25
   151         25
   152         25
   153         20
   154         15
   155         45
   156         35
   157         65
   158         35
   159         65
   160         25
   161         40
   162         20
   163         30
   164         15
   165         20
   166         15
   167         25
   168         25
   169         45
   170         25
   171         55
   172         55
   173         55
   174         30
   175         45
   176         20
   177         20
   178         15
   179         20
   180         15
   181         25
   182         20
   183         45
   184         20
   185         45
   186         20
   187         35
   188         20
   189         30
   190         15
   191         35
   192         10
   193         35
   194         20
   195         30
   196         15
   197         40
   198         30
   199         50
   200         25
   201         35
   202         30
   203         55
   204         60
   205         40
   206         25
   207        105
   208         30
   209         40
   210         15
   211         50
   212         25
   213         50
   214         20
   215         55
   216         50
   217         55
   218         35
   219         35
   220         15
   221        160
   222         45
   223         40
   224         15
   225         40
   226         40
   227         50
   228         35
   229         45
   230         75
   231         90
   232         60
   233         50
   234         25
   235         25
   236         15
   237         20
   238         10
   239         25
   240         20
   241         20
   242         10
   243         40
   244         30
   245         40
   246         50
   247         60
   248         25
   249         20
   250         10
   251         20
   252         25
   253        345
   254         90
   255         90
   256         25
   257         25
   258         10
   259         10
   260         10
   261         15
   262         10
   263         10
   264         10
   265         25
   266         15
   267         25
   268         10
   269         15
   270         10
   271         15
   272         10
   273         10
   275         10
   279         15
   280         15
   281        100
   282         40
   283         30
   284         15
   285         15
   286         10
   287         10
   289         10
   291         10
   293         15
   294         20
   295         80
   296         25
   297         25
   298         10
   299         25
   300         10
   301         15
   303         10
   304         10
   305         10
   307         10
   308         15
   309         15
   310         10
   313         15
   314         10
   315         10
   316         10
   317         10
   318         10
   319         15
   320         10
   321         15
   327         10
   329         10
   335         20
   336         20
   337         20
   338         15
   339         15
   341         30
   342         15
   343        170
   344         55
   345         30
   346         15
   347         10
   348         10
   353         10
   355         65
   356         25
   357         20
   361         10
   362         10
   363         10
   369         45
   370         25
   371         25
   372         10
   373         10
   392         20
   393         15
   397         15
   410         20
   411         10
   412         10
   415         10
   425         60
   426         35
   427         15
   428         15
   429         40
   430         15
   431         10
   443         15
   482         15
   483         10
   484         10
   500         15
   503         15
   515         95
   516         40
   517         15
   590         10
   596         10
   605         10
   647         10
   680         40
   681         20
   682         10