##TITLE=Library Entry 43562
##JCAMP-DX=Revision 4.10 
##DATA TYPE=MASS SPECTRUM
##SAMPLE DESCRIPTION=STER PREG TMSI L SE30 01 3249 E M.HORN
##NAMES=HP
##CAS NAME=Silane, [[(3.beta.,5.alpha.,11.beta.,20S)-pregnane-3,11,17,20,21-
pentayl]pentakis(oxy)]pentakis[trimethyl-
##MOLFORM=C36H76O5Si5
##CAS REGISTRY NO=57326-11-1
##MP= -300
##BP= -300
##MW= 728
##$RETENTION INDEX=0
##$CONDENSED SPECTRUM=NO
##NPOINTS= 566
##XYDATA=(XY..XY) 1 
    40          1
    41         14
    42          1
    43         17
    44          5
    45         24
    46          1
    47          8
    51          1
    52          1
    53          4
    55         29
    56          2
    57          5
    59         12
    60          2
    61         11
    62          1
    65          1
    66          1
    67         41
    68          8
    69         18
    70          2
    71          5
    72         22
    73        999
    74         82
    75        306
    76         24
    77         18
    78          1
    79         39
    80          5
    81         58
    82          5
    83         12
    84          1
    85          5
    87          4
    88          5
    89         14
    90          2
    91         45
    92          8
    93         52
    94         14
    95         46
    96          2
    97          7
    99          5
   100          1
   101         22
   102         12
   103        115
   104         19
   105         76
   106         24
   107         83
   108         12
   109         28
   110          5
   111          4
   113          8
   114          2
   115         12
   116         22
   117        117
   118         22
   119         52
   120         17
   121         35
   122          5
   123          7
   124          1
   125          2
   126          1
   127         11
   128         15
   129        181
   130         35
   131         76
   132         22
   133         83
   134         17
   135         19
   136          2
   137          2
   138          1
   139          2
   140          4
   141         19
   142         24
   143        126
   144         36
   145         98
   146         34
   147        363
   148         58
   149         58
   150         11
   151          9
   152          5
   153          7
   154         49
   155         60
   156         24
   157         56
   158         17
   159         79
   160         17
   161         28
   162          7
   163         11
   164          5
   165          7
   166          4
   167         15
   168         24
   169         85
   170         25
   171         63
   172         19
   173         24
   174          5
   175         19
   176          4
   177          9
   178          5
   179         14
   180          9
   181         31
   182         24
   183         34
   184         14
   185         29
   186         11
   187         17
   188         12
   189         65
   190         26
   191        170
   192         38
   193         38
   194         21
   195         70
   196         22
   197         36
   198          9
   199         28
   200         11
   201         21
   202         11
   203         22
   204         24
   205        103
   206         34
   207         34
   208         15
   209         28
   210         11
   211         28
   212         14
   213         51
   214         19
   215         38
   216         17
   217        102
   218         28
   219         24
   220          9
   221         34
   222         12
   223         22
   224          9
   225         19
   226         11
   227         18
   228         14
   229         17
   230         45
   231         35
   232         12
   233         17
   234          9
   235         24
   236          5
   237         17
   238         11
   239         15
   240         12
   241         32
   242         42
   243        454
   244        133
   245         60
   246         17
   247         17
   248          7
   249         19
   250         19
   251         38
   252         46
   253        390
   254        117
   255         34
   256          9
   257         11
   258          9
   259         11
   260          9
   261         11
   262          7
   263         11
   264          7
   265         45
   266         15
   267         11
   268          5
   269         11
   270          7
   271          9
   272          4
   273          5
   274          5
   275          7
   276          5
   277          9
   278          5
   279         35
   280          9
   281          7
   282          5
   283         24
   284          7
   285          5
   286          1
   287          5
   288          2
   289          7
   290          4
   291          7
   292          4
   293          4
   294          2
   295          5
   296          5
   297          4
   298          2
   299          5
   300          4
   301         12
   302         15
   303         21
   304         24
   305         51
   306         19
   307          5
   308          4
   309          4
   310          2
   311          2
   312          2
   313          5
   314          4
   315          5
   316          5
   317         11
   318          9
   319          5
   320         21
   321         11
   322          4
   323          2
   324          2
   325          4
   326          2
   327          8
   328          5
   329         12
   330          5
   331          5
   332          7
   333         22
   334          8
   335          5
   336          5
   337          5
   338         11
   339         19
   340         28
   341         35
   342         38
   343        363
   344        113
   345         34
   346          9
   347          7
   348          4
   349          4
   350          5
   351          8
   352          8
   353         15
   354         12
   355         86
   356         28
   357         17
   358          7
   359          5
   360          4
   361          4
   362          4
   363          2
   364          4
   365          5
   366          5
   367          8
   368          9
   369         31
   370         11
   371          5
   372          4
   373          5
   374          2
   375          2
   376          2
   377          1
   379          2
   380          1
   381          2
   382          1
   383          1
   384          1
   385          2
   386          5
   387          5
   388          2
   389          1
   391          2
   392          2
   393          4
   394          5
   395          1
   400          1
   401          2
   403          4
   404          1
   405          1
   407          2
   412          1
   413          1
   414          2
   416          2
   417          9
   418          5
   419          7
   420          1
   421          2
   422          1
   423          1
   424          2
   425          4
   426          7
   427          8
   428         11
   429         15
   430         17
   431         19
   432         24
   433        142
   434         62
   435         25
   436          8
   437          7
   438          5
   439          8
   440         11
   441         11
   442         12
   443         21
   444         22
   445        113
   446         51
   447         22
   448          8
   449          4
   450          5
   451          5
   452          5
   453          7
   454          7
   455          5
   456          5
   457          9
   458         15
   459         34
   460         12
   461          7
   462          5
   463          5
   464          4
   465          2
   466          4
   467          2
   468          4
   469          2
   470          2
   472          2
   473          1
   474          1
   475          1
   476          1
   478          1
   479          2
   488          1
   489          1
   491          1
   498          1
   500          1
   501          1
   505          2
   506          1
   507          4
   508          2
   509          2
   510          1
   511          1
   512          2
   513          2
   514          5
   515         11
   516         12
   517         28
   518         28
   519         28
   520         26
   521         26
   522         38
   523        375
   524        170
   525         79
   526         26
   527         18
   528         19
   529         34
   530         28
   531         28
   532         32
   533         39
   534         42
   535        306
   536        139
   537         66
   538         21
   539         11
   540          8
   541         11
   542          8
   543         11
   544          8
   545         11
   546         11
   547         15
   548         72
   549         34
   550         17
   551          8
   552          5
   553          4
   554          2
   555          4
   556          2
   557          2
   558          4
   559          2
   560          1
   561          1
   562          2
   563          2
   564          1
   565          1
   566          1
   567          1
   568          1
   570          1
   572          1
   590          1
   606          1
   607          1
   608          1
   609          1
   610          1
   611          1
   612          1
   613          2
   614          2
   615          5
   616          5
   617          8
   618         11
   619         11
   620         11
   621         11
   622         11
   623         11
   624         15
   625        106
   626         60
   627         34
   628         12
   629          7
   630          5
   631          5
   632          7
   633          5
   634          7
   635          7
   636          7
   637         11
   638         41
   639         26
   640         17
   641          9
   642          5
   643          5
   644          5
   645          5
   646          2
   647          4
   648          4
   649          4
   650          4
   651          2
   652          2
   653          2
   654          1
   656          1
   689          1
   696          1
   697          2
   701          2
   702          2
   704          2
   707          2
   708          1
   712          1
   713          4
   714          4
   715          2
   716          1
   717          2
   718          4
   719          4
   720          5
   721          5
   722          5
   723          5
   724          7
   725          8
   726          8
   727          7
   728         39
   729         26
   730         15
   731          5