##TITLE=Library Entry 44472
##JCAMP-DX=Revision 4.10 
##DATA TYPE=MASS SPECTRUM
##SAMPLE DESCRIPTION=STER PREG MOTM L SE30 01 2970 E.M.HORN
##NAMES=HP
##CAS NAME=Pregnane-11,20-dione, 3,17,21-tris[(trimethylsilyl)oxy]-, 20-(O-m
ethyloxime), (3.alpha.,5.beta.)-
##MOLFORM=C31H59NO5Si3
##CAS REGISTRY NO=57325-76-5
##MP= -300
##BP= -300
##MW= 609
##$RETENTION INDEX=0
##$CONDENSED SPECTRUM=NO
##NPOINTS= 377
##XYDATA=(XY..XY) 1 
    41        125
    42         20
    43        100
    44         60
    45        160
    46         10
    47         58
    49          5
    50          5
    51         11
    52         10
    53         38
    54         37
    55        257
    56         21
    57         37
    58         30
    59        100
    60         18
    61         60
    62         10
    63         10
    65         15
    66         10
    67        200
    68         50
    69        140
    70         20
    71         16
    72         55
    73        999
    74        330
    75        950
    76         75
    77        100
    78         20
    79        220
    80         40
    81        296
    82         45
    83         50
    84        150
    85         31
    86         20
    87         15
    88         20
    89        217
    90         21
    91        287
    92         50
    93        355
    94         90
    95        240
    96         30
    97         30
    98         17
    99         21
   100         38
   101         67
   102         20
   103        560
   104         70
   105        345
   106         71
   107        378
   108         81
   109        136
   110         28
   111         20
   112         15
   113         37
   114        140
   115         75
   116         55
   117         97
   118         70
   119        210
   120         60
   121        167
   122         37
   123         40
   124         12
   125         12
   126         20
   127         38
   128         70
   129        280
   130         85
   131        160
   132         70
   133        170
   134         51
   135         75
   136         35
   137         20
   138         10
   139         10
   140         20
   141         65
   142         65
   143        207
   144         71
   145        140
   146         40
   147        452
   148         88
   149        107
   150         30
   151         17
   152         10
   153         20
   154         60
   155         77
   156         65
   157         78
   158         40
   159        145
   160         50
   161        167
   162         25
   163         31
   164         17
   165         50
   166         25
   167         47
   168        250
   169        186
   170         87
   171         67
   172        110
   173        105
   174         50
   175        180
   176         30
   177         20
   178         15
   179         40
   180         25
   181         52
   182        170
   183        100
   184         55
   185         58
   186         26
   187         90
   188         58
   189         25
   190         10
   191         40
   192         18
   193         41
   194         30
   195        107
   196         50
   197         50
   198        200
   199         66
   200         88
   201         50
   202        100
   203         40
   204         50
   205         40
   206         20
   207         30
   208         57
   209         57
   210         30
   211         50
   212         25
   213         65
   214         50
   215         40
   216         65
   217         40
   218         20
   219         17
   220         25
   221         50
   222         37
   223         37
   224         30
   225         40
   226         23
   227         90
   228         40
   229         40
   230         28
   231         21
   232         85
   233         50
   234         20
   235         45
   236         20
   237         25
   238         15
   239         30
   240         22
   241         77
   242         50
   243        108
   244        108
   245         50
   246        131
   247         47
   248         25
   249         41
   250         25
   251         35
   252         20
   253         30
   254         17
   255         10
   256         20
   257         50
   258        110
   259         50
   260         70
   261         35
   262         15
   263         38
   264         20
   265         25
   266         15
   267         67
   268         40
   269        120
   270         48
   271         90
   272         21
   273         11
   274         11
   275         20
   276        111
   277         45
   278         20
   279         30
   280         28
   281         17
   282         10
   283         10
   284         30
   285         27
   286         57
   287         25
   288         90
   289         30
   290         35
   291         25
   292         10
   294         20
   296         10
   298         10
   299         11
   301         11
   302         10
   303         20
   304         40
   305         30
   306         20
   307         10
   308         70
   309         20
   310         12
   311         11
   312         40
   313         37
   314         11
   315         55
   316         21
   317         27
   318         10
   325         10
   326         26
   328         10
   329         16
   330         10
   331         25
   332         11
   339         30
   340         16
   341         12
   342         10
   343         70
   344         30
   345         30
   356         10
   357         65
   358         50
   359         87
   360         35
   361         61
   362         20
   366         10
   368         10
   370         51
   371         20
   372         10
   376         20
   382         17
   384         10
   385         35
   386         10
   392         10
   397         15
   398        270
   399         80
   400         40
   401         10
   403         10
   404         10
   405         30
   406         15
   407         10
   414         15
   416         30
   417         10
   418         10
   429         30
   430         10
   431         10
   433         16
   434         10
   435         10
   446         10
   447         50
   448         45
   449        120
   450         38
   451         20
   457         10
   458         30
   459         15
   460         30
   461         15
   466         10
   472         20
   473         10
   474         10
   475         10
   486         10
   487         40
   488        660
   489        235
   490        120
   491         40
   492         10
   504         21
   505         15
   506        240
   507        128
   508         45
   509         15
   519         50
   520         30
   521         10
   547         22
   548         31
   549         20
   550         15
   560         10
   561         10
   562         15
   577         50
   578        999
   579        521
   580        250
   581         80
   582         20
   596         60
   597         30
   598         15
   609        560
   610        295
   611        140
   612         40
   613         10