##TITLE=Library Entry 44225
##JCAMP-DX=Revision 4.10 
##DATA TYPE=MASS SPECTRUM
##SAMPLE DESCRIPTION=STER PREG MOTM L SE30 01 3190 E M.HORN
##NAMES=HP
##CAS NAME=Pregn-4-en-3-one, 17,20,21-tris[(trimethylsilyl)oxy]-, O-methylox
ime, (20S)-
##MOLFORM=C31H59NO4Si3
##CAS REGISTRY NO=57325-74-3
##MP= -300
##BP= -300
##MW= 593
##$RETENTION INDEX=0
##$CONDENSED SPECTRUM=NO
##NPOINTS= 308
##XYDATA=(XY..XY) 1 
    41         60
    42         15
    43         55
    44         25
    45         70
    46          5
    47         15
    48          5
    53         20
    54         10
    55         80
    56         20
    57         35
    58         15
    59         45
    60          5
    61         10
    65         10
    66         10
    67         50
    68         15
    69         40
    70         15
    71         25
    72         30
    73        999
    74        170
    75        200
    76         10
    77         35
    78         15
    79         75
    80         20
    81         80
    82         25
    83         20
    84         10
    85         15
    86          5
    87         10
    88         10
    89         30
    90          5
    91         85
    92         25
    93         90
    94         25
    95         45
    96         20
    97         20
    98         10
    99         10
   100          5
   101         30
   102         10
   103        150
   104         30
   105         95
   106         25
   107         60
   108         25
   109         25
   110         15
   111         15
   112         10
   113         10
   114          5
   115         25
   116         20
   117        160
   118         40
   119         65
   120         45
   121         35
   122         25
   123         25
   124         10
   125         60
   126         15
   127         15
   128         15
   129        150
   130         35
   131        100
   132         35
   133        130
   134         30
   135         20
   136         15
   137         35
   138         20
   139         15
   140         10
   141         20
   142         20
   143        105
   144         40
   145        130
   146         40
   147        480
   148         80
   149         60
   150         20
   151         35
   152         30
   153         45
   154         25
   155         45
   156         20
   157         45
   158         25
   159         40
   160         25
   161         20
   162         10
   163         15
   164         15
   165         10
   166         10
   167         15
   168         15
   169         50
   170         25
   171         35
   172         30
   173         20
   174         15
   175         15
   176         10
   177         15
   178         15
   179         10
   180         10
   181         25
   182         25
   183         35
   184         30
   185         25
   186         20
   187         15
   188         10
   189         45
   190         30
   191        240
   192         45
   193         30
   194         20
   195         25
   196         15
   197         25
   198         20
   199         20
   200         10
   201         10
   202         10
   204         20
   205         85
   206         25
   207         80
   208         25
   209         20
   210         20
   211         30
   212         25
   213         15
   214         10
   215         15
   216         10
   217         55
   218         20
   219         15
   220         10
   221         30
   222         15
   223         15
   224         45
   225         25
   226         20
   227         15
   228         20
   229         20
   230         35
   231         15
   232         10
   233         10
   234         15
   235         10
   236         20
   237         25
   238         40
   239         25
   240         10
   241         10
   242         15
   243        260
   244         45
   245         25
   246         10
   247          5
   248          5
   249         30
   250         15
   251         55
   252         30
   253         10
   254         10
   255          5
   256         10
   257          5
   258         15
   259         10
   260         20
   261         10
   262          5
   263         15
   264         10
   265         15
   266        200
   267        350
   268         90
   269         20
   270         10
   271          5
   272         10
   273         10
   274          5
   275          5
   276          5
   277         10
   278         15
   279         10
   280         10
   281         15
   282         10
   283         10
   284         15
   285          5
   286          5
   291          5
   292         10
   293         10
   294          5
   295         10
   296         10
   297         15
   298        380
   299        120
   300         25
   301          5
   305          5
   308          5
   310         40
   311         15
   312          5
   315         25
   316         10
   317          5
   323         25
   324         40
   325         15
   326          5
   327          5
   328          5
   329         10
   330          5
   333         10
   334          5
   341          5
   342         10
   343         10
   344          5
   355         10
   356         15
   357         20
   358         25
   359         10
   360          5
   385          5
   386         25
   387         60
   388        999
   389         30
   390         10
   400         20
   401         10
   402          5
   413         20
   414         20
   415         10
   416          5
   429          5
   430          5
   431          5
   460         10
   461          5
   490        110
   491         45
   492         20
   493          5
   503         20
   504         10
   505          5
   563          5
   578         10
   579          5
   593         15
   594         10
   595          5