##TITLE=Library Entry 23925
##JCAMP-DX=Revision 4.10 
##DATA TYPE=MASS SPECTRUM
##SAMPLE DESCRIPTION=V.A.KOPTYUG, ATLAS OF MASS SPECTRA OF ORGANIC COMPOUNDS
##NAMES=HP
##CAS NAME=1-Hydroxy-4-(1-hydrazonoethyl)-2,2,5,5-tetramethyl-3-imidazoline
##MOLFORM=C9H18N4O
##CAS REGISTRY NO=57338-41-7
##MP= -300
##BP= -300
##MW= 198
##$RETENTION INDEX=0
##$CONDENSED SPECTRUM=NO
##NPOINTS= 96
##XYDATA=(XY..XY) 1 
    35         35
    37          8
    38         12
    39        194
    40         69
    41        358
    42        567
    43        349
    44         29
    45          9
    48         42
    50         12
    51         14
    52         25
    53         65
    54         93
    55         55
    56        158
    57        999
    58        358
    59         17
    60          3
    61          3
    62          2
    71         24
    72          4
    73         14
    74         14
    75          4
    86          6
    87         45
    91          6
    92          5
    93         12
    94        158
    95         95
    96        118
    97         72
    98         84
    99         55
   100          4
   105          2
   106          4
   107         12
   108         27
   109         83
   110        173
   111        243
   112         25
   113          3
   114          2
   117          2
   118          2
   119          5
   120          7
   121         24
   122         33
   123         22
   124         88
   125         84
   126         17
   127         17
   132          2
   133          7
   134         13
   135         26
   136         97
   137         67
   138        145
   139         26
   140          3
   142         28
   143          3
   148          6
   149          8
   150         31
   151        131
   152        474
   153         74
   154          8
   155          3
   164          3
   165         12
   166         56
   167        314
   168        546
   169         61
   170          5
   181         21
   182         15
   183        109
   184         11
   195          2
   197          7
   198         13
   199          3