##TITLE=Library Entry 796
##JCAMP-DX=Revision 4.10 
##DATA TYPE=MASS SPECTRUM
##SAMPLE DESCRIPTION=Humboldt-Universitat zu Berlin, Department of Chemistry
, Analytical Group
##NAMES=HP
##CAS NAME=4(1H)-Oxopyridine-1-carboxylic acid, ethyl ester
##MOLFORM=C8H9NO3
##CAS REGISTRY NO=57330-83-3
##MP= -300
##BP= -300
##MW= 167
##$RETENTION INDEX=0
##$CONDENSED SPECTRUM=NO
##NPOINTS= 100
##XYDATA=(XY..XY) 1 
    12          1
    13          4
    14         15
    15         46
    16          7
    17         36
    18        120
    19          1
    24          0
    25          6
    26        114
    27        297
    28         93
    29        999
    30         33
    31          8
    32          1
    36          1
    37         20
    38         54
    39        222
    40        169
    41        124
    42         27
    43         24
    44          8
    45         17
    46          0
    49          2
    50          9
    51         10
    52         16
    53         41
    54         15
    55         14
    56          4
    57          7
    58          1
    60          0
    61          1
    62          0
    63          3
    64          9
    65          5
    66         45
    67        318
    68         72
    69         13
    70          3
    71          3
    73          1
    75          0
    76          1
    77          1
    78          4
    79          2
    80         95
    81          8
    82         13
    83          3
    84          1
    85          2
    91          3
    92          1
    93          2
    94         21
    95        234
    96        106
    97          7
    98          1
    99          1
   105          0
   107          0
   108         38
   109          3
   110          0
   111          4
   112          1
   113          0
   115          0
   119          0
   121          0
   122         42
   123          4
   124          1
   125          1
   127          0
   129          0
   137          0
   138          0
   139          4
   140          1
   141          0
   145          0
   149          1
   152          0
   167        387
   168         38
   169          4
   171          0