##TITLE=Library Entry 52446
##JCAMP-DX=Revision 4.10 
##DATA TYPE=MASS SPECTRUM
##SAMPLE DESCRIPTION=V.A.KOPTYUG, ATLAS OF MASS SPECTRA OF ORGANIC COMPOUNDS
##NAMES=HP
##CAS NAME=1-Hydroxy-2,2,5,5-tetramethyl-4-ethyl-3-imidazoline-3-oxide
##MOLFORM=C9H18N2O2
##CAS REGISTRY NO=57338-30-4
##MP= -300
##BP= -300
##MW= 186
##$RETENTION INDEX=0
##$CONDENSED SPECTRUM=NO
##NPOINTS= 110
##XYDATA=(XY..XY) 1 
    26         20
    27         58
    28         22
    29         69
    30         16
    31         34
    35         21
    37          5
    38         11
    39         98
    40         44
    41        218
    42        198
    43         75
    44         86
    45         20
    46          6
    47         56
    48         29
    49         21
    50         12
    51         12
    52         15
    53         34
    54         73
    55        632
    56        310
    57         41
    58        152
    59         26
    60          5
    63          3
    64          3
    65         11
    66         11
    67         69
    68         67
    69         25
    70         17
    71         12
    72         10
    73        118
    74        319
    75         12
    77          9
    78         34
    79         16
    80          9
    81         25
    82         66
    83        999
    84         82
    85        142
    86          5
    91          2
    92          1
    93          3
    94         11
    95         13
    96         85
    97        209
    98         68
    99         22
   100          2
   103          3
   108          7
   109          8
   110          5
   111          5
   112         31
   113        504
   114         63
   115          4
   120          2
   121          6
   122         12
   123         10
   124         49
   125          6
   133          0
   134          2
   135          4
   136          2
   137          9
   138          7
   139         57
   140          8
   147          2
   148          2
   149         10
   150          2
   151          2
   152          2
   153          6
   154         14
   155         30
   156          3
   157          3
   162          3
   163          8
   164          9
   168          3
   169          4
   170         53
   171         14
   172          2
   185         22
   186        164
   187         19
   188          2