##TITLE=Library Entry 57959
##JCAMP-DX=Revision 4.10 
##DATA TYPE=MASS SPECTRUM
##SAMPLE DESCRIPTION=R RYHAGE MS-LAB KAROLINSKA INSTITUTET STOCKHOLM SWEDEN
##NAMES=HP
##CAS NAME=Octadecanoic acid, 2-methyl-, methyl ester, (-)-
##MOLFORM=C20H40O2
##CAS REGISTRY NO=57346-70-0
##MP= -300
##BP= -300
##MW= 312
##$RETENTION INDEX=0
##$CONDENSED SPECTRUM=NO
##NPOINTS= 79
##XYDATA=(XY..XY) 1 
    14         54
    15         14
    18          8
    26          6
    27         36
    28         57
    29         84
    32         10
    39         35
    40         10
    41        216
    42         53
    43        279
    44         12
    45         11
    53         17
    54         19
    55        243
    56         76
    57        225
    58         12
    59         92
    67         30
    68         16
    69        162
    70         35
    71         73
    72          7
    73         27
    74         24
    79          6
    81         19
    82          9
    83         79
    84         16
    85         34
    87         54
    88        999
    89         47
    90          6
    95         12
    97         45
    98         25
    99         10
   101        446
   102         34
   109          7
   111         24
   112         10
   113          8
   115         30
   125         10
   127          5
   129         14
   130          7
   141         39
   143         90
   144         14
   157         99
   158         12
   171         13
   185         15
   186          5
   199         54
   200         11
   213         51
   214         10
   227         15
   241         15
   242          5
   253         17
   255         99
   256         20
   269         66
   270         17
   281         20
   312        248
   313         64
   314         10