##TITLE=Library Entry 60724
##JCAMP-DX=Revision 4.10 
##DATA TYPE=MASS SPECTRUM
##SAMPLE DESCRIPTION=R RYHAGE MS-LAB KAROLINSKA INSTITUTET STOCKHOLM SWEDEN
##NAMES=HP
##CAS NAME=Androstan-17-one, 3-ethyl-3-hydroxy-, (5.alpha.)-
##MOLFORM=C21H34O2
##CAS REGISTRY NO=57344-99-7
##MP= -300
##BP= -300
##MW= 318
##$RETENTION INDEX=0
##$CONDENSED SPECTRUM=NO
##NPOINTS= 237
##XYDATA=(XY..XY) 1 
    14         11
    15         51
    16         35
    17         44
    18        263
    19          5
    26         30
    27        112
    28        100
    29        160
    30         10
    31         34
    32         21
    37          6
    38         12
    39        167
    40         53
    41        462
    42         65
    43        187
    44         24
    45          5
    49          5
    50         35
    51         98
    52         62
    53        391
    54         98
    55        744
    56         64
    57         46
    58         11
    61          6
    62         13
    63         44
    64         18
    65        183
    66         89
    67        699
    68        154
    69        169
    70         17
    71         15
    72          5
    73          5
    74         10
    75         17
    76         16
    77        449
    78        144
    79        865
    80        165
    81        808
    82        152
    83         65
    84         11
    85         10
    86          8
    87         14
    88          5
    89         33
    90         22
    91        999
    92        212
    93        904
    94        256
    95        378
    96        177
    97        301
    98         33
    99          8
   100          9
   101         12
   102         26
   103         94
   104         75
   105        750
   106        269
   107        628
   108        282
   109        263
   110         77
   111         28
   112          6
   113          8
   114         11
   115        175
   116         73
   117        250
   118        100
   119        417
   120        223
   121        397
   122        221
   123        131
   124         26
   125         10
   126          8
   127         40
   128        127
   129        164
   130         71
   131        263
   132         98
   133        269
   134        289
   135        378
   136        237
   137         85
   138         15
   139         12
   140          6
   141         69
   142         56
   143        123
   144         85
   145        219
   146        144
   147        353
   148        158
   149        125
   150         72
   151         33
   152         26
   153         31
   154         19
   155         50
   156         33
   157         92
   158         64
   159        165
   160        102
   161        301
   162        119
   163         72
   164         28
   165         40
   166         17
   167         26
   168         15
   169         42
   170         28
   171         96
   172         71
   173        140
   174        102
   175        146
   176         71
   177         35
   178         21
   179         17
   180         10
   181         19
   182         14
   183         39
   184         24
   185         72
   186         34
   187         77
   188         46
   189         92
   190        210
   191         49
   192         10
   193          9
   194          7
   195         14
   196         13
   197         39
   198         21
   199         67
   200         47
   201         48
   202         35
   203         67
   204         43
   205         24
   206          6
   207          6
   208          5
   209         10
   210         10
   211         22
   212         20
   213         51
   214         20
   215         58
   216         79
   217        119
   218        173
   219         31
   220          6
   221          5
   222          5
   223          7
   224          7
   225         14
   226         11
   227         16
   228         10
   229         30
   230         60
   231         31
   232         16
   237          5
   239          6
   240          5
   241         17
   242         24
   243         39
   244         26
   245         11
   246          6
   253         28
   254         11
   255         12
   256         17
   257         19
   258         32
   259          7
   267         31
   268         15
   269         14
   270         16
   271        102
   272         44
   273          9
   282         71
   283         30
   284         23
   285         49
   286         17
   298          8
   299          6
   300        129
   301         34
   302          6