##TITLE=Library Entry 9917
##JCAMP-DX=Revision 4.10 
##DATA TYPE=MASS SPECTRUM
##SAMPLE DESCRIPTION=EP-1287
##NAMES=HP
##CAS NAME=Pentanoic acid, 2,2-dimethyl-, 1,2,3-propanetriyl ester
##MOLFORM=C24H44O6
##CAS REGISTRY NO=57346-62-0
##MP= -300
##BP= -300
##MW= 428
##$RETENTION INDEX=0
##$CONDENSED SPECTRUM=NO
##NPOINTS= 131
##XYDATA=(XY..XY) 1 
    26          8
    27        120
    28         69
    29        120
    30          4
    31         87
    32         11
    33          1
    36          1
    37          2
    38          7
    39         99
    40         16
    41        245
    42         37
    43        999
    44         37
    45        120
    46          3
    47          2
    48          1
    49          1
    50          3
    51          6
    52          2
    53         18
    54          5
    55         78
    56         32
    57        189
    58          9
    59         87
    60         19
    61          4
    62          1
    63          1
    64          1
    65          2
    66          1
    67          7
    68          4
    69         60
    70         35
    71          9
    72          1
    73        180
    74        356
    75          2
    76          1
    77          1
    78          1
    79          1
    80          1
    81          2
    82          2
    83         17
    84         18
    85        846
    86         67
    87         43
    88        430
    89         20
    90          2
    91          1
    92          1
    93          1
    94          1
    95          1
    96          1
    97          5
    98          1
    99          1
   100          1
   101         47
   102         21
   103          3
   104          1
   105          1
   106          1
   107          1
   108          1
   109          1
   110          1
   111          1
   112          1
   113          5
   114          1
   115          8
   116          1
   117          1
   118          1
   119          1
   121          1
   123          1
   125          1
   126          1
   127          1
   128          1
   129          1
   130          1
   131          1
   132          1
   133          1
   134          1
   135          1
   141          1
   142          1
   143          1
   144          1
   145          1
   149          1
   158          1
   159          1
   160          1
   170          1
   171          1
   172          1
   185          1
   186          1
   187          1
   199          1
   200          1
   205          1
   207          1
   215          1
   257          1
   259          2
   283          1
   299          1
   300          1
   355          1