##TITLE=Library Entry 114926
##JCAMP-DX=Revision 4.10 
##DATA TYPE=MASS SPECTRUM
##SAMPLE DESCRIPTION=Dmitri Zagorevskii, University of Missouri-Columbia, Co
lumbia, MO
##NAMES=HP
##CAS NAME=Tolylpent-1-yn-4-ol
##MOLFORM=C12H14O
##CAS REGISTRY NO=57355-73-4
##MP= -300
##BP= -300
##MW= 174
##$RETENTION INDEX=0
##$CONDENSED SPECTRUM=NO
##NPOINTS= 61
##XYDATA=(XY..XY) 1 
    27         39
    29         27
    39         44
    40          2
    41         10
    43         85
    44          5
    45        460
    46         10
    50         20
    51         72
    52         14
    53         14
    62         13
    63         55
    64         22
    65         32
    74         12
    75         26
    76         26
    77         82
    78         33
    79          2
    87         11
    88          8
    89         28
    90          3
    91         93
    92          3
   101         16
   102         49
   103         24
   104          3
   105          7
   113          7
   114         10
   115        616
   116         80
   117          9
   119         25
   126         23
   127        119
   128        254
   130        999
   131        125
   132         11
   139         13
   141         62
   142         21
   144          9
   152          9
   153         11
   154          3
   155         24
   156         70
   157         14
   158         22
   172         11
   173          3
   174        220
   175         29