##TITLE=Library Entry 87427
##JCAMP-DX=Revision 4.10 
##DATA TYPE=MASS SPECTRUM
##SAMPLE DESCRIPTION=CARL DJERASSI DEPT OF CHEM STANFORD UNIV STANFORD CALIF
 94305
##NAMES=HP
##CAS NAME=Naphthalen-4a,8a-imine, octahydro-
##MOLFORM=C10H17N
##CAS REGISTRY NO=5735-21-7
##MP= -300
##BP= -300
##MW= 151
##$RETENTION INDEX=0
##$CONDENSED SPECTRUM=NO
##NPOINTS= 53
##XYDATA=(XY..XY) 1 
    40         60
    41        580
    42        200
    43        100
    44         30
    51         70
    52         50
    53        180
    54        210
    55        180
    56        130
    57        100
    63         20
    65         80
    66         40
    67        290
    68         60
    69        120
    70         80
    77        140
    78         60
    79        140
    80        130
    81         90
    82        160
    83         60
    91        310
    92        110
    93        180
    94        310
    95        310
    96        180
    97         20
   105         90
   106        100
   107         40
   108        480
   109        270
   110        999
   111         80
   113         30
   119         90
   120         30
   121         20
   122        690
   123        640
   124         40
   134        170
   135         10
   136        160
   150        220
   151        670
   152         70