##TITLE=Library Entry 32539
##JCAMP-DX=Revision 4.10 
##DATA TYPE=MASS SPECTRUM
##SAMPLE DESCRIPTION=NIST Mass Spectrometry Data Center, 1990.
##NAMES=HP
##CAS NAME=4-Octyn-2-ol
##MOLFORM=C8H14O
##CAS REGISTRY NO=57355-72-3
##MP= -300
##BP= -300
##MW= 126
##$RETENTION INDEX=0
##$CONDENSED SPECTRUM=NO
##NPOINTS= 47
##XYDATA=(XY..XY) 1 
    14         10
    15         11
    19         13
    26         17
    27        112
    28         15
    29         73
    32          2
    38         17
    39        149
    40         34
    41        153
    42         43
    43        177
    44          2
    45        404
    46         10
    50         48
    51        100
    52         83
    53        182
    54        252
    55        127
    56         18
    57          8
    62         13
    63         22
    65         71
    67        999
    68         61
    69         25
    71         14
    77         60
    78         13
    79         72
    80         16
    81        111
    82        223
    83         51
    84         35
    91         18
    93         15
    95         14
    97         25
    98         23
   111         44
   126         14