##TITLE=Library Entry 52799
##JCAMP-DX=Revision 4.10 
##DATA TYPE=MASS SPECTRUM
##SAMPLE DESCRIPTION=A. VERWEIJ, PRINS MAURITS LAB. TNO, RIJSWIJK, NETH.
##NAMES=HP
##CAS NAME=5-Cyano-1,2,3-thiadiazole
##MOLFORM=C3HN3S
##CAS REGISTRY NO=57352-02-0
##MP= -300
##BP= -300
##MW= 111
##$RETENTION INDEX=0
##$CONDENSED SPECTRUM=NO
##NPOINTS= 15
##XYDATA=(XY..XY) 1 
    38         80
    39         20
    44         40
    45         90
    46         50
    50         30
    51         80
    56        140
    57        160
    70         50
    82        300
    83        999
    84         50
    85         50
   111         40