##TITLE=Library Entry 87033
##JCAMP-DX=Revision 4.10 
##DATA TYPE=MASS SPECTRUM
##SAMPLE DESCRIPTION=ASES Database, Dalian Institute, P.R. China
##NAMES=HP
##CAS NAME=6-Methoxycarbonyl-7-oxo-4,7-dihydro-[1,2,4]triazolo(3,4-c)[1,2,4]
triazine
##MOLFORM=C6H5N5O3
##CAS REGISTRY NO=57351-62-9
##MP= -300
##BP= -300
##MW= 195
##$RETENTION INDEX=0
##$CONDENSED SPECTRUM=NO
##NPOINTS= 20
##XYDATA=(XY..XY) 1 
    40        118
    41        277
    42        469
    43        118
    44         88
    53        555
    54        841
    55        129
    56         69
    67        120
    68        171
    69        580
   109        180
   110        999
   111         70
   123         79
   136         49
   137        218
   164        190
   195        280