##TITLE=Library Entry 30174
##JCAMP-DX=Revision 4.10 
##DATA TYPE=MASS SPECTRUM
##SAMPLE DESCRIPTION=Chemical Concepts
##NAMES=HP
##CAS NAME=Silane, trimethyl-1-octenyl-, (E)-
##MOLFORM=C11H24Si
##CAS REGISTRY NO=57365-47-6
##MP= -300
##BP= -300
##MW= 184
##$RETENTION INDEX=0
##$CONDENSED SPECTRUM=NO
##NPOINTS= 116
##XYDATA=(XY..XY) 1 
    25          0
    26          8
    27        129
    28         12
    29        158
    30          3
    31         52
    32          2
    33          1
    35          0
    37          1
    38          3
    39         71
    40          3
    41        133
    42         19
    43        199
    44         43
    45        184
    46         11
    47          6
    48          0
    49          0
    50          2
    51          6
    52          3
    53         28
    54         10
    55         53
    56          7
    57         31
    58         59
    59        999
    60         69
    61         31
    62          2
    63          2
    64          1
    65          4
    66          8
    67         88
    68         12
    69         32
    70         11
    71         39
    72         33
    73        705
    74         58
    75         24
    76          1
    77          4
    78          1
    79         11
    80          7
    81         22
    82          6
    83         72
    84          9
    85        101
    86         18
    87         23
    88          2
    89          0
    91          1
    92          0
    93          3
    94          1
    95         20
    96          4
    97         45
    98         41
    99        160
   100         19
   101         12
   102          0
   103          0
   105          0
   107          8
   108          1
   109        110
   110         28
   111         32
   112          4
   113         47
   114        155
   115         18
   116          5
   117          0
   118          0
   121          0
   123          3
   124          5
   125         15
   126          2
   127          7
   128          1
   129          0
   137          0
   139          3
   140          0
   141         12
   142          7
   143          2
   153          0
   155          2
   156          0
   165          0
   166          0
   167          1
   169        632
   170         98
   171         25
   172          2
   184         22
   185          3
   186          0