##TITLE=Library Entry 69197
##JCAMP-DX=Revision 4.10 
##DATA TYPE=MASS SPECTRUM
##SAMPLE DESCRIPTION=F. TURECEK,HEYROVSKY INST PHYS CHEM & ELECTROCHEM,PRAGU
E,CZECH
##NAMES=HP
##CAS NAME=(7S,8R)-7-Hydroxy-8-amino-trans-anti-trans-tricyclo[7.3.0.0(2,6)]
dodecane
##MOLFORM=C12H21NO
##CAS REGISTRY NO=57366-15-1
##MP= -300
##BP= -300
##MW= 195
##$RETENTION INDEX=0
##$CONDENSED SPECTRUM=NO
##NPOINTS= 54
##XYDATA=(XY..XY) 1 
    27         20
    29         20
    30        100
    39         28
    41         60
    42         14
    43         23
    53         16
    54         10
    55         27
    56        120
    57         19
    65         12
    66          7
    67         50
    68         14
    69         26
    70         14
    77         20
    79         75
    80         19
    81         28
    82         28
    83         12
    91         22
    92          6
    93         14
    94         14
    95         14
    96        999
    97         70
    98          7
    99         12
   105          7
   106          5
   107          6
   108          6
   109          8
   110          7
   117         12
   119          7
   131         13
   132          6
   133          5
   134         10
   135          5
   148         13
   149         12
   160          9
   176          3
   177          3
   178          5
   195         17
   196          2