##TITLE=Library Entry 44479
##JCAMP-DX=Revision 4.10 
##DATA TYPE=MASS SPECTRUM
##SAMPLE DESCRIPTION=STER PREG MOTM L SE30 01 3139 E M.HORN
##NAMES=HP
##CAS NAME=Pregnane-3,20-dione, 11,17,21-tris[(trimethylsilyl)oxy]-, bis(O-m
ethyloxime), (5.beta.,11.beta.)-
##MOLFORM=C32H62N2O5Si3
##CAS REGISTRY NO=57363-09-4
##MP= -300
##BP= -300
##MW= 638
##$RETENTION INDEX=0
##$CONDENSED SPECTRUM=NO
##NPOINTS= 270
##XYDATA=(XY..XY) 1 
    41        140
    42         50
    43        150
    44         50
    45        110
    55        210
    56         70
    57         80
    58         60
    59         90
    67        100
    68         50
    69        130
    70         50
    71         60
    72         50
    73        999
    74        230
    75        440
    76         50
    77         70
    79        130
    80         70
    81        130
    82         90
    83         40
    84         90
    85         40
    86         40
    87         40
    88         40
    89        140
    90         40
    91        120
    92         60
    93        140
    94        100
    95        100
    96         80
    97         50
    98         40
    99         40
   100         70
   101         90
   102         60
   103        430
   104         90
   105        220
   106         80
   107        150
   108        100
   109        100
   110         60
   111         50
   113         70
   114         90
   115        100
   116         90
   117        100
   118         90
   119        120
   120        120
   121        100
   122         90
   123         50
   124         50
   126         40
   127         70
   128         70
   129        180
   130         70
   131        180
   132         80
   133        150
   134         80
   135         70
   136         70
   138         60
   140         50
   141         80
   142         70
   143        280
   144         70
   145        180
   146         70
   147        300
   148        100
   149         50
   150         40
   152         60
   153         40
   154         70
   155         90
   156         80
   157        120
   158         90
   159        110
   160         80
   161         50
   162         60
   163         50
   165         50
   166         40
   167         70
   168        180
   169        150
   170        130
   171         80
   172        220
   173        110
   174         80
   175         50
   180         50
   181         50
   182        130
   183        100
   184         70
   185         70
   186         60
   187         50
   188         60
   190         40
   191         70
   192         50
   193         80
   194         60
   195         80
   196         70
   197         60
   198        150
   199         80
   200         60
   201         60
   202        150
   203         80
   204         70
   206         40
   207         80
   208         70
   209         70
   210         50
   211         60
   212         50
   214        100
   215         50
   216         80
   217         70
   219         50
   220         50
   221         70
   222         90
   223         40
   224         40
   225         40
   226         40
   227         40
   228         60
   230         40
   231         40
   232         50
   233         70
   234         40
   235         40
   236         40
   238         50
   240         40
   242         80
   243         60
   244        300
   245        130
   246        270
   247        120
   248         40
   249         40
   250         40
   252         70
   256         60
   257         50
   258        150
   259         60
   260        120
   261         70
   263         60
   264         80
   266        100
   267         60
   268         40
   269         40
   270         70
   272         70
   273         50
   274         40
   275         70
   276        180
   277         70
   278         60
   281         50
   282         40
   284         70
   288         60
   289         40
   295         40
   296         80
   297         40
   298        180
   299         60
   300         70
   301         60
   302         50
   305         50
   306         40
   307         50
   318         40
   328         60
   330         80
   333         60
   337         70
   354         40
   355         70
   356         80
   357         60
   358         60
   363         80
   369         50
   372         50
   374         50
   386         50
   387         60
   388         70
   389         50
   395         70
   396         80
   397         75
   398         50
   399         50
   413        110
   414         70
   427        160
   428        100
   429         70
   431         50
   473         50
   478         70
   487        100
   488         40
   489         40
   503        100
   504         80
   517        330
   518        220
   519         80
   520         40
   534         50
   535         70
   536         40
   548         50
   577        120
   578         40
   607        999
   608        430
   609        260
   610        100
   623         15
   624         10
   625          5
   638        280
   639        120
   640         75
   641         15
   642          5