##TITLE=Library Entry 11606
##JCAMP-DX=Revision 4.10 
##DATA TYPE=MASS SPECTRUM
##SAMPLE DESCRIPTION=NIST Mass Spectrometry Data Center, 1994
##NAMES=HP
##CAS NAME=Benzaldehyde, 4-(hexyloxy)-
##MOLFORM=C13H18O2
##CAS REGISTRY NO=5736-94-7
##MP= -300
##BP= -300
##MW= 206
##$RETENTION INDEX=0
##$CONDENSED SPECTRUM=NO
##NPOINTS= 78
##XYDATA=(XY..XY) 1 
    13          1
    14          1
    15         21
    16          1
    17          4
    18          9
    27        348
    28         88
    29        440
    30          9
    31          4
    37          7
    38         47
    39        354
    40          4
    41        545
    42        156
    43        999
    44         38
    50         54
    51        147
    52         16
    53         44
    54          7
    55        220
    56        140
    57         97
    58          3
    61          4
    62         18
    63         70
    64         42
    65        207
    66         35
    67         18
    68          3
    69         97
    70          5
    74         16
    75         17
    76         37
    77        165
    78         17
    79         39
    80          5
    81          2
    83          7
    84         58
    85         37
    86          3
    91         15
    92         38
    93         87
    94         47
    95         61
    96          5
   102          1
   103          4
   104         12
   105         63
   106          7
   107         17
   108          2
   119          7
   121        848
   122        671
   123        470
   124         39
   125          3
   133          2
   135         35
   136          2
   147          9
   148          2
   161          2
   206        219
   207         34
   208          3