##TITLE=Library Entry 44194
##JCAMP-DX=Revision 4.10 
##DATA TYPE=MASS SPECTRUM
##SAMPLE DESCRIPTION=STER PREG TMSI L SE30 01 3081 E M.HORN
##NAMES=HP
##CAS NAME=Pregnan-11-one, 3,20,21-tris[(trimethylsilyl)oxy]-, (3.alpha.,5.b
eta.,20S)-
##MOLFORM=C30H58O4Si3
##CAS REGISTRY NO=57377-54-5
##MP= -300
##BP= -300
##MW= 566
##$RETENTION INDEX=0
##$CONDENSED SPECTRUM=NO
##NPOINTS= 361
##XYDATA=(XY..XY) 1 
    41         35
    42          5
    43         30
    44         10
    45         35
    47         15
    49          5
    50          5
    51          5
    52          5
    53         10
    54          5
    55         65
    56          5
    57         10
    58         45
    59         35
    60          5
    61         15
    63          5
    65          5
    66          5
    67         75
    68         15
    69         40
    70          5
    71         10
    72         20
    73        999
    74        105
    75        270
    76         20
    77         30
    78          5
    79         75
    80         10
    81        105
    82         10
    83         20
    84          5
    85         10
    87          5
    88          5
    89         25
    90          5
    91         85
    92         15
    93        105
    94         20
    95        100
    96         15
    97         10
    98          5
    99         10
   101         25
   102          5
   103        230
   104         25
   105        110
   106         20
   107        150
   108         20
   109         60
   110         10
   111         10
   113         10
   114          5
   115         15
   116         15
   117        120
   118         20
   119         75
   120         15
   121         70
   122         10
   123         20
   124          5
   125          5
   127         10
   128         10
   129        270
   130         35
   131         80
   132         15
   133        110
   134         20
   135         40
   136          5
   137         10
   141         10
   142         25
   143         65
   144         15
   145         65
   146         15
   147        420
   148         65
   149         70
   150         10
   151         10
   153          5
   154          5
   155         40
   156         15
   157         40
   158         10
   159         45
   160         10
   161         50
   162         10
   163         20
   165         10
   166          5
   167         10
   168          5
   169         20
   170          5
   171         25
   172         10
   173         45
   174         10
   175        110
   176         20
   177         20
   178          5
   179         10
   180          5
   181         25
   182         15
   183         35
   184         10
   185         25
   186          5
   187         20
   188          5
   189         35
   190         10
   191         35
   192          5
   193         25
   194         25
   195         35
   196         10
   197         20
   198         10
   199         20
   200          5
   201         35
   202         10
   203         10
   204          5
   205         75
   206         25
   207         40
   208         10
   209         25
   210         10
   211         20
   212          5
   213         25
   214          5
   215         20
   216          5
   217         20
   218          5
   219         20
   220          5
   221         40
   222         10
   223         15
   224         10
   225         30
   226         10
   227         30
   228         10
   229         15
   230         10
   231         20
   232         10
   233         20
   234          5
   235         15
   236          5
   237         10
   238          5
   239         15
   240          5
   241         30
   242         10
   243         10
   244          5
   245         15
   246         15
   247         25
   248          5
   249         10
   250          5
   251         10
   252          5
   253         45
   254         10
   255         45
   256         10
   257         10
   258          5
   259         15
   260          5
   261         10
   262          5
   263         15
   264          5
   265         75
   266         20
   267         15
   268          5
   269         20
   270         10
   271         20
   272          5
   273         10
   274          5
   275          5
   277          5
   278         10
   279         25
   280          5
   281         10
   282         10
   283        885
   284        175
   285         30
   286          5
   287         10
   288          5
   289          5
   290          5
   291          5
   293         20
   294          5
   295         10
   296          5
   297         25
   298          5
   299         10
   300          5
   301         20
   302         15
   303         10
   304          5
   305          5
   307          5
   313         10
   314          5
   315         25
   316         10
   317         15
   318         10
   319         10
   320          5
   327         10
   328          5
   329          5
   330          5
   331          5
   332         10
   333          5
   334          5
   335          5
   337          5
   339          5
   341          5
   342          5
   343        105
   344         35
   345         15
   346          5
   353          5
   355         25
   356         10
   357         20
   358          5
   359         10
   360          5
   367          5
   368          5
   369          5
   370          5
   371         25
   372         20
   373        999
   374        330
   375        120
   376         25
   377          5
   379          5
   381          5
   385          5
   386         15
   387          5
   388          5
   389          5
   390          5
   392          5
   393          5
   405         10
   406          5
   407          5
   417          5
   419          5
   422          5
   429          5
   431          5
   432          5
   433         20
   434          5
   435          5
   443         30
   444         10
   445         20
   446         10
   447         20
   448         10
   449          5
   453         10
   454          5
   455          5
   458          5
   459          5
   460          2
   461         55
   462         45
   463        500
   464        210
   465         65
   466         20
   467          5
   475          5
   476         30
   477         15
   478          5
   494          5
   507          5
   519          5
   533         80
   534         40
   535         50
   536         20
   537          5
   538          5
   548         20
   549         10
   550          5
   551         40
   552         20
   553         10
   554          5
   565          5
   566         70
   567         35
   568         20
   569          5