##TITLE=Library Entry 30178
##JCAMP-DX=Revision 4.10 
##DATA TYPE=MASS SPECTRUM
##SAMPLE DESCRIPTION=R RYHAGE MS-LAB KAROLINSKA INSTITUTET STOCKHOLM SWEDEN
##NAMES=HP
##CAS NAME=Silane, trimethyl(1,5,7-trimethyl-2,4,6,8,9-pentathiatricyclo[3.3
.1.1(3,7)]dec-3-yl)-
##MOLFORM=C11H20S5Si
##CAS REGISTRY NO=57379-39-2
##MP= -300
##BP= -300
##MW= 340
##$RETENTION INDEX=0
##$CONDENSED SPECTRUM=NO
##NPOINTS= 224
##XYDATA=(XY..XY) 1 
    15         14
    16          1
    17          1
    18          7
    25          1
    26          7
    27         12
    28          4
    29         12
    30          1
    31          5
    32          6
    33          5
    34         13
    35          0
    36          1
    37          0
    38          1
    39         23
    40          4
    41         30
    42          6
    43         52
    44         18
    45        147
    46         10
    47          9
    48          1
    49          1
    50          2
    51          4
    52          2
    53         12
    54          2
    55          9
    56          9
    57         12
    58          4
    59        999
    60         32
    61          4
    62          1
    63          2
    64          2
    65          5
    66          2
    67         13
    68          2
    69          8
    70          2
    71          7
    72          5
    73        999
    74         85
    75         50
    76         18
    77         14
    78          2
    79          3
    80          0
    81          3
    82          1
    83         19
    84          9
    85         58
    86          4
    87          5
    88          0
    89          2
    90          9
    91         94
    92         11
    93         10
    94          1
    95          3
    96          1
    97         16
    98          3
    99         10
   100          1
   101          6
   102          2
   103          5
   104          1
   105         21
   106          3
   107          3
   108          1
   109          4
   110          3
   111         26
   112         10
   113          5
   114          2
   115         21
   116          5
   117        182
   118         50
   119         17
   120          4
   121          1
   122          1
   123          8
   124          2
   125          7
   126          2
   127          3
   128          1
   129          6
   130          1
   131         32
   132          4
   133         20
   134          2
   135          2
   139          1
   141         13
   142         23
   143         73
   144         23
   145        100
   146         10
   147         10
   148          1
   149         26
   150         10
   151          5
   152          2
   153          1
   155          5
   156          1
   157        105
   158         16
   159         12
   160          1
   161          2
   163          2
   165          3
   167          1
   169         61
   170         10
   171         44
   172          5
   173          5
   174          1
   175        111
   176         18
   177         17
   178          2
   179          1
   183          5
   184         12
   185         26
   186         13
   187          2
   188          1
   189        288
   190         47
   191         73
   192         10
   193          7
   194          1
   199          1
   200          1
   201         11
   202          3
   203        120
   204         18
   205         17
   206          2
   207          2
   208          6
   209          2
   210          1
   215          9
   216         58
   217        470
   218         61
   219         58
   220          8
   221         11
   222          1
   223          3
   233         33
   234          6
   235         14
   236          2
   237          2
   243          2
   247          3
   248         85
   249        217
   250         55
   251         44
   252          6
   253          3
   267         12
   268          4
   269          3
   270          1
   275         33
   276        267
   277         58
   278         52
   279          9
   280          3
   281          3
   283          0
   300          0
   307          1
   308          5
   309          1
   310          1
   325         17
   326          3
   327          4
   328          0
   329          0
   340         64
   341         13
   342         17
   343          3
   344          2
   345          0