##TITLE=Library Entry 4203
##JCAMP-DX=Revision 4.10 
##DATA TYPE=MASS SPECTRUM
##SAMPLE DESCRIPTION=D.HENNEBERG, MAX-PLANCK INSTITUTE, MULHEIM, WEST GERMAN
Y
##NAMES=HP
##CAS NAME=Borane, methylidynetris[diethyl-
##MOLFORM=C13H31B3
##CAS REGISTRY NO=57387-94-7
##MP= -300
##BP= -300
##MW= 220
##$RETENTION INDEX=0
##$CONDENSED SPECTRUM=NO
##NPOINTS= 143
##XYDATA=(XY..XY) 1 
    26         80
    27        223
    28         54
    29         27
    30          3
    31          2
    32          0
    35          4
    36         34
    37         80
    38         32
    39        106
    40        277
    41        999
    42         23
    43          1
    45          1
    46          0
    47          4
    48         13
    49         23
    50         38
    51         79
    52         21
    53         72
    54         27
    55         80
    56          8
    57         13
    58          0
    59          4
    60          8
    61         15
    62         24
    63         47
    64        110
    65        190
    66         16
    67         29
    68        111
    69        418
    70         18
    71          2
    72          4
    73          8
    74         13
    75         17
    76         18
    77         31
    78         27
    79         63
    80         12
    81         21
    82          2
    83          2
    84          2
    85          3
    86          2
    87          5
    88          4
    89          9
    90         10
    91         43
    92        285
    93        608
    94         32
    95         10
    97          3
    98          5
    99          1
   100          3
   101          5
   102          2
   103          6
   104         10
   105         13
   106          2
   107          4
   108          1
   109          5
   110          0
   112          3
   113          1
   115          2
   116          0
   117          2
   118          2
   119         17
   120        119
   121        235
   122         22
   123          5
   125          1
   127          3
   128          2
   129          4
   130          3
   131          4
   132          5
   133         10
   134          4
   135          4
   137          1
   139          3
   140          1
   141          1
   143          1
   147          2
   148          9
   149         13
   150          1
   155          2
   156          5
   157          4
   158          1
   159          1
   160          4
   161         14
   162         32
   163         44
   164          4
   165          1
   166          1
   176          2
   177          1
   183         11
   184         27
   185         23
   186          2
   187          1
   188          9
   189        105
   190        457
   191        650
   192         71
   193          5
   194          2
   197          1
   198          2
   199          3
   205          1
   218          2
   219          2