##TITLE=Library Entry 45425
##JCAMP-DX=Revision 4.10 
##DATA TYPE=MASS SPECTRUM
##SAMPLE DESCRIPTION=L.E. Slivon, Battelle Columbus Laboratories, Columbus,
 Ohio 43201
##NAMES=HP
##CAS NAME=Benzoic acid, 2,5-dibromo-, methyl ester
##MOLFORM=C8H6Br2O2
##CAS REGISTRY NO=57381-43-8
##MP= -300
##BP= -300
##MW= 292
##$RETENTION INDEX=0
##$CONDENSED SPECTRUM=NO
##NPOINTS= 134
##XYDATA=(XY..XY) 1 
    40         34
    45         75
    47          1
    48          7
    49         75
    50        123
    56          7
    59         87
    60         14
    61         20
    62          8
    63         41
    70          2
    71         13
    72          9
    73        162
    74        927
    75        999
    76         67
    78         30
    81         26
    82         44
    83          0
    84          1
    85          4
    86          7
    88         19
    89         29
    90         16
    99          0
   102          1
   103         11
   104          3
   106          4
   111          2
   112          1
   115          4
   116          7
   117         21
   118         10
   126          0
   127          3
   128         41
   129         14
   130         41
   131         25
   132          9
   133          3
   139          0
   141          6
   142         11
   143          6
   144         10
   146          0
   147          1
   153        111
   154        205
   155        140
   156        198
   157         48
   158          3
   161          3
   162          1
   163          0
   169          4
   170         37
   171          5
   172         31
   173          0
   175          1
   176          1
   179          2
   181          4
   182          7
   183         22
   184          6
   185         13
   186          1
   187          4
   190          1
   191          0
   193          1
   195          1
   197         14
   198         12
   199         17
   200         14
   202          1
   205          8
   206          5
   208          1
   209          8
   210          0
   212          3
   213         20
   214          6
   215         29
   216          5
   217          0
   218          3
   219          1
   221          1
   222          4
   224          3
   225          0
   231          0
   232          4
   233        128
   234         10
   235        237
   236         19
   237        121
   238          9
   239          4
   241          4
   247          4
   249          4
   250          3
   261        374
   262         29
   263        824
   264         48
   265        345
   266         30
   267          0
   275          4
   291          8
   292        147
   293         28
   294        234
   295         30
   296        142
   297          9
   298          4