##TITLE=Library Entry 85744
##JCAMP-DX=Revision 4.10 
##DATA TYPE=MASS SPECTRUM
##SAMPLE DESCRIPTION=D.HENNEBERG, MAX-PLANCK INSTITUTE, MULHEIM, WEST GERMAN
Y
##NAMES=HP
##CAS NAME=Cyclooctene,1-(diethylboryl)oxy-
##MOLFORM=C12H23BO
##CAS REGISTRY NO=57387-71-0
##MP= -300
##BP= -300
##MW= 194
##$RETENTION INDEX=0
##$CONDENSED SPECTRUM=NO
##NPOINTS= 97
##XYDATA=(XY..XY) 1 
    27        102
    28         64
    29         93
    30          2
    31          1
    32          7
    36          1
    37          6
    38          8
    39        101
    40         60
    41        354
    42         57
    43         80
    50          3
    51         12
    52         12
    53         91
    54         35
    55        305
    56         49
    57         71
    58          7
    59          5
    60          0
    61          0
    62          0
    63          2
    64          1
    65         31
    66         15
    67        936
    68         95
    69        126
    70        106
    71         11
    72          1
    73          0
    75          1
    76          0
    77         28
    78          6
    79         70
    80         20
    81        166
    82         56
    83         43
    84         26
    85          9
    86          0
    88          0
    91         16
    92          3
    93         15
    94          9
    95         27
    96         22
    97         42
    98         54
    99          7
   100          0
   103          0
   105          3
   106          0
   107         16
   108          8
   109        999
   110        138
   111         28
   112          2
   113          0
   121          0
   122          5
   123         25
   124         27
   125         52
   126         15
   127          2
   136          7
   137         32
   138         20
   139         57
   140          6
   141          1
   151          6
   152          1
   153          0
   164         17
   165         77
   166         21
   167          2
   168          1
   178          0
   179          1
   193         14
   194         56
   195          8