##TITLE=Library Entry 70565
##JCAMP-DX=Revision 4.10 
##DATA TYPE=MASS SPECTRUM
##SAMPLE DESCRIPTION=NIST Mass Spectrometry Data Center
##NAMES=HP
##CAS NAME=Ethyl 2-thiopheneacetate
##MOLFORM=C8H10O2S
##CAS REGISTRY NO=57382-97-5
##MP= -300
##BP= -300
##MW= 170
##$RETENTION INDEX=1998
##$CONDENSED SPECTRUM=NO
##NPOINTS= 63
##XYDATA=(XY..XY) 1 
    15          3
    26          7
    27         46
    29        122
    30          4
    31          3
    37          4
    38         11
    39         41
    40          1
    41          1
    42          3
    43          5
    44          2
    45        134
    46          4
    47         12
    48          5
    50         12
    51         21
    52         11
    53        104
    54          4
    55          2
    57         11
    58         21
    59          4
    60          1
    61          3
    62          8
    63         20
    64          2
    65          2
    68          1
    69         36
    70         22
    71         17
    72          1
    73          1
    81          3
    82          5
    83          1
    84          5
    85          6
    93          4
    95         15
    96         25
    97        999
    98         88
    99         59
   100          4
   111          3
   113          4
   124          7
   125          8
   126          1
   141          1
   142          2
   155          1
   170        266
   171         25
   172         14
   173          1