##TITLE=Library Entry 41889
##JCAMP-DX=Revision 4.10 
##DATA TYPE=MASS SPECTRUM
##SAMPLE DESCRIPTION=ACIR AROM MTMS SE30 05 1490 E M.HORN
##NAMES=HP
##CAS NAME=Methyl tropate, (.alpha.)-, TMS derivative
##MOLFORM=C13H20O3Si
##CAS REGISTRY NO=57397-46-3
##MP= -300
##BP= -300
##MW= 252
##$RETENTION INDEX=0
##$CONDENSED SPECTRUM=NO
##NPOINTS= 140
##XYDATA=(XY..XY) 1 
    40          5
    41         15
    42         10
    43         90
    44         45
    45        220
    46         20
    47         60
    48          5
    49          5
    50         20
    51         60
    52         25
    53         10
    54          5
    55         20
    56          5
    57         20
    58         80
    59        338
    60         30
    61         45
    62         10
    63         35
    64         15
    65         35
    66          5
    67          5
    68          5
    69         10
    70          5
    71         10
    72         40
    73        999
    74        205
    75        250
    76         30
    77        140
    78        110
    79         20
    80          5
    81         10
    82         25
    83         10
    84          5
    85          5
    86          5
    87         10
    88         20
    89        960
    90        205
    91        130
    92         10
    93         10
    94          5
    95          5
    96         10
    97         10
    98          5
    99          5
   101         10
   102         40
   103        998
   104        260
   105         75
   106         10
   107          5
   108          5
   109          5
   110          5
   111          5
   115         15
   116         15
   117         15
   118        880
   119         15
   120         15
   121         45
   122          5
   123          5
   124          5
   128          5
   129          5
   130          5
   131         25
   132         10
   133         15
   134          5
   135         15
   136          5
   137         10
   138          5
   143          5
   145         10
   146          5
   147         10
   148         10
   149         10
   150          5
   151         10
   159         15
   160          5
   161         35
   162         15
   163         20
   164          5
   165          5
   175          5
   176          5
   177        110
   178         25
   179         75
   180         15
   181          5
   191          5
   192         15
   193        145
   194         30
   195         10
   205          5
   206          5
   207          5
   208          5
   209         15
   210          5
   220          5
   221         10
   222        600
   223        105
   224         35
   225          5
   235          5
   236          5
   237        290
   238         50
   239         20
   240          5
   252         20
   253          5
   254          5