##TITLE=Library Entry 44922
##JCAMP-DX=Revision 4.10 
##DATA TYPE=MASS SPECTRUM
##SAMPLE DESCRIPTION=STER ANDR TMSI 00 0000 E M.HORN
##NAMES=HP
##CAS NAME=Androstan-3-ol, (3.alpha.,5.beta.)-, TMS derivative
##MOLFORM=C22H40OSi
##CAS REGISTRY NO=57397-25-8
##MP= -300
##BP= -300
##MW= 348
##$RETENTION INDEX=0
##$CONDENSED SPECTRUM=NO
##NPOINTS= 103
##XYDATA=(XY..XY) 1 
    41        350
    42         35
    43        210
    44         40
    45         80
    47         55
    53         90
    54         30
    55        460
    56         30
    57         40
    59         90
    61        120
    65         35
    67        475
    68         70
    69        160
    73        505
    74        999
    76        160
    77        185
    78         35
    79        350
    80         80
    81        680
    82         60
    83        140
    89         60
    91        270
    92         60
    93        380
    94        250
    95        900
    96         85
    97         75
   101         60
   105        160
   106         65
   107        280
   108        470
   109        380
   110         50
   111         60
   115         45
   116         25
   117         80
   118         35
   119        100
   120         55
   121        240
   122         90
   123        200
   124         70
   129        140
   130         90
   131        150
   132         60
   133        150
   134         60
   135        230
   136         50
   137        105
   138        110
   142        250
   143         50
   144         25
   145        180
   146         30
   147        235
   148        510
   149        395
   150         80
   155        220
   156         45
   159         95
   161        200
   162        645
   163        210
   164         30
   175        150
   176         55
   187         45
   188         45
   189         80
   201        130
   202        110
   203        140
   204         80
   215         60
   216         50
   217         60
   219         80
   229         30
   230        295
   231         65
   243        830
   244        150
   257        255
   258        998
   259        220
   333        295
   334         80
   348         25