##TITLE=Library Entry 42836
##JCAMP-DX=Revision 4.10 
##DATA TYPE=MASS SPECTRUM
##SAMPLE DESCRIPTION=STER ANDR TMSI 00 0000 E M.HORN
##NAMES=HP
##CAS NAME=Silane, [[(5.alpha.,11.beta.)-androsta-2,16-diene-11,17-diyl]bis(
oxy)]bis[trimethyl-
##MOLFORM=C25H44O2Si2
##CAS REGISTRY NO=57397-13-4
##MP= -300
##BP= -300
##MW= 432
##$RETENTION INDEX=0
##$CONDENSED SPECTRUM=NO
##NPOINTS= 173
##XYDATA=(XY..XY) 1 
    41        220
    43        150
    44         50
    45        150
    47         50
    53        100
    55        250
    57         90
    59        120
    61         70
    65         60
    67        250
    69         90
    71         60
    72         50
    73        999
    74        280
    75        950
    76         70
    77        250
    78         60
    79        400
    80         60
    81        300
    82         40
    83         50
    91        530
    92        310
    93        380
    94        150
    95        210
    96         40
    97        200
    98         40
   101        100
   103        160
   104        110
   105        560
   106        320
   107        400
   108        150
   109        180
   110         80
   111         60
   115         60
   116         60
   117        230
   118        140
   119        260
   120        100
   121        140
   122        180
   123        210
   124        140
   127         60
   128         60
   129        200
   130         60
   131        210
   132         60
   133        180
   134         90
   135         70
   136         40
   137         40
   141        220
   142         80
   143        320
   144        130
   145        240
   146        180
   147        330
   148        140
   149        130
   150         40
   151         60
   155         90
   156        990
   157        260
   158        120
   159        240
   160        160
   161        210
   162         40
   163         50
   164         60
   165        260
   166        150
   167        110
   168        910
   169        570
   170        160
   171        120
   172        130
   173        110
   174         60
   178         60
   179        170
   180         60
   181        190
   182        190
   183        170
   184        250
   185        170
   186        130
   187        110
   188         70
   193        140
   194         90
   195        250
   196        180
   197        120
   198         60
   199        240
   200         60
   201         40
   207         70
   208         30
   209         50
   211         90
   212         50
   213         60
   214        110
   215         40
   216         40
   219         40
   221         60
   226         60
   227         40
   233         50
   234         50
   235         60
   237        120
   242         40
   243         40
   247         40
   249        100
   250         70
   251         70
   252         70
   253         80
   255        220
   256        260
   257         90
   269         70
   270        680
   271        180
   283        150
   284         60
   285         40
   289        100
   304        230
   305         60
   315         50
   316         70
   317         70
   327        650
   328        160
   329         70
   341         50
   342        200
   343         60
   345         50
   360        280
   361         90
   362         30
   417        180
   418         60
   419         20
   432        650
   433        260
   434         80
   435         20