##TITLE=Library Entry 7303
##JCAMP-DX=Revision 4.10 
##DATA TYPE=MASS SPECTRUM
##SAMPLE DESCRIPTION=V.Zaikin,Topchiev Inst.Petrochem.Synth.,Moscow
##NAMES=HP
##CAS NAME=Trichloroacetic acid 3-methylbutyl ester
##MOLFORM=C7H11Cl3O2
##CAS REGISTRY NO=57392-55-9
##MP= -300
##BP= -300
##MW= 232
##$RETENTION INDEX=1208
##$CONDENSED SPECTRUM=NO
##NPOINTS= 114
##XYDATA=(XY..XY) 1 
    25          2
    26         14
    27         96
    28         18
    29        166
    30          4
    31          6
    35         10
    36         56
    37          3
    38         18
    39         86
    40         17
    41        292
    42        151
    43        999
    44         10
    45          5
    47         21
    48          5
    49          9
    50          7
    51         11
    52         13
    53         26
    54         13
    55        566
    56         61
    57        321
    58         15
    59          3
    61          2
    62          1
    63         52
    64          2
    65         16
    66          1
    67          7
    68          5
    69        134
    70        453
    71        417
    72         24
    73          2
    75          3
    76          7
    77          2
    78          3
    79         20
    80          3
    81          1
    82         74
    83         21
    84         46
    85         13
    86          8
    87          4
    89          1
    91          2
    93          2
    96          1
    99          3
   101          2
   110         86
   111          6
   112         56
   113          4
   114         10
   115          1
   117        177
   118          2
   119        171
   120          2
   121         54
   123          6
   127         16
   128         34
   129         12
   130         22
   131          3
   132          4
   141          1
   142          3
   143          1
   144          1
   145          5
   146          3
   147          6
   148          2
   149          3
   154          3
   155          2
   156          3
   157          2
   163         11
   165         10
   167          4
   175          1
   176          9
   177          2
   178          9
   179          1
   180          3
   189         16
   190         18
   191         17
   192         18
   193          6
   194          6
   197          4
   199          3
   203          2
   205          3
   207          1