##TITLE=Library Entry 86633
##JCAMP-DX=Revision 4.10 
##DATA TYPE=MASS SPECTRUM
##SAMPLE DESCRIPTION=R RYHAGE MS-LAB KAROLINSKA INSTITUTET STOCKHOLM SWEDEN
##NAMES=HP
##CAS NAME=1-Naphthalenepropanol, .alpha.-ethyldecahydro-4-hydroxy-.alpha.,2
,5,5,8a-pentamethyl-, [1S-[1.alpha.(R*),2.alpha.,4.alpha.,4a.beta.,8a.alpha.
]]-
##MOLFORM=C20H38O2
##CAS REGISTRY NO=57397-30-5
##MP= -300
##BP= -300
##MW= 310
##$RETENTION INDEX=0
##$CONDENSED SPECTRUM=NO
##NPOINTS= 196
##XYDATA=(XY..XY) 1 
    16          8
    17         53
    18        213
    27         31
    28         57
    29         72
    31          8
    32          8
    39         48
    40         14
    41        336
    42         31
    43        228
    44        128
    45         16
    51         12
    52          8
    53         84
    54         26
    55        530
    56         79
    57        184
    58         19
    59         23
    65         36
    66         19
    67        231
    68         98
    69        891
    70        173
    71        202
    72         25
    73        120
    74         12
    77         99
    78         28
    79        173
    80         72
    81        470
    82        195
    83        482
    84        173
    85        152
    86         16
    87          8
    89          7
    91        155
    92         41
    93        282
    94        155
    95        771
    96        152
    97        314
    98        148
    99         52
   100          7
   101          7
   103         17
   104         12
   105        155
   106         55
   107        430
   108        137
   109        999
   110        152
   111        199
   112         53
   113         40
   114         10
   115         19
   116         11
   117         25
   118         11
   119        177
   120         66
   121        368
   122        173
   123        530
   124        267
   125        343
   126         45
   127         22
   128         14
   129         20
   130         10
   131         25
   132         11
   133        119
   134         60
   135        530
   136        590
   137        275
   138         61
   139        119
   140         57
   141         20
   142         10
   143         12
   144          8
   145         22
   146         11
   147        100
   148         61
   149        177
   150        195
   151        170
   152         95
   153        819
   154        137
   155         23
   156          8
   157         10
   158          7
   159         18
   160         10
   161        118
   162         57
   163        152
   164         85
   165         43
   166         22
   167         24
   168         13
   169         10
   171          8
   173         17
   174          8
   175         89
   176         45
   177        108
   178         98
   179         45
   180         14
   181         11
   183          8
   185          6
   187         10
   189        951
   190        188
   191        379
   192        148
   193         65
   194         45
   195         18
   197         16
   199         10
   200         10
   201         11
   202         13
   203         43
   204        184
   205        104
   206         26
   207        361
   208         92
   209         39
   210          8
   211          6
   213          6
   214          6
   215          6
   216          6
   217         43
   218         20
   219         12
   220          7
   221         19
   222         17
   223         11
   224          6
   225          6
   227          6
   229          7
   231         28
   232         10
   233          7
   235         10
   236         12
   239          7
   241          6
   243          8
   245         59
   246         16
   248         16
   249         10
   257          7
   259        206
   260         46
   261          8
   263         20
   274        238
   275         57
   277         72
   278         14
   292         72
   293         17