##TITLE=Library Entry 41350
##JCAMP-DX=Revision 4.10 
##DATA TYPE=MASS SPECTRUM
##SAMPLE DESCRIPTION=STER PREG TMSI 00 0000 E M.HORN
##NAMES=HP
##CAS NAME=11-Deoxytetrahydrocortisol, 3TMS derivative
##MOLFORM=C30H58O4Si3
##CAS REGISTRY NO=57397-20-3
##MP= -300
##BP= -300
##MW= 566
##$RETENTION INDEX=2981
##$CONDENSED SPECTRUM=NO
##NPOINTS= 274
##XYDATA=(XY..XY) 1 
    41        320
    42         30
    43        210
    44         80
    45        190
    47         80
    50         20
    51         20
    52         20
    53         70
    54         30
    55        475
    56         40
    57        110
    58         30
    59        140
    60         25
    61        110
    65         30
    66         30
    67        450
    68         70
    69        290
    70         20
    71         80
    72         80
    73        999
    74        470
    75        999
    76        150
    77        190
    78         30
    79        400
    80         70
    81        650
    82         60
    83        150
    84         20
    85         70
    87         30
    88         20
    89         80
    91        420
    92         80
    93        600
    94        130
    95        510
    96         60
    97         60
    99         55
   101        100
   103        999
   104        115
   105        550
   106        120
   107        600
   108        120
   109        230
   110         30
   111         40
   113         40
   115        100
   116         50
   117        240
   118         60
   119        350
   120        110
   121        290
   122         60
   123         80
   125         20
   127         90
   128         40
   129        410
   130        120
   131        330
   132         70
   133        420
   134         90
   135        210
   136         40
   137         40
   141        150
   142        150
   143        600
   144        100
   145        340
   146         70
   147        999
   148        200
   149        350
   150         40
   151         40
   153         20
   154         20
   155        220
   156         70
   157        240
   158         90
   159        320
   160         80
   161        280
   162         70
   163        140
   164         25
   165         40
   166         20
   167         40
   168         30
   169        170
   170         60
   171        140
   172         60
   173        230
   174        120
   175        160
   176         30
   177         60
   178         20
   179         60
   180         30
   181        100
   182         50
   183        100
   184         40
   185        130
   186         50
   187        120
   188         40
   189        170
   190         40
   191         80
   193         70
   194         30
   195        115
   196         40
   197         80
   198         30
   199        115
   200         40
   201        180
   202         50
   203        115
   204        110
   205        130
   206         30
   207         60
   208         20
   209         60
   210         60
   211         85
   212         20
   213        180
   214         70
   215        330
   216        120
   217        210
   218        420
   219        160
   220         60
   221         60
   222         20
   223         40
   224         30
   225         55
   226         30
   227         80
   228        350
   229        170
   230         70
   231        700
   232        190
   233         90
   234         20
   235         30
   237         25
   239         50
   240         40
   241         90
   242         40
   243         40
   244         30
   245         75
   246         20
   247         50
   249         50
   251         20
   253        115
   254         40
   255        999
   256        490
   257        310
   258         60
   259         30
   263         30
   265         50
   267         40
   268         70
   269         80
   270         20
   271         20
   273         40
   277         20
   279        130
   280         40
   281         30
   283        500
   284        120
   285         20
   296         20
   297         50
   318         40
   319         30
   329         40
   330         30
   331         50
   332         25
   343         60
   344         20
   345        720
   346        230
   347         90
   348         20
   355         20
   357         50
   358         30
   359         40
   369         70
   370         30
   371        100
   372         30
   373        140
   374         70
   375         80
   376         30
   419         30
   420         40
   421         90
   422         30
   433         80
   434         40
   435        999
   436        380
   437        140
   438         30
   447         40
   448         60
   449         30
   450         15
   459         25
   460         15
   461        100
   462         40
   463        160
   464         65
   465         20
   476         25
   477         10
   521         90
   522         40
   523         20
   536        350
   537        180
   538        410
   539        240
   540         90
   541         30
   551         80
   552         40
   553         20
   566        570
   567        270
   568        130
   569         40