##TITLE=Library Entry 24220
##JCAMP-DX=Revision 4.10 
##DATA TYPE=MASS SPECTRUM
##SAMPLE DESCRIPTION=EP-1267
##NAMES=HP
##CAS NAME=Octadecanoic acid, 2-[(1-oxotetradecyl)oxy]-1,3-propanediyl ester
##MOLFORM=C53H102O6
##CAS REGISTRY NO=57396-99-3
##MP= -300
##BP= -300
##MW= 834
##$RETENTION INDEX=0
##$CONDENSED SPECTRUM=NO
##NPOINTS= 442
##XYDATA=(XY..XY) 1 
    26          6
    27         61
    28         23
    29        196
    30          5
    31          9
    32          1
    35          4
    36         22
    37          2
    38          8
    39         35
    40          8
    41        404
    42         86
    43        928
    44         31
    45         20
    46          1
    47          1
    50          1
    51          3
    52          1
    53         14
    54         41
    55        443
    56        111
    57        999
    58         47
    59         19
    60        239
    61         71
    62          3
    63          1
    65          3
    66          4
    67         96
    68         45
    69        304
    70         64
    71        489
    72         30
    73        243
    74         30
    75          5
    76          1
    77          4
    78          3
    79         18
    80         10
    81        114
    82         44
    83        218
    84        139
    85        268
    86         20
    87         46
    88          6
    89          2
    91          4
    92          2
    93         18
    94          9
    95        136
    96         36
    97        161
    98        214
    99         64
   100         19
   101         20
   102          7
   103          3
   104          1
   105          3
   106          1
   107         14
   108          5
   109         75
   110         18
   111         89
   112         64
   113         37
   114          7
   115         26
   116         30
   117         14
   118          2
   119          2
   120          2
   121         21
   122          4
   123         37
   124         10
   125         23
   126         10
   127         15
   128          3
   129         79
   130          9
   131          2
   132          1
   133          1
   134          1
   135         10
   136          3
   137         12
   138          5
   139          8
   140          4
   141          7
   142          1
   143         11
   144          3
   145          1
   147          1
   148          1
   149          5
   150          1
   151          5
   152          3
   153          5
   154          4
   155          4
   156          1
   157          6
   158         31
   159          5
   160          1
   161          1
   162          1
   163          3
   164          1
   165          3
   166          3
   167          4
   168          3
   169          4
   170          3
   171         55
   172          9
   173          2
   174          1
   175          1
   176          1
   177          1
   178          1
   179          2
   180          2
   181          3
   182          2
   183         10
   184          3
   185         29
   186          5
   187          1
   190          1
   191          2
   192          1
   193          2
   194          1
   195          2
   196          2
   197          3
   198          1
   199          9
   200          2
   201          1
   205          1
   206         46
   207          1
   208          1
   209          3
   210          3
   211         61
   212         10
   213         11
   214          3
   215          1
   219          1
   220          1
   221          1
   222          3
   223          2
   224          2
   225          4
   226          1
   227         28
   228          6
   229          2
   235          1
   236          1
   237          1
   238          1
   239          5
   240          1
   241         24
   242          5
   243          1
   247          2
   248          1
   249          3
   250          1
   251          1
   252          2
   253          4
   254          1
   255          9
   256          3
   257          1
   262          1
   263          1
   264          2
   265          4
   266         10
   267         89
   268         19
   269         12
   270          3
   271          1
   279          1
   280          1
   281          4
   282          2
   283         20
   284         17
   285         46
   286          9
   287          2
   290          1
   293          1
   294          1
   295          3
   296          1
   297          9
   298          3
   299          1
   303          1
   304          1
   307          1
   308          4
   309          4
   310          1
   311          5
   312          2
   313          2
   314          1
   321          1
   322          1
   323          2
   324          2
   325          6
   326         14
   327         11
   328          3
   329          1
   336          1
   337          2
   338          2
   339         89
   340         24
   341         64
   342         16
   343          3
   344          1
   349          1
   351          1
   352          1
   353         10
   354          3
   355          1
   359          3
   360          1
   365          2
   366          1
   367          8
   368          3
   369          2
   370          1
   379          1
   380          1
   381         11
   382         24
   383         15
   384          4
   385          1
   393          3
   394          2
   395        168
   396         49
   397          8
   398          2
   399          1
   400          1
   401          1
   407          1
   408          1
   409         16
   410          5
   411          1
   412          1
   413          1
   414          1
   421          2
   422          1
   423          8
   424          4
   425          1
   426          1
   427          1
   435          1
   436          1
   437         28
   438         10
   439          3
   440          1
   442          1
   443          1
   448          1
   449          2
   450          1
   451         71
   452         28
   453          6
   454          1
   463          1
   464          1
   465         22
   466          9
   467          3
   468          1
   476          1
   477          2
   478          1
   479         16
   480          7
   481          3
   482          1
   491          1
   492          1
   493         25
   494         11
   495          4
   496          1
   505          1
   506          1
   507         86
   508         34
   509          8
   510          2
   511          1
   512          1
   519          1
   520          1
   521         35
   522         18
   523         10
   524          3
   525          1
   526          1
   532          1
   533          1
   534          1
   535         11
   536          7
   537         11
   538          8
   539          2
   540          1
   547          1
   548          3
   549         33
   550        111
   551        389
   552        146
   553         32
   554          6
   555          1
   561          1
   562          1
   563         29
   564         13
   565          4
   566          1
   567          1
   568          1
   569          1
   577         10
   578          7
   579          8
   580          3
   581          1
   591          3
   592          9
   593          4
   594          1
   595          5
   596          2
   597          1
   604          2
   605         16
   607        150
   608         61
   609         15
   610          4
   611          1
   620          4
   621          2
   622          1
   623          1
   633          1
   634          2
   635          2
   636          1
   648         11
   649          5
   650          1
   651          6
   652          3
   653          1
   661          1
   662          1
   663          1
   666          2
   667          1
   676          3
   677          1
   678          1
   690          2
   691          1
   704          2
   705          1
   718          2
   719          1
   732          1
   733          1
   746          1
   747          1
   760          1
   761          1
   775          1
   818          2
   819          1