##TITLE=Library Entry 80413
##JCAMP-DX=Revision 4.10 
##DATA TYPE=MASS SPECTRUM
##SAMPLE DESCRIPTION=EP-1257
##NAMES=HP
##CAS NAME=Estr-4-en-3-one, 17-(1-oxo-3-phenylpropoxy)-, 3-(O-methyloxime),
 (17.beta.)-
##MOLFORM=C28H37NO3
##CAS REGISTRY NO=57397-27-0
##MP= -300
##BP= -300
##MW= 435
##$RETENTION INDEX=0
##$CONDENSED SPECTRUM=NO
##NPOINTS= 205
##XYDATA=(XY..XY) 1 
    39         16
    41         70
    42         12
    43         39
    45         12
    50          4
    51         15
    52          5
    53         25
    54         12
    55        101
    56         14
    57         16
    58          5
    59          1
    60          2
    63          7
    65         44
    66         13
    67         80
    68         13
    69         27
    70         12
    71         11
    72          3
    74          3
    76          3
    77         99
    78         48
    79        189
    80         42
    81        105
    82         20
    83         12
    84          4
    85          7
    87          9
    89          8
    90         12
    91        803
    92         86
    93        120
    94         37
    95         61
    96         16
    97         14
    98          4
    99         11
   100          4
   102          4
   103         55
   104        101
   105        999
   106        147
   107        115
   108         62
   109         51
   110         17
   111         34
   112         28
   113          3
   115         24
   116         20
   117         66
   118         31
   119         62
   120         33
   121         31
   122         28
   123         12
   124          8
   125         21
   126         12
   127          8
   128         16
   129         35
   130         37
   131         70
   132         48
   133        350
   134         56
   135         56
   136         16
   137        279
   138        152
   139        441
   140         16
   141         16
   142         10
   143         54
   144         38
   145         69
   146         42
   147         58
   148         35
   149         16
   150         12
   151         13
   152         18
   153          5
   154          4
   155         15
   156         19
   157         27
   158         39
   159         29
   160         21
   161         14
   162         11
   163          8
   164         10
   165          5
   166          2
   167          5
   168          4
   169         16
   170         12
   171         25
   172         18
   173         10
   174         11
   175          8
   176         11
   177          8
   178          5
   179          4
   187          6
   188          2
   189          5
   190         11
   191         16
   192         19
   193          8
   194          3
   195         12
   196          8
   197         28
   198         18
   199         12
   200          8
   201          2
   202          3
   203          4
   204          4
   205          2
   206          1
   207          9
   208          4
   209          6
   210          8
   211         11
   212          9
   213          9
   214          6
   215          4
   216          2
   217          1
   221          5
   222          3
   223          3
   224          9
   225          9
   226          7
   227          4
   228          3
   229          1
   230          1
   236          2
   237         18
   238         12
   239          9
   240          3
   242          1
   243          2
   244          2
   246          4
   252          5
   253          6
   254         65
   255         17
   256         12
   257          6
   258          1
   270          7
   271          2
   272         16
   273          4
   281          1
   282          1
   283          1
   284          1
   285          7
   286         15
   287          2
   302          2
   303         40
   304          8
   401          1
   402          1
   403          5
   404          8
   405          3
   435         47
   436         13
   437          2