##TITLE=Library Entry 107684
##JCAMP-DX=Revision 4.10 
##DATA TYPE=MASS SPECTRUM
##SAMPLE DESCRIPTION=R RYHAGE MS-LAB KAROLINSKA INSTITUTET STOCKHOLM SWEDEN
##NAMES=HP
##CAS NAME=1-Phenanthrenecarboxylic acid, 7-ethenyl-1,2,4a,4b,5,6,7,8,10,10a
-decahydro-3-hydroxy-4a,7-dimethyl-2-oxo-, methyl ester, [1S-(1.alpha.,4a.be
ta.,4b.alpha.,7.alpha.,10a.alpha.)]-
##MOLFORM=C20H26O4
##CAS REGISTRY NO=57397-04-3
##MP= -300
##BP= -300
##MW= 330
##$RETENTION INDEX=0
##$CONDENSED SPECTRUM=NO
##NPOINTS= 199
##XYDATA=(XY..XY) 1 
    12          7
    14         14
    15        199
    16         16
    17         20
    18         69
    26         22
    27        163
    28         92
    29        235
    30         14
    31         33
    32         10
    33         24
    37         10
    38         17
    39        220
    40         56
    41        510
    42         63
    43        469
    44         54
    45         37
    50         17
    51         51
    52         29
    53        122
    54         23
    55        175
    56         24
    57         31
    58          5
    59        120
    60          6
    61          7
    62          5
    63         18
    64         10
    65         75
    66         27
    67         94
    68         17
    69        104
    70         23
    71         39
    72          7
    73         17
    74          6
    75          8
    76          7
    77        145
    78         54
    79        173
    80         40
    81         88
    82         23
    83         38
    84          7
    85         15
    87          6
    89         11
    90          7
    91        224
    92         65
    93        149
    94         34
    95         71
    96         18
    97         17
    98          7
    99         27
   100          7
   101         16
   102         12
   103         39
   104         22
   105        235
   106         52
   107         83
   108         34
   109        306
   110        299
   111         38
   112          8
   113          7
   114         24
   115         73
   116         33
   117         69
   118         20
   119         94
   120        163
   121        435
   122         62
   123        114
   124        999
   125         98
   126         10
   127         24
   128         86
   129         69
   130         26
   131         71
   132         19
   133         42
   134         52
   135        129
   136         27
   137        133
   138         32
   139         16
   141         36
   142         31
   143         49
   144         27
   145         92
   146         25
   147         42
   148         13
   149         25
   150          8
   151         38
   152        226
   153         50
   154         10
   155         15
   156          7
   157         22
   158         15
   159         61
   160         14
   161         14
   162          5
   163          5
   165         18
   166          8
   167          8
   168          5
   169         10
   170          5
   171         13
   172          9
   173         31
   174         20
   175         17
   180         10
   181         12
   183          7
   184          5
   185         12
   186          5
   187         22
   188          5
   189          5
   195          7
   196          5
   197         16
   199          8
   200          5
   201         27
   202         13
   203          7
   211         12
   213         14
   214         12
   215         27
   216         11
   217          5
   227          5
   229         31
   230          7
   231         10
   233         12
   234         16
   239         27
   240          5
   243          5
   244         12
   245          9
   247          7
   255          7
   257         92
   258         15
   272         27
   273         51
   274         19
   275         37
   276          6
   289         18
   299         24
   300          5
   301         20
   302         26
   303          5
   315        394
   316         79
   317          9
   330         84
   331         15