##TITLE=Library Entry 70252
##JCAMP-DX=Revision 4.10 
##DATA TYPE=MASS SPECTRUM
##SAMPLE DESCRIPTION=Insect Chem. Ecol. Lab., USDA, Beltsville, MD 20705
##NAMES=HP
##CAS NAME=2-Cyclopenten-1-one, 2-methyl-3-pentyl-
##MOLFORM=C11H18O
##CAS REGISTRY NO=5739-17-3
##MP= -300
##BP= -300
##MW= 166
##$RETENTION INDEX=0
##$CONDENSED SPECTRUM=NO
##NPOINTS= 108
##XYDATA=(XY..XY) 1 
    41        329
    42         64
    43        195
    44          8
    45         26
    46          0
    47          2
    49         11
    50         10
    51         34
    52         29
    53        114
    54         42
    55        163
    56         30
    57         26
    58          4
    59          7
    60        143
    61         23
    62          3
    63          9
    64          3
    65         59
    66         49
    67        248
    68        151
    69         58
    70         61
    71         32
    72          5
    73         69
    74         12
    75          1
    77         44
    78         16
    79        113
    80         31
    81        135
    82         78
    83         72
    84        158
    85         27
    86          7
    87         37
    88          3
    89          1
    91         36
    92          8
    93         41
    94         53
    95        244
    96        867
    97        999
    98         81
    99          8
   100          4
   101         10
   102          1
   103          3
   104          1
   105         18
   106         10
   107         21
   108         25
   109        332
   110        229
   111         87
   112         16
   113         11
   114          1
   115          2
   117          4
   118          2
   119         57
   120         11
   121         11
   122         51
   123        287
   124         83
   125         28
   126          5
   127          1
   130          2
   131          4
   133         20
   134          2
   135          6
   136          6
   137        416
   138         74
   139         15
   140          4
   147          4
   148         23
   149          7
   150          5
   151         50
   152         31
   153         12
   154          6
   155          0
   164          3
   165         63
   166        666
   167        369
   168         47
   169          5