##TITLE=Library Entry 43343
##JCAMP-DX=Revision 4.10 
##DATA TYPE=MASS SPECTRUM
##SAMPLE DESCRIPTION=ACIR ALIP MTMS SE30 05 1786 E M.HORN
##NAMES=HP
##CAS NAME=D-Erythro-Hex-2-enonic acid, 2,3-di-O-methyl-5,6-bis-O-(trimethyl
silyl)-, .gamma.-lactone
##MOLFORM=C14H28O6Si2
##CAS REGISTRY NO=57397-28-1
##MP= -300
##BP= -300
##MW= 348
##$RETENTION INDEX=0
##$CONDENSED SPECTRUM=NO
##NPOINTS= 167
##XYDATA=(XY..XY) 1 
    41         40
    42         15
    43        120
    44         75
    45        320
    46         25
    47         50
    51          5
    52         10
    53         20
    54          5
    55         50
    56         15
    57         50
    58         50
    59        305
    60         25
    61         45
    63          5
    65          5
    66         25
    67         10
    68         25
    69         50
    70         15
    71         25
    72        105
    73        999
    74        210
    75        235
    76         15
    77         15
    79         10
    80          5
    81         10
    82          5
    83         30
    84          5
    85         25
    86         10
    87         45
    88         20
    89        320
    90         30
    91         20
    93          5
    94          5
    95         10
    96          5
    97          5
    98         10
    99         45
   100         20
   101         90
   102         20
   103         70
   104         10
   105         20
   106          5
   108          5
   109          5
   110          5
   111         15
   112          5
   113         25
   114          5
   115         40
   116         20
   117        880
   118         85
   119         55
   120          5
   121          5
   123          5
   124          5
   125         25
   126          5
   127         15
   128          5
   129         20
   130         10
   131         35
   132         10
   133        150
   134         20
   135         15
   139          5
   140          5
   141         25
   142          5
   143        180
   144         35
   145         10
   146          5
   147        730
   148        120
   149         70
   150          5
   151          5
   155          5
   156         10
   157         15
   158          5
   159         15
   160          5
   161          5
   163         15
   164          5
   169         15
   170          5
   171         10
   173        140
   174         20
   175         15
   177         10
   183          5
   184          5
   185          5
   186         10
   187          5
   189         15
   190          5
   191          5
   199         20
   200          5
   201         10
   202          5
   203          5
   204         15
   205        420
   206         80
   207         40
   208          5
   211          5
   213          5
   215         20
   216        998
   217        160
   218         50
   219          5
   227          5
   229         80
   230         15
   231          5
   243         20
   244          5
   245         15
   246          5
   258         55
   259         10
   260         10
   273          5
   274          5
   275          5
   289         20
   290          5
   291          5
   301          5
   303         30
   304         10
   305          5
   333         75
   334         20
   335         10
   348          7
   349          3
   350          2