##TITLE=Library Entry 43342
##JCAMP-DX=Revision 4.10 
##DATA TYPE=MASS SPECTRUM
##SAMPLE DESCRIPTION=ACIR ALIP MTMS SE30 05 1820 E M.HORN
##NAMES=HP
##CAS NAME=L-Ascorbic acid, 2,3-di-O-methyl-5,6-bis-O-(trimethylsilyl)-
##MOLFORM=C14H28O6Si2
##CAS REGISTRY NO=57397-26-9
##MP= -300
##BP= -300
##MW= 348
##$RETENTION INDEX=0
##$CONDENSED SPECTRUM=NO
##NPOINTS= 131
##XYDATA=(XY..XY) 1 
    41         15
    42          5
    43         35
    44         25
    45        105
    46         10
    47         15
    52          5
    53          5
    55         15
    56          5
    57         15
    58         15
    59        115
    60         10
    61         15
    66         15
    67          5
    68         10
    69         15
    70          5
    71         10
    72         35
    73        999
    74         90
    75        100
    76          5
    77          5
    81          5
    83         15
    84          5
    85         10
    86          5
    87         20
    88         10
    89        150
    90         15
    91         10
    94          5
    95          5
    97          5
    98          5
    99         20
   100          5
   101         35
   102         15
   103         30
   104          5
   105          5
   107          5
   111         10
   113         10
   114          5
   115         15
   116          5
   117        420
   118         40
   119         25
   120          5
   125         10
   127          5
   128          5
   129         10
   130          5
   131         15
   132          5
   133         60
   134         10
   135          5
   141         10
   142          5
   143        110
   144         15
   145          5
   147        400
   148         65
   149         40
   150          5
   155          5
   156          5
   157          5
   159          5
   163         10
   169         10
   170          5
   171          5
   173         80
   174         10
   175          5
   184          5
   185          5
   186          5
   189         10
   199         10
   200          5
   201          5
   204         10
   205        270
   206         55
   207         25
   208          5
   211          5
   213          5
   214          5
   215         15
   216        800
   217        120
   218         35
   219          5
   227          5
   229         55
   230         10
   231          5
   243         20
   244          5
   245         15
   246          5
   258         45
   259         10
   260          5
   275          5
   276          5
   289          5
   301          5
   303         15
   304          5
   333        100
   334         20
   335         10
   348         10
   349          5