##TITLE=Library Entry 43373
##JCAMP-DX=Revision 4.10 
##DATA TYPE=MASS SPECTRUM
##SAMPLE DESCRIPTION=DRUS BARB MTMS 00 0000 E M.HORN
##NAMES=HP
##CAS NAME=2,4,6(1H,3H,5H)-Pyrimidinetrione, 5-[2,3-bis[(trimethylsilyl)oxy]
-2-propenyl]-1,3-dimethyl-5-(1-methylbutyl)-
##MOLFORM=C20H38N2O5Si2
##CAS REGISTRY NO=57397-41-8
##MP= -300
##BP= -300
##MW= 442
##$RETENTION INDEX=0
##$CONDENSED SPECTRUM=NO
##NPOINTS= 243
##XYDATA=(XY..XY) 1 
    41        170
    42         60
    43        200
    44         70
    45        190
    46         20
    47         40
    48          5
    49         10
    50         20
    51         30
    52         70
    53         30
    54         20
    55        110
    56         40
    57         80
    58         40
    59        130
    60         20
    61         30
    62          5
    63         10
    64          5
    65         20
    66         90
    67         60
    68        170
    69         70
    70         40
    71         60
    72         40
    73        999
    74        150
    75        360
    76         30
    77         40
    78         30
    79         70
    80         20
    81         50
    82         40
    83         50
    84         20
    85         30
    86         10
    87         30
    88         10
    89         40
    90         10
    91         30
    92         10
    93         70
    94         20
    95         50
    96         40
    97         50
    98         20
    99         40
   100         30
   101         40
   102         10
   103         60
   104         20
   105         20
   106         10
   107         10
   108         20
   109         30
   110         20
   111         30
   112         30
   113         30
   114          5
   115         20
   116         20
   117         50
   118         10
   119         20
   120          5
   121         10
   122          5
   123         20
   124         20
   125         30
   126         10
   127         20
   128         10
   129        160
   130         50
   131         60
   132         20
   133         80
   134         20
   135         30
   136         20
   137         10
   138         20
   139         10
   140         30
   141         10
   142         10
   143         30
   144         10
   145         30
   146         20
   147        750
   148        120
   149        110
   150         20
   151         20
   152         10
   153         20
   154         10
   155         10
   156         40
   157         30
   158          5
   159         20
   160          5
   161         10
   162          5
   163         10
   164          5
   165         10
   166         10
   167         20
   168         10
   169         40
   170         20
   171         10
   172          5
   173          5
   174          5
   175         10
   176          5
   177         10
   178          5
   179         10
   180         10
   181         60
   182         20
   183         30
   184         10
   185          5
   186          5
   189         20
   190          5
   191         40
   192         10
   193         20
   194         10
   195         20
   196         20
   197         30
   198         10
   199          5
   203         20
   204         30
   205         10
   207        110
   208         30
   209         30
   210         10
   211         10
   212          5
   213         60
   214         10
   215          5
   217        999
   218        230
   219        100
   220         20
   221         50
   222         10
   223         20
   224         10
   225         20
   226         10
   227         10
   228         40
   229         10
   235          5
   238          5
   239         10
   240          5
   241         20
   242          5
   243          5
   247          5
   249          5
   251          5
   253         10
   255        150
   256         40
   257         10
   258          5
   265          5
   267         40
   268         10
   269         50
   270         10
   271         80
   272         20
   273          5
   281         70
   282         60
   283        100
   284         30
   285         10
   286          5
   295         10
   296          5
   297         10
   298         10
   299         10
   300          5
   301         10
   313         10
   314          5
   315          5
   327         20
   337          5
   341        150
   342         40
   343         20
   344         10
   345          5
   355         20
   356         10
   357         40
   358         10
   359          5
   371         90
   372         50
   373         10
   374          5
   427         20
   428          5
   429          5
   442        160
   443         50
   444         30