##TITLE=Library Entry 82538
##JCAMP-DX=Revision 4.10 
##DATA TYPE=MASS SPECTRUM
##SAMPLE DESCRIPTION=ACIR AROM METH SE30 05 1687 E M.HORN
##NAMES=HP
##CAS NAME=Glycine, N-(3-pyridinylcarbonyl)-, methyl ester
##MOLFORM=C9H10N2O3
##CAS REGISTRY NO=57397-47-4
##MP= -300
##BP= -300
##MW= 194
##$RETENTION INDEX=1634
##$CONDENSED SPECTRUM=NO
##NPOINTS= 48
##XYDATA=(XY..XY) 1 
    41         11
    42         12
    43         15
    44         15
    45         32
    47         18
    49         10
    50         82
    51        300
    52         62
    53         25
    55          5
    56         22
    58          5
    59         25
    61          5
    65          5
    68          8
    73         50
    74          6
    75        120
    76         23
    77         35
    78        525
    79         71
    80          7
    88         10
    93         16
    95          6
   104          5
   105         12
   106        999
   107        115
   108          8
   118          5
   134         10
   135        280
   136         28
   138          6
   147         10
   151         10
   162        150
   163         33
   164         26
   165          7
   176          5
   194        100
   195         15