##TITLE=Library Entry 43004
##JCAMP-DX=Revision 4.10 
##DATA TYPE=MASS SPECTRUM
##SAMPLE DESCRIPTION=DRUS BARB MMOT SE30 05 2119 E M.HORN
##NAMES=HP
##CAS NAME=2,4,6(1H,3H,5H)-Pyrimidinetrione, 5-[2-(methoxyimino)-3-[(trimeth
ylsilyl)oxy]propyl]-1,3-dimethyl-5-(1-methylbutyl)-
##MOLFORM=C18H33N3O5Si
##CAS REGISTRY NO=57397-43-0
##MP= -300
##BP= -300
##MW= 399
##$RETENTION INDEX=0
##$CONDENSED SPECTRUM=NO
##NPOINTS= 239
##XYDATA=(XY..XY) 1 
    41        205
    42         90
    43        330
    44         35
    45        220
    46         10
    47         20
    51          5
    52         15
    53         80
    54         65
    55        220
    56         60
    57         30
    58        180
    59        185
    60         20
    61         25
    63          5
    65         15
    66         40
    67         50
    68         30
    69         70
    70         45
    71         60
    72         45
    73        999
    74        190
    75        250
    76         15
    77         20
    78         10
    79         20
    80         25
    81         35
    82         30
    83         60
    84        110
    85         80
    86         65
    87         15
    88         65
    89        520
    90         45
    91         30
    92         10
    93         20
    94         95
    95         40
    96         30
    97         20
    98         20
    99         20
   100        130
   101         25
   102         45
   103        300
   104         65
   105         35
   106         10
   107         10
   108         35
   109         25
   110         75
   111         35
   112        160
   113         30
   114        105
   115         30
   116         25
   117         10
   118        115
   119         95
   120         20
   121         25
   122         25
   123         35
   124         25
   125         10
   126         35
   127         15
   128         60
   129         65
   130         45
   131         15
   132          5
   133         20
   134         10
   135         10
   136         15
   137         30
   138         65
   139         15
   140         20
   141         20
   142         25
   143         70
   144        270
   145         40
   146         15
   147         10
   148          5
   149          5
   150         20
   151         40
   152         15
   153         15
   154         10
   155          5
   156         20
   157         30
   158         10
   159          5
   160         25
   161          5
   162          5
   163          5
   164          5
   165          5
   166         15
   167         10
   168         30
   169        250
   170         50
   171         65
   172         10
   173          5
   174          5
   175        998
   176        115
   177         45
   178         10
   179         20
   180        170
   181         85
   182         35
   183         30
   184         25
   185         95
   186         20
   187          5
   188          5
   191          5
   192          5
   193         10
   194         25
   195         60
   196         40
   197         20
   198         10
   199         15
   200          5
   206          5
   207         40
   208        320
   209         60
   210         30
   211         45
   212         15
   213         10
   221         10
   222         10
   223         15
   224         10
   225         70
   226         30
   227         10
   228          5
   229          5
   235          5
   236         10
   237         10
   238        385
   239         70
   240         15
   241        120
   242         30
   243         15
   248          5
   249          5
   250         10
   251         10
   252         35
   253         20
   254         20
   255         30
   256          5
   257         15
   262         10
   263          5
   264        120
   265         30
   266         40
   267         50
   268         60
   269        340
   270        190
   271         40
   272         10
   277         10
   278         10
   280          5
   281         10
   282         90
   283         70
   284         25
   285          5
   296        260
   297        180
   298        600
   299        140
   300         35
   301          5
   314        210
   315         45
   316         10
   325          5
   328        140
   329         40
   330         15
   331          5
   338         45
   339         15
   340          5
   352         10
   353          5
   354         25
   355         10
   368        190
   369         40
   370         15
   384         55
   385         15
   386          5
   398          5
   399         85
   400         30
   401         10