##TITLE=Library Entry 19099
##JCAMP-DX=Revision 4.10 
##DATA TYPE=MASS SPECTRUM
##SAMPLE DESCRIPTION=EP-1283
##NAMES=HP
##CAS NAME=7-Octadecenoic acid, methyl ester
##MOLFORM=C19H36O2
##CAS REGISTRY NO=57396-98-2
##MP= -300
##BP= -300
##MW= 296
##$RETENTION INDEX=0
##$CONDENSED SPECTRUM=NO
##NPOINTS= 241
##XYDATA=(XY..XY) 1 
    26          7
    27        160
    28         80
    29        400
    30         10
    31         15
    32         10
    33          4
    36          3
    37          3
    38          4
    39        140
    40         29
    41        889
    42        140
    43        759
    44         30
    45         34
    46          2
    47          2
    48          2
    49          1
    50          3
    51          9
    52          8
    53        100
    54        300
    55        999
    56        220
    57        360
    58         20
    59        240
    60         11
    61          6
    62          3
    63          3
    64          2
    65         26
    66         28
    67        450
    68        290
    69        579
    70        170
    71        160
    72         24
    73         90
    74        739
    75        110
    76          8
    77         32
    78         18
    79        110
    80         90
    81        350
    82        250
    83        490
    84        509
    85        140
    86         12
    87        460
    88         45
    89          5
    90          1
    91         34
    92         12
    93         65
    94         71
    95        330
    96        440
    97        410
    98        390
    99         56
   100         16
   101         81
   102         10
   103          3
   104          2
   105         14
   106         10
   107         30
   108         34
   109        160
   110        220
   111        200
   112         75
   113         49
   114         65
   115        110
   116         14
   117          4
   118          3
   119         33
   120         12
   121         32
   122         17
   123        170
   124        110
   125        110
   126         23
   127         42
   128         64
   129         54
   130         13
   131          3
   132          2
   133         24
   134         20
   135         28
   136         12
   137        110
   138         85
   139         60
   140         14
   141         75
   142         20
   143         39
   144          6
   145          2
   146          2
   147         16
   148         14
   149         15
   150         10
   151         54
   152         60
   153         30
   154          7
   155         20
   156          5
   157         16
   158          4
   159          2
   160          1
   161         11
   162          5
   163          8
   164         10
   165         31
   166         51
   167         20
   168          6
   169         30
   170          5
   171         12
   172          3
   173          1
   175          8
   176          3
   177          4
   178          4
   179         18
   180        130
   181         29
   182          5
   183         16
   184          3
   185         10
   186          3
   187          2
   189          4
   190          2
   191          3
   192          2
   193         14
   194         21
   195          6
   196          2
   197          4
   198          1
   199         12
   200          6
   201          1
   203          3
   204          2
   205          2
   206          2
   207         13
   208         11
   209          5
   210          3
   211          5
   212          1
   213         12
   214          7
   215          2
   217          2
   218          2
   219          1
   220         48
   221         33
   222        180
   223         37
   224          4
   225          2
   226          1
   227          5
   228          4
   229          2
   230          2
   231          2
   233          1
   234          1
   235         23
   236         22
   237          5
   238          1
   239          3
   240          1
   241          3
   242          1
   245          2
   246         17
   247         10
   248          2
   249          3
   250          2
   251          1
   253          8
   254          2
   255          2
   256          1
   257          1
   260          1
   262          2
   263          6
   264        330
   265        190
   266         31
   267          6
   268          2
   269          1
   278          3
   279          1
   281          1
   282          1
   294          2
   295          2
   296         58
   297         13
   298          4
   299          1