##TITLE=Library Entry 114393
##JCAMP-DX=Revision 4.10 
##DATA TYPE=MASS SPECTRUM
##SAMPLE DESCRIPTION=STER ANDR TMSI SE30 01 2610 E M.HORN
##NAMES=HP
##CAS NAME=Methandriol, TMS derivative
##MOLFORM=C23H40O2Si
##CAS REGISTRY NO=57397-40-7
##MP= -300
##BP= -300
##MW= 376
##$RETENTION INDEX=0
##$CONDENSED SPECTRUM=NO
##NPOINTS= 98
##XYDATA=(XY..XY) 1 
    43         80
    55         30
    67         30
    69         30
    71         40
    73        120
    75        110
    79         30
    81        120
    83         30
    85         30
    91         30
    93         70
    94         30
    95        170
    97         40
   105         90
   106         40
   107        200
   108         50
   109         90
   117         30
   118         20
   119        340
   120        100
   121        170
   122         40
   123         60
   129        999
   130        150
   131        120
   132         40
   133        140
   134         40
   135         90
   143        120
   144         40
   145        220
   146         60
   147        140
   148         30
   149         30
   151         40
   155         40
   156         20
   157         60
   158        120
   159        180
   160         90
   161         80
   162         20
   163         20
   165         30
   169         40
   171         60
   172         40
   173        300
   174         60
   175         60
   185         60
   186         30
   187         70
   188         30
   189        130
   190         20
   197         90
   198         30
   199         50
   200         20
   201         30
   211         70
   212         50
   213        460
   214        100
   215         60
   226        100
   227        120
   228        210
   229        460
   230        100
   239         30
   240         20
   245         60
   246         50
   247         80
   253        350
   254         70
   268        310
   269        180
   271        600
   272        120
   286        560
   287        130
   343         30
   358         40
   361         30
   376         70
   377         20