##TITLE=Library Entry 78020
##JCAMP-DX=Revision 4.10 
##DATA TYPE=MASS SPECTRUM
##SAMPLE DESCRIPTION=NIST Mass Spectrometry Data Center, 1992
##NAMES=HP
##CAS NAME=Ethanone, 2-(acetyloxy)-1,2-diphenyl-
##MOLFORM=C16H14O3
##CAS REGISTRY NO=574-06-1
##MP= -300
##BP= -300
##MW= 254
##$RETENTION INDEX=0
##$CONDENSED SPECTRUM=NO
##NPOINTS= 102
##XYDATA=(XY..XY) 1 
    12          0
    14          5
    15         35
    16          0
    17          0
    18          5
    25          0
    26          1
    27         13
    29          5
    36          0
    37          0
    38          6
    39         22
    40          2
    43        458
    44         11
    45          1
    50         40
    51        149
    52         16
    53          3
    55          0
    57          0
    60          0
    62          8
    63         21
    64          7
    65          4
    66          0
    69          1
    70          1
    73          1
    74          9
    75          9
    76          0
    77        356
    78         39
    79         93
    80          6
    83          7
    85          0
    86          1
    87          2
    89         30
    90         24
    91          3
    92          0
    97          2
    99          0
   100          0
   101          1
   102          2
   105        999
   106        101
   107        322
   108         25
   109          1
   110          0
   111          0
   113          1
   115          6
   116          0
   118          4
   119          0
   126          1
   127          1
   128          3
   129          0
   133          1
   134          0
   137          0
   139          5
   140          0
   141          1
   149        108
   150         11
   151          5
   152         20
   153          3
   154          0
   155          0
   162          0
   163          4
   164          8
   165         37
   166         11
   167         14
   168          2
   176          0
   178          0
   181          0
   182          0
   183          0
   194          5
   195          3
   196          0
   209          0
   210          0
   211          4
   212          2
   254          1