##TITLE=Library Entry 83510
##JCAMP-DX=Revision 4.10 
##DATA TYPE=MASS SPECTRUM
##SAMPLE DESCRIPTION=Japan AIST/NIMC Database- Spectrum MS-NW- 173
##NAMES=HP
##CAS NAME=Ethanone, 2-hydroxy-1,2-diphenyl-, oxime, (E)-
##MOLFORM=C14H13NO2
##CAS REGISTRY NO=574-13-0
##MP= -300
##BP= -300
##MW= 227
##$RETENTION INDEX=0
##$CONDENSED SPECTRUM=NO
##NPOINTS= 113
##XYDATA=(XY..XY) 1 
    17          2
    18          6
    26          9
    27         39
    28          9
    29         35
    30          2
    37         10
    38         18
    39         76
    40          6
    41          5
    43          3
    47          1
    49          8
    50        104
    51        243
    52         63
    53         25
    54          2
    55          3
    57          2
    61          5
    62         15
    63         46
    64         16
    65         15
    66          3
    69          2
    73          5
    74         29
    75         36
    76        119
    77        651
    78        106
    79        643
    80         46
    81          2
    82          3
    83          2
    85          1
    86          4
    87          6
    88          5
    89         31
    90         16
    91         11
    92          4
    95          2
    96          2
    98          2
    99          3
   100          2
   101          3
   102         10
   103        187
   104        312
   105        153
   106         86
   107        999
   108         83
   109          6
   113          2
   114          2
   115          9
   116          3
   117          2
   118          2
   119          3
   120          9
   122         12
   123          2
   126          3
   127          3
   128          3
   132          9
   139          6
   140          1
   141          2
   149          2
   150          4
   151          6
   152         17
   153          6
   154          2
   155          4
   163          5
   164          4
   165         27
   166          7
   167          9
   176          5
   177          5
   178         24
   179         78
   180        263
   181         41
   182         13
   183          5
   190          3
   191          2
   192          3
   193          9
   194          3
   195          2
   196          1
   198          9
   208          2
   209         45
   210         55
   211         11
   227         19
   228          3