##TITLE=Library Entry 52918
##JCAMP-DX=Revision 4.10 
##DATA TYPE=MASS SPECTRUM
##SAMPLE DESCRIPTION=Exported from NIST MS Search
##NAMES=HP
##CAS NAME=2H-Quinolizine-1-carboxylic acid, octahydro-, (1R-trans)-
##MOLFORM=C10H17NO2
##CAS REGISTRY NO=574-99-2
##MP= -300
##BP= -300
##MW= 183
##$RETENTION INDEX=0
##$CONDENSED SPECTRUM=NO
##NPOINTS= 26
##XYDATA=(XY..XY) 1 
    52         50
    53        103
    54        154
    55        377
    56        129
    57         50
    67         78
    68        105
    69         89
    70        141
    82        267
    83        999
    84        330
    96        724
    97        577
   110        425
   111        440
   123         74
   124        122
   136         47
   137         23
   138        144
   139        200
   182        141
   183        362
   184         89