##TITLE=Library Entry 51214
##JCAMP-DX=Revision 4.10 
##DATA TYPE=MASS SPECTRUM
##SAMPLE DESCRIPTION=NIST Mass Spectrometry Data Center
##NAMES=HP
##CAS NAME=Docosanal
##MOLFORM=C22H44O
##CAS REGISTRY NO=57402-36-5
##MP= -300
##BP= -300
##MW= 324
##$RETENTION INDEX=2430
##$CONDENSED SPECTRUM=NO
##NPOINTS= 54
##XYDATA=(XY..XY) 1 
    29        121
    39         39
    41        464
    42         89
    43        675
    44        172
    45         53
    54         81
    55        623
    56        189
    57        872
    58         54
    66        120
    67        402
    68        498
    69        476
    70        202
    71        509
    72         71
    79         51
    81        359
    82        999
    83        550
    84        121
    85        248
    86         27
    95        375
    96        652
    97        390
    98         65
    99         55
   109        246
   110        238
   111        200
   112         44
   113         33
   123        106
   124        132
   125         63
   126         22
   137        100
   138         79
   151         24
   152         35
   166         21
   236         17
   250         24
   261         14
   278         46
   279         11
   280         25
   306         97
   307         27
   324         14