##TITLE=Library Entry 3232
##JCAMP-DX=Revision 4.10 
##DATA TYPE=MASS SPECTRUM
##SAMPLE DESCRIPTION=Exported from NIST MS Search
##NAMES=HP
##CAS NAME=Phenanthrene, tetradecahydro-
##MOLFORM=C14H24
##CAS REGISTRY NO=5743-97-5
##MP= -300
##BP= -300
##MW= 192
##$RETENTION INDEX=1539
##$CONDENSED SPECTRUM=NO
##NPOINTS= 147
##XYDATA=(XY..XY) 1 
    36          1
    37          4
    38         15
    39        435
    40         79
    41        999
    42        112
    43         74
    44          3
    45          1
    46          1
    47          1
    48          1
    49          1
    50         15
    51         63
    52         43
    53        251
    54        235
    55        512
    56         37
    57         21
    58          3
    59          2
    60          3
    61          7
    62          3
    63         17
    64          7
    65         91
    66         74
    67        923
    68        257
    69        152
    70         10
    71          3
    72          1
    73          1
    74          3
    75          8
    76          3
    77        148
    78         46
    79        297
    80        124
    81        782
    82        253
    83         97
    84          7
    85          1
    86          1
    87          1
    88          1
    89          4
    90          2
    91        120
    92         26
    93        192
    94        132
    95        388
    96        777
    97        362
    98         26
    99          1
   100          1
   101          1
   102          3
   103          9
   104          5
   105         27
   106         11
   107         73
   108         93
   109        151
   110        126
   111         36
   112          3
   113          1
   114          1
   115          9
   116          3
   117          7
   118          2
   119          9
   120         10
   121        299
   122        169
   123        184
   124         24
   125          4
   126          1
   127          2
   128          4
   129          2
   130          1
   131          2
   132          1
   133          7
   134         21
   135        923
   136        133
   137         14
   138          2
   139          1
   140          1
   141          3
   142          2
   143          1
   144          1
   145          1
   146          1
   147          4
   148          5
   149         59
   150        102
   151         16
   152          2
   153          1
   154          1
   155          1
   156          1
   157          1
   158          1
   159          1
   160          1
   161          3
   162          2
   163         52
   164         33
   165          5
   166          1
   167          1
   175          1
   176          1
   177          4
   178          1
   179          1
   186          1
   187          1
   188          1
   189          1
   190          4
   191          8
   192        831
   193        128
   194         10
   195          1