##TITLE=Library Entry 12883
##JCAMP-DX=Revision 4.10 
##DATA TYPE=MASS SPECTRUM
##SAMPLE DESCRIPTION=Chemical Concepts
##NAMES=HP
##CAS NAME=Acetic acid, 4-morpholin-4-yl-cyclohex-3-enyl ester
##MOLFORM=C12H19NO3
##CAS REGISTRY NO=57438-52-5
##MP= -300
##BP= -300
##MW= 225
##$RETENTION INDEX=0
##$CONDENSED SPECTRUM=NO
##NPOINTS= 133
##XYDATA=(XY..XY) 1 
    25         19
    27        155
    28        203
    29        260
    30         67
    31         19
    37          3
    38          7
    39        142
    40         28
    41        257
    42        162
    43        999
    44         49
    45         35
    46          1
    50          6
    51         18
    52         16
    53         65
    54        247
    55        244
    56         81
    57        209
    58         36
    59         13
    60         80
    61          9
    62          2
    63          4
    64          3
    65         24
    66         23
    67        135
    68        311
    69         70
    70         29
    71         29
    72         16
    73         72
    74          4
    75          2
    76          1
    77         51
    78         21
    79        122
    80        133
    81         85
    82         33
    83         13
    84          8
    85         36
    86         87
    87         76
    88         10
    89          2
    91         15
    92         19
    93         33
    94         66
    95         32
    96        464
    97         43
    98         16
    99         30
   100          4
   101          1
   102          0
   103          2
   104          7
   105         14
   106         56
   107        127
   108        229
   109         62
   110         18
   111          8
   112          7
   113         17
   114         89
   115          9
   116          1
   117          3
   118          9
   119          9
   120         65
   121         30
   122         24
   123          7
   124         25
   125          3
   126          6
   127          3
   128          4
   129          3
   130          3
   131          3
   132          5
   133          7
   134         47
   135         59
   136         30
   137          9
   138         21
   139         12
   140          4
   146          3
   148          4
   150         52
   151          9
   152         12
   153          5
   154          4
   156          3
   157          4
   162          4
   163         11
   164        120
   165        818
   166        168
   167         17
   168          4
   176          3
   177          3
   179          5
   180          3
   181          4
   182         16
   183          4
   224          7
   225         94
   226         17
   227          4