##TITLE=Library Entry 70232
##JCAMP-DX=Revision 4.10 
##DATA TYPE=MASS SPECTRUM
##SAMPLE DESCRIPTION=Japan AIST/NIMC Database- Spectrum MS-NW- 85
##NAMES=HP
##CAS NAME=1H-Fluorene, dodecahydro-
##MOLFORM=C13H22
##CAS REGISTRY NO=5744-03-6
##MP= -300
##BP= -300
##MW= 178
##$RETENTION INDEX=1455
##$CONDENSED SPECTRUM=NO
##NPOINTS= 84
##XYDATA=(XY..XY) 1 
    15          2
    26          3
    27         58
    28         12
    29         61
    38          3
    39        101
    40         16
    41        249
    42         18
    43         21
    50          4
    51         19
    52         11
    53         88
    54        152
    55        278
    56         14
    57          9
    58          1
    63          7
    64          3
    65         39
    66         38
    67        564
    68        149
    69         43
    70          3
    71          3
    73          3
    74          2
    76          1
    77         73
    78         18
    79        163
    80        104
    81        547
    82        419
    83         78
    84          5
    85          2
    89          4
    90          1
    91         68
    92         14
    93         83
    94         57
    95        129
    96        875
    97        999
    98         76
    99          3
   103          4
   104          2
   105         12
   106          5
   107         26
   108         16
   109         29
   110         14
   111          5
   115          4
   116          2
   117          3
   119          7
   120         15
   121        164
   122         27
   123          5
   128          1
   133          4
   134          4
   135         55
   136         18
   137          4
   147          2
   149         17
   150         18
   151          2
   163          3
   177          2
   178        253
   179         37
   180          3