##TITLE=Library Entry 41441
##JCAMP-DX=Revision 4.10 
##DATA TYPE=MASS SPECTRUM
##SAMPLE DESCRIPTION=STER PREG TMSI, 00 0000 E, M.HORNING
##NAMES=HP
##CAS NAME=Cortol, 5TMS derivative
##MOLFORM=C36H76O5Si5
##CAS REGISTRY NO=57456-94-7
##MP= -300
##BP= -300
##MW= 728
##$RETENTION INDEX=3138
##$CONDENSED SPECTRUM=NO
##NPOINTS= 274
##XYDATA=(XY..XY) 1 
    41         90
    42         50
    43         90
    44         60
    45        130
    47         50
    50         20
    51         25
    52         45
    53         30
    55        160
    56         15
    57         30
    58         20
    59        100
    60         20
    61         55
    66         15
    67        160
    68         15
    69         80
    71         15
    72         45
    73        999
    74        350
    75        999
    76         85
    77         80
    78         35
    79        200
    80         25
    81        265
    82         25
    83         55
    85         20
    87         15
    89         60
    91        200
    92         30
    93        230
    94         35
    95        180
    96         25
    97         25
    99         15
   101         80
   102         15
   103        380
   104         45
   105        265
   106         65
   107        300
   108         40
   109        100
   110         15
   111         15
   113         20
   115         50
   116         45
   117        400
   118         60
   119        180
   120         40
   121        105
   122         15
   123         25
   127         35
   128         20
   129        550
   130         85
   131        230
   132         45
   133        260
   134         40
   135         80
   141         50
   142         60
   143        350
   144         80
   145        290
   146         60
   147        999
   148        160
   149        165
   150         25
   151         20
   153         20
   154        115
   155        140
   156         70
   157        165
   158         45
   159        200
   160         40
   161         75
   162         15
   163         25
   165         20
   167         30
   168         45
   169        190
   170         50
   171        150
   172         40
   173         60
   174         15
   175         45
   177         20
   179         30
   180         15
   181         70
   182         45
   183         75
   184         25
   185         70
   186         35
   187         50
   188         15
   189        150
   190         40
   191        450
   192         80
   193         80
   194         40
   195        180
   196         50
   197         95
   198         25
   199         70
   200         15
   201         40
   203         30
   204         35
   205        270
   206         65
   207        110
   208         30
   209         60
   210         15
   211         60
   212         25
   213         90
   214         25
   215         65
   216         20
   217        215
   218         50
   219         40
   220         15
   221         70
   222         20
   223         40
   224         15
   225         30
   226         15
   227         40
   228         25
   229         25
   230         70
   231         70
   232         25
   233         35
   234         15
   235         40
   237         30
   238         20
   239         25
   241         20
   242         55
   243        999
   244        250
   245        115
   246         25
   247         30
   249         25
   251         25
   252         25
   253        750
   254        215
   255         50
   256         15
   257         15
   261         15
   263        115
   265         80
   266         20
   267         15
   269         20
   271         15
   272         20
   273         15
   277         15
   279         65
   280         20
   281         50
   283         40
   284         15
   301         10
   303         10
   304         10
   305         75
   306         30
   307         10
   315         15
   317         10
   318         10
   320         30
   327         15
   329         20
   333         35
   334         10
   339         10
   341         20
   342         30
   343        600
   344        190
   345         60
   346         15
   353         15
   355        120
   356         40
   357         25
   358         15
   359         15
   367         10
   368         10
   369         60
   370         25
   371         15
   417         15
   431         15
   432         25
   433        225
   434         90
   435         40
   436         10
   443         15
   444         15
   445        160
   446         65
   447         30
   448         10
   457         15
   458         25
   459         60
   460         30
   461         15
   521         20
   522         50
   523        600
   524        265
   525        120
   526         40
   527         10
   533         25
   534         40
   535        380
   536        180
   537         85
   538         25
   548         90
   549         50
   550         25
   551         10
   625        120
   626         70
   627         35
   628         10
   638         55
   639         35
   640         15
   728         30
   729         20
   730         10