##TITLE=Library Entry 77686
##JCAMP-DX=Revision 4.10 
##DATA TYPE=MASS SPECTRUM
##SAMPLE DESCRIPTION=V.Zaikin,Topchiev Inst.Petrochem.Synth.,Moscow
##NAMES=HP
##CAS NAME=4-Nitrobenzoic acid, 2-phenylethyl ester
##MOLFORM=C15H13NO4
##CAS REGISTRY NO=57455-00-2
##MP= -300
##BP= -300
##MW= 271
##$RETENTION INDEX=2189
##$CONDENSED SPECTRUM=NO
##NPOINTS= 55
##XYDATA=(XY..XY) 1 
    26          2
    27          3
    29          1
    30          4
    36          3
    38          2
    39          6
    40          1
    41          2
    44          8
    50         16
    51         11
    52          3
    53          2
    62          2
    63          7
    64          6
    65         23
    66          2
    73          1
    74          7
    75         17
    76         46
    77         27
    78         19
    79         12
    81          1
    89          4
    90          3
    91         69
    92         29
    93          4
    96          1
   102          4
   103         31
   104        999
   105         94
   106          6
   109          2
   119          1
   120         24
   121         10
   122          3
   134          8
   135          1
   137         11
   138          1
   150        168
   151         18
   152          3
   165          3
   166          1
   167         11
   168          1
   191          1