##TITLE=Library Entry 14948
##JCAMP-DX=Revision 4.10 
##DATA TYPE=MASS SPECTRUM
##SAMPLE DESCRIPTION=Y.BERGER INST. ORG. CHEM., UNIV. OF LIEGE, LIEGE, BELGI
UM
##NAMES=HP
##CAS NAME=9,10-Anthracenedione, 2-[4-(acetyloxy)tetrahydro-2H-pyran-2-yl]-1
,3,6,8-tetramethoxy-, cis-
##MOLFORM=C25H26O9
##CAS REGISTRY NO=57457-76-8
##MP= -300
##BP= -300
##MW= 470
##$RETENTION INDEX=0
##$CONDENSED SPECTRUM=NO
##NPOINTS= 152
##XYDATA=(XY..XY) 1 
    15         68
    18         20
    27         40
    28         34
    29        115
    31         15
    39         42
    41         28
    42         15
    43        999
    44         25
    45         37
    53         31
    54         53
    55        406
    56         15
    57         15
    63         16
    69         17
    71         25
    73         18
    75         14
    77         15
    83         40
   106         17
   113         12
   115         12
   126         17
   127         12
   138         12
   139         28
   140         12
   141         12
   150         12
   151         15
   152         20
   153         15
   154         12
   155         14
   163         15
   165         20
   167         12
   168         16
   169         17
   170         14
   178         14
   181         17
   182         12
   183         15
   184         12
   195         15
   196         12
   197         17
   205         15
   209         17
   210         14
   211         17
   223         15
   224         14
   225         20
   237         17
   238         14
   239         18
   240         12
   241         12
   251         12
   252         14
   253         21
   254         12
   255         21
   265         17
   266         14
   267         25
   268         18
   269         25
   270         12
   279         12
   280         17
   281         29
   282         21
   283         31
   284         23
   285         25
   293         12
   294         12
   295         31
   296         20
   297         37
   298         21
   299         28
   307         21
   308         12
   309         31
   310         25
   311         43
   312         15
   313         62
   314         15
   315         12
   319         12
   321         20
   322         18
   323         34
   324         37
   325         78
   326         23
   327        101
   328         33
   329         15
   332         12
   333         15
   335         32
   336         15
   337         46
   338         28
   339        201
   340        162
   341        162
   342         56
   343         15
   349         46
   350         34
   351        178
   352         62
   353        101
   354         31
   355        107
   356         32
   357        159
   358         34
   363         18
   365        101
   366         28
   367         46
   377         23
   378         14
   379        256
   380         71
   381         56
   382         15
   383         21
   393         15
   395        750
   396        153
   397         39
   409         18
   410        718
   411        184
   412         35
   427         17
   469         12
   470         18