##TITLE=Library Entry 98953
##JCAMP-DX=Revision 4.10 
##DATA TYPE=MASS SPECTRUM
##SAMPLE DESCRIPTION=NIST Mass Spectrometry Data Center, 2013
##NAMES=HP
##CAS NAME=Nicotine, 1'-demethyl-, (.+/-.)-
##MOLFORM=C9H12N2
##CAS REGISTRY NO=5746-86-1
##MP= -300
##BP= -300
##MW= 148
##$RETENTION INDEX=1435
##$CONDENSED SPECTRUM=NO
##NPOINTS= 92
##XYDATA=(XY..XY) 1 
    15          5
    18          3
    25          1
    26         12
    27         37
    28        130
    29         12
    30         24
    31          1
    36          1
    37          6
    38         28
    39        101
    40         21
    41        111
    42         31
    43         41
    44          8
    45          2
    46          4
    49          3
    50         43
    51        104
    52         63
    53         22
    54         10
    55          1
    56          2
    58          3
    59         12
    61          4
    62         17
    63         72
    64         43
    65         74
    66         21
    67         42
    68         36
    69         12
    70        490
    71         23
    72          1
    73          4
    74          4
    75          7
    76         13
    77         31
    78         79
    79         34
    80        152
    81          9
    86          1
    87          2
    88          2
    89         15
    90         12
    91         54
    92         74
    93         79
    94         10
    95          1
   101          1
   102          3
   103          9
   104         31
   105        101
   106         96
   107         17
   108          1
   115          1
   116          5
   117         43
   118        109
   119        999
   120        234
   121         18
   122          1
   128          3
   129          1
   130         30
   131         13
   132          8
   133          6
   134          1
   143          1
   144          2
   145         22
   146          9
   147        245
   148        136
   149         14
   150          1