##TITLE=Library Entry 50093
##JCAMP-DX=Revision 4.10 
##DATA TYPE=MASS SPECTRUM
##SAMPLE DESCRIPTION=Chemical Concepts
##NAMES=HP
##CAS NAME=Cyclohexane, (1-methylethylidene)-
##MOLFORM=C9H16
##CAS REGISTRY NO=5749-72-4
##MP= -300
##BP= -300
##MW= 124
##$RETENTION INDEX=955
##$CONDENSED SPECTRUM=NO
##NPOINTS= 63
##XYDATA=(XY..XY) 1 
    26          9
    27        193
    28         29
    29        107
    37          4
    38         14
    39        311
    40         66
    41        508
    42         50
    43        185
    44         10
    45          3
    50         30
    51         85
    52         44
    53        214
    54        148
    55        410
    56         85
    57         99
    58         13
    62          7
    63         26
    64          6
    65         69
    66         71
    67        712
    68        222
    69        189
    70         31
    74          5
    75          4
    76          4
    77        111
    78         28
    79        197
    80        261
    81        999
    82        446
    83         72
    84          8
    91         61
    92          8
    93         45
    94         19
    95        197
    96         50
    97         21
    98          8
   103          4
   104          2
   105         13
   107         42
   108          9
   109        500
   110         53
   111          3
   122         18
   123         11
   124        427
   125         48
   126          2