##TITLE=Library Entry 37296
##JCAMP-DX=Revision 4.10 
##DATA TYPE=MASS SPECTRUM
##SAMPLE DESCRIPTION=NIST Mass Spectrometry Data Center, 1990.
##NAMES=HP
##CAS NAME=Butane, 2-cyclopropyl-
##MOLFORM=C7H14
##CAS REGISTRY NO=5750-02-7
##MP= -300
##BP= -300
##MW= 98
##$RETENTION INDEX=811
##$CONDENSED SPECTRUM=NO
##NPOINTS= 19
##XYDATA=(XY..XY) 1 
    26         33
    27        225
    28        105
    29        193
    39        340
    41        789
    42        259
    43         44
    50         24
    51         42
    53        104
    55        836
    56        249
    57        179
    67         66
    69        440
    70        999
    71         54
    83         47