##TITLE=Library Entry 23685
##JCAMP-DX=Revision 4.10 
##DATA TYPE=MASS SPECTRUM
##SAMPLE DESCRIPTION=A.A.Kutin, Moscow, Russia
##NAMES=HP
##CAS NAME=2-Butanone, 3,3-dimethyl-1-thiocyanato-
##MOLFORM=C7H11NOS
##CAS REGISTRY NO=57518-71-5
##MP= -300
##BP= -300
##MW= 157
##$RETENTION INDEX=0
##$CONDENSED SPECTRUM=NO
##NPOINTS= 36
##XYDATA=(XY..XY) 1 
    34          1
    36          0
    37          0
    39        141
    40         45
    41        475
    42         64
    43         43
    44          9
    45         33
    46         20
    47          2
    48          0
    50          4
    51          6
    52          1
    53         13
    55         54
    57        999
    58         44
    59          3
    60          1
    67          1
    69          5
    70          5
    72         49
    73          6
    74          1
    83         11
    85        231
    86         10
    87          0
   100          3
   101          1
   115          3
   157          0