##TITLE=Library Entry 61956
##JCAMP-DX=Revision 4.10 
##DATA TYPE=MASS SPECTRUM
##SAMPLE DESCRIPTION=Chemical Concepts
##NAMES=HP
##CAS NAME=Benzenepropanoic acid, .alpha.-cyano-, methyl ester
##MOLFORM=C11H11NO2
##CAS REGISTRY NO=57519-78-5
##MP= -300
##BP= -300
##MW= 189
##$RETENTION INDEX=0
##$CONDENSED SPECTRUM=NO
##NPOINTS= 106
##XYDATA=(XY..XY) 1 
    26         19
    27         76
    28         23
    29         64
    30         18
    31         18
    33          4
    37          7
    38         29
    39        153
    40         17
    41         33
    42         12
    43         12
    44          2
    45          7
    47          1
    49          4
    50         90
    51        230
    52         57
    53         15
    54          5
    55         13
    56          2
    57          4
    59        103
    60          4
    61          6
    62         25
    63         77
    64         25
    65        143
    66          9
    67          6
    68          4
    69          1
    70          4
    73          4
    74         27
    75         36
    76         47
    77        236
    78         75
    79          8
    80          2
    85          3
    86          3
    87          7
    88          8
    89         35
    90         18
    91        999
    92         92
    93          5
    98          3
    99          3
   100          3
   101         18
   102         65
   103        182
   104         82
   105         13
   106          3
   107          1
   115          4
   116          5
   117          9
   118          7
   119          4
   120          4
   121         10
   122          2
   127          5
   128         27
   129        114
   130        323
   131        130
   132         16
   133          8
   134          2
   135          1
   141          2
   142          2
   143          1
   144          5
   145          1
   146          8
   147          6
   148          2
   149          4
   155          1
   156          6
   157         76
   158         12
   159          1
   160         61
   161         22
   162         56
   163         18
   164          1
   174          8
   175          1
   188          1
   189          3
   190          0