##TITLE=Library Entry 63959
##JCAMP-DX=Revision 4.10 
##DATA TYPE=MASS SPECTRUM
##SAMPLE DESCRIPTION=Chemical Concepts
##NAMES=HP
##CAS NAME=(1H)Pyrrole-2-carboxaldehyde, 5-benzyloxycarbonyl-3-(2-methoxycar
bonylethyl)-4-methoxycarbonylmethyl-
##MOLFORM=C20H21NO7
##CAS REGISTRY NO=57529-24-5
##MP= -300
##BP= -300
##MW= 387
##$RETENTION INDEX=0
##$CONDENSED SPECTRUM=NO
##NPOINTS= 220
##XYDATA=(XY..XY) 1 
    27          4
    29          3
    31          1
    39         23
    40          1
    41         13
    42          5
    43          7
    44          3
    45          8
    50          3
    51         17
    52          9
    53         11
    54          2
    55         10
    56          2
    57          3
    59         16
    62          1
    63         10
    64          8
    65         77
    66          7
    67          5
    68          2
    69          2
    70          1
    71          1
    74          1
    75          1
    76          3
    77         34
    78         14
    79         19
    80          5
    81          2
    82          1
    83          1
    89         14
    90         11
    91        999
    92        103
    93         10
    94          5
    95          2
   102          1
   103          3
   104         21
   105         11
   106         13
   107          8
   108          6
   109          1
   110          1
   115          1
   116          1
   117          2
   118          3
   119          5
   120          6
   121          7
   122          6
   130          1
   131          4
   132         16
   133          9
   134          9
   135          3
   136          8
   137          1
   138          1
   140          2
   141          1
   146          4
   147          4
   148         12
   149          9
   150          9
   151          2
   152          5
   153          2
   158          4
   159          4
   160         44
   161         11
   162          9
   163          4
   164          9
   165          5
   166          6
   167          4
   168          3
   174         15
   175          2
   176         30
   177         14
   178         19
   179          6
   180          9
   181          3
   182          6
   183          2
   184          2
   186          2
   187          3
   188          5
   189          3
   190         23
   191         10
   192         31
   193         22
   194         10
   195          3
   196         38
   197          4
   200          2
   201          2
   202          2
   203          1
   204         18
   205          6
   206          6
   207          2
   208         59
   210          9
   211          4
   214          1
   217          1
   218         15
   219          5
   220          7
   221         14
   222         49
   223          7
   224         15
   225         13
   226         11
   227          3
   228          2
   230          1
   232         10
   233          3
   234          2
   236        226
   237         32
   238         13
   239          3
   240          7
   241          2
   242          5
   243          4
   244          2
   246          2
   248          2
   249          3
   250         15
   251          4
   252         14
   253         11
   254         76
   255         11
   256          9
   257          2
   262          2
   263          2
   264        188
   265         26
   266          7
   267          4
   268        178
   269         30
   270          5
   278          1
   279          2
   280          3
   281          4
   282          9
   283          3
   284          6
   285          2
   286          5
   287          2
   290          1
   294          2
   295          3
   296         76
   297         11
   298         11
   299          6
   300          8
   301          2
   308          2
   309          2
   310          2
   311          3
   312          4
   313          5
   314          8
   315          3
   316          1
   323          1
   326         12
   327         20
   328          7
   339          1
   341          1
   342          3
   343          2
   344          2
   355         14
   356         26
   357          5
   358          2
   359         17
   360          4
   361          1
   387         53
   388         11
   389          1