##TITLE=Library Entry 1057
##JCAMP-DX=Revision 4.10 
##DATA TYPE=MASS SPECTRUM
##SAMPLE DESCRIPTION=L.CARLSEN H.C.ORSTED INST., UNIV., COPENHAGEN, DENMARK
##NAMES=HP
##CAS NAME=1,2,3,4-Thiatriazole, 5-phenyl-, 3-oxide
##MOLFORM=C7H5N3OS
##CAS REGISTRY NO=57529-16-5
##MP= -300
##BP= -300
##MW= 179
##$RETENTION INDEX=0
##$CONDENSED SPECTRUM=NO
##NPOINTS= 19
##XYDATA=(XY..XY) 1 
    30        999
    46        830
    50        290
    51        280
    52         80
    74         80
    75        150
    76        420
    77        310
   102         30
   103        820
   104         80
   133         90
   135        150
   149        150
   163         30
   179        690
   180         70
   181         30