##TITLE=Library Entry 23246
##JCAMP-DX=Revision 4.10 
##DATA TYPE=MASS SPECTRUM
##SAMPLE DESCRIPTION=Japan AIST/NIMC Database- Spectrum MS-IW-3775
##NAMES=HP
##CAS NAME=Ethylmethylacetylchloride
##MOLFORM=C5H9ClO
##CAS REGISTRY NO=57526-28-0
##MP= -300
##BP= -300
##MW= 120
##$RETENTION INDEX=0
##$CONDENSED SPECTRUM=NO
##NPOINTS= 63
##XYDATA=(XY..XY) 1 
    14          1
    15          8
    25          2
    26         33
    27        157
    28         77
    29        420
    30         10
    31          1
    35          3
    36          9
    37          9
    38         17
    39        121
    40         16
    41        478
    42         37
    43         10
    44          2
    45          6
    47          1
    49          7
    50         13
    51         13
    52          4
    53         17
    54          6
    55         74
    56         73
    57        999
    58         48
    59          1
    60          1
    61          2
    62          1
    63         29
    64          1
    65          9
    67          1
    68          1
    69         12
    72          3
    73          8
    74         49
    75          2
    77          5
    78          2
    79          1
    83          3
    84          9
    85        162
    86          9
    87         12
    91         10
    92        188
    93          9
    94         60
    95          2
   101          1
   105         11
   107          4
   119          1
   120          1