##TITLE=Library Entry 39601
##JCAMP-DX=Revision 4.10 
##DATA TYPE=MASS SPECTRUM
##SAMPLE DESCRIPTION=R.E.Ardrey ET AL.Pharmaceutical Mass Spectra,L.,1985
##NAMES=HP
##CAS NAME=Phenol, 4-[2-hydroxy-3-[(1-methylethyl)amino]propoxy]-, (S)-
##MOLFORM=C12H19NO3
##CAS REGISTRY NO=57526-81-5
##MP= -300
##BP= -300
##MW= 225
##$RETENTION INDEX=0
##$CONDENSED SPECTRUM=NO
##NPOINTS= 36
##XYDATA=(XY..XY) 1 
    26         20
    27        110
    29         20
    30        790
    31         10
    39         70
    41         90
    42         40
    43        110
    44         40
    51         10
    52         10
    53         30
    54         10
    55         20
    56        120
    57         60
    58         30
    60         30
    63         10
    65         50
    70         20
    71         20
    72        999
    73         40
    81         50
    82         10
    93         30
   100         20
   102         20
   109         40
   110         60
   116         10
   123         20
   181         40
   210         20