##TITLE=Library Entry 8833
##JCAMP-DX=Revision 4.10 
##DATA TYPE=MASS SPECTRUM
##SAMPLE DESCRIPTION=Japan AIST/NIMC Database- Spectrum MS-IW-3490
##NAMES=HP
##CAS NAME=4-sec-Butoxy-2-butanone
##MOLFORM=C8H16O2
##CAS REGISTRY NO=57545-63-8
##MP= -300
##BP= -300
##MW= 144
##$RETENTION INDEX=0
##$CONDENSED SPECTRUM=NO
##NPOINTS= 84
##XYDATA=(XY..XY) 1 
    13          2
    14          8
    15         49
    16          2
    17          2
    18          7
    25          1
    26         15
    27         88
    28         32
    29        116
    30          4
    31         48
    37          3
    38          5
    39         41
    40          7
    41        119
    42         57
    43        999
    44         57
    45        254
    46          7
    49          1
    50          5
    51          4
    52          1
    53          9
    54          3
    55         74
    56         61
    57        121
    58         39
    59         52
    60         51
    61         30
    62          1
    67          1
    68          2
    69         16
    70         47
    71        451
    72         74
    73         66
    74          7
    75          1
    81          2
    82          1
    83          4
    84          4
    85         40
    86         14
    87        178
    88         24
    89          9
    95          1
    96          2
    97          7
    98          3
    99          6
   100          2
   101          8
   102          4
   103         18
   109          1
   111          2
   112          1
   113          3
   114          4
   115        136
   116          9
   117          3
   123          1
   125          2
   126          1
   127          1
   129          6
   130          2
   139          1
   140          4
   141          1
   142          3
   143          2
   144          1