##TITLE=Library Entry 5147
##JCAMP-DX=Revision 4.10 
##DATA TYPE=MASS SPECTRUM
##SAMPLE DESCRIPTION=LAC, NIDDK, NIH, Bethesda, MD 20892
##NAMES=HP
##CAS NAME=Imidazoline, 1,3-dinitro-
##MOLFORM=C3H6N4O4
##CAS REGISTRY NO=5754-91-6
##MP= -300
##BP= -300
##MW= 162
##$RETENTION INDEX=0
##$CONDENSED SPECTRUM=NO
##NPOINTS= 29
##XYDATA=(XY..XY) 1 
    42        999
    43         54
    44          2
    46         83
    48          1
    49          2
    51          1
    53          1
    54          7
    56         13
    57        106
    58         32
    59         15
    60          0
    67          2
    69         41
    70         10
    72          0
    73          1
    85         76
    86          3
    89         20
    99         27
   115        137
   116          3
   117          2
   129          0
   145         11
   162          2