##TITLE=Library Entry 24579
##JCAMP-DX=Revision 4.10 
##DATA TYPE=MASS SPECTRUM
##SAMPLE DESCRIPTION=Chemical Concepts
##NAMES=HP
##CAS NAME=Ethanolamine, N-(t-butoxycarbonyl)-N-methyl-
##MOLFORM=C8H17NO3
##CAS REGISTRY NO=57561-39-4
##MP= -300
##BP= -300
##MW= 175
##$RETENTION INDEX=0
##$CONDENSED SPECTRUM=NO
##NPOINTS= 73
##XYDATA=(XY..XY) 1 
    26          1
    27         30
    28         13
    29        150
    30         13
    31         27
    37          0
    38          1
    39         33
    41        222
    42         70
    43         49
    44        647
    45         90
    46          2
    49          0
    50          0
    51          2
    52          0
    53          4
    54          1
    55         11
    56         16
    57        999
    58         66
    59         21
    60          0
    61          0
    63          0
    69          0
    70          0
    71          0
    72          2
    73          1
    74         38
    75         22
    76         30
    77          0
    79          0
    81          0
    84          0
    86          0
    87          0
    88        123
    89         35
    90          5
    91          0
    98          0
   100          3
   101          9
   102        201
   103          9
   104          0
   108          0
   115          0
   116          2
   117          0
   118          2
   119         57
   120         58
   121          3
   122          0
   129          0
   144        172
   145         24
   146          2
   147          0
   157          0
   163          0
   165          0
   175         89
   176          7
   177          0