##TITLE=Library Entry 8958
##JCAMP-DX=Revision 4.10 
##DATA TYPE=MASS SPECTRUM
##SAMPLE DESCRIPTION=DM6-146-F18
##NAMES=HP
##CAS NAME=Pentane, 1-(1-methylethoxy)-
##MOLFORM=C8H18O
##CAS REGISTRY NO=5756-37-6
##MP= -300
##BP= -300
##MW= 130
##$RETENTION INDEX=0
##$CONDENSED SPECTRUM=NO
##NPOINTS= 28
##XYDATA=(XY..XY) 1 
    15         10
    27         70
    29        190
    30         10
    31         30
    39         40
    40         10
    41        150
    42         10
    43        999
    44         40
    45        220
    46         10
    47         20
    48         10
    49         40
    61         10
    69         30
    70         70
    71        519
    72         20
    73        230
    74         10
    87         10
    97         10
   115        180
   116         20
   130         60