##TITLE=Library Entry 49322
##JCAMP-DX=Revision 4.10 
##DATA TYPE=MASS SPECTRUM
##SAMPLE DESCRIPTION=J.E.WAJON,SCH. APPL. CHEM.,CURTIN UNIV. TECHNOL.,BENTLE
Y,AUST.
##NAMES=HP
##CAS NAME=Tetrasulfide, dimethyl
##MOLFORM=C2H6S4
##CAS REGISTRY NO=5756-24-1
##MP= -300
##BP= -300
##MW= 158
##$RETENTION INDEX=1234
##$CONDENSED SPECTRUM=NO
##NPOINTS= 62
##XYDATA=(XY..XY) 1 
    32          8
    33          7
    34          4
    35          1
    40          4
    41          1
    44         24
    45        445
    46        164
    47        338
    48        128
    49         28
    50          6
    51          1
    57          1
    58          1
    59          1
    60          1
    61         62
    62          5
    64        234
    65         43
    66         36
    67          4
    68          1
    76          6
    77         11
    78         32
    79        999
    80        109
    81        101
    82          9
    83          3
    84          3
    86          1
    91          1
    93         14
    94        430
    95         15
    96         45
    97          5
    98          3
   110         10
   111         93
   112         21
   113         15
   114          3
   115          1
   126         30
   127          1
   128          5
   129          1
   131          1
   133          1
   135          1
   143          4
   145          1
   158        697
   159         34
   160        112
   161          6
   162          9