##TITLE=Library Entry 90287
##JCAMP-DX=Revision 4.10 
##DATA TYPE=MASS SPECTRUM
##SAMPLE DESCRIPTION=OGDEN BioServices Corp., NCI, Rockville, MD 20852
##NAMES=HP
##CAS NAME=Aclarubicin
##MOLFORM=C42H53NO15
##CAS REGISTRY NO=57576-44-0
##MP= -300
##BP= -300
##MW= 811
##$RETENTION INDEX=0
##$CONDENSED SPECTRUM=NO
##NPOINTS= 232
##XYDATA=(XY..XY) 1 
    41        330
    42        222
    43        432
    44        182
    45        339
    46        208
    47         24
    48          3
    49         17
    50         19
    51         24
    52         11
    53         47
    54         38
    55        299
    56        135
    57        355
    58        241
    59         34
    60         12
    61          4
    62          3
    63         11
    64          5
    65         39
    66         25
    67        340
    68        101
    69        222
    70        138
    71        536
    72        164
    73        419
    74         25
    75         13
    76          5
    77         18
    78          8
    79         16
    81        418
    82        314
    83        209
    84        271
    85        305
    86        126
    87         44
    88         18
    89          8
    91          9
    92          9
    93         16
    94         24
    95        374
    96        403
    97        210
    98         56
    99        106
   100        584
   101         71
   102         12
   103          9
   105          6
   106         10
   107         18
   108         10
   109         25
   110         46
   111        114
   112        212
   113        999
   114         32
   115         24
   116         17
   117          5
   118          5
   119          6
   120          6
   121         19
   122          6
   123         12
   124         31
   125         12
   126         14
   127         11
   129        100
   130         65
   131         57
   132         10
   133          3
   135          5
   136          4
   137         12
   138         17
   139        109
   140         58
   141         34
   142          8
   143          7
   144          8
   145          5
   147          5
   149         11
   150          9
   151         13
   152         14
   153         15
   154          6
   155         10
   156         24
   157         26
   158         73
   159         29
   160          3
   161          4
   163         10
   164          5
   165         11
   166          4
   167          6
   168          5
   169          7
   170         55
   171          8
   172         22
   174         38
   175         27
   176         33
   177          6
   178          5
   179          6
   180          9
   181         38
   182          6
   183          5
   185         38
   186          7
   187         11
   188         16
   189         18
   190          5
   191          3
   195          5
   197          8
   198         23
   199         20
   200          8
   201          5
   202         17
   203          8
   204          4
   205         13
   206          4
   207          6
   211          4
   212          3
   213         13
   214          5
   215         16
   216          4
   217          4
   218          5
   221          4
   223          3
   224          4
   225         71
   226         14
   227          3
   231         10
   232          4
   233          8
   234          4
   241          5
   242         18
   243         18
   244          5
   246          3
   247          3
   254          3
   258          3
   259          8
   260         10
   261          6
   262          4
   270          6
   271         10
   272          4
   273          4
   275          3
   277          4
   278          5
   279          8
   280          5
   281          4
   287          9
   288         19
   289         10
   290          7
   291          4
   299         15
   300          4
   302          3
   303         21
   304          6
   306          5
   307         10
   308          3
   315         20
   316         38
   317         29
   318         17
   319         13
   333          6
   334          3
   335         16
   336          4
   342         14
   343         37
   344         69
   345         64
   346         14
   347          4
   361        102
   362         24
   363          4
   365          9
   376        249
   377         91
   378         20
   394          7
   400          7
   412          5
   418          6