##TITLE=Library Entry 47982
##JCAMP-DX=Revision 4.10 
##DATA TYPE=MASS SPECTRUM
##SAMPLE DESCRIPTION=Chemical Concepts
##NAMES=HP
##CAS NAME=Bis(2-phenoxyethyl) 2,6-dimethyl-3,5-pyridinedicarboxylate
##MOLFORM=C25H25NO6
##CAS REGISTRY NO=57582-83-9
##MP= -300
##BP= -300
##MW= 435
##$RETENTION INDEX=0
##$CONDENSED SPECTRUM=NO
##NPOINTS= 169
##XYDATA=(XY..XY) 1 
    34         40
    35          7
    36         23
    37         20
    38         81
    39        379
    40        601
    41         96
    42         90
    43        184
    44        249
    45         59
    46          5
    47          5
    48          2
    49          7
    50         62
    51        240
    52         72
    53         66
    54         20
    55         78
    56         27
    57         47
    58          3
    60          8
    61          7
    62         34
    63        203
    64        212
    65        358
    66        114
    67         48
    68         14
    69         26
    70         17
    71         26
    72          6
    73         11
    74         12
    75         13
    77        999
    78        136
    79        111
    81        334
    82          9
    83         24
    84         13
    85          9
    87          5
    88          3
    89         10
    91        261
    92         77
    93        147
    94        158
    95         26
    96          7
    97         11
    98          4
    99          4
   101          4
   103        286
   104         98
   105        130
   106         48
   107         47
   108         13
   109          5
   110          3
   111          5
   112          9
   113          4
   115          8
   116          4
   117          8
   118         20
   119         54
   120        155
   121         81
   122         16
   123          8
   125        231
   126          3
   127          5
   128          7
   129          9
   130          5
   131         10
   132         69
   133         78
   134         18
   135          9
   136         12
   137          3
   138          3
   141          2
   142          3
   143          8
   144          4
   145          3
   146          4
   147          4
   148         11
   149         28
   150         90
   151         12
   152          6
   153          3
   154          3
   155          5
   156          3
   157          4
   158          4
   159          9
   160        102
   161         12
   162         26
   163          4
   164          2
   167          3
   168          3
   170         17
   171         18
   172          4
   176         35
   177        111
   178        111
   179         11
   180          5
   181          3
   183          9
   184          2
   196          7
   197          5
   198         22
   199          4
   204         39
   205          9
   206          8
   207          6
   215          6
   220          9
   222        119
   223         16
   224          6
   226        114
   227         16
   248          6
   250          3
   268          4
   269          2
   271          3
   295          3
   296          5
   297         11
   298         90
   299         18
   336          2
   337          7
   338         34
   340         33
   341         37
   342        934
   343        177
   344         26
   345          4
   435         31
   436          9