##TITLE=Library Entry 12974
##JCAMP-DX=Revision 4.10 
##DATA TYPE=MASS SPECTRUM
##SAMPLE DESCRIPTION=C.L.BAIMBRIDGE TEXAS A&M UNIV., COLLEGE STN., TEXAS, US
A
##NAMES=HP
##CAS NAME=.beta.-D-Glucopyranose, 1-deoxy-1-[(dimethylstibino)thio]-, 2,3,4
,6-tetraacetate
##MOLFORM=C16H25O9SSb
##CAS REGISTRY NO=57586-96-6
##MP= -300
##BP= -300
##MW= 514
##$RETENTION INDEX=0
##$CONDENSED SPECTRUM=NO
##NPOINTS= 157
##XYDATA=(XY..XY) 1 
    14          2
    15         20
    18          1
    26          1
    27          7
    28         75
    29          7
    30          1
    31          2
    32         17
    39          7
    40          1
    41         14
    42         14
    43        999
    44         24
    45          8
    47          1
    51          1
    52          1
    53          7
    54          1
    55         14
    56          4
    57         14
    59          1
    60          7
    61          7
    65          1
    66          1
    67          7
    68          2
    69         15
    70          4
    71          8
    73         14
    79          1
    81         38
    82          4
    83          8
    84          1
    85         20
    86          4
    87          4
    89          1
    91          1
    93          1
    94          1
    95          7
    96          2
    97         54
    98         11
    99         12
   100          1
   101          5
   102          2
   103         21
   104          1
   105          1
   107          1
   109        257
   110         24
   111          8
   112          1
   113          8
   114          1
   115         37
   116          4
   117          2
   121         32
   122         10
   123         31
   124          8
   125         78
   126          8
   127         88
   128          8
   129          2
   131          1
   133          1
   134          8
   135         24
   136         52
   137         22
   138         38
   139         37
   140          4
   141          5
   142          4
   143          8
   144          1
   145         22
   146          1
   149         22
   151        131
   152          4
   153         97
   154          2
   155         11
   156          1
   157          2
   159          1
   165          1
   166         47
   167          2
   168         35
   169        271
   170         25
   171         10
   181          1
   183         10
   184          1
   185          8
   186          1
   187         10
   195         37
   196          1
   197         30
   198          1
   199          4
   209          2
   211         18
   212          1
   213         14
   215          2
   225          1
   227          1
   229         17
   239          4
   241          2
   245          4
   251          1
   255          4
   257          1
   267          1
   269          1
   271          4
   277          4
   279          5
   281          1
   319          1
   321          2
   323          1
   331         72
   332         12
   333          1
   337          4
   339          2
   379          5
   381          4
   499         40
   500          7
   501         34
   502          5
   503          1
   514          1
   516          1