##TITLE=Library Entry 45470
##JCAMP-DX=Revision 4.10 
##DATA TYPE=MASS SPECTRUM
##SAMPLE DESCRIPTION=NIST Mass Spectrometry Data Center
##NAMES=HP
##CAS NAME=Propanenitrile, 3,3-dimethoxy-
##MOLFORM=C5H9NO2
##CAS REGISTRY NO=57597-62-3
##MP= -300
##BP= -300
##MW= 115
##$RETENTION INDEX=0
##$CONDENSED SPECTRUM=NO
##NPOINTS= 48
##XYDATA=(XY..XY) 1 
    13          2
    14          7
    15        134
    16          2
    25          2
    26         22
    27         39
    28         73
    29        241
    30         32
    31        217
    32          7
    33          2
    37          1
    38         13
    39         29
    40        107
    41        118
    42         37
    43         34
    44          4
    45         33
    47        233
    48          4
    50          1
    51         17
    52         41
    53         18
    54         92
    55         69
    56        517
    57         21
    58         24
    59         11
    67          9
    68         31
    69          2
    70          1
    72         12
    75        999
    76         31
    77          4
    82         33
    83         35
    84        759
    85         35
    86          2
   114         11