##TITLE=Library Entry 48797
##JCAMP-DX=Revision 4.10 
##DATA TYPE=MASS SPECTRUM
##SAMPLE DESCRIPTION=NIST Mass Spectrometry Data Center, 2012
##NAMES=HP
##CAS NAME=2-Iodobenzyl alcohol
##MOLFORM=C7H7IO
##CAS REGISTRY NO=5759-41-1
##MP= -300
##BP= -300
##MW= 234
##$RETENTION INDEX=0
##$CONDENSED SPECTRUM=NO
##NPOINTS= 85
##XYDATA=(XY..XY) 1 
    25          1
    26          7
    27         43
    28          4
    29         44
    30          3
    31         33
    32          1
    36          2
    37         22
    38         44
    39        119
    40         13
    41          2
    42          3
    43          4
    48          2
    49         29
    50        302
    51        403
    52        115
    53         76
    54          5
    55         15
    60          4
    61         30
    62         69
    63        125
    64         26
    65          7
    66          4
    67          2
    68          1
    72          2
    73         22
    74        101
    75         66
    76        158
    77        906
    78        520
    79        999
    80         65
    81          5
    84          3
    85         10
    86         15
    87         12
    88          5
    89        136
    90        100
    91         10
    92          1
   101          1
   103          1
   104         24
   105        542
   106         77
   107        364
   108         31
   109          2
   115          1
   116          3
   127        100
   128         25
   129          2
   152          3
   153          1
   164          2
   165          3
   176          4
   177          2
   203         35
   204          5
   205         18
   206          1
   215          2
   216          3
   217         20
   218          3
   231         17
   232          9
   233         43
   234        677
   235         52
   236          3