##TITLE=Library Entry 30238
##JCAMP-DX=Revision 4.10 
##DATA TYPE=MASS SPECTRUM
##SAMPLE DESCRIPTION=H. PYYSALO, FOOD RES. LAB., TECH. RES. CENT., ESPOO, FI
N&
##NAMES=HP
##CAS NAME=iso-Pentanal N-methyl-N-formylhydrazone
##MOLFORM=C7H14N2O
##CAS REGISTRY NO=57590-21-3
##MP= -300
##BP= -300
##MW= 142
##$RETENTION INDEX=0
##$CONDENSED SPECTRUM=NO
##NPOINTS= 11
##XYDATA=(XY..XY) 1 
    41        560
    43        800
    57        280
    59        999
    60        190
    71        310
    84        540
    85        890
   100        100
   127         90
   142        130