##TITLE=Library Entry 20821
##JCAMP-DX=Revision 4.10 
##DATA TYPE=MASS SPECTRUM
##SAMPLE DESCRIPTION=CARL DJERASSI DEPT OF CHEM STANFORD UNIV STANFORD CALIF
 94305
##NAMES=HP
##CAS NAME=26,27-Dinorcholesta-5,22-dien-3-ol, (3.beta.,22E)-
##MOLFORM=C25H40O
##CAS REGISTRY NO=57597-10-1
##MP= -300
##BP= -300
##MW= 356
##$RETENTION INDEX=0
##$CONDENSED SPECTRUM=NO
##NPOINTS= 114
##XYDATA=(XY..XY) 1 
    41        295
    42         30
    43        145
    53        115
    54         20
    55        999
    56         55
    57         50
    65         50
    66         15
    67        355
    68         70
    69        175
    77        135
    78         40
    79        315
    80         55
    81        475
    82         60
    83        890
    84         60
    91        315
    92         70
    93        315
    94         80
    95        300
    96         25
    97         70
   105        315
   106         80
   107        335
   108         70
   109        185
   110         90
   115         30
   116         15
   117        100
   118         50
   119        220
   120        130
   121        170
   122         50
   123         80
   124         25
   128         30
   129         50
   130         30
   131        150
   132         50
   133        280
   134         60
   135        150
   136         20
   143         75
   144         40
   145        280
   146         50
   147        220
   148         40
   149         60
   150         15
   151         30
   157         50
   158         60
   159        280
   160         65
   161        170
   162         40
   163         80
   171         50
   172         20
   173         80
   174         25
   175         60
   176         30
   177         30
   185         50
   186         20
   187         60
   188         15
   189         35
   199         60
   200         15
   201         15
   213        130
   214         25
   215         40
   216          5
   217         25
   225         25
   226          5
   227         40
   230         20
   231        115
   232         40
   255        400
   256         90
   257         40
   271        180
   272         90
   273        120
   274         20
   285         60
   286         15
   300        235
   301         55
   323         60
   324         40
   338         70
   339         20
   341         80
   342         30
   356        330
   357         90