##TITLE=Library Entry 81591
##JCAMP-DX=Revision 4.10 
##DATA TYPE=MASS SPECTRUM
##SAMPLE DESCRIPTION=Japan AIST/NIMC Database- Spectrum MS-NW-8663
##NAMES=HP
##CAS NAME=Benzene, 1-bromo-2,3-dimethyl-
##MOLFORM=C8H9Br
##CAS REGISTRY NO=576-23-8
##MP= -300
##BP= -300
##MW= 184
##$RETENTION INDEX=0
##$CONDENSED SPECTRUM=NO
##NPOINTS= 67
##XYDATA=(XY..XY) 1 
    15          1
    26          4
    27         36
    28          2
    29          1
    37          7
    38         16
    39         63
    40          6
    41          5
    49          6
    50         51
    51        146
    52         37
    53         22
    54          1
    60          1
    61          9
    62         26
    63         64
    64         13
    65         19
    66          3
    73          4
    74         20
    75         19
    76         17
    77        189
    78        108
    79        165
    80         10
    81          2
    82          4
    85          2
    86          5
    87          6
    88          2
    89         29
    90         30
    91         17
    92         13
    93          3
    97          1
    98          4
    99          1
   101          5
   102         25
   103        176
   104         89
   105        999
   106         90
   107          4
   117          2
   119          2
   143          2
   145          1
   169         67
   170          5
   171         65
   172          5
   182          1
   183         33
   184        553
   185         80
   186        541
   187         47
   188          2