##TITLE=Library Entry 100748
##JCAMP-DX=Revision 4.10 
##DATA TYPE=MASS SPECTRUM
##SAMPLE DESCRIPTION=NIST Mass Spectrometry Data Center, 1990.
##NAMES=HP
##CAS NAME=Benzene, 2-bromo-1,3,5-trimethyl-
##MOLFORM=C9H11Br
##CAS REGISTRY NO=576-83-0
##MP= -300
##BP= -300
##MW= 198
##$RETENTION INDEX=1254
##$CONDENSED SPECTRUM=NO
##NPOINTS= 57
##XYDATA=(XY..XY) 1 
    15         16
    26         11
    27         48
    38         30
    39        135
    40         19
    41         70
    50         92
    51        185
    52         56
    53         43
    58         84
    61         18
    62         57
    63        136
    64         26
    65        122
    66         12
    73          8
    74         52
    75         43
    76         36
    77        199
    78        100
    79         56
    80          7
    81          8
    85          6
    86         15
    87         19
    88          8
    89         56
    90          6
    91        432
    92         46
    93         37
    98         26
    99         29
   100          9
   101          8
   102         53
   103        172
   104        100
   105         11
   115        176
   116         43
   117        231
   118          8
   119        999
   120        104
   183         59
   185         55
   197         34
   198        491
   199         78
   200        494
   201         45