##TITLE=Library Entry 81590
##JCAMP-DX=Revision 4.10 
##DATA TYPE=MASS SPECTRUM
##SAMPLE DESCRIPTION=Japan AIST/NIMC Database- Spectrum MS-NW-3376
##NAMES=HP
##CAS NAME=Benzene, 2-bromo-1,3-dimethyl-
##MOLFORM=C8H9Br
##CAS REGISTRY NO=576-22-7
##MP= -300
##BP= -300
##MW= 184
##$RETENTION INDEX=0
##$CONDENSED SPECTRUM=NO
##NPOINTS= 72
##XYDATA=(XY..XY) 1 
    15          4
    26          5
    27         40
    29          1
    36          1
    37          9
    38         21
    39         79
    40          7
    41          6
    43          2
    44          1
    49          7
    50         50
    51        142
    52         43
    53         26
    54          2
    55          1
    59          1
    60          3
    61         13
    62         31
    63         70
    64         17
    65         28
    66          4
    73          5
    74         23
    75         19
    76         19
    77        204
    78        153
    79        150
    80          9
    81          3
    82          3
    84          1
    85          3
    86          7
    87          8
    88          3
    89         27
    90         18
    91         15
    92         18
    93          4
    97          1
    98          4
    99          1
   101          5
   102         31
   103        247
   104        136
   105        999
   106         89
   107          4
   117          3
   119          3
   131          1
   143          1
   145          1
   169         25
   170          2
   171         24
   172          2
   183         33
   184        548
   185         81
   186        531
   187         48
   188          2