##TITLE=Library Entry 36779
##JCAMP-DX=Revision 4.10 
##DATA TYPE=MASS SPECTRUM
##SAMPLE DESCRIPTION=ASES Database, Dalian Institute, P.R. China
##NAMES=HP
##CAS NAME=m-Fluorophenyl trifluoromethanesulfonate
##MOLFORM=C7H4F4O3S
##CAS REGISTRY NO=57606-65-2
##MP= -300
##BP= -300
##MW= 244
##$RETENTION INDEX=0
##$CONDENSED SPECTRUM=NO
##NPOINTS= 13
##XYDATA=(XY..XY) 1 
    38         60
    39         91
    50         60
    63         99
    64         49
    69        999
    75         49
    81         70
    95        109
   111        269
   114        168
   180        249
   244        350