##TITLE=Library Entry 83022
##JCAMP-DX=Revision 4.10 
##DATA TYPE=MASS SPECTRUM
##SAMPLE DESCRIPTION=Japan AIST/NIMC Database- Spectrum MS-IW-4615
##NAMES=HP
##CAS NAME=(S)-N--(1,2-Diphenylethyl)acetamide
##MOLFORM=C16H17NO
##CAS REGISTRY NO=57602-81-0
##MP= -300
##BP= -300
##MW= 239
##$RETENTION INDEX=0
##$CONDENSED SPECTRUM=NO
##NPOINTS= 84
##XYDATA=(XY..XY) 1 
    15          5
    27          3
    28          2
    38          1
    39         14
    40          2
    41          6
    42          3
    43         98
    44          3
    50          6
    51         22
    52          6
    53          2
    59          1
    62          2
    63          9
    64          3
    65         31
    66          2
    74          2
    75          3
    76         10
    77         63
    78         15
    79         94
    80          6
    82          2
    83          2
    87          1
    88          2
    89         17
    90          6
    91         82
    92          9
    93          1
   101          1
   102          6
   103         13
   104         43
   105         13
   106        999
   107         87
   108          3
   115          4
   116          1
   117          3
   118          7
   119          4
   120          4
   126          1
   127          1
   128          2
   132          4
   139          2
   141          1
   146          1
   147          4
   148        867
   149         89
   150          7
   151          3
   152          7
   153          2
   154          1
   163          1
   164          1
   165         22
   166          7
   167          1
   176          5
   177          5
   178         36
   179         47
   180        119
   181         23
   182          2
   192          1
   193          1
   194          2
   195          1
   196         10
   197          2
   239          1