##TITLE=Library Entry 18244
##JCAMP-DX=Revision 4.10 
##DATA TYPE=MASS SPECTRUM
##SAMPLE DESCRIPTION=A.A.Kutin, Moscow, Russia
##NAMES=HP
##CAS NAME=Cyclopropane, 1,1-dibromo-2-bromomethyl-
##MOLFORM=C4H5Br3
##CAS REGISTRY NO=57613-57-7
##MP= -300
##BP= -300
##MW= 290
##$RETENTION INDEX=0
##$CONDENSED SPECTRUM=NO
##NPOINTS= 79
##XYDATA=(XY..XY) 1 
    36         14
    37         76
    38        109
    39        209
    40         25
    41         46
    43         31
    44          3
    48          6
    49         85
    50        390
    51        999
    52        334
    53        645
    54         20
    57         12
    65          3
    66          4
    67          0
    79         91
    80         41
    81         87
    82         39
    83          4
    91         17
    92          6
    93         45
    95         32
   104         30
   105        164
   106         64
   107        154
   108         29
   109         10
   117         34
   118          7
   119         31
   120          2
   128          1
   129         11
   130         20
   131        473
   132        218
   133        450
   134        185
   135          7
   158          2
   160          5
   162          3
   170          5
   171          9
   172          9
   173         18
   174          3
   175          8
   183          1
   184         43
   185          7
   186         73
   187          6
   188         34
   189          0
   197         49
   198          2
   199         95
   200          4
   201         43
   209          6
   210         18
   211        456
   212         57
   213        840
   214         56
   215        399
   216         16
   290          3
   292         12
   294         11
   296          3