##TITLE=Library Entry 62992
##JCAMP-DX=Revision 4.10 
##DATA TYPE=MASS SPECTRUM
##SAMPLE DESCRIPTION=A.A.Kutin, Moscow, Russia
##NAMES=HP
##CAS NAME=Pent-1-yne, 5-benzyloxy-
##MOLFORM=C12H14O
##CAS REGISTRY NO=57618-47-0
##MP= -300
##BP= -300
##MW= 174
##$RETENTION INDEX=0
##$CONDENSED SPECTRUM=NO
##NPOINTS= 96
##XYDATA=(XY..XY) 1 
    38          9
    39         94
    40         23
    41         88
    42         40
    43         38
    44          2
    49          0
    50         18
    51         50
    52         27
    53         25
    54         10
    55         57
    56          8
    57         13
    58         16
    59          4
    60          8
    61          6
    62          6
    63         22
    64         29
    65        180
    66         35
    67         51
    68         18
    69         14
    70         22
    71         33
    73          4
    74          5
    75         10
    76         10
    77         98
    78         22
    79        114
    80         10
    81          6
    82          8
    83         35
    84         17
    85          9
    86          0
    87          2
    88          4
    89         55
    91        999
    92        122
    93         12
    94          1
    95         12
    96         10
    97         64
    98         18
    99          5
   101         16
   103         17
   104        106
   105        258
   106         42
   107         59
   108         21
   111         22
   112          4
   115         52
   116         24
   117         95
   118         85
   119         13
   120         27
   122          0
   123          4
   127         10
   128         46
   129         78
   130         36
   131        123
   132         68
   133         18
   134          4
   141         22
   143         21
   145        110
   146         43
   147         20
   155         17
   156          5
   157          4
   159        134
   160         18
   162          6
   164          5
   168          4
   173        400
   174         73