##TITLE=Library Entry 90182
##JCAMP-DX=Revision 4.10 
##DATA TYPE=MASS SPECTRUM
##SAMPLE DESCRIPTION=Chemical Concepts
##NAMES=HP
##CAS NAME=3,4-Dichlorobicyclo[3.2.1]oct-2-ene
##MOLFORM=C8H10Cl2
##CAS REGISTRY NO=57615-42-6
##MP= -300
##BP= -300
##MW= 176
##$RETENTION INDEX=0
##$CONDENSED SPECTRUM=NO
##NPOINTS= 140
##XYDATA=(XY..XY) 1 
    26          9
    27         48
    29         53
    31          9
    35          4
    36         50
    37          4
    38         21
    39        190
    40         18
    41         96
    42         11
    43         40
    44         28
    45         23
    47          5
    48          4
    49         21
    50         93
    51        248
    52         75
    53         47
    54         39
    55         36
    56         21
    57         40
    58          4
    59         15
    60         12
    61         22
    62         33
    63         86
    64         19
    65        193
    66        349
    67        128
    68         19
    69         28
    70         16
    71         29
    72          5
    73         65
    74         35
    75        122
    76         37
    77        886
    78        167
    79        237
    80         55
    81         27
    82         13
    83         27
    84          6
    85         23
    86         11
    87         23
    88         44
    89         32
    90         21
    91        115
    92         14
    93         46
    94         11
    95         38
    96          9
    97         14
    98          6
    99         59
   100        157
   101        289
   102         65
   103        137
   104         33
   105        411
   106         49
   107         16
   108         12
   109         18
   110          9
   111         98
   112        314
   113        999
   114        252
   115        329
   116         48
   117         13
   118          4
   119         14
   120          4
   121         10
   122         43
   123          9
   124         35
   125         53
   126         12
   127        207
   128         27
   129         93
   130         10
   131         17
   132          5
   133         12
   134         76
   135         28
   136         51
   137         22
   138          6
   139         13
   140         52
   141        754
   142         93
   143        279
   144         25
   145          8
   146         16
   147        101
   148         45
   149         64
   150         30
   151         15
   153          4
   154          4
   155         11
   156          5
   157          7
   158          2
   159          9
   160          4
   161         11
   162          3
   163          5
   167         12
   171          6
   173          7
   176        410
   177         43
   178        304
   179         36
   180         50
   181          7