##TITLE=Library Entry 76790
##JCAMP-DX=Revision 4.10 
##DATA TYPE=MASS SPECTRUM
##SAMPLE DESCRIPTION=Chemical Concepts
##NAMES=HP
##CAS NAME=3,6,9,12-Tetraoxabicyclo[12.3.1]octadeca-1(18),14,16-triene
##MOLFORM=C14H20O4
##CAS REGISTRY NO=57624-50-7
##MP= -300
##BP= -300
##MW= 252
##$RETENTION INDEX=0
##$CONDENSED SPECTRUM=NO
##NPOINTS= 148
##XYDATA=(XY..XY) 1 
    26          3
    27         44
    28         19
    29         33
    30          3
    31         27
    38          1
    39         48
    40          7
    41         73
    42         15
    43         53
    44         25
    45        764
    46         15
    47          1
    50          6
    51         29
    52         39
    53         16
    54         27
    55         32
    56          9
    57          6
    58          9
    59         20
    60          1
    61          2
    62          2
    63         19
    64          6
    65         46
    66         11
    67        107
    68         17
    69         17
    70          5
    71         17
    72          5
    73         26
    74         34
    75          8
    76          6
    77         74
    78        157
    79         54
    80         11
    81         26
    82         55
    83          8
    84          7
    85          3
    86          6
    87         19
    88          2
    89        395
    90         47
    91         86
    92         19
    93          5
    94          3
    95         12
    96          7
    97          9
    98         12
    99          2
   101          2
   102         12
   103        152
   104        999
   105        212
   106         15
   107          7
   108         12
   109         10
   110         22
   111          7
   112          4
   113          1
   114          1
   115         10
   116          4
   117         92
   118         79
   119         91
   120         35
   121         11
   124          4
   125          9
   126          8
   127          2
   128          4
   129          3
   130          4
   131          8
   132          5
   133        463
   134         33
   135         11
   136          5
   137          4
   138         14
   139          2
   140          1
   141          1
   142          2
   144          1
   145          4
   146          7
   147         16
   148          2
   149          2
   151          1
   152          3
   153          9
   154         30
   155          3
   160          1
   161          1
   162          3
   163          4
   164          6
   165          2
   166          3
   167          1
   173          2
   175          1
   177          1
   178          1
   179          1
   180          1
   181          3
   182          1
   189          1
   191          1
   195          1
   206          2
   208          1
   211          1
   212          2
   223          1
   224          1
   236          1
   251          2
   252        458
   253         71
   254          6
   255          1