##TITLE=Library Entry 73850
##JCAMP-DX=Revision 4.10 
##DATA TYPE=MASS SPECTRUM
##SAMPLE DESCRIPTION=Chemical Concepts
##NAMES=HP
##CAS NAME=Tris(dimethylamino)methane
##MOLFORM=C7H19N3
##CAS REGISTRY NO=5762-56-1
##MP= -300
##BP= -300
##MW= 145
##$RETENTION INDEX=0
##$CONDENSED SPECTRUM=NO
##NPOINTS= 72
##XYDATA=(XY..XY) 1 
    25          0
    26          2
    27         18
    28        178
    29         11
    30         60
    31          1
    33          0
    35          0
    36          0
    37          0
    38          2
    39          6
    40         15
    41         34
    42        256
    43         50
    44        400
    45        160
    46          7
    48          0
    49          0
    50          0
    51          0
    52          0
    53          0
    54          2
    55          5
    56         27
    57         80
    58         56
    59          2
    60         13
    61          0
    62          0
    63          0
    64          0
    65          0
    66          0
    67          2
    68          5
    69         11
    70         11
    71         20
    72         10
    73         28
    74          4
    76          0
    77          0
    78          0
    79          0
    80          0
    81          0
    82          0
    83          4
    84          1
    85         76
    86         26
    87          1
    88          0
    91          0
    92          0
    94          0
    95          1
    96          2
    97          5
    98          4
    99          4
   100          8
   101        999
   102         53
   103          1