##TITLE=Library Entry 19423
##JCAMP-DX=Revision 4.10 
##DATA TYPE=MASS SPECTRUM
##SAMPLE DESCRIPTION=Chemical Concepts
##NAMES=HP
##CAS NAME=Pentanoic acid, 2,4-dimethyl-4-nitro-, methyl ester
##MOLFORM=C8H15NO4
##CAS REGISTRY NO=5762-40-3
##MP= -300
##BP= -300
##MW= 189
##$RETENTION INDEX=0
##$CONDENSED SPECTRUM=NO
##NPOINTS= 72
##XYDATA=(XY..XY) 1 
    26         19
    27        277
    28        109
    29        242
    30        330
    31         39
    33         11
    37         17
    38         15
    39        314
    40         67
    41        894
    42         99
    43        502
    45         54
    50         10
    51         19
    52          9
    53         71
    54         16
    55        999
    56        231
    57         75
    58          6
    59        371
    60         11
    61          5
    62          4
    63          4
    65         14
    66          6
    67         76
    68         13
    69        417
    70         44
    71         15
    72          9
    73        188
    74         66
    75          9
    77          6
    79          8
    81         31
    82         50
    83        718
    84        160
    85         22
    86         27
    87        181
    88         16
    89         16
    95         18
    99         21
   101         74
   102          4
   103         10
   109         20
   110         26
   111        295
   112         30
   113         19
   123          4
   127         25
   128        205
   129         16
   140          8
   142         94
   143        445
   144         38
   157          2
   158         43
   159          4