##TITLE=Library Entry 72344
##JCAMP-DX=Revision 4.10 
##DATA TYPE=MASS SPECTRUM
##SAMPLE DESCRIPTION=D.HENNEBERG, MAX-PLANCK INSTITUTE, MULHEIM, WEST GERMAN
Y
##NAMES=HP
##CAS NAME=1,3,2-Dioxaborolane, 2,4-diethyl-
##MOLFORM=C6H13BO2
##CAS REGISTRY NO=57633-63-3
##MP= -300
##BP= -300
##MW= 128
##$RETENTION INDEX=0
##$CONDENSED SPECTRUM=NO
##NPOINTS= 79
##XYDATA=(XY..XY) 1 
    27        118
    30          2
    31         12
    32          3
    36          1
    37          4
    38          6
    39         69
    40         28
    41        100
    42        134
    43        234
    44         13
    45         25
    46          0
    47          0
    48          0
    49          0
    50          3
    51          4
    52          3
    53         17
    54         14
    55         71
    56         48
    57        147
    58          8
    59         13
    60          0
    61          0
    62          0
    63          0
    65          1
    66          1
    67          3
    68          9
    69         38
    70         59
    71         59
    72          2
    73          4
    74          0
    75          0
    77          1
    78          0
    79          0
    81          0
    82          3
    83         13
    84         11
    85          6
    86          0
    87          1
    89          0
    91          3
    92          0
    95          1
    96          3
    97         35
    98        355
    99        999
   100         47
   101          4
   102          0
   103          1
   104          0
   105          0
   110          0
   111          1
   112          8
   113         32
   114          1
   118          0
   124          0
   125          1
   126          1
   127          7
   128         12
   129          2