##TITLE=Library Entry 9801
##JCAMP-DX=Revision 4.10 
##DATA TYPE=MASS SPECTRUM
##SAMPLE DESCRIPTION=C. COSTELLO,DEP. CHEM.,MASSACHUSETTS INST. TECH.,CAMBRI
DGE,U
##NAMES=HP
##CAS NAME=2-Tridecyl-5-(acetylamino)tetrahydro-.gamma.-pyrone
##MOLFORM=C20H37NO3
##CAS REGISTRY NO=57633-80-4
##MP= -300
##BP= -300
##MW= 339
##$RETENTION INDEX=0
##$CONDENSED SPECTRUM=NO
##NPOINTS= 222
##XYDATA=(XY..XY) 1 
    30        102
    31         28
    36          2
    37          5
    38         10
    39         93
    41        456
    42        233
    43        999
    44        144
    45         50
    46          4
    50          8
    51         12
    52          8
    53         42
    54         67
    55        405
    56        215
    57        392
    58         47
    59        102
    60        271
    61         10
    63          4
    64          4
    65         13
    66         27
    67        140
    68        131
    69        232
    70        125
    71        168
    72        244
    73        132
    74         62
    75          7
    76          7
    77         20
    78         10
    79         29
    80         26
    81        143
    82        185
    83        200
    84        119
    85        627
    86        133
    87         27
    88          9
    89          5
    91         13
    92          7
    93         20
    94         28
    95        151
    96        146
    97        160
    98         92
    99        407
   100         57
   101        108
   102         30
   103          6
   104          8
   105         10
   106          6
   107         17
   108         17
   109        150
   110         71
   111         73
   112         77
   113         29
   114        153
   115         85
   116        128
   117         18
   118          4
   119         10
   120          7
   121         18
   122         20
   123         41
   124         34
   125         34
   126         28
   127         63
   128         76
   129         29
   130          8
   131          4
   132          4
   133         11
   134          7
   135         15
   136         13
   137         26
   138         31
   139         17
   140         55
   141         13
   142          6
   143         10
   144          3
   145          3
   147          5
   148          4
   149         76
   150         14
   151         13
   152         16
   153         10
   154         33
   155         10
   156         52
   157          9
   158          3
   159          2
   161          3
   162          3
   163          5
   164          5
   165          8
   166         18
   167          6
   168         31
   169          8
   170          8
   171          5
   174          3
   177          2
   178          4
   179          5
   180          5
   181          4
   182         12
   183          4
   184         10
   185          4
   186         16
   187          3
   191          3
   192         10
   193          6
   194         16
   195          5
   196          7
   197          4
   198          3
   202          5
   203          4
   205          6
   206          4
   207          5
   208          8
   209          4
   210          9
   211          8
   212          8
   213          3
   219          6
   220          3
   221          3
   222          6
   223          5
   224          6
   225          3
   226          8
   227         10
   232          8
   233          3
   234          3
   235          4
   236          6
   237         25
   238         13
   239          5
   240          3
   241          3
   248          5
   249          4
   250         63
   251         19
   252          9
   253          7
   254          6
   262          7
   263         10
   264          6
   265          3
   266         21
   267         50
   268         13
   269          5
   278         13
   279         12
   280         15
   281         20
   282         13
   291          5
   292          4
   293          3
   294          4
   295          8
   296         10
   297          5
   305          3
   307          2
   309        195
   310         46
   311          7
   320          3
   321         16
   322          5
   323          7
   324          2
   337          4
   338          6
   339        226
   340         56
   341          8