##TITLE=Library Entry 76585
##JCAMP-DX=Revision 4.10 
##DATA TYPE=MASS SPECTRUM
##SAMPLE DESCRIPTION=Exported from NIST MS Search
##NAMES=HP
##CAS NAME=Germacyclopent-3-ene, 1,1-diethyl-3-methyl-
##MOLFORM=C9H18Ge
##CAS REGISTRY NO=5764-76-1
##MP= -300
##BP= -300
##MW= 200
##$RETENTION INDEX=0
##$CONDENSED SPECTRUM=NO
##NPOINTS= 84
##XYDATA=(XY..XY) 1 
    41        213
    42         65
    43         19
    45         19
    50         31
    51         53
    52         29
    53        194
    54         19
    55         38
    66         24
    68         31
    69         17
    70        157
    71        121
    72         19
    73        126
    74        230
    75        186
    76        371
    77        320
    78        424
    79         60
    80        116
    84         19
    85        126
    86         29
    87        174
    88         77
    89        211
    91         68
    93         21
    95         53
    97        160
    98         43
    99        679
   100        242
   101        849
   102        424
   103        999
   104        315
   105        206
   106         77
   109         46
   110         41
   111        101
   112         53
   113        116
   114         55
   115        114
   116         29
   117         34
   126         38
   127        237
   128         53
   129        291
   130        111
   131        400
   132         53
   133         63
   134         26
   137         41
   138         31
   139        223
   140         31
   141        235
   142        101
   143        339
   144         34
   145         84
   167        383
   168         31
   169        509
   170        186
   171        699
   172         58
   173        145
   196        111
   197          9
   198        131
   199         68
   200        199
   201         19
   202         46