##TITLE=Library Entry 69000
##JCAMP-DX=Revision 4.10 
##DATA TYPE=MASS SPECTRUM
##SAMPLE DESCRIPTION=NIST Mass Spectrometry Data Center, 1998.
##NAMES=HP
##CAS NAME=Furalaxyl
##MOLFORM=C17H19NO4
##CAS REGISTRY NO=57646-30-7
##MP= -300
##BP= -300
##MW= 301
##$RETENTION INDEX=2074
##$CONDENSED SPECTRUM=NO
##NPOINTS= 166
##XYDATA=(XY..XY) 1 
    15          9
    26          1
    27          9
    28          4
    29          5
    30          1
    31          1
    37          2
    38          7
    39         67
    40          4
    41          6
    42          3
    43          2
    44          1
    45          2
    50          3
    51         17
    52          6
    53         13
    54          2
    55         16
    56          2
    57          1
    58          1
    59         30
    60          1
    62          1
    63          8
    64          3
    65         20
    66          5
    67         24
    68          3
    69          1
    70          1
    74          1
    75          2
    76          4
    77         80
    78         21
    79         54
    80          5
    81          4
    82          1
    83          1
    87         22
    88          2
    89          8
    90          5
    91         29
    92          5
    93          4
    94          1
    95        999
    96         68
    97          8
    98          1
   101          1
   102          7
   103         42
   104         11
   105         78
   106         10
   107          2
   108          2
   109          1
   110          1
   111          1
   114          1
   115         11
   116          7
   117         52
   118         12
   119          5
   120         16
   121         16
   122          3
   126          1
   127          4
   128         12
   129          5
   130         25
   131         33
   132        110
   133         12
   134          1
   135          1
   136          1
   139          1
   140          1
   141          4
   142          4
   143          7
   144         11
   145          4
   146        148
   147         27
   148          5
   149          1
   152        207
   153         21
   154          4
   155          2
   156          4
   157          3
   158          3
   159          1
   160          1
   162          1
   166          1
   167          2
   168          6
   169          2
   170          5
   171          3
   172          3
   173          1
   174          3
   178          1
   180         76
   181          9
   182          3
   183          2
   184          5
   185          2
   186         13
   187          2
   190          1
   196          3
   197          3
   198         12
   199          5
   200          3
   206         33
   207          5
   208          1
   210          2
   211          1
   212          7
   213          5
   214         20
   215         12
   216          2
   224          7
   225         38
   226         10
   227          1
   240          4
   241          9
   242        430
   243         75
   244          8
   245          1
   269         54
   270         28
   271          4
   272          4
   273          1
   283          7
   284          2
   286          4
   287          1
   301        113
   302         22
   303          3