##TITLE=Library Entry 58484
##JCAMP-DX=Revision 4.10 
##DATA TYPE=MASS SPECTRUM
##SAMPLE DESCRIPTION=Chemical Concepts
##NAMES=HP
##CAS NAME=Germacyclopent-3-ene, 1,1,3,4-tetramethyl-
##MOLFORM=C8H16Ge
##CAS REGISTRY NO=5764-66-9
##MP= -300
##BP= -300
##MW= 186
##$RETENTION INDEX=0
##$CONDENSED SPECTRUM=NO
##NPOINTS= 76
##XYDATA=(XY..XY) 1 
    37          4
    39        352
    41        257
    42         15
    43          5
    50         41
    52         76
    54         77
    55         17
    56          2
    63         14
    65         39
    67        173
    70         13
    71         46
    72         29
    73         53
    74         50
    75         51
    77         44
    79         38
    81         20
    82         45
    85        345
    87        873
    89        999
    91        196
    93          4
    95         21
    97         45
   100        399
   102        504
   104        746
   105        106
   106         55
   107          9
   108         12
   109         11
   111         54
   113         77
   115         64
   117         15
   118          4
   119          6
   121          3
   123          7
   125         49
   127         67
   129         87
   131         19
   133          1
   135          3
   137          6
   139         27
   141         34
   143         46
   145         12
   146          1
   147          1
   149          5
   151          9
   153         15
   155         12
   157          7
   159          1
   165          5
   167        273
   169        387
   171        599
   173        106
   174          5
   182        179
   184        256
   186        384
   188         85
   189          4