##TITLE=Library Entry 49977
##JCAMP-DX=Revision 4.10 
##DATA TYPE=MASS SPECTRUM
##SAMPLE DESCRIPTION=FOOD RESEARCH REPORT 119, K.E. MURRAY & COLLEAGUES, DIV
. OF FOOD RESEARCH, CSIRO, AUSTRALIA
##NAMES=HP
##CAS NAME=3-Octen-2-ol, (E)-
##MOLFORM=C8H16O
##CAS REGISTRY NO=57648-55-2
##MP= -300
##BP= -300
##MW= 128
##$RETENTION INDEX=0
##$CONDENSED SPECTRUM=NO
##NPOINTS= 49
##XYDATA=(XY..XY) 1 
    26         30
    27        350
    29        140
    37         10
    38         30
    39        440
    40         90
    41        730
    42         60
    43        150
    45         20
    50         40
    51         90
    52         60
    53        320
    54        830
    55        280
    56         70
    57         30
    58         20
    62         10
    63         30
    64         10
    65        120
    66        100
    67        710
    68        650
    69        110
    70         10
    71         90
    75         10
    77        110
    78         30
    79        240
    80         50
    81        999
    82        110
    83         10
    85         10
    86         10
    91         30
    93         20
    95        160
    96         20
    97         10
   109         10
   110        550
   111         60
   128          1