##TITLE=Library Entry 76670
##JCAMP-DX=Revision 4.10 
##DATA TYPE=MASS SPECTRUM
##SAMPLE DESCRIPTION=Div. of Experiment Therapeutics WRAIR, WRAMC, Washingto
n DC 20307
##NAMES=HP
##CAS NAME=5-Carboxyfluoromethylidenehydantoin
##MOLFORM=C5H3FN2O4
##CAS REGISTRY NO=57646-16-9
##MP= -300
##BP= -300
##MW= 174
##$RETENTION INDEX=0
##$CONDENSED SPECTRUM=NO
##NPOINTS= 45
##XYDATA=(XY..XY) 1 
    42         51
    43        272
    44        402
    45        244
    46         22
    47         94
    48         10
    51          5
    52         16
    53         19
    54         42
    55         22
    57         93
    58        154
    59        191
    60        188
    67         12
    69         10
    70        100
    71         19
    73         16
    74         35
    75         46
    76          2
    84          4
    85        327
    86        138
    87         50
    94         12
   102          7
   103        999
   104         33
   105          2
   112          8
   113          7
   119          7
   126         83
   130        143
   131        217
   132         11
   146         14
   157         54
   174        738
   175         96
   176          9