##TITLE=Library Entry 76586
##JCAMP-DX=Revision 4.10 
##DATA TYPE=MASS SPECTRUM
##SAMPLE DESCRIPTION=CARL DJERASSI DEPT OF CHEM STANFORD UNIV STANFORD CALIF
 94305
##NAMES=HP
##CAS NAME=Germacyclopent-3-ene, 1,1-diethyl-3,4-dimethyl-
##MOLFORM=C10H20Ge
##CAS REGISTRY NO=5764-67-0
##MP= -300
##BP= -300
##MW= 214
##$RETENTION INDEX=0
##$CONDENSED SPECTRUM=NO
##NPOINTS= 104
##XYDATA=(XY..XY) 1 
    41        540
    42         70
    43         90
    45         20
    50         30
    51         70
    52         30
    53        130
    54        100
    55        100
    56         10
    57         20
    63         10
    65         50
    66         10
    67        250
    68         10
    69         40
    70        120
    71        270
    72        180
    73        390
    74        320
    75        460
    76         60
    77        140
    79         40
    81         40
    82         90
    83         30
    84         20
    85        250
    86         30
    87        330
    88        140
    89        440
    90         20
    91        120
    93         10
    95         40
    97        150
    98         40
    99        670
   100        240
   101        860
   102        430
   103        999
   104        300
   105        240
   106         70
   107         10
   109         60
   110         40
   111        270
   112         60
   113        350
   114        130
   115        370
   116         30
   117         90
   123         10
   125         50
   126         20
   127         60
   128        220
   129        100
   130        270
   131        150
   132        340
   133         80
   134        100
   135         30
   137         30
   139         40
   141         40
   142         10
   143         40
   149         30
   151         50
   152         20
   153        390
   154         40
   155        480
   156        180
   157        630
   158         60
   159        150
   160         10
   161         10
   181        450
   182         50
   183        640
   184        220
   185        810
   186         70
   187        170
   188         20
   210        170
   211         20
   212        220
   213         90
   214        290
   215         40
   216         60