##TITLE=Library Entry 9649
##JCAMP-DX=Revision 4.10 
##DATA TYPE=MASS SPECTRUM
##SAMPLE DESCRIPTION=Japan AIST/NIMC Database- Spectrum MS-NW-6437
##NAMES=HP
##CAS NAME=Isoxazole, 5-methyl-
##MOLFORM=C4H5NO
##CAS REGISTRY NO=5765-44-6
##MP= -300
##BP= -300
##MW= 83
##$RETENTION INDEX=702
##$CONDENSED SPECTRUM=NO
##NPOINTS= 44
##XYDATA=(XY..XY) 1 
    12          6
    13         14
    14         24
    15        117
    16          2
    24          3
    25         14
    26         67
    27        158
    28         66
    29         21
    30         14
    31          4
    32          1
    36          6
    37         24
    38         36
    39         55
    40        214
    41        214
    42         40
    43        999
    44         26
    45          4
    47          1
    48          1
    49         10
    50         37
    51         48
    52         24
    53         25
    54         81
    55         32
    56         11
    57          1
    67          8
    68        374
    69         13
    70          2
    81          1
    82         26
    83        713
    84         36
    85          3