##TITLE=Library Entry 66010
##JCAMP-DX=Revision 4.10 
##DATA TYPE=MASS SPECTRUM
##SAMPLE DESCRIPTION=JACSAT, 100(11)3426(1978); B. M. TROST
##NAMES=HP
##CAS NAME=2,6,10-Dodecatrien-1-ol, 3,7,11-trimethyl-9-(phenylsulfonyl)-, (E
,E)-
##MOLFORM=C21H30O3S
##CAS REGISTRY NO=57683-67-7
##MP= -300
##BP= -300
##MW= 362
##$RETENTION INDEX=0
##$CONDENSED SPECTRUM=NO
##NPOINTS= 19
##XYDATA=(XY..XY) 1 
    55        670
    67        360
    69        880
    77        500
    78        370
    79        430
    93        999
    95        380
   105        350
   107        600
   109        480
   119        280
   121        330
   133        180
   135        680
   136        130
   147        230
   220         50
   221         40