##TITLE=Library Entry 90246
##JCAMP-DX=Revision 4.10 
##DATA TYPE=MASS SPECTRUM
##SAMPLE DESCRIPTION=Chemical Concepts
##NAMES=HP
##CAS NAME=Cyclohexaneethanol, 3-hydroxy-.beta.,4-dimethyl-
##MOLFORM=C10H20O2
##CAS REGISTRY NO=57685-12-8
##MP= -300
##BP= -300
##MW= 172
##$RETENTION INDEX=0
##$CONDENSED SPECTRUM=NO
##NPOINTS= 103
##XYDATA=(XY..XY) 1 
    26          3
    27         92
    28         10
    29        147
    30         10
    31        144
    38          2
    39         99
    40         21
    41        331
    42        127
    43        215
    44         31
    45         69
    46          1
    47          1
    50          3
    51         11
    52          5
    53         67
    54         34
    55        393
    56        105
    57        379
    58        132
    59         27
    60          3
    61          1
    62          1
    63          3
    65         14
    66          8
    67        130
    68        139
    69        251
    70         63
    71        121
    72         19
    73          8
    75          2
    76          2
    77         21
    78          5
    79         50
    80         17
    81        269
    82         68
    83        122
    84         58
    85         25
    86          4
    87          1
    91         13
    92         15
    93         85
    94        118
    95        457
    96         84
    97        262
    98         31
    99         10
   100          4
   102          4
   105          4
   106          1
   107         93
   108         24
   109         37
   110         15
   111         80
   112         56
   113        999
   114         79
   115         39
   116          3
   120          1
   121         83
   122         16
   123        306
   124         78
   125         21
   126          5
   127         11
   128          2
   129          0
   131          5
   135          4
   136        122
   137         16
   139          1
   140         11
   142          2
   143          7
   145         13
   146          2
   153          5
   154        138
   155         16
   170          1
   171          2
   172         85
   173          9
   174          1