##TITLE=Library Entry 10568
##JCAMP-DX=Revision 4.10 
##DATA TYPE=MASS SPECTRUM
##SAMPLE DESCRIPTION=Chemical Concepts
##NAMES=HP
##CAS NAME=2(3H)-Furanone, 5-(acetyloxy)dihydro-5-methyl-
##MOLFORM=C7H10O4
##CAS REGISTRY NO=57681-51-3
##MP= -300
##BP= -300
##MW= 158
##$RETENTION INDEX=0
##$CONDENSED SPECTRUM=NO
##NPOINTS= 78
##XYDATA=(XY..XY) 1 
    25          4
    26         44
    27        111
    28        210
    29         37
    30          2
    31          6
    37          5
    38          8
    39         33
    40          6
    41         20
    42        103
    43        999
    44         47
    45         34
    46          1
    49          3
    50          9
    51         10
    52          4
    53         17
    54         12
    55        102
    56        120
    57         45
    58          4
    59          2
    60         10
    61         25
    62          1
    65          1
    66          1
    67          2
    68          2
    69          6
    70         19
    71        178
    72         54
    73         14
    74          3
    75          3
    77          1
    78          1
    79          2
    80          1
    81         22
    82          3
    83          3
    84          1
    85          2
    86          2
    87          3
    88         16
    89          2
    90          1
    91          2
    92          1
    93          2
    94          2
    95          2
    96          2
    97          5
    98         74
    99        718
   100         69
   101         28
   102          2
   103         29
   104          2
   105          1
   114         14
   115          4
   116          7
   117          2
   141          1
   143          4
   158          1