##TITLE=Library Entry 67667
##JCAMP-DX=Revision 4.10 
##DATA TYPE=MASS SPECTRUM
##SAMPLE DESCRIPTION=A.A.Kutin, Moscow, Russia
##NAMES=HP
##CAS NAME=4-(2-Furamido)benzoic acid
##MOLFORM=C12H9NO4
##CAS REGISTRY NO=5768-34-3
##MP= -300
##BP= -300
##MW= 231
##$RETENTION INDEX=0
##$CONDENSED SPECTRUM=NO
##NPOINTS= 141
##XYDATA=(XY..XY) 1 
    36          0
    37         26
    38         80
    39        286
    40         24
    41         12
    42          5
    43          3
    44         15
    45         32
    46          0
    48          0
    49          1
    50         17
    51         26
    52         15
    53         21
    54          3
    55          6
    56          0
    57          1
    58          0
    60          0
    61          4
    62         13
    63         45
    64         37
    65         50
    66         13
    67         42
    68          4
    69          1
    70          0
    71          0
    73          1
    74          5
    75          7
    76          5
    77          6
    78          2
    79          1
    80          2
    81         11
    82          0
    83          0
    84          0
    85          0
    86          0
    87          1
    88          1
    89          2
    90         14
    91         16
    92          9
    93          7
    95        999
    96         54
    97          5
    98          0
    99          0
   100          0
   101          0
   102          2
   103          3
   104          1
   105          2
   106          0
   107          0
   108         10
   109          1
   110          0
   111          0
   112          0
   113          0
   114          0
   115          1
   116          0
   117          0
   118          3
   119         68
   120         11
   121          7
   122          0
   127          0
   128          2
   129          2
   130          4
   131          1
   132          0
   133          0
   134          0
   135          1
   136          8
   137          3
   138          3
   139          0
   140          0
   142          0
   144          0
   146          3
   147          0
   148          0
   149          0
   154          0
   156          0
   157          0
   158          1
   159          0
   161          0
   163          0
   164          0
   165          0
   171          0
   174          3
   175          0
   176          0
   177          0
   184          0
   185          0
   186          3
   187          0
   188          1
   189          0
   190          0
   191          0
   201          0
   202          0
   203          3
   204          0
   212          0
   213          0
   214          4
   215          0
   216          0
   223          0
   229          0
   230          1
   231        236
   232         32
   233          3
   234          0