##TITLE=Library Entry 88867
##JCAMP-DX=Revision 4.10 
##DATA TYPE=MASS SPECTRUM
##SAMPLE DESCRIPTION=Japan AIST/NIMC Database- Spectrum MS-NW-7624
##NAMES=HP
##CAS NAME=4-Chlorobenzenesulfonyl isocyanate
##MOLFORM=C7H4ClNO3S
##CAS REGISTRY NO=5769-15-3
##MP= -300
##BP= -300
##MW= 217
##$RETENTION INDEX=0
##$CONDENSED SPECTRUM=NO
##NPOINTS= 119
##XYDATA=(XY..XY) 1 
    14          2
    15          8
    16          1
    25          2
    26          5
    27          7
    28         23
    29          2
    30          2
    32          2
    35          1
    36          7
    37         20
    38         28
    39         17
    40          1
    41          1
    42         10
    43         44
    44         40
    45          9
    46          6
    47          3
    48         14
    49         13
    50        169
    51         68
    52          5
    53          3
    54          2
    55          1
    56          1
    57          3
    58         15
    59          1
    60          4
    61         18
    62         14
    63         31
    64         11
    65          2
    69         10
    70          2
    71          2
    72          5
    73         33
    74         98
    75        374
    76         76
    77          8
    78          1
    79          2
    81          4
    82          4
    83          1
    84         12
    85         42
    86          6
    87         15
    88          1
    89          5
    90         18
    91          2
    92          1
    93          1
    95          3
    96          2
    97          1
    98          3
    99         31
   100          3
   101          9
   105          1
   106          4
   107          2
   108          9
   109          6
   110          9
   111        999
   112         73
   113        320
   114         24
   115          2
   124          2
   125          5
   126          2
   127         21
   128          4
   129          7
   130          1
   131          8
   133          3
   138          2
   140          1
   142          2
   143          3
   144          9
   145          2
   146          4
   147          2
   148          1
   153          2
   159         10
   160          1
   161          3
   173          2
   175        646
   176         51
   177        236
   178         16
   179         10
   180          1
   191          3
   193          1
   217        187
   218         16
   219         69
   220          5
   221          4