##TITLE=Library Entry 63646
##JCAMP-DX=Revision 4.10 
##DATA TYPE=MASS SPECTRUM
##SAMPLE DESCRIPTION=Chemical Concepts
##NAMES=HP
##CAS NAME=N,N,N',N'-Tetrabenzylethylenediamine
##MOLFORM=C30H32N2
##CAS REGISTRY NO=57693-32-0
##MP= -300
##BP= -300
##MW= 420
##$RETENTION INDEX=0
##$CONDENSED SPECTRUM=NO
##NPOINTS= 95
##XYDATA=(XY..XY) 1 
    33          3
    34          1
    35          2
    36          2
    38          4
    39         40
    40         30
    42         57
    44          7
    45          1
    49          1
    50          4
    51         22
    52          4
    53          3
    55          3
    56          3
    57          3
    58          1
    60          1
    61          1
    62          3
    63         16
    65        138
    66          5
    67          1
    69          2
    70          1
    71          1
    73          1
    74          1
    75          1
    76          2
    77         10
    78          3
    79          3
    81          1
    82          1
    83          1
    84          1
    85          1
    86          1
    87          1
    89         26
    91        999
    93          2
    97          1
   103          4
   104          6
   105          8
   106          3
   107          1
   109          1
   116          2
   117          4
   118         24
   119          3
   120          3
   130          1
   132          9
   134          4
   135          1
   144          1
   148          1
   149          1
   152          1
   159          1
   165          3
   166          2
   167          1
   178          1
   179          2
   181         27
   182          4
   194          1
   195          1
   196          3
   197          1
   205          1
   206          1
   210        465
   211         68
   212          5
   222          1
   223          1
   224          5
   225          1
   237          2
   239          1
   251          2
   324          1
   326          9
   329        117
   330         24
   331          3