##TITLE=Library Entry 36512
##JCAMP-DX=Revision 4.10 
##DATA TYPE=MASS SPECTRUM
##SAMPLE DESCRIPTION=ASES Database, Dalian Institute, P.R. China
##NAMES=HP
##CAS NAME=Perfluoro-(1,4-dimethyl-2,5-dioxa-octylcyanide)
##MOLFORM=C9F17NO2
##CAS REGISTRY NO=57697-79-7
##MP= -300
##BP= -300
##MW= 477
##$RETENTION INDEX=0
##$CONDENSED SPECTRUM=NO
##NPOINTS= 22
##XYDATA=(XY..XY) 1 
    31        119
    47         49
    50         59
    69        999
    76        279
    97        269
   100        231
   119        299
   126        854
   142         98
   147        100
   150         98
   169        985
   170         39
   176         59
   192        280
   213         40
   264         39
   292         60
   335        139
   358         59
   458         20