##TITLE=Library Entry 99547
##JCAMP-DX=Revision 4.10 
##DATA TYPE=MASS SPECTRUM
##SAMPLE DESCRIPTION=Japan AIST/NIMC Database- Spectrum MS-NW-3403
##NAMES=HP
##CAS NAME=Ethanone, 1-(2-methylphenyl)-
##MOLFORM=C9H10O
##CAS REGISTRY NO=577-16-2
##MP= -300
##BP= -300
##MW= 134
##$RETENTION INDEX=1173
##$CONDENSED SPECTRUM=NO
##NPOINTS= 76
##XYDATA=(XY..XY) 1 
    14          3
    15         21
    18          1
    26          5
    27         20
    28          3
    29          4
    37          9
    38         23
    39        123
    40          9
    41         25
    42          7
    43        138
    44          5
    45          9
    46          1
    49          6
    50         45
    51         75
    52         16
    53          9
    55          3
    57          2
    59          5
    60          2
    61         15
    62         40
    63        106
    64         29
    65        222
    66         16
    67          1
    69          1
    70          1
    73          4
    74         18
    75         13
    76          9
    77         46
    78         11
    79         12
    80          1
    84          2
    85          6
    86          9
    87          9
    88          3
    89         83
    90         43
    91        919
    92         77
    93          3
    98          2
   101          1
   102          5
   103         15
   104          5
   105         12
   106          2
   107          2
   113          1
   114          1
   115         16
   116          4
   117          2
   118          9
   119        999
   120         96
   121          6
   131          3
   132          1
   133          4
   134        474
   135         50
   136          4