##TITLE=Library Entry 6181
##JCAMP-DX=Revision 4.10 
##DATA TYPE=MASS SPECTRUM
##SAMPLE DESCRIPTION=R.I.REED CHEMISTRY DEPT., UNIV. OF GLASGOW
##NAMES=HP
##CAS NAME=Ledol
##MOLFORM=C15H26O
##CAS REGISTRY NO=577-27-5
##MP= -300
##BP= -300
##MW= 222
##$RETENTION INDEX=1565
##$CONDENSED SPECTRUM=NO
##NPOINTS= 159
##XYDATA=(XY..XY) 1 
    26         23
    27        178
    28         31
    29        219
    30          4
    31         19
    32          1
    37          4
    38          7
    39        198
    40         42
    41        761
    42        110
    43        999
    44         95
    45         40
    46          1
    47          0
    48          0
    49          0
    50         11
    51         38
    52         24
    53        190
    54         37
    55        460
    56         48
    57         72
    58         43
    59         35
    60          1
    61          1
    62          3
    63         11
    64          6
    65         85
    66         33
    67        410
    68         66
    69        738
    70         70
    71        227
    72         24
    73          4
    74          2
    75          3
    76          5
    77        183
    78         38
    79         33
    80         85
    81        571
    82        406
    83        195
    84         38
    85        200
    86          7
    87          2
    88          0
    89          5
    90          2
    91        278
    92         59
    93        410
    94        126
    95        451
    96        123
    97         83
    98        150
    99         26
   100          2
   101          1
   102          5
   103         16
   104          8
   105        313
   106         88
   107        467
   108        233
   109        659
   110         89
   111        384
   112         53
   113          8
   115         15
   116          6
   117         23
   118          8
   119        183
   120         65
   121        354
   122        661
   123        179
   124         42
   125         64
   126         32
   127         29
   128         15
   129          8
   130          3
   131         17
   132          7
   133        157
   134         49
   135        127
   136         73
   137         63
   138         78
   139         67
   140         39
   141          6
   142          2
   143          3
   144          2
   145         14
   146          8
   147        195
   148        145
   149        128
   150         23
   151         52
   152         12
   153          6
   159          6
   160          7
   161        357
   162         80
   163         21
   164         24
   165         57
   166         19
   167          7
   173          2
   174          2
   175         28
   176         17
   177          2
   178          2
   179         42
   180         14
   181          2
   187          1
   188          1
   189        164
   190         25
   191          4
   192          0
   193          4
   194          2
   202          1
   203          2
   204        204
   205         34
   206          3
   207         36
   208          5
   222         82
   223         12
   224          1