##TITLE=Library Entry 20269
##JCAMP-DX=Revision 4.10 
##DATA TYPE=MASS SPECTRUM
##SAMPLE DESCRIPTION=NIST Mass Spectrometry Data Center, 1990.
##NAMES=HP
##CAS NAME=6-Tridecanol
##MOLFORM=C13H28O
##CAS REGISTRY NO=5770-03-6
##MP= -300
##BP= -300
##MW= 200
##$RETENTION INDEX=1570
##$CONDENSED SPECTRUM=NO
##NPOINTS= 55
##XYDATA=(XY..XY) 1 
    15          7
    17          8
    18         17
    27        211
    28        109
    29        383
    30         15
    31         43
    39        161
    41        662
    42        146
    43        488
    44        103
    45         33
    53         62
    54        108
    55        999
    56        264
    57        332
    58         53
    59         23
    65         15
    66         15
    67        100
    68         15
    69        978
    70        208
    71         95
    72         20
    77         11
    79         16
    81         43
    82         98
    83        826
    84        127
    85         37
    95         15
    96         23
    97        109
    98         40
    99         23
   100         41
   101        257
   102         17
   111        230
   112         32
   125         18
   126         10
   127         15
   128         10
   129        164
   130         15
   154          8
   182         83
   183         10