##TITLE=Library Entry 11014
##JCAMP-DX=Revision 4.10 
##DATA TYPE=MASS SPECTRUM
##SAMPLE DESCRIPTION=N.W. Davies, Centr. Sci. Lab., Univ. Tasmania, Hobart,
 Australia
##NAMES=HP
##CAS NAME=2-Oxabicyclo[2.2.2]octan-6-ol, 1,3,3-trimethyl-, acetate
##MOLFORM=C12H20O3
##CAS REGISTRY NO=57709-95-2
##MP= -300
##BP= -300
##MW= 212
##$RETENTION INDEX=1344
##$CONDENSED SPECTRUM=NO
##NPOINTS= 79
##XYDATA=(XY..XY) 1 
    24          6
    26         38
    27         27
    29         25
    34         29
    36          6
    37          7
    38          6
    39        106
    40         17
    41        132
    42          6
    43        999
    44        140
    45        138
    48         20
    50          7
    51         17
    53         48
    54         10
    55        106
    56         54
    57          9
    58        115
    59         44
    60         20
    62         20
    63          6
    66          6
    67         97
    68         76
    69        140
    70          7
    71        256
    72         13
    73         59
    74          6
    75         12
    76          7
    77         64
    79         59
    81         50
    82        228
    83        115
    84         43
    88         15
    91         22
    92         20
    93        199
    94         47
    95         44
    96         21
    97         32
    98         22
   101         15
   103         13
   106          7
   108        485
   109        203
   110         24
   111        193
   112         47
   113         10
   114         15
   123         12
   124         38
   125         35
   126        295
   127         44
   128          9
   132         20
   137         48
   141         13
   152         41
   153         17
   154         20
   155         22
   212        102
   213         15