##TITLE=Library Entry 18682
##JCAMP-DX=Revision 4.10 
##DATA TYPE=MASS SPECTRUM
##SAMPLE DESCRIPTION=Exported from NIST MS Search
##NAMES=HP
##CAS NAME=Bicyclo[4.1.0]heptan-2-one
##MOLFORM=C7H10O
##CAS REGISTRY NO=5771-58-4
##MP= -300
##BP= -300
##MW= 110
##$RETENTION INDEX=0
##$CONDENSED SPECTRUM=NO
##NPOINTS= 26
##XYDATA=(XY..XY) 1 
    41         50
    42         40
    50         40
    51         60
    52         50
    53        130
    54        999
    55        830
    56         60
    63         20
    65         40
    66        130
    67        630
    68        420
    69         80
    77         20
    78         20
    79         70
    80         20
    81        310
    82        400
    92         30
    95         50
   109         30
   110        620
   111         60