##TITLE=Library Entry 83564
##JCAMP-DX=Revision 4.10 
##DATA TYPE=MASS SPECTRUM
##SAMPLE DESCRIPTION=J.RONTANI, CENT. OCEANOL., FAC. SCI. DE LUMINY, MARSEIL
LE, FR.
##NAMES=HP
##CAS NAME=1-Phenyl-1-nonanol
##MOLFORM=C15H24O
##CAS REGISTRY NO=57716-72-0
##MP= -300
##BP= -300
##MW= 220
##$RETENTION INDEX=0
##$CONDENSED SPECTRUM=NO
##NPOINTS= 13
##XYDATA=(XY..XY) 1 
    27         61
    29        150
    41         81
    43         67
    55         58
    57         95
    77        126
    79        280
    91        137
   104         89
   107        999
   108        118
   220         41