##TITLE=Library Entry 52021
##JCAMP-DX=Revision 4.10 
##DATA TYPE=MASS SPECTRUM
##SAMPLE DESCRIPTION=DKFZ HD SORG, HEIDELBERG, GERMANY, F.R.G.
##NAMES=HP
##CAS NAME=Tetradecanoic acid, 9a-(acetyloxy)-1a,1b,4,4a,5,7a,7b,8,9,9a-deca
hydro-7b-hydroxy-3-(hydroxymethyl)-4a-methoxy-1,1,6,8-tetramethyl-5-oxo-1H-c
yclopropa[3,4]benz[1,2-e]azulen-9-yl ester, [1aR-(1a.alpha.,1b.beta.,4a.beta
.,7a.alpha.,7b.alpha.,8.alpha.
##MOLFORM=C37H58O8
##CAS REGISTRY NO=57716-89-9
##MP= -300
##BP= -300
##MW= 630
##$RETENTION INDEX=0
##$CONDENSED SPECTRUM=NO
##NPOINTS= 519
##XYDATA=(XY..XY) 1 
    12          0
    13          0
    14          2
    15          7
    16          1
    17          5
    18         20
    19          1
    25          0
    26          5
    27         28
    28         26
    29         77
    30          1
    31         12
    32          3
    33          1
    36          0
    37          1
    38          2
    39         28
    40          7
    41        222
    42         55
    43        533
    44         17
    45         37
    46          1
    47          3
    49          0
    50          3
    51          7
    52          6
    53         71
    54         20
    55        288
    56         62
    57        466
    58         48
    59         53
    60         42
    61         22
    62          2
    63          3
    64          1
    65         26
    66         12
    67        135
    68         28
    69        333
    70         42
    71        222
    72         15
    73         77
    74          7
    75          5
    76          2
    77         66
    78         22
    79        144
    80         22
    81        104
    82         31
    83        999
    84         71
    85        146
    86         17
    87         15
    88          2
    89          5
    90          4
    91        164
    92         22
    93        133
    94         26
    95        133
    96         40
    97         75
    98         31
    99         20
   100          4
   101         20
   102          5
   103         26
   104         14
   105        115
   106         33
   107        148
   108         51
   109        146
   110         37
   111         44
   112         33
   113         24
   114         31
   115         48
   116         24
   117         66
   118         16
   119        106
   120         40
   121        166
   122         62
   123         88
   124        164
   125        266
   126        106
   127         28
   128         53
   129         93
   130         26
   131         91
   132         31
   133         84
   134         42
   135         82
   136         46
   137         62
   138         64
   139         80
   140         15
   141         48
   142         44
   143         82
   144         28
   145        120
   146         44
   147         88
   148         42
   149         86
   150         24
   151         97
   152         82
   153         68
   154         24
   155         44
   156         33
   157         77
   158         68
   159        144
   160         44
   161        106
   162         62
   163         68
   164         42
   165         97
   166         28
   167         55
   168         26
   169         55
   170         64
   171        104
   172         64
   173        222
   174         64
   175         93
   176         60
   177         60
   178         26
   179         51
   180         44
   181         84
   182         71
   183         55
   184         40
   185         80
   186         68
   187        111
   188         60
   189         95
   190         57
   191         68
   192         33
   193         75
   194         40
   195         73
   196         33
   197         88
   198         84
   199        108
   200         86
   201        140
   202         73
   203        168
   204         44
   205         40
   206         24
   207         40
   208         31
   209         80
   210        222
   211        137
   212         46
   213         88
   214        108
   215        135
   216         55
   217         82
   218         46
   219         84
   220         40
   221        113
   222         73
   223         84
   224         60
   225         80
   226         33
   227        211
   228        151
   229        111
   230         26
   231         33
   232         20
   233         22
   234         16
   235         62
   236         57
   237         64
   238         26
   239         66
   240         37
   241         84
   242         73
   243         35
   244         22
   245         42
   246         24
   247         33
   248         20
   249         57
   250         28
   251         71
   252         44
   253         71
   254        211
   255         84
   256         22
   257         22
   258         22
   259         42
   260         17
   261         15
   262         16
   263         48
   264         64
   265         73
   266         28
   267         64
   268         22
   269         35
   270         17
   271         24
   272         15
   273         51
   274         26
   275         20
   276         31
   277         75
   278         20
   279        124
   280         60
   281         77
   282         75
   283         73
   284         48
   285         35
   286         15
   287         12
   288          4
   289         11
   290          6
   291         35
   292        288
   293        166
   294         40
   295         82
   296         42
   297         22
   298         15
   299         40
   300         26
   301         17
   302          6
   303          6
   304          2
   305          2
   306          6
   307         10
   308         14
   309        140
   310        311
   311        157
   312         33
   313         26
   314         28
   315         11
   316          9
   317         16
   318          5
   319          3
   320          1
   321         16
   322          7
   323         17
   324        244
   325        106
   326         22
   327         71
   328         48
   329         15
   330          4
   331          5
   332         12
   333          7
   334          6
   335         12
   336          2
   337          4
   338          3
   339          4
   340          6
   341         31
   342        213
   343        100
   344         20
   345          7
   346          2
   347          1
   349          2
   350          0
   351          3
   352         15
   353          9
   354          2
   355          2
   356          3
   357          2
   358          2
   359         20
   360         20
   361          8
   362          2
   363          1
   364          0
   366          3
   367          3
   368          1
   369          4
   370         11
   371          4
   372          2
   373          4
   374          4
   375          1
   376          0
   377          1
   378          0
   379          1
   380          0
   381          0
   382          0
   383          0
   384         44
   385         20
   386          4
   387          4
   388          2
   389          1
   390          0
   391          1
   392          0
   393          0
   395          0
   396          0
   397          0
   398          0
   399          0
   400          1
   401          3
   402         17
   403         95
   404         24
   405          5
   406          0
   407          1
   408          0
   409          0
   410          0
   411          0
   412          1
   413          0
   415          0
   416          0
   417          0
   419          1
   420          2
   421          2
   422          0
   423          0
   425          1
   426          0
   427          0
   428          0
   431          1
   432          0
   433          0
   434          0
   435          0
   437          0
   438          2
   439          1
   440          0
   441          0
   443          0
   445          0
   446          0
   447         13
   448          8
   449          2
   450          0
   451          0
   452          0
   453          0
   455          0
   456          1
   457          1
   458          0
   459          0
   462          1
   463          1
   464          0
   465          0
   467          0
   469          0
   471          0
   473          0
   477          0
   480          0
   481          0
   482          0
   483          0
   485          0
   487          0
   488          0
   489          0
   490          2
   491          1
   492          1
   493          0
   494          0
   495          2
   496          1
   497          0
   498          0
   499          0
   501          0
   502          0
   503          0
   505          0
   506          0
   507          8
   508          4
   509          3
   510          1
   511          0
   512          0
   513          2
   514          0
   519          0
   520         33
   521         15
   522          3
   523          1
   524          3
   525          1
   526          0
   527          4
   528          2
   529          0
   534          1
   535          0
   536          1
   537          6
   538         22
   539         10
   540          2
   541          2
   542          1
   543          0
   545          1
   546          0
   551          0
   552         15
   553          7
   554          1
   555          4
   556          1
   557          0
   567          0
   568          0
   569          4
   570         10
   571          5
   572          0
   580          4
   581          1
   582          0
   584          0
   587          0
   588          0
   597          0
   598          1
   599          1
   600          0
   612          4
   613          2
   614          1
   630          1
   631          0