##TITLE=Library Entry 93753
##JCAMP-DX=Revision 4.10 
##DATA TYPE=MASS SPECTRUM
##SAMPLE DESCRIPTION=NIST Mass Spectrometry Data Center, 1990.
##NAMES=HP
##CAS NAME=1-Phenyl-1-nonyne
##MOLFORM=C15H20
##CAS REGISTRY NO=57718-18-0
##MP= -300
##BP= -300
##MW= 200
##$RETENTION INDEX=0
##$CONDENSED SPECTRUM=NO
##NPOINTS= 98
##XYDATA=(XY..XY) 1 
    15         11
    18          7
    27        256
    28         51
    29        277
    30          7
    38         19
    39        204
    40         34
    41        341
    42         34
    43        198
    44          6
    50         47
    51        103
    52         24
    53         31
    54         18
    55        101
    56         12
    57         14
    61          7
    62         45
    63        158
    64         29
    65        122
    66         29
    67        110
    68         14
    69          7
    74         32
    75         50
    76         53
    77        110
    78         42
    79         57
    80         17
    81         33
    82          9
    83          5
    85          4
    86         17
    87         33
    88         44
    89        176
    90          4
    91        362
    92         37
    93         14
    94          3
    95         10
    96         18
    98          5
    99          6
   101         23
   102        212
   103         53
   104         70
   105         23
   107          3
   108          6
   109         31
   110          5
   111          3
   112          3
   113         40
   114          3
   115        999
   116        207
   117        719
   118         96
   119          7
   125          4
   126         26
   127        140
   128        508
   129        541
   130        215
   131         41
   132         10
   139         10
   141         93
   142        100
   143        460
   144        209
   145         23
   152          8
   153          9
   154          7
   155         15
   156          7
   157        101
   158         71
   159         11
   171         21
   172          3
   200        135
   201         21