##TITLE=Library Entry 46089
##JCAMP-DX=Revision 4.10 
##DATA TYPE=MASS SPECTRUM
##SAMPLE DESCRIPTION=NIST Mass Spectrometry Data Center
##NAMES=HP
##CAS NAME=Androstane-3,17-diol, (3.alpha.,5.alpha.,17.beta.)-, 2TBDMS deriv
ative
##MOLFORM=C31H60O2Si2
##CAS REGISTRY NO=57711-48-5
##MP= -300
##BP= -300
##MW= 520
##$RETENTION INDEX=3071
##$CONDENSED SPECTRUM=NO
##NPOINTS= 247
##XYDATA=(XY..XY) 1 
    15          1
    27          3
    29         10
    31          1
    38          1
    39          8
    40          2
    41         35
    42          5
    43         12
    44          1
    45         13
    46          1
    47         10
    48          1
    49          1
    50          1
    51          1
    53          5
    54          2
    55         40
    56          8
    57         36
    58          8
    59         41
    60          7
    61         16
    62          1
    63          1
    65          3
    66          2
    67         49
    68          5
    69         17
    70          2
    71          2
    73        261
    74         31
    75        999
    76         74
    77         50
    78          4
    79         57
    80          7
    81        100
    82          7
    83         16
    84          1
    85         12
    86          2
    87          6
    88          1
    89          7
    91         62
    92         11
    93         94
    94         14
    95         81
    96          7
    97         10
    98          2
    99         17
   100          4
   101         38
   102          6
   103         14
   104          4
   105         82
   106         15
   107        112
   108         14
   109         47
   110          5
   111          5
   112          1
   113          8
   114          3
   115         50
   116          7
   117         29
   118          6
   119         50
   120         10
   121         62
   122          7
   123         15
   124          2
   125          3
   126          1
   127          7
   128          4
   129         18
   130          5
   131         43
   132          8
   133         79
   134         13
   135         53
   136          6
   137          7
   138          2
   139          2
   140          1
   141          7
   142          3
   143         15
   144          5
   145        124
   146         20
   147        158
   148         23
   149         44
   150          6
   151          9
   152          1
   153          4
   154          2
   155          7
   156          3
   157         12
   158          5
   159         69
   160         13
   161         82
   162         12
   163         12
   164          2
   165          6
   166          1
   167          4
   168          2
   169          7
   170          2
   171         22
   172          5
   173         35
   174          6
   175         17
   176          3
   177          2
   179          2
   180          1
   181          4
   182          2
   183          4
   184          1
   185         14
   186          4
   187         14
   188          3
   189          8
   190          2
   191          3
   192          1
   193          1
   195          2
   196          1
   197          5
   198          2
   199         21
   200          5
   201         20
   202          4
   203         61
   209          1
   211          3
   212          1
   213         15
   214          4
   215         10
   216          2
   217          2
   219          1
   221          1
   222          1
   223          2
   224          1
   225          3
   226          1
   227          6
   228          2
   229         11
   230          2
   231          1
   235          1
   237          1
   238          1
   239          6
   240          2
   241          8
   242          2
   249          1
   251          1
   253          6
   255        458
   256         94
   257         23
   258          3
   259          1
   271          2
   275          1
   277          1
   285          1
   287          9
   288          2
   289          1
   291          1
   303          1
   305          1
   313          5
   314          1
   315          2
   316          1
   317          1
   329          5
   330          3
   331         76
   332         20
   333          6
   334          1
   345          1
   347          1
   371          1
   373         13
   374          4
   375          1
   385          1
   387        177
   388         57
   389         15
   390          3
   391          1
   405          2
   406          1
   407          1
   447          1
   461          4
   463        379
   464        145
   465         53
   466         12
   467          2
   505          8
   506          3
   507          1
   519          1
   520          1