##TITLE=Library Entry 46118
##JCAMP-DX=Revision 4.10 
##DATA TYPE=MASS SPECTRUM
##SAMPLE DESCRIPTION=NIST Mass Spectrometry Data Center
##NAMES=HP
##CAS NAME=5.alpha.-Androstan-3.alpha.-ol-17-one, TBDMS derivative
##MOLFORM=C25H44O2Si
##CAS REGISTRY NO=57711-45-2
##MP= -300
##BP= -300
##MW= 404
##$RETENTION INDEX=2789
##$CONDENSED SPECTRUM=NO
##NPOINTS= 229
##XYDATA=(XY..XY) 1 
    26          1
    27          6
    29         23
    30          1
    31          1
    38          1
    39         15
    40          4
    41         98
    42          8
    43         31
    45         24
    46          2
    47         30
    48          2
    49          1
    50          1
    51          3
    52          2
    53         29
    54          9
    55        133
    56         17
    57         60
    58         12
    59         60
    60         11
    61         25
    62          2
    63          2
    65         15
    66          7
    67        122
    68         17
    69         31
    70          3
    71          4
    73        172
    74         28
    75        999
    76         72
    77         89
    78         11
    79        134
    80         20
    81        223
    82         19
    83         27
    84          3
    85         11
    86          2
    87          7
    88          1
    89          6
    91        149
    92         26
    93        165
    94         27
    95        110
    96         10
    97         86
    98          7
    99         13
   100          3
   101         23
   102          7
   103         11
   104          9
   105        133
   106         37
   107        139
   108         33
   109         62
   110         13
   111         10
   112          1
   113         10
   114          3
   115         24
   116          7
   117         38
   118         12
   119         75
   120         19
   121         68
   122         14
   123         24
   124          9
   125          6
   126          1
   127          7
   128          9
   129         20
   130          8
   131         56
   132         12
   133         65
   134         15
   135         55
   136          9
   137         21
   138         48
   140          1
   141          7
   142          4
   143         22
   144         14
   145         90
   146         18
   147         88
   148         15
   149         30
   150          5
   151         17
   153          3
   154          2
   155          6
   156          3
   157         20
   158          7
   159         58
   160         13
   161        119
   162         19
   163         19
   165          6
   166          3
   167          4
   168          2
   169          7
   170          2
   171         32
   172          7
   173         32
   174         14
   175         72
   176         11
   177          8
   178          1
   179          1
   181          3
   182          2
   183          7
   184          2
   185         17
   186          4
   187         18
   188          4
   189         40
   190          7
   191          5
   192          1
   193          1
   195          2
   196          1
   197         13
   198          3
   199         19
   200          7
   201         21
   202          4
   203          9
   204          2
   205         10
   206          2
   207          1
   209          1
   210          1
   211          8
   212          3
   213         30
   214          6
   215         27
   216          6
   217          7
   218          3
   219          1
   221          1
   222          1
   223          1
   224          1
   225          5
   226          1
   227         17
   228          8
   229         19
   230          4
   231          4
   232          1
   233          1
   235          1
   237          2
   238          1
   239          8
   240          2
   241          2
   242          1
   243         12
   244          6
   245          1
   249          1
   251          1
   253        107
   254         27
   255         40
   256          8
   257         15
   258          3
   259          1
   269          2
   271        995
   272        205
   273         24
   274          2
   291          1
   317          1
   329          1
   331          2
   332          1
   345          2
   347        656
   348        182
   349         52
   350          8
   351          1
   389         11
   390          4
   391          1
   404          1