##TITLE=Library Entry 83531
##JCAMP-DX=Revision 4.10 
##DATA TYPE=MASS SPECTRUM
##SAMPLE DESCRIPTION=TNO Volatile Compounds in Food - Chemical Concepts
##NAMES=HP
##CAS NAME=Phenol, 4-(ethoxymethyl)-
##MOLFORM=C9H12O2
##CAS REGISTRY NO=57726-26-8
##MP= -300
##BP= -300
##MW= 152
##$RETENTION INDEX=1379
##$CONDENSED SPECTRUM=NO
##NPOINTS= 75
##XYDATA=(XY..XY) 1 
    25          6
    26         28
    27         91
    28         19
    29         23
    30          3
    31         70
    36          2
    37         10
    38         23
    39         94
    40          9
    41         25
    42         10
    43         27
    45         40
    46         15
    49          7
    50         54
    51         86
    52         81
    53         48
    54          4
    55         25
    57          2
    58          4
    59          3
    61          6
    62         14
    63         26
    64          7
    65         40
    66         14
    67         18
    68          5
    71          2
    73         12
    74         10
    75         11
    76         11
    77        226
    78        161
    79         40
    80          7
    81          7
    83          2
    89          4
    90         10
    91          4
    92          2
    93          8
    94         12
    95        133
    96          7
    99          1
   100          4
   101          1
   105         11
   106        160
   107        999
   108        191
   109         16
   120          2
   121         13
   122          7
   123         98
   124          7
   125          1
   135          8
   143          2
   146          2
   147          7
   151         54
   152        221
   153         21