##TITLE=Library Entry 84355
##JCAMP-DX=Revision 4.10 
##DATA TYPE=MASS SPECTRUM
##SAMPLE DESCRIPTION=A.Pleshkova, Nesmeyanov Inst.Org.Elem.Cpds, Moscow
##NAMES=HP
##CAS NAME=3-(4-Buthoxybenzylthio)-1,2,4-(4H)-triazole
##MOLFORM=C13H17N3OS
##CAS REGISTRY NO=57736-49-9
##MP= -300
##BP= -300
##MW= 263
##$RETENTION INDEX=0
##$CONDENSED SPECTRUM=NO
##NPOINTS= 51
##XYDATA=(XY..XY) 1 
    50          9
    51         22
    52         17
    53         13
    54          7
    55         41
    56         15
    57         41
    58          2
    63         13
    64          5
    65         18
    69         32
    70         10
    71          8
    72          8
    73         14
    76          4
    77         71
    78         54
    79         22
    89         28
    90         26
    91         56
    92         11
    93          8
   100         43
   101          9
   102          6
   105         19
   106         32
   107        999
   108        123
   109         19
   110          4
   120         39
   121         85
   122         15
   123          5
   135         24
   149         15
   150          7
   151          5
   163        381
   164         54
   165         11
   166          4
   220         16
   221          5
   263         15
   264          5