##TITLE=Library Entry 61972
##JCAMP-DX=Revision 4.10 
##DATA TYPE=MASS SPECTRUM
##SAMPLE DESCRIPTION=M.A.IORIO, IST. SUPER. SANITA, ROME, ITA
##NAMES=HP
##CAS NAME=1-Benzyl-4-boryl-3-methyl-4-phenylpiperidine
##MOLFORM=C19H24BN
##CAS REGISTRY NO=57742-82-2
##MP= -300
##BP= -300
##MW= 277
##$RETENTION INDEX=0
##$CONDENSED SPECTRUM=NO
##NPOINTS= 84
##XYDATA=(XY..XY) 1 
    32         29
    37         23
    39        119
    40        166
    41        107
    42         83
    43         23
    50         29
    51         71
    52         35
    53         71
    54        166
    55        107
    56         29
    61         17
    62         17
    63         59
    64         23
    65         19
    66         35
    67         23
    68         47
    69         47
    74         23
    75         29
    76         35
    77        107
    78         53
    79         41
    80         71
    81         47
    82        142
    87         29
    88         41
    89        154
    90         35
    91        999
    92        113
    94         29
   100         23
   101         41
   102         59
   103        119
   104         41
   105         83
   108         23
   113         35
   114         29
   115        166
   116        202
   117        119
   118         47
   126         23
   127         47
   128         83
   129        160
   130        321
   131        166
   132         29
   141         29
   142         41
   143         53
   144         83
   145         35
   154         23
   155         23
   156         59
   157         71
   158        119
   159         23
   169         23
   170         35
   171         23
   172         29
   184         47
   185         83
   186        261
   187         41
   234         35
   235         59
   264         23
   276         47
   277        119
   278         23