##TITLE=Library Entry 6949
##JCAMP-DX=Revision 4.10 
##DATA TYPE=MASS SPECTRUM
##SAMPLE DESCRIPTION=DOW CHEMICAL COMPANY / ASTM E14-UNCERTIFIED SPECTRUM 25
5
##NAMES=HP
##CAS NAME=2-Propanone, 1,1-diethoxy-
##MOLFORM=C7H14O3
##CAS REGISTRY NO=5774-26-5
##MP= -300
##BP= -300
##MW= 146
##$RETENTION INDEX=1252
##$CONDENSED SPECTRUM=NO
##NPOINTS= 110
##XYDATA=(XY..XY) 1 
    14         15
    15         90
    16          5
    17         21
    18         96
    19         24
    25          3
    26         15
    27         83
    28        113
    29        217
    30         14
    31         96
    32          0
    36          5
    37          3
    38          5
    39         20
    40          8
    41         57
    42         53
    43        999
    44        135
    45        268
    46         12
    47        445
    48          6
    49          3
    50          4
    51          9
    52          7
    53          9
    54          5
    55         29
    56         21
    57         46
    58         36
    59         66
    60         28
    61         34
    62          3
    63          6
    64          4
    65         14
    67          5
    68          7
    69         17
    70         11
    71         18
    72         24
    73        186
    74         58
    75        223
    76         13
    77         18
    78          4
    79          3
    80          9
    81          5
    82          6
    83         12
    84          7
    85         45
    86         18
    87        102
    88         17
    89         18
    90         15
    91          5
    93          3
    95          3
    96          5
    97         14
    98         16
    99         37
   100         14
   101        263
   102         48
   103        259
   104         18
   105          9
   108         39
   109         32
   110          5
   111          9
   112          5
   113         17
   114         11
   115         32
   116         12
   117         22
   118         18
   119          5
   125          8
   126          6
   127         12
   128          8
   129         22
   132          8
   133          6
   137         23
   138          3
   139          5
   140          3
   141          7
   143          9
   144         14
   145         12
   146          2
   147          2