##TITLE=Library Entry 81718
##JCAMP-DX=Revision 4.10 
##DATA TYPE=MASS SPECTRUM
##SAMPLE DESCRIPTION=Chemical Concepts
##NAMES=HP
##CAS NAME=Semibullvalene, dibenzomonobenzoyl-
##MOLFORM=C23H16O
##CAS REGISTRY NO=57758-36-8
##MP= -300
##BP= -300
##MW= 308
##$RETENTION INDEX=0
##$CONDENSED SPECTRUM=NO
##NPOINTS= 130
##XYDATA=(XY..XY) 1 
    26          0
    27          4
    28          7
    32          1
    36          0
    38          0
    39          6
    43          1
    50          8
    51         36
    52          3
    53          1
    56          0
    58          0
    61          0
    62          2
    63          7
    64          0
    65          1
    73          0
    74          4
    75          8
    76          6
    77        145
    78         11
    79          0
    86          1
    87          4
    88          3
    89          2
    98          2
    99          2
   100          3
   101          5
   102          1
   103          0
   105        999
   106         67
   107          3
   110          0
   111          1
   112          0
   113          2
   114          0
   115          1
   118          0
   119          0
   122          0
   123          0
   124          1
   125          2
   126          5
   127          3
   128          1
   129          0
   131          0
   132          0
   135          0
   137          2
   138          2
   139          3
   140          0
   143          0
   149          2
   150         11
   151          9
   152          9
   153          1
   161          0
   162          1
   163          3
   164          1
   165          1
   173          0
   174          7
   175          8
   176         18
   177          5
   178         16
   179          2
   186          0
   187          1
   188          0
   189          0
   197          0
   198          2
   199          8
   200         59
   201         56
   202        347
   203        933
   204        142
   205         12
   206          0
   213          0
   215          0
   217          0
   224          0
   225          0
   226          0
   231          0
   237          0
   239          0
   248          0
   249          0
   250          0
   251          0
   252          0
   261          0
   262          0
   263          0
   264          0
   265          0
   274          1
   275          0
   276          4
   277          2
   278          2
   279          1
   280          1
   287          0
   289          1
   290          0
   291          0
   292          0
   305          0
   308         69
   309         18
   310          2
   311          0