##TITLE=Library Entry 29632
##JCAMP-DX=Revision 4.10 
##DATA TYPE=MASS SPECTRUM
##SAMPLE DESCRIPTION=Mark Whitten, Florida Museum of Natural History, U. of
 Florida
##NAMES=HP
##CAS NAME=Butyl aldoxime, 3-methyl-, anti
##MOLFORM=C5H11NO
##CAS REGISTRY NO=5775-74-6
##MP= -300
##BP= -300
##MW= 101
##$RETENTION INDEX=0
##$CONDENSED SPECTRUM=NO
##NPOINTS= 30
##XYDATA=(XY..XY) 1 
    41        911
    42        203
    43        604
    44        113
    45         50
    46         36
    49          5
    50         21
    51         27
    52         17
    53         29
    54         17
    55         67
    56        395
    57         46
    59        999
    60         44
    61          4
    66          4
    67          9
    68         80
    69         41
    70          9
    72          7
    73          5
    82         14
    84         20
    86        135
    87          7
   101         11