##TITLE=Library Entry 33483
##JCAMP-DX=Revision 4.10 
##DATA TYPE=MASS SPECTRUM
##SAMPLE DESCRIPTION=NIST Mass Spectrometry Data Center
##NAMES=HP
##CAS NAME=Germacranolide callitris
##MOLFORM=C15H22O2
##CAS REGISTRY NO=57759-35-0
##MP= -300
##BP= -300
##MW= 234
##$RETENTION INDEX=1973
##$CONDENSED SPECTRUM=NO
##NPOINTS= 99
##XYDATA=(XY..XY) 1 
    27         20
    28          5
    29         28
    30          1
    37          1
    38          2
    39         91
    40         35
    41        180
    42         24
    44          2
    50          3
    51         22
    52         17
    53        143
    54         12
    55        180
    57          8
    58          3
    62          1
    63          5
    65         51
    66         22
    67        402
    68        999
    69        277
    70         50
    71         10
    73          2
    74         20
    75          2
    76          1
    77         83
    78         12
    79        126
    80         30
    81        122
    83          9
    85          3
    88          2
    90          2
    91         45
    92          6
    93        173
    94         77
    95        152
    96         20
    97         24
    98         50
    99          9
   105         22
   107        278
   108         67
   109        136
   110         61
   111         18
   112         13
   113          9
   119         30
   120          9
   121         52
   122        293
   123         87
   124          4
   125         21
   133         21
   134         25
   135         24
   137         10
   138        122
   139         88
   140         12
   145          8
   146          5
   147         30
   148          4
   149         14
   150         10
   151         16
   160         24
   161         53
   162          6
   163         19
   164          9
   165          8
   173         14
   174          1
   177         21
   178          2
   179          2
   191         13
   192          9
   205          8
   206          8
   219         21
   220          2
   234         72
   235         11
   236          3