##TITLE=Library Entry 81717
##JCAMP-DX=Revision 4.10 
##DATA TYPE=MASS SPECTRUM
##SAMPLE DESCRIPTION=Chemical Concepts
##NAMES=HP
##CAS NAME=Methanone, (9,10-dihydro-9,10-ethenoanthracen-11-yl)phenyl-
##MOLFORM=C23H16O
##CAS REGISTRY NO=57757-84-3
##MP= -300
##BP= -300
##MW= 308
##$RETENTION INDEX=0
##$CONDENSED SPECTRUM=NO
##NPOINTS= 160
##XYDATA=(XY..XY) 1 
    26          0
    27          2
    28          0
    36          1
    38          0
    39          5
    50          7
    51         30
    52          2
    53          4
    56          0
    62          1
    63          6
    64          0
    65          0
    74          4
    75          7
    76          8
    77        153
    78         10
    79          0
    85          0
    86          1
    87          3
    88          3
    89          3
    98          1
    99          2
   100          3
   101          9
   102          3
   103          1
   104          3
   105        999
   106         77
   107          5
   108          0
   110          0
   111          1
   112          1
   113          3
   114          0
   115          2
   119          0
   122          0
   123          0
   124          1
   125          3
   126          7
   127          8
   128          3
   129          0
   130          0
   131          0
   132          2
   133          0
   134          0
   135          0
   136          0
   137          2
   138          6
   139          5
   140          2
   141          0
   143          0
   144          1
   145          0
   146          0
   149          2
   150         10
   151         15
   152         17
   153          3
   154          0
   155          0
   161          0
   162          1
   163          3
   164          1
   165          1
   172          0
   173          1
   174          5
   175          9
   176         34
   177         17
   178         94
   179         14
   180          1
   181          0
   186          0
   187          1
   188          0
   189          1
   190          0
   192          0
   193          0
   195          0
   196          1
   197          1
   198          3
   199          8
   200         38
   201         46
   202        231
   203        655
   204        121
   205         14
   206          1
   207          0
   211          0
   213          0
   215          0
   224          0
   226          0
   229          0
   230          0
   231          2
   232          0
   237          0
   239          0
   248          0
   249          0
   250          1
   251          0
   252          1
   253          0
   261          0
   262          0
   263          0
   264          0
   265          0
   272          0
   273          0
   274          1
   275          1
   276          6
   277          4
   278          3
   279          3
   280          1
   281          0
   286          0
   287          0
   288          0
   289          2
   290          1
   291          0
   292          0
   302          0
   303          0
   304          0
   305          1
   306          2
   307          5
   308        103
   309         27
   310          4
   311          0
   312          0