##TITLE=Library Entry 70291
##JCAMP-DX=Revision 4.10 
##DATA TYPE=MASS SPECTRUM
##SAMPLE DESCRIPTION=J.G.POMONIS AGRIC. RES. SERVICE, USDA, FARGO, N. DAK.,
 USA
##NAMES=HP
##CAS NAME=Thiophene, 2-nonyl-
##MOLFORM=C13H22S
##CAS REGISTRY NO=57754-07-1
##MP= -300
##BP= -300
##MW= 210
##$RETENTION INDEX=0
##$CONDENSED SPECTRUM=NO
##NPOINTS= 130
##XYDATA=(XY..XY) 1 
    25          1
    26         18
    27         76
    28         49
    29         93
    30          3
    31          2
    33          2
    34          4
    36          3
    37          4
    38          6
    39         75
    40         34
    41        151
    42         28
    43        107
    44         33
    45         84
    46          4
    47          9
    50          5
    51         11
    52          6
    53         51
    54         10
    55         63
    56         20
    57         47
    58         17
    59          5
    60          5
    61          1
    62          1
    63          7
    64          3
    65         14
    66          7
    67         18
    68          7
    69         29
    70         11
    71         21
    72          2
    73          4
    74          1
    75          5
    76          1
    77         21
    78          7
    79         12
    80          4
    81         12
    82          6
    83          7
    84         62
    85         53
    86          9
    87         12
    88          1
    89          2
    91         10
    92          3
    93          4
    94          2
    95          8
    96          4
    97        999
    98        900
    99        107
   100         33
   101          4
   102          2
   103          2
   104          1
   105          3
   106          1
   107          2
   108          2
   109          9
   110         43
   111        171
   112         23
   113         31
   114          3
   115          3
   119          4
   120          2
   121          3
   122          1
   123         18
   124          3
   125          8
   126         56
   127          7
   128          4
   129          2
   131          1
   132          1
   133          3
   134          1
   135          2
   136          1
   137          4
   138          2
   139         35
   140          5
   141          3
   142          1
   143          1
   148          1
   149          5
   150          2
   151          2
   153         12
   154          3
   155          3
   163          2
   167         14
   168          4
   169          3
   177          3
   181          3
   182          4
   208          3
   209          3
   210        185
   211         33
   212         11
   213          2