##TITLE=Library Entry 91152
##JCAMP-DX=Revision 4.10 
##DATA TYPE=MASS SPECTRUM
##SAMPLE DESCRIPTION=Japan AIST/NIMC Database- Spectrum MS-IW-2114
##NAMES=HP
##CAS NAME=5-Diethoxymethyl-3-isoxazolol
##MOLFORM=C8H13NO4
##CAS REGISTRY NO=5777-18-4
##MP= -300
##BP= -300
##MW= 187
##$RETENTION INDEX=0
##$CONDENSED SPECTRUM=NO
##NPOINTS= 74
##XYDATA=(XY..XY) 1 
    14          2
    15          9
    18          1
    26          6
    27         51
    28         33
    29        132
    30         12
    31         21
    38          3
    39          6
    40          8
    41          9
    42         23
    43         31
    44         36
    45         22
    46          7
    47         75
    52          1
    53          6
    54          2
    55         19
    56         11
    57          5
    58          6
    59          4
    62          1
    66          2
    67          9
    68         24
    69         23
    70          5
    71         10
    72          4
    73          2
    74          9
    75         32
    76          1
    82          1
    83          6
    84          3
    85         11
    86         23
    87          4
    88          2
    96          1
    97          2
    98          5
    99         15
   100          3
   101          4
   102          1
   103         26
   104          1
   112         10
   113         42
   114        999
   115         51
   116          9
   126          4
   127          3
   128          1
   129          4
   130         12
   131          1
   141         54
   142        680
   143         56
   144          7
   158          3
   186          1
   187         61
   188          6