##TITLE=Library Entry 100419
##JCAMP-DX=Revision 4.10 
##DATA TYPE=MASS SPECTRUM
##SAMPLE DESCRIPTION=Chuck Anderson, Aldrich Chemical Co.
##NAMES=HP
##CAS NAME=Benzenemethanol, 2-amino-3-methyl-
##MOLFORM=C8H11NO
##CAS REGISTRY NO=57772-50-6
##MP= -300
##BP= -300
##MW= 137
##$RETENTION INDEX=0
##$CONDENSED SPECTRUM=NO
##NPOINTS= 69
##XYDATA=(XY..XY) 1 
    17         19
    18         82
    26          5
    27         45
    28         56
    29         25
    30         19
    31         10
    36         18
    37          5
    38         28
    39        111
    40         16
    41         35
    42         24
    43          5
    44         10
    50         35
    51         91
    52         77
    53         61
    54         29
    55          7
    58         31
    59          2
    61         12
    62         23
    63         71
    64         29
    65        157
    66         45
    67         25
    68         33
    74         12
    75         16
    76         19
    77        219
    78         59
    79         79
    80         25
    81          2
    89         89
    90         47
    91        661
    92        256
    93        211
    94         35
   102         13
   103         16
   104         87
   105         12
   106        262
   107        103
   108         81
   109          2
   116         18
   117         44
   118        709
   119        999
   120        203
   121         26
   122          9
   130          7
   131          2
   134         14
   135         85
   136         18
   137        733
   138         60