##TITLE=Library Entry 67188
##JCAMP-DX=Revision 4.10 
##DATA TYPE=MASS SPECTRUM
##SAMPLE DESCRIPTION=Chemical Concepts
##NAMES=HP
##CAS NAME=Bicyclo[3.3.1]nonan-2-one, 9-hydroxy-, syn-
##MOLFORM=C9H14O2
##CAS REGISTRY NO=57790-40-6
##MP= -300
##BP= -300
##MW= 154
##$RETENTION INDEX=0
##$CONDENSED SPECTRUM=NO
##NPOINTS= 76
##XYDATA=(XY..XY) 1 
    26          8
    27        148
    28         41
    29        115
    30         17
    31         36
    38          8
    39        160
    40         31
    41        254
    42         54
    43        107
    44         14
    45         11
    50          9
    51         28
    52         15
    53        108
    54        100
    55        263
    56         28
    57        126
    58         17
    60         23
    61         10
    63          6
    65         35
    66         49
    67        288
    68         50
    69         52
    70        107
    71         68
    72          8
    73         29
    74          9
    77         61
    78         29
    79        719
    80        127
    81        974
    82        104
    83         47
    84         30
    85          8
    86          6
    91         38
    92         47
    93        115
    94        999
    95        427
    96         35
    97         35
    98         13
    99          9
   100          6
   105          6
   107         21
   108         98
   109         27
   110          5
   111         11
   113          6
   117          8
   118         35
   119          7
   121         22
   123          5
   125          5
   126          9
   135         10
   136        296
   137         38
   139          5
   154        102
   155         13