##TITLE=Library Entry 82912
##JCAMP-DX=Revision 4.10 
##DATA TYPE=MASS SPECTRUM
##SAMPLE DESCRIPTION=Japan AIST/NIMC Database- Spectrum MS-NW- 458
##NAMES=HP
##CAS NAME=Benzenamine, 2-ethyl-
##MOLFORM=C8H11N
##CAS REGISTRY NO=578-54-1
##MP= -300
##BP= -300
##MW= 121
##$RETENTION INDEX=1122
##$CONDENSED SPECTRUM=NO
##NPOINTS= 70
##XYDATA=(XY..XY) 1 
    15          3
    17          1
    18          1
    26          3
    27         17
    28         12
    29          1
    30         17
    37          3
    38          9
    39         41
    40          6
    41         13
    42         10
    43          1
    44          1
    45          1
    46          2
    49          1
    50         11
    51         32
    52         23
    53         35
    54          9
    55          1
    58          9
    59          9
    60          5
    61          3
    62          6
    63         15
    64          7
    65         33
    66         14
    67          5
    68          1
    73          1
    74          3
    75          4
    76          5
    77        105
    78         34
    79         64
    80         13
    81          1
    87          1
    88          1
    89          9
    90          5
    91         27
    92         10
    93         20
    94          8
    95          1
   101          2
   102          7
   103         25
   104         17
   105          6
   106        999
   107         81
   108          3
   116          1
   117          8
   118         18
   119         14
   120         46
   121        454
   122         42
   123          1