##TITLE=Library Entry 37024
##JCAMP-DX=Revision 4.10 
##DATA TYPE=MASS SPECTRUM
##SAMPLE DESCRIPTION=Mark Whitten, Florida Museum of Natural History, U. of
 Florida
##NAMES=HP
##CAS NAME=Propyl aldoxime, 2-methyl-, syn-
##MOLFORM=C4H9NO
##CAS REGISTRY NO=5780-39-2
##MP= -300
##BP= -300
##MW= 87
##$RETENTION INDEX=0
##$CONDENSED SPECTRUM=NO
##NPOINTS= 23
##XYDATA=(XY..XY) 1 
    41        515
    42        397
    43        300
    44        136
    45         49
    46         61
    50         20
    51         32
    52         40
    53         30
    54        107
    55        145
    56         37
    57         15
    58         67
    59         67
    68         57
    70        999
    71         51
    72        227
    73         13
    86         48
    87         26