##TITLE=Library Entry 114928
##JCAMP-DX=Revision 4.10 
##DATA TYPE=MASS SPECTRUM
##SAMPLE DESCRIPTION=NIST Mass Spectrometry Data Center
##NAMES=HP
##CAS NAME=Thiophene, 2-(methylthio)-
##MOLFORM=C5H6S2
##CAS REGISTRY NO=5780-36-9
##MP= -300
##BP= -300
##MW= 130
##$RETENTION INDEX=1028
##$CONDENSED SPECTRUM=NO
##NPOINTS= 84
##XYDATA=(XY..XY) 1 
    14          1
    15          7
    25          1
    26          3
    27          3
    32          4
    33          1
    34          1
    36          2
    37         15
    38         26
    39         60
    40          2
    41          1
    44         10
    45        152
    46         18
    47         14
    48          3
    49          7
    50         12
    51          8
    52          1
    53          5
    54          1
    56          8
    57         78
    58         51
    59         13
    60          3
    61          1
    62          1
    63          1
    64          5
    65         11
    66          2
    68         13
    69        116
    70         40
    71        493
    72         29
    73         24
    74          1
    76         12
    77          3
    78          1
    79          1
    80          5
    81         50
    82         64
    83         12
    84         34
    85         34
    86          3
    87          2
    88         15
    89         13
    90          2
    91          9
    92          1
    93          2
    95          2
    96          3
    97         43
    98          3
    99          2
   100          1
   101          1
   102          1
   103          3
   112          3
   113          2
   115        925
   116         71
   117        102
   118          6
   119          3
   127          4
   128          1
   130        999
   131         89
   132        110
   133          7
   134          3