##TITLE=Library Entry 87292
##JCAMP-DX=Revision 4.10 
##DATA TYPE=MASS SPECTRUM
##SAMPLE DESCRIPTION=NIST Mass Spectrometry Data Center
##NAMES=HP
##CAS NAME=(+)-.beta.-Himachalene oxide
##MOLFORM=C15H24O
##CAS REGISTRY NO=57819-73-5
##MP= -300
##BP= -300
##MW= 220
##$RETENTION INDEX=1615
##$CONDENSED SPECTRUM=NO
##NPOINTS= 129
##XYDATA=(XY..XY) 1 
    26          1
    27         24
    28          4
    29         29
    30          1
    31          1
    38          2
    39         87
    40         15
    41        256
    42         22
    43        250
    44          6
    45          4
    50          6
    51         32
    52         17
    53         88
    54         11
    55        259
    56         31
    57         19
    58          6
    59          6
    62          2
    63         11
    64          5
    65         73
    66         17
    67         83
    68         20
    69        374
    70         24
    71         19
    74          1
    75          1
    76          2
    77        208
    78         53
    79        166
    80         26
    81        141
    82         40
    83         20
    84          3
    85          8
    86          1
    89          6
    90          2
    91        224
    92         42
    93        166
    94        154
    95        735
    96         56
    97         11
    98          1
   101          1
   102          2
   103         14
   104          6
   105         71
   106         18
   107         97
   108         46
   109        186
   110        999
   111        125
   112          9
   113          3
   115         19
   116          8
   117         23
   118          7
   119         63
   120         19
   121        112
   122         22
   123         26
   125          5
   126          2
   127          4
   128          9
   129          8
   130          4
   131         39
   132         32
   133         29
   134         39
   135        115
   136         56
   137        113
   138         41
   139          6
   140          1
   141          2
   142          2
   143          3
   144          2
   145         24
   146          8
   149         18
   150         94
   151        287
   152         37
   153          3
   157          2
   158          1
   163         29
   164         12
   165          3
   171          1
   173          1
   174          1
   176          1
   178          4
   185          1
   187          6
   189          1
   190          1
   202          6
   203          1
   204          2
   205         73
   206         10
   207          1
   220        187
   221         31
   222          3