##TITLE=Library Entry 17771
##JCAMP-DX=Revision 4.10 
##DATA TYPE=MASS SPECTRUM
##SAMPLE DESCRIPTION=Tox21 Consortium/NIST Mass Spectrometry Data Center, 20
12
##NAMES=HP
##CAS NAME=Metalaxyl
##MOLFORM=C15H21NO4
##CAS REGISTRY NO=57837-19-1
##MP= -300
##BP= -300
##MW= 279
##$RETENTION INDEX=1903
##$CONDENSED SPECTRUM=NO
##NPOINTS= 162
##XYDATA=(XY..XY) 1 
    14          1
    15         41
    16          1
    17          1
    26          3
    27         30
    28         20
    29         59
    30          5
    31         10
    32          1
    33          1
    38          2
    39         41
    40          5
    41         21
    42         21
    43         13
    44         26
    45        999
    46         22
    47          2
    50          7
    51         40
    52         17
    53         30
    54          7
    55         54
    56         10
    57          4
    58          1
    59        159
    60          4
    61          2
    62          3
    63         22
    64          8
    65         57
    66         10
    67          3
    68          2
    69          2
    70          3
    71          1
    72          4
    73          1
    74          2
    75          9
    76          8
    77        199
    78         56
    79        134
    80         13
    81          1
    86          1
    87         35
    88          5
    89         22
    90         13
    91         93
    92         19
    93         11
    94          2
    95          1
    98          7
    99          7
   100          3
   101          3
   102         40
   103        105
   104         46
   105        231
   106         29
   107          7
   108          1
   114          1
   115         15
   116         19
   117        143
   118         69
   119         79
   120         97
   121         70
   122          8
   123          1
   127          2
   128         16
   129          6
   130        273
   131         89
   132        418
   133         58
   134         16
   135          3
   136          2
   137          1
   142          3
   143          6
   144         35
   145         29
   146        343
   147        145
   148        162
   149         26
   150          3
   156          3
   158        114
   159         15
   160        357
   161         45
   162        159
   163         50
   164          6
   170          1
   172          2
   173          3
   174        104
   175         15
   176          6
   177          1
   178          1
   186          1
   187          1
   188          6
   189          3
   190         85
   191         13
   192        217
   193         32
   194          2
   202         18
   203          2
   204          7
   206        439
   207         69
   208          7
   209          1
   216          3
   217          9
   218          3
   219          2
   220        163
   221         24
   222          3
   231          1
   232          1
   233          1
   234        115
   235         17
   236          2
   246          1
   247         10
   248         21
   249        159
   250         26
   251          3
   264          4
   265          1
   278          1
   279         38
   280          5
   281          1