##TITLE=Library Entry 64734
##JCAMP-DX=Revision 4.10 
##DATA TYPE=MASS SPECTRUM
##SAMPLE DESCRIPTION=A.A.Kutin, Moscow, Russia
##NAMES=HP
##CAS NAME=2-Pyrazoline, 3-(4-fluorophenyl)-5-(4-methoxyphenyl)-1-phenyl-
##MOLFORM=C22H19FN2O
##CAS REGISTRY NO=57845-04-2
##MP= -300
##BP= -300
##MW= 346
##$RETENTION INDEX=0
##$CONDENSED SPECTRUM=NO
##NPOINTS= 175
##XYDATA=(XY..XY) 1 
    33         15
    34         22
    36          4
    37          7
    38         30
    39         98
    40         91
    41         57
    42         15
    43         18
    44         65
    45          9
    49          0
    50         44
    51        149
    52         38
    53         15
    54          8
    55         18
    56          6
    57         14
    60          1
    61          1
    62         15
    63         85
    64        195
    65        126
    66         19
    67          8
    69         12
    70          8
    71          5
    73          2
    74         15
    75         42
    77        327
    78         51
    79         32
    80          8
    81         22
    82         12
    83         11
    84          5
    85          4
    87          4
    89         47
    91        999
    92         82
    93         27
    94         16
    95         35
    96          7
    97          2
    98          5
    99          2
   101         12
   102         19
   103         23
   104         25
   105         32
   106         12
   107         17
   108         15
   109         26
   110          3
   112          2
   113          3
   115         12
   116         10
   117         30
   118         29
   119         51
   120         37
   121        115
   122         31
   123          7
   125          4
   127          5
   128          8
   130         14
   131          4
   133         84
   134        118
   135         17
   136          8
   137          6
   138          1
   139          3
   140          6
   141          5
   143          3
   144         27
   145         19
   146         12
   147          2
   149          6
   150          6
   151          6
   152          9
   153          3
   154          2
   155          3
   156          6
   157          5
   158          5
   159          5
   160          2
   163          0
   165         12
   166          7
   167         11
   168          4
   169          5
   170         12
   171          8
   172         11
   173         61
   174         11
   175          3
   176          3
   177          3
   178          5
   179          1
   180          8
   181          6
   182          5
   183         22
   184          9
   185         14
   186          5
   192          3
   193          1
   194          7
   196         36
   197         13
   198          8
   203         14
   205          3
   206          1
   207          5
   208          4
   209         12
   210         46
   211         66
   212         88
   213         15
   218          2
   221          0
   222          3
   223          2
   224         18
   225         20
   226          8
   228          1
   237          8
   238         22
   239        112
   240         21
   241         11
   253          6
   254         23
   255          4
   269          4
   283          1
   285          7
   300          2
   301          3
   329          6
   342          1
   343         18
   344         59
   345         49
   346        339
   347         66
   348          9