##TITLE=Library Entry 5975
##JCAMP-DX=Revision 4.10 
##DATA TYPE=MASS SPECTRUM
##SAMPLE DESCRIPTION=Japan AIST/NIMC Database- Spectrum MS-IW-4265
##NAMES=HP
##CAS NAME=Decanoic acid, 2-propenyl ester
##MOLFORM=C13H24O2
##CAS REGISTRY NO=57856-81-2
##MP= -300
##BP= -300
##MW= 212
##$RETENTION INDEX=1476
##$CONDENSED SPECTRUM=NO
##NPOINTS= 130
##XYDATA=(XY..XY) 1 
    14          2
    15          8
    17          1
    18          3
    25          2
    26         17
    27        151
    28         57
    29        254
    30          9
    31         12
    32          1
    36          2
    37         11
    38         22
    39        220
    40         84
    41        891
    42        153
    43        999
    44         39
    45         26
    47          1
    50          2
    51          6
    52          3
    53         33
    54        226
    55        763
    56        268
    57        745
    58        209
    59         36
    60         50
    61         11
    63          2
    65          8
    66          6
    67        148
    68         60
    69        575
    70        110
    71        632
    72         47
    73         85
    74          9
    75          2
    77          9
    78          4
    79         40
    80         11
    81        271
    82        197
    83        283
    84        127
    85        376
    86         24
    87         39
    88          3
    89          4
    91         11
    92          4
    93         42
    94          9
    95        253
    96         30
    97        183
    98        199
    99         97
   100        661
   101         98
   102         12
   103          5
   104          1
   105          4
   106          1
   107         31
   108          6
   109         43
   110         24
   111        133
   112         41
   113        330
   114         30
   115         21
   116          4
   117          3
   118          1
   119          2
   121          3
   123         10
   124          6
   125         13
   126          5
   127         43
   128          6
   129         21
   130          3
   131          1
   132          1
   133          3
   134          3
   135         93
   136         12
   137         53
   138          7
   139          3
   141         14
   142          3
   143          3
   151          3
   152          7
   153         56
   154          8
   155        671
   156         74
   157          6
   169         90
   170         10
   171         10
   172          2
   173          9
   174          1
   183         20
   184          3
   197          9
   198          1
   211          2
   212         13
   213          2