##TITLE=Library Entry 90812
##JCAMP-DX=Revision 4.10 
##DATA TYPE=MASS SPECTRUM
##SAMPLE DESCRIPTION=Dennis Rohrbaugh, CBDCOM/ERDEC, Edgewood, MD
##NAMES=HP
##CAS NAME=O,O'-Bis(2-diisopropylaminoethyl) methylphosphonite
##MOLFORM=C17H39N2O2P
##CAS REGISTRY NO=57856-12-9
##MP= -300
##BP= -300
##MW= 334
##$RETENTION INDEX=0
##$CONDENSED SPECTRUM=NO
##NPOINTS= 25
##XYDATA=(XY..XY) 1 
    41        227
    42        240
    43        407
    44        758
    56         80
    58         26
    70        342
    71         31
    72        299
    84        256
    85        181
    86        191
    98         72
    99         12
   112         74
   114        999
   115         80
   127        236
   128        438
   129         39
   148         11
   190          5
   192          5
   206          5
   207          6