##TITLE=Library Entry 53557
##JCAMP-DX=Revision 4.10 
##DATA TYPE=MASS SPECTRUM
##SAMPLE DESCRIPTION=Chemical Concepts
##NAMES=HP
##CAS NAME=Pyrrolidine, N-(4-pentenyl)-
##MOLFORM=C9H17N
##CAS REGISTRY NO=57858-14-7
##MP= -300
##BP= -300
##MW= 139
##$RETENTION INDEX=0
##$CONDENSED SPECTRUM=NO
##NPOINTS= 52
##XYDATA=(XY..XY) 1 
    26          5
    27         46
    28         47
    29         30
    30         24
    37          0
    38          3
    39         50
    40          9
    41         96
    42        180
    43         27
    44          6
    50          1
    51          3
    52          1
    53          9
    54         17
    55         71
    56         31
    57         18
    58          0
    63          1
    65          3
    66          0
    67          8
    68         11
    69         23
    70         29
    71          2
    79          0
    80          2
    81          2
    82         14
    83         14
    84        999
    85         56
    86          1
    91          0
    94          1
    96         25
    97         25
    98         28
    99          1
   108          0
   110         13
   111          4
   124          5
   125          0
   138         28
   139         34
   140          1