##TITLE=Library Entry 23059
##JCAMP-DX=Revision 4.10 
##DATA TYPE=MASS SPECTRUM
##SAMPLE DESCRIPTION=R. FLAMMANG, ORG. CHEM. LAB., STATE UNIV. MONS, MONS, B
ELG.
##NAMES=HP
##CAS NAME=1-Ethylcyclopropanol
##MOLFORM=C5H10O
##CAS REGISTRY NO=57872-31-8
##MP= -300
##BP= -300
##MW= 86
##$RETENTION INDEX=1176
##$CONDENSED SPECTRUM=NO
##NPOINTS= 23
##XYDATA=(XY..XY) 1 
    26         80
    27        330
    28        140
    29        670
    30         30
    31        110
    39        120
    40         40
    41        170
    42         50
    43        300
    44         30
    45         20
    53        150
    55         70
    56         30
    57        999
    58         50
    59         30
    67         30
    71         30
    85         30
    86         60