##TITLE=Library Entry 61540
##JCAMP-DX=Revision 4.10 
##DATA TYPE=MASS SPECTRUM
##SAMPLE DESCRIPTION=A.A.Kutin, Moscow, Russia
##NAMES=HP
##CAS NAME=Hexane, 3,4-diphenyl-
##MOLFORM=C18H22
##CAS REGISTRY NO=5789-31-1
##MP= -300
##BP= -300
##MW= 238
##$RETENTION INDEX=0
##$CONDENSED SPECTRUM=NO
##NPOINTS= 47
##XYDATA=(XY..XY) 1 
    29        377
    34         38
    36         10
    40         33
    41        178
    42         17
    43         53
    44        125
    50          5
    51         30
    52          4
    53         12
    55         35
    56          6
    57         28
    63         10
    65         32
    69         11
    70          4
    71         20
    76         15
    77         73
    78         35
    79         23
    80         11
    89         15
    91        999
    92         66
    93          7
   103         24
   104         35
   105         36
   106         87
   112          3
   115         64
   116          6
   117         60
   118        201
   119        492
   120         55
   121          4
   129         12
   131          8
   165         22
   178         19
   179          4
   180          3