##TITLE=Library Entry 69610
##JCAMP-DX=Revision 4.10 
##DATA TYPE=MASS SPECTRUM
##SAMPLE DESCRIPTION=G.Spiteller, Monantsh Chem., 96,104(1965)
##NAMES=HP
##CAS NAME=Lobelanine
##MOLFORM=C22H25NO2
##CAS REGISTRY NO=579-21-5
##MP= -300
##BP= -300
##MW= 335
##$RETENTION INDEX=0
##$CONDENSED SPECTRUM=NO
##NPOINTS= 32
##XYDATA=(XY..XY) 1 
    41        111
    42        115
    43         93
    51         62
    55         96
    56         74
    57         79
    67         22
    68         20
    69         93
    70         30
    77        432
    78         37
    81         45
    82         45
    83         30
    84         35
    94         76
    95         91
    96        999
    97         83
   105        496
   106         27
   110        266
   111         28
   120         45
   215        179
   216        640
   217         84
   230          8
   335         38
   336         11