##TITLE=Library Entry 79400
##JCAMP-DX=Revision 4.10 
##DATA TYPE=MASS SPECTRUM
##SAMPLE DESCRIPTION=LAC, NIDDK, NIH, Bethesda, MD 20892
##NAMES=HP
##CAS NAME=3-Benzoylbenzoic acid
##MOLFORM=C14H10O3
##CAS REGISTRY NO=579-18-0
##MP= -300
##BP= -300
##MW= 226
##$RETENTION INDEX=0
##$CONDENSED SPECTRUM=NO
##NPOINTS= 67
##XYDATA=(XY..XY) 1 
    45         11
    47          1
    49         14
    50         71
    51        162
    52          9
    53          7
    61          0
    62          4
    63         13
    64          3
    65        128
    66          7
    70          1
    73          1
    74         26
    75         43
    76         86
    77        449
    78         29
    84         10
    85          1
    86          9
    87          3
    88          1
    89          0
    90          4
    91          3
    92          1
    93         10
    98          2
    99          4
   101          1
   102          2
   103          8
   104         37
   105        999
   106         78
   107          3
   113          1
   115          2
   119          4
   120          0
   121         62
   122          5
   125          0
   126          4
   127          2
   139          1
   149        352
   150         34
   151         15
   152         24
   153          9
   179          0
   180          4
   181         47
   182          7
   196          1
   198          4
   208          2
   209         13
   210          1
   225          2
   226        282
   227         43
   228          4