##TITLE=Library Entry 83952
##JCAMP-DX=Revision 4.10 
##DATA TYPE=MASS SPECTRUM
##SAMPLE DESCRIPTION=Japan AIST/NIMC Database- Spectrum MS-NW-3347
##NAMES=HP
##CAS NAME=Acetamide, N-methyl-N-phenyl-
##MOLFORM=C9H11NO
##CAS REGISTRY NO=579-10-2
##MP= -300
##BP= -300
##MW= 149
##$RETENTION INDEX=1260
##$CONDENSED SPECTRUM=NO
##NPOINTS= 62
##XYDATA=(XY..XY) 1 
    14          1
    15         32
    26          3
    27         12
    28          1
    29          1
    30         13
    37          6
    38         13
    39         53
    40          5
    41          5
    42         12
    43        266
    44          6
    49          2
    50         27
    51         86
    52         18
    53          7
    54          4
    55          2
    56         60
    57          2
    58          2
    61          3
    62          7
    63         23
    64         19
    65         40
    66         13
    67          2
    73          2
    74          9
    75          6
    76          7
    77        198
    78         53
    79         44
    80          5
    88          1
    89          1
    90          5
    91         21
    92         10
    93          2
   103          1
   104         40
   105         20
   106        872
   107        999
   108         78
   109          3
   118          2
   119          4
   120          3
   134          9
   135          1
   148          6
   149        392
   150         41
   151          3