##TITLE=Library Entry 81011
##JCAMP-DX=Revision 4.10 
##DATA TYPE=MASS SPECTRUM
##SAMPLE DESCRIPTION=NIST Mass Spectrometry Data Center, 2010
##NAMES=HP
##CAS NAME=Benzoic acid, 2-methoxy-
##MOLFORM=C8H8O3
##CAS REGISTRY NO=579-75-9
##MP= -300
##BP= -300
##MW= 152
##$RETENTION INDEX=1490
##$CONDENSED SPECTRUM=NO
##NPOINTS= 92
##XYDATA=(XY..XY) 1 
    15         19
    20          1
    25          1
    26          8
    27         31
    28         15
    29         23
    30          4
    31         16
    33          1
    34          1
    36          2
    37         30
    38         77
    39        161
    40          8
    41          8
    42          7
    43         22
    44          8
    45         65
    46          3
    47          3
    48          1
    49         13
    50        142
    51        162
    52         36
    53        109
    54          8
    55         15
    56          1
    57          1
    59          1
    60         14
    61         28
    62         71
    63        239
    64        156
    65        168
    66         27
    67          6
    68          1
    69          9
    73         14
    74         63
    75         42
    76        117
    77        515
    78        126
    79        317
    80         24
    81        108
    82          6
    83          2
    89          7
    90         23
    91         15
    92        291
    93         60
    94         21
    95          4
    97          1
   100          1
   103          1
   104         38
   105        999
   106        130
   107         71
   108         13
   109         22
   110          3
   111          1
   118          1
   119         14
   120         56
   121         47
   122         36
   123        522
   124         41
   125          4
   133        104
   134         67
   135        258
   136         27
   137         11
   138          2
   150          2
   151          5
   152        467
   153         41
   154          6