##TITLE=Library Entry 85102
##JCAMP-DX=Revision 4.10 
##DATA TYPE=MASS SPECTRUM
##SAMPLE DESCRIPTION=Japan AIST/NIMC Database- Spectrum MS-IW-5082
##NAMES=HP
##CAS NAME=meso-Hydrobenzoin
##MOLFORM=C14H14O2
##CAS REGISTRY NO=579-43-1
##MP= -300
##BP= -300
##MW= 214
##$RETENTION INDEX=0
##$CONDENSED SPECTRUM=NO
##NPOINTS= 93
##XYDATA=(XY..XY) 1 
    17          2
    18          7
    27          9
    28          8
    29          9
    38          2
    39         23
    40          2
    41          2
    50         16
    51         69
    52         15
    53          9
    55          1
    57          2
    58          1
    61          1
    62          6
    63         20
    64          4
    65         19
    66          2
    69          5
    70          3
    71          1
    74          7
    75          7
    76         18
    77        327
    78         50
    79        477
    80         36
    81          4
    82         17
    83         16
    84          2
    86          1
    87          3
    88          4
    89         27
    90         21
    91         33
    92          3
    98          1
    99          1
   101          1
   102          5
   103          1
   104          1
   105        467
   106         62
   107        893
   108        999
   109         79
   110          5
   113          2
   114          1
   115         13
   116          1
   118          1
   126          2
   127          3
   128          8
   129          1
   135          1
   138          1
   139          9
   140          1
   141          3
   150          2
   151          9
   152         76
   153         12
   154          1
   163          8
   164         11
   165        136
   166         51
   167        472
   168         71
   169          5
   176          4
   177          3
   178         17
   179         24
   180         29
   181          4
   195          1
   196         46
   197          8
   198          2
   214         10
   215          2