##TITLE=Library Entry 88962
##JCAMP-DX=Revision 4.10 
##DATA TYPE=MASS SPECTRUM
##SAMPLE DESCRIPTION=NIST Mass Spectrometry Data Center
##NAMES=HP
##CAS NAME=(p-Fluorophenyl)-(2-thienyl) ketone
##MOLFORM=C11H7FOS
##CAS REGISTRY NO=579-49-7
##MP= -300
##BP= -300
##MW= 206
##$RETENTION INDEX=0
##$CONDENSED SPECTRUM=NO
##NPOINTS= 106
##XYDATA=(XY..XY) 1 
    26          1
    27          1
    31          2
    37          7
    38         16
    39        129
    40          3
    44          1
    45         26
    47          1
    49          5
    50         41
    51         24
    52          1
    53         11
    56          3
    57         44
    58         15
    59          2
    60          1
    61          7
    62         11
    63         12
    64          1
    66          1
    68         17
    69         42
    70          5
    71          1
    73          5
    74         37
    75        179
    76         16
    77          5
    79          3
    80          2
    81         24
    82         21
    83         78
    84          7
    85          7
    86          5
    87          5
    88          5
    89         49
    92          5
    93         13
    94         35
    95        390
    96         27
    97          1
    98          4
    99          4
   100          1
   101          1
   104          1
   105          4
   106          4
   107         14
   108          3
   109          2
   111        999
   112         64
   113         52
   114          3
   115          1
   117          1
   118          1
   119          1
   120         14
   121          2
   122          7
   123        476
   124         37
   125          4
   126          1
   131          5
   132          6
   133         48
   134          8
   139          3
   144          3
   145          2
   146          8
   147          1
   152          2
   157          1
   158          3
   162          2
   163          1
   173          4
   176          4
   177          4
   178         50
   179          6
   180          2
   186          2
   187          4
   189         25
   190          3
   191          1
   205         56
   206        622
   207         82
   208         33
   209          3