##TITLE=Library Entry 78655
##JCAMP-DX=Revision 4.10 
##DATA TYPE=MASS SPECTRUM
##SAMPLE DESCRIPTION=A.A.Kutin, Moscow, Russia
##NAMES=HP
##CAS NAME=Benzoic acid, 2-(benzoylamino)-
##MOLFORM=C14H11NO3
##CAS REGISTRY NO=579-93-1
##MP= -300
##BP= -300
##MW= 241
##$RETENTION INDEX=0
##$CONDENSED SPECTRUM=NO
##NPOINTS= 145
##XYDATA=(XY..XY) 1 
    33          2
    34          4
    35         35
    37         34
    38         47
    39        127
    40         62
    41         26
    42         16
    43         34
    44         30
    45         36
    47         35
    49         39
    50        124
    51        327
    52         53
    53         30
    54          6
    55         15
    56          4
    57         10
    58          1
    60          8
    61          8
    62         28
    63         84
    64         65
    65        109
    66         15
    67          4
    68          3
    69          8
    70          5
    71          5
    73         10
    74         38
    75         32
    77        821
    78         56
    79          7
    80          7
    81          7
    82          4
    84         84
    86         52
    88         15
    90         79
    91         22
    92         67
    93          8
    94          1
    95          1
    96          1
    97          3
    98          2
    99          2
   100          0
   101          1
   102          1
   103          8
   105        999
   106         68
   107          5
   108          1
   109          1
   110          0
   111          2
   112          1
   113          2
   115          4
   116          1
   117          2
   119        130
   120         17
   121          6
   122          6
   123          1
   124          0
   125          0
   126          2
   127          1
   128          1
   129          1
   130          0
   131          0
   132          0
   133          0
   134          0
   135          1
   136          5
   137          3
   139          3
   140          4
   141          2
   142          0
   143          0
   144          0
   146          7
   147          0
   149          2
   150          0
   151          1
   152          2
   153          1
   154          0
   155          0
   157          0
   163          0
   164          1
   165          1
   166          3
   167          5
   168          1
   169          0
   170          0
   171          1
   176          0
   178          2
   179          5
   180          2
   181          0
   182          0
   183          0
   187          0
   193          0
   194          0
   195          2
   196         11
   197          3
   198          0
   204          0
   208          0
   209          0
   221          0
   222          1
   223          4
   224          1
   225          0
   232          0
   238          0
   239          2
   241        142
   242         22
   243          2