##TITLE=Library Entry 60175
##JCAMP-DX=Revision 4.10 
##DATA TYPE=MASS SPECTRUM
##SAMPLE DESCRIPTION=S.Middleton ET AL.Gust.J. Chem., 27,2583(1974)
##NAMES=HP
##CAS NAME=2-Nitrostyrene
##MOLFORM=C8H7NO2
##CAS REGISTRY NO=579-71-5
##MP= -300
##BP= -300
##MW= 149
##$RETENTION INDEX=0
##$CONDENSED SPECTRUM=NO
##NPOINTS= 47
##XYDATA=(XY..XY) 1 
    37         42
    38         81
    39        370
    40         42
    41        102
    42         22
    43        151
    49         21
    50        340
    51        780
    52        141
    53         70
    61         31
    62         81
    63        261
    64        111
    65        830
    66        250
    67         40
    73         19
    74        130
    75        169
    76        210
    77        920
    78        130
    79         21
    87         19
    89         90
    90         60
    91        999
    92        379
    93        210
    94         30
    98         19
   101         69
   102        190
   103        130
   104        130
   105         30
   118         19
   119         30
   120        478
   121        148
   122         18
   132        429
   133         49
   149         37