##TITLE=Library Entry 37333
##JCAMP-DX=Revision 4.10 
##DATA TYPE=MASS SPECTRUM
##SAMPLE DESCRIPTION=D.HENNEBERG, MAX-PLANCK INSTITUTE, MULHEIM, WEST GERMAN
Y
##NAMES=HP
##CAS NAME=Cyclobutane, 1,1,2,3,3-pentamethyl-
##MOLFORM=C9H18
##CAS REGISTRY NO=57905-86-9
##MP= -300
##BP= -300
##MW= 126
##$RETENTION INDEX=0
##$CONDENSED SPECTRUM=NO
##NPOINTS= 46
##XYDATA=(XY..XY) 1 
    24          0
    25          1
    26          1
    27         43
    28         15
    29         36
    30          1
    38         19
    39         56
    40          7
    41        126
    42        170
    43         27
    44          1
    45          0
    46          0
    47          0
    50          1
    51          6
    52          2
    53         20
    54         10
    55        469
    56         44
    57         15
    58          0
    63          0
    65          3
    66          1
    67          8
    68          2
    69         43
    70        999
    71         63
    72          1
    77          3
    78          0
    79          2
    81          1
    82          1
    83         16
    84          1
    91          0
    95          1
    98          1
   111          2