##TITLE=Library Entry 40174
##JCAMP-DX=Revision 4.10 
##DATA TYPE=MASS SPECTRUM
##SAMPLE DESCRIPTION=A.A.Kutin, Moscow, Russia
##NAMES=HP
##CAS NAME=2-Propanol, 1-(isopropylamino)-3-(p-methoxyphenoxy)-
##MOLFORM=C13H21NO3
##CAS REGISTRY NO=5790-23-8
##MP= -300
##BP= -300
##MW= 239
##$RETENTION INDEX=0
##$CONDENSED SPECTRUM=NO
##NPOINTS= 101
##XYDATA=(XY..XY) 1 
    33          1
    36         86
    38         38
    39         42
    41        122
    42         48
    43        103
    44         37
    45          1
    46          0
    50         11
    51         17
    52         25
    53         22
    54         21
    56        106
    57         78
    58         26
    60         30
    63         37
    64         32
    65         22
    66          5
    67          7
    68          5
    70         25
    72        999
    74         33
    77         49
    79         16
    80         16
    81         27
    82          9
    84         11
    86         15
    87          0
    89          0
    90          0
    92         38
    95         66
    96          4
    97          1
    98          9
   100         19
   102         37
   103          2
   105          4
   107         20
   109         80
   110          4
   112          7
   113          2
   114          4
   116         37
   117          2
   118          0
   119          0
   120          1
   121          2
   123        104
   124        177
   125         12
   126          1
   127          0
   131          0
   132          0
   133          0
   135          5
   137         20
   138          2
   139          0
   145          0
   148          0
   149          3
   150          2
   151          1
   152          0
   155          0
   156          0
   161          0
   163         15
   164          1
   166          8
   167          0
   178          0
   180          0
   195         69
   196          6
   197          0
   206          0
   208          0
   220          0
   221          1
   222          0
   224         22
   225          2
   226          0
   238          3
   239         50
   240          9
   241          0