##TITLE=Library Entry 47564
##JCAMP-DX=Revision 4.10 
##DATA TYPE=MASS SPECTRUM
##SAMPLE DESCRIPTION=NIST Mass Spectrometry Data Center, 1998.
##NAMES=HP
##CAS NAME=4-Methyl-2-nitrophenyl isocyanate
##MOLFORM=C8H6N2O3
##CAS REGISTRY NO=57910-98-2
##MP= -300
##BP= -300
##MW= 178
##$RETENTION INDEX=0
##$CONDENSED SPECTRUM=NO
##NPOINTS= 93
##XYDATA=(XY..XY) 1 
    15          1
    16          4
    26         20
    27         67
    28         18
    29          5
    30         70
    31          1
    36          2
    37         42
    38         67
    39        150
    40         20
    41         16
    42          4
    43          4
    44        279
    45          4
    46         17
    48          3
    49         24
    50        192
    51        446
    52        172
    53         57
    54         20
    55          5
    56          4
    57          2
    60          4
    61         36
    62         60
    63        116
    64         80
    65        112
    66         27
    67          7
    68          5
    70          2
    73          8
    74         32
    75         89
    76        193
    77        999
    78        210
    79         83
    80         18
    81          1
    82          1
    85          3
    86         10
    87         16
    88         22
    89         40
    90         28
    91         24
    92        102
    93          9
    94         15
    95          1
    99          7
   100          5
   101          3
   102        115
   103        106
   104        511
   105        284
   106         38
   107         10
   116         21
   117         27
   118          8
   119          6
   120        226
   121         24
   122         13
   123          1
   130         11
   131         18
   132         22
   133          8
   134        363
   135         30
   136         16
   148         88
   149          9
   150          1
   161          1
   162          9
   176          1
   178        576
   179         54
   180          6