##TITLE=Library Entry 66112
##JCAMP-DX=Revision 4.10 
##DATA TYPE=MASS SPECTRUM
##SAMPLE DESCRIPTION=RESEARCH LABORATORY, STATE ALCOHOL MONOPOLY ALKO, HELSI
NKI, FINLAND; IRMA NYKANEN ET AL
##NAMES=HP
##CAS NAME=Bicyclo[2.2.1]heptane, 2,2-dimethyl-3-methylene-, (1R)-
##MOLFORM=C10H16
##CAS REGISTRY NO=5794-03-6
##MP= -300
##BP= -300
##MW= 136
##$RETENTION INDEX=951
##$CONDENSED SPECTRUM=NO
##NPOINTS= 51
##XYDATA=(XY..XY) 1 
    26         10
    27         57
    28         74
    29         67
    38         13
    39        246
    40         43
    41        381
    42         27
    43         94
    50         33
    51         87
    52         50
    53        145
    54         20
    55        104
    56         14
    57         14
    63         27
    64         10
    65        125
    66         43
    67        182
    68         57
    69        121
    70         10
    77        405
    78         94
    79        770
    80        371
    81        216
    82         33
    89          6
    91        472
    92        233
    93        999
    94        270
    95         70
   103         20
   104          6
   105         84
   106         20
   107        263
   108        104
   109         14
   119         13
   121        375
   122         40
   135          3
   136         87
   137         10