##TITLE=Library Entry 21159
##JCAMP-DX=Revision 4.10 
##DATA TYPE=MASS SPECTRUM
##SAMPLE DESCRIPTION=Japan AIST/NIMC Database- Spectrum MS-IW-3043
##NAMES=HP
##CAS NAME=3-(2-Hydroxy-6-oxo-1-cyclohexenyl)propionitrile
##MOLFORM=C9H11NO2
##CAS REGISTRY NO=57943-19-8
##MP= -300
##BP= -300
##MW= 165
##$RETENTION INDEX=0
##$CONDENSED SPECTRUM=NO
##NPOINTS= 124
##XYDATA=(XY..XY) 1 
    14          4
    15         11
    16          1
    17         12
    18         61
    25          1
    26         23
    27        182
    28         79
    29         16
    30          3
    31          5
    32          8
    33          3
    34          1
    35          4
    37         11
    38         32
    39        206
    40         62
    41        205
    42        290
    43         76
    44          7
    45          4
    46          1
    47          7
    48          1
    49          3
    50         13
    51         28
    52         40
    53         63
    54         58
    55        999
    56         46
    57          7
    58          1
    59          1
    60          1
    61          3
    62          5
    63         12
    64         17
    65         29
    66         45
    67         53
    68         44
    69        102
    70         87
    71         28
    72          2
    73          2
    74          2
    75          3
    76          3
    77         24
    78          8
    79         48
    80         36
    81        116
    82         77
    83        150
    84         65
    85          4
    86          2
    87          1
    89          1
    90          1
    91         23
    92          6
    93         10
    94         47
    95         37
    96         20
    97        641
    98         43
    99          3
   103          1
   104          2
   105          2
   106          4
   107          9
   108         38
   109        202
   110         68
   111         21
   112         14
   113          2
   114          1
   116          1
   117          2
   118          4
   119          5
   120         14
   121          8
   122         51
   123         39
   124         53
   125        460
   126         36
   127          3
   128          1
   131          1
   133          1
   134          3
   135          5
   136        143
   137        237
   138        131
   139         12
   140          1
   145          1
   146          5
   147          9
   148         47
   149          8
   150          3
   162          1
   163          5
   164        155
   165        590
   166         65
   167          6