##TITLE=Library Entry 66485
##JCAMP-DX=Revision 4.10 
##DATA TYPE=MASS SPECTRUM
##SAMPLE DESCRIPTION=A.A.Kutin, Moscow, Russia
##NAMES=HP
##CAS NAME=Bicyclo[2.2.1]heptane, 2,2-dimethyl-3-methylene-, (1S)-
##MOLFORM=C10H16
##CAS REGISTRY NO=5794-04-7
##MP= -300
##BP= -300
##MW= 136
##$RETENTION INDEX=0
##$CONDENSED SPECTRUM=NO
##NPOINTS= 60
##XYDATA=(XY..XY) 1 
    33         14
    34          2
    37          1
    39        321
    40        114
    41        404
    43         97
    44         11
    50         26
    51         70
    52         44
    53        152
    54         23
    55        109
    56          8
    57         14
    58          4
    61          0
    62          3
    63         25
    65        107
    66         96
    67        330
    68        167
    69         69
    70         23
    75          3
    76          6
    77        214
    78         57
    79        382
    80        106
    81         76
    82         46
    83          3
    89          4
    91        292
    92        172
    93        999
    94        182
    95        191
    96         11
   102          0
   103         10
   104          7
   105         64
   106         29
   107        294
   108         80
   109          5
   115          1
   117          1
   119         16
   121        741
   122         62
   123          2
   134          4
   135         15
   136        202
   137         19