##TITLE=Library Entry 18059
##JCAMP-DX=Revision 4.10 
##DATA TYPE=MASS SPECTRUM
##SAMPLE DESCRIPTION=A.A.Kutin, Moscow, Russia
##NAMES=HP
##CAS NAME=9H-Indeno(2,1-b)pyridin-9-one
##MOLFORM=C12H7NO
##CAS REGISTRY NO=57955-12-1
##MP= -300
##BP= -300
##MW= 181
##$RETENTION INDEX=0
##$CONDENSED SPECTRUM=NO
##NPOINTS= 65
##XYDATA=(XY..XY) 1 
    37        231
    38        521
    39        816
    40        121
    41         53
    42          5
    43          9
    49        173
    50        999
    51        874
    52        168
    53        150
    54         13
    55         20
    61        165
    62        230
    63        301
    64         65
    65         39
    66          7
    73        110
    74        503
    75        436
    76        276
    77        136
    78         29
    85        110
    86        207
    87        358
    88         52
    89         15
    91         21
    98        195
    99        161
   100         84
   101         33
   102         84
   103         11
   109          7
   110         15
   111         14
   112          9
   113         15
   115         10
   121          6
   122         14
   123         13
   125         91
   126        166
   127        123
   128          4
   130         90
   131          7
   139          4
   149          1
   151         16
   152         83
   153        390
   154         50
   163         18
   164         12
   165         29
   181        621
   182         77
   183          4