##TITLE=Library Entry 98784
##JCAMP-DX=Revision 4.10 
##DATA TYPE=MASS SPECTRUM
##SAMPLE DESCRIPTION=Japan AIST/NIMC Database- Spectrum MS-IW-3888
##NAMES=HP
##CAS NAME=Carbamic acid, phenyl-, dodecyl ester
##MOLFORM=C19H31NO2
##CAS REGISTRY NO=5796-07-6
##MP= -300
##BP= -300
##MW= 305
##$RETENTION INDEX=0
##$CONDENSED SPECTRUM=NO
##NPOINTS= 123
##XYDATA=(XY..XY) 1 
    15          3
    17          1
    18          3
    25          1
    26         12
    27        125
    28         43
    29        260
    30          7
    31        116
    32          3
    36          3
    37         44
    38         75
    39        148
    40         32
    41        607
    42        212
    43        759
    44         38
    45         29
    46          3
    48          1
    49          8
    50         45
    51         58
    52         33
    53         33
    54         68
    55        756
    56        597
    57        589
    58         25
    59         46
    60          7
    61         16
    62         25
    63         95
    64        258
    65         67
    66         21
    67         90
    68        249
    69        636
    70        533
    71        198
    72         10
    73         17
    74         11
    75          8
    76          8
    77         32
    78          3
    79          6
    80          3
    81         34
    82        266
    83        544
    84        341
    85        104
    86          7
    87          4
    88          5
    89          2
    90         20
    91        423
    92         46
    93        257
    94         20
    95         10
    96         83
    97        362
    98        203
    99         22
   100          1
   103          1
   106         10
   107          1
   109          2
   110         33
   111        198
   112        112
   113         10
   114          1
   118          1
   119        999
   120        110
   121          8
   123          1
   124         11
   125         76
   126         46
   127          5
   132          1
   134          7
   135          1
   136          7
   137        178
   138         87
   139         29
   140        120
   141         13
   148          5
   149          1
   153          1
   154          1
   162          3
   167          1
   168         68
   169          9
   176          2
   185          1
   190          2
   196          3
   204          2
   212          9
   213          3
   218          3
   232          4
   277          1
   305        178
   306         37
   307          4