##TITLE=Library Entry 59076
##JCAMP-DX=Revision 4.10 
##DATA TYPE=MASS SPECTRUM
##SAMPLE DESCRIPTION=Div. of Experiment Therapeutics WRAIR, WRAMC, Washingto
n DC 20307
##NAMES=HP
##CAS NAME=Acetyl benzyl disulfide
##MOLFORM=C9H10OS2
##CAS REGISTRY NO=5797-02-4
##MP= -300
##BP= -300
##MW= 198
##$RETENTION INDEX=0
##$CONDENSED SPECTRUM=NO
##NPOINTS= 82
##XYDATA=(XY..XY) 1 
    41         18
    43        341
    45        150
    47          8
    49         14
    51         55
    52          8
    53          3
    55          3
    56          1
    57          5
    58          1
    59          1
    60          1
    61          1
    62          9
    63         36
    65        100
    66          4
    67          1
    69          7
    70          1
    71          5
    73          2
    74          0
    75          2
    77         45
    78          9
    79         12
    80          0
    81          2
    82          1
    84         10
    86         15
    87         30
    89         32
    91        999
    92         50
    93          2
    95          2
    96          0
    97          4
    98          1
   103          1
   105         13
   106          1
   107          0
   108          2
   109          0
   111          0
   115          1
   117          1
   121         17
   122          5
   123         49
   124          5
   125          2
   133          1
   134          0
   135          3
   145          0
   149         22
   150          2
   151          1
   153          6
   154          1
   155          1
   156          4
   159          0
   165          8
   166          5
   167          2
   168          0
   177          1
   178          0
   179          1
   181         32
   182          3
   197          1
   198         18
   199          2
   200          0