##TITLE=Library Entry 26722
##JCAMP-DX=Revision 4.10 
##DATA TYPE=MASS SPECTRUM
##SAMPLE DESCRIPTION=JIM LAWLESS AMES RESEARCH CTR NASA MOFFETT FIELD, CALIF
 94035
##NAMES=HP
##CAS NAME=Hexanoic acid, 2-methyl-, 1-methylpropyl ester
##MOLFORM=C11H22O2
##CAS REGISTRY NO=57983-70-7
##MP= -300
##BP= -300
##MW= 186
##$RETENTION INDEX=0
##$CONDENSED SPECTRUM=NO
##NPOINTS= 74
##XYDATA=(XY..XY) 1 
    40         54
    41        758
    42        214
    43        962
    44        104
    45        109
    46          3
    47          5
    48          0
    49          2
    50          8
    51         10
    52          6
    53         45
    54         20
    55        309
    56        681
    57        999
    58        114
    59         39
    60          7
    61          3
    64         15
    65          3
    66          1
    67         11
    68          9
    69         75
    70         35
    71         17
    72          8
    73        227
    74        820
    75         60
    76          7
    77          0
    79          2
    81          3
    82          2
    83         41
    84         57
    85        822
    86        104
    87        251
    88         23
    89         16
    94          1
    95          7
    96          1
    97          6
    98          0
    99          2
   100          0
   101         41
   102          3
   103         10
   111          8
   112         11
   113        722
   114         80
   115         21
   116          2
   117          1
   119          0
   128          0
   129         12
   131        988
   132         67
   133          5
   157         36
   158          2
   159          0
   171          5
   187          7