##TITLE=Library Entry 12288
##JCAMP-DX=Revision 4.10 
##DATA TYPE=MASS SPECTRUM
##SAMPLE DESCRIPTION=JIM LAWLESS AMES RESEARCH CTR NASA MOFFETT FIELD, CALIF
 94035
##NAMES=HP
##CAS NAME=L-Alanine, N-(trifluoroacetyl)-, 1-methylpentyl ester
##MOLFORM=C11H18F3NO3
##CAS REGISTRY NO=57983-75-2
##MP= -300
##BP= -300
##MW= 269
##$RETENTION INDEX=0
##$CONDENSED SPECTRUM=NO
##NPOINTS= 35
##XYDATA=(XY..XY) 1 
    40          4
    41        166
    42        106
    43        999
    44         63
    45         78
    47         28
    51          5
    53          5
    55         80
    56         41
    57         98
    58          6
    66         11
    69         99
    70         42
    72         37
    83          2
    84         24
    85        230
    86         20
    88         16
    92         22
    93         11
    97          3
   101         16
   116          6
   138          7
   139          5
   140        516
   141        308
   142         15
   168         96
   169          6
   186         10