##TITLE=Library Entry 13496
##JCAMP-DX=Revision 4.10 
##DATA TYPE=MASS SPECTRUM
##SAMPLE DESCRIPTION=JIM LAWLESS AMES RESEARCH CTR NASA MOFFETT FIELD, CALIF
 94035
##NAMES=HP
##CAS NAME=L-Glutamic acid, N-(trifluoroacetyl)-, bis(1-methylbutyl) ester
##MOLFORM=C17H28F3NO5
##CAS REGISTRY NO=57983-12-7
##MP= -300
##BP= -300
##MW= 383
##$RETENTION INDEX=0
##$CONDENSED SPECTRUM=NO
##NPOINTS= 24
##XYDATA=(XY..XY) 1 
    41        370
    42        145
    43        999
    44        139
    45        251
    55        203
    57         42
    59         10
    69        113
    70        102
    71        364
    73         94
    84         70
    85         97
    88         64
   107         40
   139         63
   152        245
   153         67
   180        252
   181        144
   198        442
   199        120
   226        352