##TITLE=Library Entry 21642
##JCAMP-DX=Revision 4.10 
##DATA TYPE=MASS SPECTRUM
##SAMPLE DESCRIPTION=JIM LAWLESS AMES RESEARCH CTR NASA MOFFETT FIELD, CALIF
 94035
##NAMES=HP
##CAS NAME=.beta.-Alanine, N-(trifluoroacetyl)-, 1-methylpropyl ester
##MOLFORM=C9H14F3NO3
##CAS REGISTRY NO=57983-16-1
##MP= -300
##BP= -300
##MW= 241
##$RETENTION INDEX=0
##$CONDENSED SPECTRUM=NO
##NPOINTS= 63
##XYDATA=(XY..XY) 1 
    40         13
    41        292
    42         74
    43        119
    44         41
    45         46
    46          4
    47          9
    49          3
    50          8
    51          9
    52          0
    53         12
    54          5
    55        999
    56        320
    57        319
    58         17
    59          6
    60         24
    61          2
    66          4
    69        136
    70         40
    71         17
    72         46
    73        125
    74         14
    78         36
    79          9
    84          3
    85          0
    86          2
    88          7
    92          5
    93          2
    96          6
    97         10
    98         48
    99          2
   100          2
   106          3
   107          2
   114          4
   116         45
   117          1
   126        130
   127          5
   138          2
   139         82
   140         11
   141         23
   142          2
   146          2
   166          7
   167         26
   168        629
   169         38
   170          2
   185         28
   186         54
   187          2
   213          1