##TITLE=Library Entry 91300
##JCAMP-DX=Revision 4.10 
##DATA TYPE=MASS SPECTRUM
##SAMPLE DESCRIPTION=JIM LAWLESS AMES RESEARCH CTR NASA MOFFETT FIELD, CALIF
 94035
##NAMES=HP
##CAS NAME=Pentanedioic acid, bis(1-methylpropyl) ester
##MOLFORM=C13H24O4
##CAS REGISTRY NO=57983-33-2
##MP= -300
##BP= -300
##MW= 244
##$RETENTION INDEX=2005
##$CONDENSED SPECTRUM=NO
##NPOINTS= 70
##XYDATA=(XY..XY) 1 
    40         34
    41        441
    42        566
    43        349
    44         81
    45        240
    46          4
    47          8
    48          2
    49          6
    51         19
    53         21
    54          7
    55        318
    56        296
    57        473
    58         52
    59         13
    60        124
    61          1
    68         14
    69          8
    70        101
    71         18
    72         25
    73        197
    74         16
    83          1
    84         12
    85          7
    86        119
    87        381
    88        104
    89         28
    97         40
    98         20
    99         12
   100          1
   101        168
   102          6
   103          2
   105         11
   113          9
   114        430
   115        999
   116        150
   117         20
   119         30
   126          4
   128          2
   130          5
   131          4
   132        148
   133        135
   134          9
   135         10
   141          1
   142          4
   143          7
   144         35
   145         19
   147          4
   157         36
   170         18
   171        259
   172         17
   173          3
   188         39
   189         23
   190          4