##TITLE=Library Entry 13573
##JCAMP-DX=Revision 4.10 
##DATA TYPE=MASS SPECTRUM
##SAMPLE DESCRIPTION=CARL DJERASSI DEPT OF CHEM STANFORD UNIV STANFORD CALIF
 94305
##NAMES=HP
##CAS NAME=1H-Cyclopenta[a]pentalen-7-ol, decahydro-3,3,4,7a-tetramethyl-, a
cetate
##MOLFORM=C17H28O2
##CAS REGISTRY NO=57984-03-9
##MP= -300
##BP= -300
##MW= 264
##$RETENTION INDEX=0
##$CONDENSED SPECTRUM=NO
##NPOINTS= 172
##XYDATA=(XY..XY) 1 
    39        181
    40         30
    41        727
    42         40
    43        999
    44         20
    45         10
    50         10
    51         40
    52         20
    53        191
    54         20
    55        575
    56         70
    57         70
    58         10
    59         10
    60         20
    61         10
    62         10
    63         10
    64         10
    65         90
    66         30
    67        292
    68         30
    69        383
    70         50
    71         60
    72         10
    73         10
    74         10
    75         10
    76         10
    77        242
    78         70
    79        333
    80        666
    81        737
    82         80
    83         70
    84         30
    85         20
    86         10
    88         10
    89         10
    91        424
    92        191
    93        494
    94        303
    95        656
    96         90
    97         80
    98         20
    99         20
   100         10
   101         10
   102         10
   103         20
   104         20
   105        333
   106        292
   107        494
   108        191
   109        525
   110         90
   111         50
   112         30
   113         10
   114         10
   115         40
   116         20
   117         40
   118         20
   119        323
   120         90
   121        161
   122        505
   123        616
   124        141
   125         30
   126         10
   127         10
   128         20
   129         20
   130         10
   131         50
   132         20
   133        343
   134        484
   135        515
   136        101
   137         40
   138         20
   139         20
   140         10
   141         10
   142         10
   143         10
   144         10
   145         30
   146         20
   147        191
   148        606
   149        171
   150         30
   151        131
   152         40
   153         60
   154         10
   155         10
   156         10
   157         10
   158         10
   159         20
   160         30
   161        313
   162        343
   163         80
   164         20
   165         30
   166         20
   167         20
   169         10
   170         10
   171         10
   172         10
   173         20
   174         10
   175        252
   176        101
   177         20
   178         10
   179         10
   180         10
   181         10
   182         10
   183         10
   185         10
   186         10
   187         30
   188         10
   189        585
   190        101
   191         20
   192         20
   193         10
   194         20
   195         10
   202         30
   203         20
   204        878
   205        171
   206         30
   207         50
   208         20
   209         10
   216         20
   217         20
   218         20
   219         10
   220         20
   221         10
   222         30
   223         10
   230         20
   231         10
   232         10
   249         60
   250         20
   251         20
   264         10