##TITLE=Library Entry 23849
##JCAMP-DX=Revision 4.10 
##DATA TYPE=MASS SPECTRUM
##SAMPLE DESCRIPTION=JIM LAWLESS AMES RESEARCH CTR NASA MOFFETT FIELD, CALIF
 94035
##NAMES=HP
##CAS NAME=l-Glutamic acid, N-(trifluoroacetyl)-, bis(1-methylpropyl) ester
##MOLFORM=C15H24F3NO5
##CAS REGISTRY NO=57983-23-0
##MP= -300
##BP= -300
##MW= 355
##$RETENTION INDEX=0
##$CONDENSED SPECTRUM=NO
##NPOINTS= 110
##XYDATA=(XY..XY) 1 
    40         34
    41        825
    42        129
    43        184
    44        115
    45        285
    46          5
    51         11
    53         32
    54         24
    55        147
    56        217
    57        999
    58        101
    59         65
    60         43
    61         23
    63         22
    64          3
    65          6
    66         13
    68         21
    69        141
    70         83
    71         55
    72          9
    73        223
    74         31
    75          1
    76          4
    77          6
    78         24
    79         10
    81         13
    82         21
    83         20
    84        105
    85        403
    86         35
    87         69
    88          8
    89         45
    91         18
    96          8
    97         32
    98          3
   100         21
   101         21
   102         17
   103          8
   104         19
   110         10
   111         18
   112          7
   113          7
   114         11
   115          3
   116         30
   117         17
   125          6
   126         16
   127          4
   128          8
   130          5
   131         11
   133         10
   135          7
   136          3
   137          6
   138         32
   139        146
   140         97
   141         26
   142          3
   143          3
   149         11
   151          7
   152        499
   153        117
   154         17
   158         13
   161         15
   164          3
   166          8
   167         16
   171         53
   172          5
   175          4
   179         11
   180        592
   181        276
   182         28
   189          1
   197          2
   198        773
   199        246
   200         18
   205          4
   207         62
   208         12
   224          4
   225         61
   226        681
   227         74
   228          4
   243         55
   244         18
   254         34
   255         28
   282         53