##TITLE=Library Entry 23793
##JCAMP-DX=Revision 4.10 
##DATA TYPE=MASS SPECTRUM
##SAMPLE DESCRIPTION=JIM LAWLESS AMES RESEARCH CTR NASA MOFFETT FIELD, CALIF
 94035
##NAMES=HP
##CAS NAME=L-Serine, N-(trifluoroacetyl)-, 1-methylpropyl ester, trifluoroac
etate (ester)
##MOLFORM=C11H13F6NO5
##CAS REGISTRY NO=57983-19-4
##MP= -300
##BP= -300
##MW= 353
##$RETENTION INDEX=0
##$CONDENSED SPECTRUM=NO
##NPOINTS= 67
##XYDATA=(XY..XY) 1 
    40         19
    41        487
    42         79
    43         74
    44         42
    45         61
    46          5
    47         29
    48         10
    49        174
    50         22
    51         65
    53          7
    54          7
    55         49
    56         82
    57        999
    58         49
    59         22
    64          3
    66          1
    68          9
    69        278
    70         63
    71          5
    73         32
    78         10
    83          6
    84        108
    85          7
    86         85
    88         21
    90         12
    91          1
    96          8
    97         17
    99          4
   110         48
   111          1
   114          1
   118         17
   119          5
   125          1
   126          3
   131          2
   136          3
   137          6
   138        359
   139        345
   140         25
   141          3
   152          6
   153         21
   154          6
   156          8
   165          7
   166         13
   170          7
   183         10
   184         22
   200          3
   228          5
   252         56
   253          3
   278          8
   280         68
   281          4