##TITLE=Library Entry 21640
##JCAMP-DX=Revision 4.10 
##DATA TYPE=MASS SPECTRUM
##SAMPLE DESCRIPTION=JIM LAWLESS AMES RESEARCH CTR NASA MOFFETT FIELD, CALIF
 94035
##NAMES=HP
##CAS NAME=.beta.-Alanine, N-(trifluoroacetyl)-, 1-methylpentyl ester
##MOLFORM=C11H18F3NO3
##CAS REGISTRY NO=57983-13-8
##MP= -300
##BP= -300
##MW= 269
##$RETENTION INDEX=0
##$CONDENSED SPECTRUM=NO
##NPOINTS= 80
##XYDATA=(XY..XY) 1 
    40         29
    41        227
    42        198
    43        714
    44         77
    45         58
    46          6
    47         13
    49          8
    50          6
    51          8
    52          1
    53         14
    54         17
    55        999
    56        235
    57         93
    58         13
    59          7
    60         10
    61          1
    65          1
    66          4
    67          9
    68          3
    69        215
    70         39
    71         15
    72         28
    73         13
    74          8
    77          0
    78         34
    79          6
    81          1
    83         13
    84        263
    85        102
    86          8
    87          3
    88          3
    92          6
    93          1
    94          2
    96          3
    97          9
    98         27
    99          2
   100          7
   101        153
   102         10
   106          3
   113          1
   114          4
   116         34
   117          2
   126        134
   127          7
   138          3
   139         67
   140         14
   141         22
   142          2
   146          4
   151          1
   152          0
   154          3
   166         17
   167          4
   168        892
   169        113
   170          9
   182          1
   183          7
   184          0
   185         43
   186        102
   187          5
   212          4
   241          1