##TITLE=Library Entry 36587
##JCAMP-DX=Revision 4.10 
##DATA TYPE=MASS SPECTRUM
##SAMPLE DESCRIPTION=JIM LAWLESS AMES RESEARCH CTR NASA MOFFETT FIELD, CALIF
 94035
##NAMES=HP
##CAS NAME=L-Norleucine, N-(trifluoroacetyl)-, 1-methylpropyl ester
##MOLFORM=C12H20F3NO3
##CAS REGISTRY NO=57983-76-3
##MP= -300
##BP= -300
##MW= 283
##$RETENTION INDEX=0
##$CONDENSED SPECTRUM=NO
##NPOINTS= 79
##XYDATA=(XY..XY) 1 
    40         24
    41        633
    42         64
    43        213
    44         60
    45         27
    47          3
    49          3
    51          1
    53         19
    54         20
    55         95
    56         82
    57        756
    58         47
    60          3
    66          6
    67         52
    68         34
    69        999
    70        130
    71         14
    72         12
    73         32
    74         12
    77          3
    78         28
    79          2
    81          2
    82          6
    83          7
    84         29
    86          2
    94          4
    96         18
    97         17
    98          7
    99          6
   101          3
   107          1
   112          2
   113          3
   114        304
   115         14
   125          8
   126        290
   127         18
   128          3
   130         24
   132          3
   135          0
   136          3
   138          9
   139         32
   140        196
   141         74
   142          1
   152         21
   153         96
   154        108
   155          8
   158          5
   162          1
   166          9
   168         13
   170          6
   171         47
   180         14
   181         20
   182        815
   183        378
   184         30
   208         16
   209          6
   210         90
   211          7
   212          3
   227          7
   228          6