##TITLE=Library Entry 26033
##JCAMP-DX=Revision 4.10 
##DATA TYPE=MASS SPECTRUM
##SAMPLE DESCRIPTION=JIM LAWLESS AMES RESEARCH CTR NASA MOFFETT FIELD, CALIF
 94035
##NAMES=HP
##CAS NAME=Propanedioic acid, dimethyl-, bis(1-methylpropyl) ester
##MOLFORM=C13H24O4
##CAS REGISTRY NO=57983-08-1
##MP= -300
##BP= -300
##MW= 244
##$RETENTION INDEX=0
##$CONDENSED SPECTRUM=NO
##NPOINTS= 67
##XYDATA=(XY..XY) 1 
    40         30
    41        538
    42        178
    43        116
    44         39
    45         93
    46          0
    47          4
    49          6
    50          0
    51          8
    53         12
    54          4
    55         62
    56        105
    57        999
    58         64
    59        141
    60         11
    63          0
    66          0
    67          1
    68          0
    69         42
    70        213
    71         40
    72          5
    73        109
    77          1
    81          0
    83          3
    84          6
    85          9
    86         20
    87        453
    88        926
    89         62
    90          5
    91          0
    98          0
    99          1
   100          0
   101          5
   113          1
   114         20
   115        903
   116         56
   117          7
   129          0
   131          1
   132          1
   133        148
   134          6
   141          1
   142          1
   143          5
   144         59
   145          3
   153          0
   155          0
   171        418
   172         44
   173          3
   189         34
   190          1
   215          6
   229          0