##TITLE=Library Entry 73250
##JCAMP-DX=Revision 4.10 
##DATA TYPE=MASS SPECTRUM
##SAMPLE DESCRIPTION=LAC, NIDDK, NIH, Bethesda, MD 20892
##NAMES=HP
##CAS NAME=Butanoic acid, 3-bromo-3-methyl-
##MOLFORM=C5H9BrO2
##CAS REGISTRY NO=5798-88-9
##MP= -300
##BP= -300
##MW= 180
##$RETENTION INDEX=0
##$CONDENSED SPECTRUM=NO
##NPOINTS= 33
##XYDATA=(XY..XY) 1 
    41        275
    42         77
    43        208
    45        266
    46          5
    49         26
    50        116
    51        115
    52         39
    53        187
    54        230
    55        385
    56         26
    57         97
    58         27
    59        101
    60         41
    61          2
    66         13
    67         50
    68         10
    69         12
    71         12
    73          5
    81          2
    82        475
    83        442
    85        413
    86         16
   100        999
   101         62
   180         15
   182         15