##TITLE=Library Entry 74098
##JCAMP-DX=Revision 4.10 
##DATA TYPE=MASS SPECTRUM
##SAMPLE DESCRIPTION=JIM LAWLESS AMES RESEARCH CTR NASA MOFFETT FIELD, CALIF
 94035
##NAMES=HP
##CAS NAME=Propanedioic acid, methyl-, bis(1-methylpropyl) ester
##MOLFORM=C12H22O4
##CAS REGISTRY NO=57983-27-4
##MP= -300
##BP= -300
##MW= 230
##$RETENTION INDEX=0
##$CONDENSED SPECTRUM=NO
##NPOINTS= 66
##XYDATA=(XY..XY) 1 
    40          8
    41        329
    42         22
    43         64
    44         35
    45         68
    46          0
    47          5
    49          6
    50          1
    51          3
    53         11
    54          4
    55         83
    56        322
    57        874
    58         47
    59          7
    60          0
    63          0
    68          0
    69          5
    71          1
    72          8
    73        188
    74        342
    75         15
    81          0
    83         31
    84          2
    85          1
    86          2
    87          0
    88          3
    89          2
    97          0
   100         14
   101        999
   102         53
   103          5
   115          6
   118          1
   119        410
   120         15
   121          0
   123          2
   128          2
   129          1
   130         40
   131          3
   139        100
   140          7
   141          1
   145         76
   146          8
   147          0
   149          0
   157        354
   158         32
   159         19
   171          1
   174          1
   175         21
   189          0
   201          9
   215          0