##TITLE=Library Entry 11826
##JCAMP-DX=Revision 4.10 
##DATA TYPE=MASS SPECTRUM
##SAMPLE DESCRIPTION=JIM LAWLESS AMES RESEARCH CTR NASA MOFFETT FIELD, CALIF
 94035
##NAMES=HP
##CAS NAME=Glycine, N-(trifluoroacetyl)-, 1-methylpentyl ester
##MOLFORM=C10H16F3NO3
##CAS REGISTRY NO=57983-14-9
##MP= -300
##BP= -300
##MW= 255
##$RETENTION INDEX=0
##$CONDENSED SPECTRUM=NO
##NPOINTS= 52
##XYDATA=(XY..XY) 1 
    40         25
    41        275
    42        115
    43        999
    44         79
    45         50
    46          5
    47          5
    48          0
    49         10
    50          7
    51          7
    52          1
    53         11
    54          5
    55        139
    56        100
    57        152
    58         32
    59         19
    67          6
    68          1
    69        153
    70          5
    73          4
    74          8
    78         47
    79          4
    83          9
    84         52
    85        365
    86         24
    87          6
    97         14
    98          3
   101         17
   102         10
   106          3
   124          8
   125          3
   126        368
   127        211
   128          7
   140          2
   152          2
   153          3
   154        192
   155          8
   156          1
   172         11
   182          1
   198          2