##TITLE=Library Entry 26757
##JCAMP-DX=Revision 4.10 
##DATA TYPE=MASS SPECTRUM
##SAMPLE DESCRIPTION=JIM LAWLESS AMES RESEARCH CTR NASA MOFFETT FIELD, CALIF
 94035
##NAMES=HP
##CAS NAME=Butanedioic acid, chloro-, bis(1-methylpropyl) ester
##MOLFORM=C12H21ClO4
##CAS REGISTRY NO=57983-51-4
##MP= -300
##BP= -300
##MW= 264
##$RETENTION INDEX=0
##$CONDENSED SPECTRUM=NO
##NPOINTS= 67
##XYDATA=(XY..XY) 1 
    40         12
    41        381
    42         23
    43        100
    44         23
    45        200
    50          5
    51          6
    53         12
    54          7
    55        133
    56        195
    57        999
    58         57
    59        120
    60          6
    61          3
    62         48
    63          7
    64         15
    65          4
    69          2
    71         69
    72         12
    73        195
    74          7
    83          9
    87          2
    89         19
    90          5
    91          5
    99         33
   100         33
   101         45
   102          1
   107         20
   108        250
   109         26
   110         90
   111          6
   115          8
   117          8
   129         10
   131          2
   134         11
   135        560
   136         30
   137        179
   138          8
   141          1
   145         11
   152         11
   153         97
   154          6
   155         45
   156          1
   164         32
   165          2
   166          8
   179         11
   181          2
   191        226
   192         19
   193         72
   194          8
   201          5
   209          4