##TITLE=Library Entry 107987
##JCAMP-DX=Revision 4.10 
##DATA TYPE=MASS SPECTRUM
##SAMPLE DESCRIPTION=Japan AIST/NIMC Database- Spectrum MS-NW-5285
##NAMES=HP
##CAS NAME=Dioctyl 4-cyclohexene-1,2-dicarboxylate
##MOLFORM=C24H42O4
##CAS REGISTRY NO=57998-43-3
##MP= -300
##BP= -300
##MW= 394
##$RETENTION INDEX=0
##$CONDENSED SPECTRUM=NO
##NPOINTS= 128
##XYDATA=(XY..XY) 1 
    15          1
    26          2
    27         51
    28         12
    29        140
    30          3
    31          3
    39         31
    40          7
    41        262
    42         58
    43        474
    44         14
    45          1
    47          5
    50          1
    51          4
    52          5
    53         18
    54         15
    55        163
    56         48
    57        377
    58         15
    61          1
    65          4
    66          4
    67         22
    68         10
    69         83
    70         25
    71        233
    72         12
    73          1
    77         38
    78        193
    79        497
    80         76
    81         36
    82         11
    83         30
    84         16
    85         48
    86          3
    91          4
    92          1
    93          3
    94          1
    95          5
    96          5
    97         44
    98          4
    99          7
   101          3
   102          2
   105          6
   106          5
   107         36
   108         13
   109          2
   110          3
   111          9
   112         29
   113         22
   114          1
   119          1
   121          1
   122          5
   123         51
   124        999
   125        110
   126         13
   127          2
   129          3
   133          2
   137         12
   138          4
   139          1
   140          6
   141         11
   142          1
   145          1
   147          2
   149          1
   151          3
   152        171
   153        220
   154         18
   155          2
   157          3
   165          1
   166          1
   169          1
   170          1
   171          2
   173          1
   179          1
   180          1
   193          1
   201          2
   207          1
   208         54
   209          8
   210          1
   211          1
   235          3
   236        415
   237         71
   238          8
   239          1
   255          1
   263          1
   264        158
   265         62
   266          9
   267          1
   282          3
   283          9
   284          1
   292         18
   293          9
   294          1
   311          2
   366          4
   367          2
   394         19
   395          9
   396          2