##TITLE=Library Entry 14542
##JCAMP-DX=Revision 4.10 
##DATA TYPE=MASS SPECTRUM
##SAMPLE DESCRIPTION=NIST Mass Spectrometry Data Center, 1998.
##NAMES=HP
##CAS NAME=17.alpha.-Methyltestosterone
##MOLFORM=C20H30O2
##CAS REGISTRY NO=58-18-4
##MP= -300
##BP= -300
##MW= 302
##$RETENTION INDEX=2691
##$CONDENSED SPECTRUM=NO
##NPOINTS= 227
##XYDATA=(XY..XY) 1 
    15          3
    26          2
    27         52
    29        100
    30          2
    31         12
    38          3
    39        133
    40         34
    41        449
    42         36
    43        999
    44         28
    45         43
    50          7
    51         45
    52         33
    53        232
    54         40
    55        483
    56         28
    57        149
    58        130
    59         36
    63         12
    64         11
    65        146
    66         59
    67        446
    68         66
    69        124
    70         14
    71        427
    72         74
    73          6
    74          3
    76          4
    77        428
    78         97
    79        635
    80         92
    81        315
    82         40
    83         96
    84         10
    85         39
    86         10
    87         14
    88          2
    89         10
    90          5
    91        713
    92        118
    93        433
    94        112
    95        351
    96         77
    97        139
    98         15
    99         21
   100          7
   101          7
   102         10
   103         73
   104         43
   105        500
   106        137
   107        446
   108        209
   109        383
   110         63
   111         82
   112         10
   113         24
   114          5
   115        101
   116         45
   117        172
   118         60
   119        346
   120        203
   121        491
   122        411
   123        342
   124        838
   125        103
   126          9
   127         23
   128         69
   129         89
   130         40
   131        190
   132         64
   133        239
   134        160
   135        173
   136        105
   137        204
   138         45
   139          7
   140          7
   141         32
   142         32
   143         83
   144         44
   145        182
   146         76
   147        210
   148        183
   149        246
   150         47
   151         22
   152         10
   153         11
   154          9
   155         27
   156         23
   157         78
   158         46
   159        157
   160        102
   161        324
   162        106
   163         93
   164         17
   165         28
   166         12
   167         11
   168          7
   169         25
   170         20
   171         64
   172         31
   173         96
   174         82
   175         79
   176         38
   177         22
   178         21
   179        127
   180         19
   181         12
   182          6
   183         23
   184         20
   185         70
   186         41
   187        189
   188         58
   189        104
   190         35
   191          9
   192          2
   194          2
   195          9
   196          6
   197         21
   198         49
   199        133
   200         96
   201         80
   202        273
   203         73
   204         28
   205          5
   209         20
   210         10
   211         80
   212         18
   213         97
   214         32
   215         31
   216         23
   217        139
   218         24
   219          3
   220          1
   223          7
   224         11
   225         16
   226         69
   227        137
   228         65
   229        422
   230         80
   231         63
   232         47
   233          8
   237          4
   238          3
   239          5
   240         63
   241         76
   242        118
   243         31
   244         77
   245        295
   246         57
   247          6
   251         21
   252          6
   255          9
   256          7
   258          6
   259          8
   260         59
   261         10
   266         18
   267         10
   268          3
   269         98
   270         21
   271          3
   273          4
   274          5
   282          2
   283          5
   284        151
   285         40
   286          8
   287        126
   288         24
   289          3
   302        990
   303        222
   304         27
   305          3