##TITLE=Library Entry 22694
##JCAMP-DX=Revision 4.10 
##DATA TYPE=MASS SPECTRUM
##SAMPLE DESCRIPTION=NIST Mass Spectrometry Data Center, 1998.
##NAMES=HP
##CAS NAME=Aminopyrine
##MOLFORM=C13H17N3O
##CAS REGISTRY NO=58-15-1
##MP= -300
##BP= -300
##MW= 231
##$RETENTION INDEX=1890
##$CONDENSED SPECTRUM=NO
##NPOINTS= 147
##XYDATA=(XY..XY) 1 
    15         17
    26          2
    27          9
    28         21
    29         15
    30          7
    37          3
    38          9
    39         28
    40         11
    41         22
    42         81
    43         19
    44         14
    45          5
    50         11
    51         49
    52         14
    53          6
    54         41
    55         65
    56        999
    57         52
    58          6
    61          1
    62          4
    63         21
    64         40
    65         18
    66         23
    67         41
    68         64
    69         19
    70         60
    71         96
    72         10
    73          1
    74          3
    75          3
    76          8
    77        137
    78         13
    79          3
    80          8
    81          8
    82         54
    83         48
    84         15
    85          8
    86          1
    87          1
    88          1
    89          2
    90          6
    91         55
    92          9
    93          6
    94          4
    95          9
    96         14
    97        546
    98         41
    99          3
   101          1
   102          2
   103          9
   104         24
   105         17
   106         13
   107          2
   108          1
   109         12
   110         11
   111        192
   112         53
   113          4
   114          1
   115         22
   117          4
   118         11
   119         35
   120          6
   121         20
   122          4
   123         80
   124          6
   125          3
   126          5
   127          1
   128          2
   129          2
   130          6
   131         14
   132         30
   133          6
   134          3
   135          1
   136          1
   137         15
   138          3
   139          2
   140          1
   142          1
   143          2
   144          4
   145          8
   146          4
   147         25
   148          4
   154          9
   155          1
   156          2
   157          2
   158          3
   159          9
   160          7
   161          9
   162          1
   170          1
   171          2
   172          2
   173         12
   174          2
   175         14
   176          2
   184          1
   185         10
   186          3
   187          7
   188          8
   189          2
   198          3
   199          7
   200          3
   201          5
   202          3
   203          1
   212          1
   214          1
   215          1
   216         25
   217          4
   228          1
   230         73
   231        502
   232         78
   233          7