##TITLE=Library Entry 21452
##JCAMP-DX=Revision 4.10 
##DATA TYPE=MASS SPECTRUM
##SAMPLE DESCRIPTION=Dr. P.K. Shah, NYC Police Laboratory, NY
##NAMES=HP
##CAS NAME=Testosterone cypionate
##MOLFORM=C27H40O3
##CAS REGISTRY NO=58-20-8
##MP= -300
##BP= -300
##MW= 412
##$RETENTION INDEX=0
##$CONDENSED SPECTRUM=NO
##NPOINTS= 178
##XYDATA=(XY..XY) 1 
    39         79
    40         20
    41        425
    42         51
    43        153
    44         10
    45          7
    51         13
    52         10
    53         97
    54         54
    55        999
    56         61
    57         44
    60         22
    65         48
    66         23
    67        282
    68         52
    69        238
    70         17
    71         24
    73         24
    77        139
    78         39
    79        446
    80         71
    81        377
    82         48
    83         94
    84          9
    85         10
    86          7
    91        293
    92         53
    93        236
    94        106
    95        251
    96         70
    97        175
    98         16
    99         11
   101          7
   103         20
   104         21
   105        242
   106         57
   107        487
   108         83
   109        159
   110         39
   111         59
   112          6
   115         32
   116         12
   117         80
   118         33
   119        151
   120         58
   121        128
   122        102
   123        203
   124        983
   125        489
   126         42
   127          8
   128         23
   129         42
   130         21
   131        138
   132         50
   133        173
   134        144
   135         99
   136         53
   137         77
   138         31
   141         20
   142         17
   143         50
   144         63
   145        122
   146        256
   147        707
   148        166
   149        123
   150         24
   151         11
   155         14
   156         10
   157         47
   158         29
   159         72
   160         43
   161         82
   162         51
   163         42
   164         19
   165         26
   167          6
   169         16
   170          8
   171         37
   172         34
   173         46
   174         42
   175         43
   176         24
   177         20
   178          6
   181          6
   183         17
   184         12
   185        121
   186         40
   187         37
   188         18
   189         23
   190          7
   195         11
   197         21
   198          8
   199         36
   200         26
   201         20
   202          8
   203         13
   207         12
   209         12
   211         18
   212          9
   213         74
   214         24
   215         16
   217          6
   224          7
   225         10
   226         14
   227         56
   228        229
   229         86
   230        235
   231         60
   232          9
   237         21
   241         16
   242         24
   243         21
   244         16
   245         69
   246         26
   251          8
   252         34
   253         63
   254         14
   255         56
   256         12
   257         10
   260         46
   261          9
   269         12
   270        113
   271        196
   272         42
   273         67
   274         12
   287         18
   288        172
   289         47
   290          6
   327         26
   328         23
   330         10
   370         96
   371         27
   397         13
   412        117
   413         40