##TITLE=Library Entry 90140
##JCAMP-DX=Revision 4.10 
##DATA TYPE=MASS SPECTRUM
##SAMPLE DESCRIPTION=NIST Mass Spectrometry Data Center, 1998.
##NAMES=HP
##CAS NAME=Prochlorperazine
##MOLFORM=C20H24ClN3S
##CAS REGISTRY NO=58-38-8
##MP= -300
##BP= -300
##MW= 373
##$RETENTION INDEX=2952
##$CONDENSED SPECTRUM=NO
##NPOINTS= 263
##XYDATA=(XY..XY) 1 
    15          5
    26          2
    27         10
    28         33
    29         20
    30         18
    31          1
    36          2
    38          1
    39         14
    40          3
    41         71
    42        358
    43        391
    44        148
    45         21
    50          5
    51         11
    52          4
    53          3
    54         25
    55         41
    56        195
    57         93
    58        158
    59         13
    62          3
    63         16
    64          3
    65          8
    67          3
    68         21
    69         44
    70        888
    71        216
    72         52
    73          5
    74          3
    75         11
    76          7
    77         18
    78          4
    79          4
    80          4
    81          7
    82         40
    83         49
    84         76
    85         99
    86         15
    87          2
    88          2
    89          6
    90          3
    91          4
    92          2
    93          5
    94          5
    95         16
    96         35
    97         63
    98        112
    99         88
   100         13
   101          9
   102          5
   103          4
   104          3
   105          6
   107          6
   108         16
   109         13
   110          5
   111         96
   112         25
   113        999
   114        105
   115          9
   116          3
   117          3
   118          2
   119          3
   120          4
   121          3
   122          2
   123          5
   124          6
   125         19
   126         15
   127        195
   128         22
   129          3
   130          4
   132          1
   133          3
   134          4
   135          2
   136          4
   137          5
   138          8
   139         55
   140         19
   141        470
   142         44
   143          4
   144          2
   145          4
   146          5
   147          2
   148          2
   149          3
   150          4
   151         16
   152         35
   153         26
   154          9
   155          2
   157          1
   158          3
   159          2
   160          2
   161          2
   162          5
   163          3
   164         19
   165         12
   166         16
   167         20
   168          5
   169          8
   170         11
   171         11
   172          4
   173          4
   174          3
   175          3
   176          4
   177         15
   178         21
   179         23
   180         11
   181          3
   182          5
   183         11
   184         15
   185          5
   186          4
   187          5
   188         23
   189          5
   190          9
   191          8
   192          4
   193          2
   194          3
   195          3
   196         60
   197         61
   198         40
   199         13
   200         20
   201         14
   202          8
   203          5
   204         10
   205         11
   206          7
   207          5
   208          4
   209         12
   210         29
   211         43
   212         65
   213         37
   214        182
   215         35
   216         58
   217          9
   218          5
   219          2
   220          3
   221          1
   222          4
   223         30
   224         16
   225         15
   226          6
   227          5
   228          6
   229          2
   230          3
   231          9
   232        221
   233        123
   234         96
   235         44
   236         16
   237         10
   238         20
   239         17
   240          9
   241          5
   242          3
   243          1
   244         11
   245          8
   246        124
   247         89
   248         56
   249         31
   250          6
   251          2
   253          1
   257          6
   258         28
   259         65
   260         81
   261         32
   262         27
   263          5
   264          1
   266          1
   268          3
   270          2
   271          2
   272        177
   273         92
   274         78
   275         33
   276          6
   277          2
   286          2
   287          2
   288          1
   301          2
   302          9
   303          4
   304          4
   305          1
   314          2
   315          3
   316         21
   317          7
   318          7
   319          2
   329         19
   330          5
   331          7
   332          2
   337          2
   338          9
   339          3
   344          2
   358          4
   360          1
   371          5
   372          3
   373        393
   374         92
   375        167
   376         35
   377         10
   378          2