##TITLE=Library Entry 29421
##JCAMP-DX=Revision 4.10 
##DATA TYPE=MASS SPECTRUM
##SAMPLE DESCRIPTION=NIST Mass Spectrometry Data Center
##NAMES=HP
##CAS NAME=Promazine
##MOLFORM=C17H20N2S
##CAS REGISTRY NO=58-40-2
##MP= -300
##BP= -300
##MW= 284
##$RETENTION INDEX=2322
##$CONDENSED SPECTRUM=NO
##NPOINTS= 186
##XYDATA=(XY..XY) 1 
    15          2
    27          3
    28          4
    29          7
    30         25
    38          1
    39         12
    40          2
    41         12
    42         67
    43         21
    44         39
    45         16
    46          1
    47          1
    50          7
    51         13
    52          3
    53          1
    54          2
    55          2
    56         19
    57         25
    58        999
    59         44
    60          1
    62          3
    63         13
    64          3
    65         11
    66          1
    67          1
    68          3
    69         20
    70         39
    71         18
    72         23
    73          2
    74          3
    75          6
    76          6
    77         19
    78          5
    79          1
    80          1
    81          1
    82          8
    83          2
    84         39
    85         95
    86        231
    87         15
    88          2
    89          7
    90          3
    91          5
    92          1
    93          4
    94          2
    95          6
    96          3
    97          1
    98          3
   101          5
   102          5
   103          3
   104          3
   105          2
   106          2
   107          1
   108         11
   109         12
   110          2
   111          1
   113          4
   114          4
   115          8
   116          4
   117          3
   118          1
   119          1
   120          3
   121          4
   122          2
   123          1
   124          2
   125          3
   126          8
   127         28
   128         19
   129          2
   130          6
   131          1
   132          1
   133          1
   134          4
   135          2
   136          3
   137          2
   138          4
   139         22
   140         18
   141          3
   142          3
   144          1
   145          3
   146          4
   147          2
   148          5
   149          1
   150          3
   151         11
   152         32
   153         19
   154         48
   155          6
   156          1
   158          2
   159          3
   160          1
   162          1
   163          1
   164          8
   165          6
   166         27
   167         23
   168          4
   169          3
   170          5
   171         21
   172          8
   173          3
   174          1
   176          1
   177          3
   178         13
   179         22
   180         99
   181         15
   182          2
   183          5
   184         11
   185          3
   186          1
   190          1
   191          4
   192          3
   193          6
   194          5
   195          2
   196         14
   197         27
   198        135
   199        143
   200         25
   201          8
   202          1
   204          6
   205          3
   206          8
   207          2
   208          1
   209          2
   210         13
   211          7
   212         51
   213         31
   214          6
   215          2
   222          2
   223         13
   224         19
   225         15
   226         18
   227          3
   228          1
   236          2
   238        179
   239         53
   240         15
   241          3
   281          1
   284        267
   285         54
   286         16
   287          3