##TITLE=Library Entry 28555
##JCAMP-DX=Revision 4.10 
##DATA TYPE=MASS SPECTRUM
##SAMPLE DESCRIPTION=Virginia Division of Forensic Science
##NAMES=HP
##CAS NAME=Benadryl
##MOLFORM=C17H21NO
##CAS REGISTRY NO=58-73-1
##MP= -300
##BP= -300
##MW= 255
##$RETENTION INDEX=1871
##$CONDENSED SPECTRUM=NO
##NPOINTS= 131
##XYDATA=(XY..XY) 1 
    14          1
    15          6
    16          1
    19          1
    25          1
    26          1
    27          4
    28          3
    29          9
    30         26
    31          1
    37          1
    38          1
    39         10
    40          1
    42         69
    43         18
    44         35
    45         63
    46          1
    50          7
    51         23
    52          3
    53          1
    54          1
    55          2
    56         18
    58        999
    59         37
    60          1
    61          1
    62          3
    63         10
    64          2
    65          6
    66          1
    68          1
    70          6
    71          6
    73        170
    74         11
    75          3
    76          5
    77         37
    78          6
    79          1
    80          1
    82          3
    83          3
    86          4
    87          2
    88          4
    89         11
    90          3
    91          5
    92          1
    93          1
    98          1
    99          1
   100          1
   101          1
   102          3
   103          1
   105         13
   106          1
   107          1
   109          1
   110          1
   111          1
   112          1
   113          2
   115         17
   116          1
   117          1
   118          1
   119          1
   120          1
   121          1
   122          1
   123          1
   126          3
   127          2
   128          8
   129          1
   130          1
   131          1
   132          1
   133          1
   134          1
   135          1
   137          1
   139         13
   140          1
   141          3
   142          1
   146          1
   147          1
   148          1
   150          1
   152         58
   153          9
   154          1
   155          1
   156          1
   159          1
   161          1
   163         11
   165        152
   166         55
   167         62
   168          9
   169          1
   176          1
   177          1
   178          1
   179          1
   180          1
   181          1
   182          1
   183          1
   184          1
   195          1
   196          1
   208          1
   209          1
   223          1
   224          1
   227          4
   228          1
   255          1
   256          1