##TITLE=Library Entry 41094
##JCAMP-DX=Revision 4.10 
##DATA TYPE=MASS SPECTRUM
##SAMPLE DESCRIPTION=Japan AIST/NIMC Database- Spectrum MS-IW-4308
##NAMES=HP
##CAS NAME=Xylose
##MOLFORM=C5H10O5
##CAS REGISTRY NO=58-86-6
##MP= -300
##BP= -300
##MW= 150
##$RETENTION INDEX=0
##$CONDENSED SPECTRUM=NO
##NPOINTS= 97
##XYDATA=(XY..XY) 1 
    12          2
    13          6
    14         31
    15        167
    16          4
    17         43
    18        226
    19         16
    24          1
    25          5
    26         24
    27         64
    28        123
    29        401
    30        151
    31        797
    32        504
    33         57
    34          2
    36          1
    37          2
    38          4
    39         21
    40         18
    41         35
    42        245
    43        644
    44        176
    45        100
    46          4
    47         36
    49          3
    51          1
    52          1
    53          5
    54         13
    55         71
    56         55
    57        156
    58         49
    59         18
    60        825
    61        531
    62         27
    63          3
    67          1
    68         26
    69         32
    70          5
    71        154
    72        268
    73        999
    74         87
    75         10
    76          2
    77          6
    78          1
    79          2
    81          1
    82          1
    83          9
    84          5
    85         40
    86         62
    87          9
    88          3
    89         15
    90         27
    91         54
    92          2
    93          1
    95          3
    96          6
    97          5
    98          4
    99          1
   101         36
   102         17
   103         42
   104          4
   105          2
   107          1
   110          1
   111          1
   113          1
   114         11
   115          9
   116          1
   119         30
   120          2
   121          2
   132          1
   133         15
   134          1
   135          6
   136          1
   149          2