##TITLE=Library Entry 90179
##JCAMP-DX=Revision 4.10 
##DATA TYPE=MASS SPECTRUM
##SAMPLE DESCRIPTION=R.SELF AGRICULTURAL RES., FOOD RES. INSTITUTE, NORWICH,
 U.K.
##NAMES=HP
##CAS NAME=Uridine
##MOLFORM=C9H12N2O6
##CAS REGISTRY NO=58-96-8
##MP= -300
##BP= -300
##MW= 244
##$RETENTION INDEX=0
##$CONDENSED SPECTRUM=NO
##NPOINTS= 66
##XYDATA=(XY..XY) 1 
    26         45
    27         68
    28         14
    29         86
    30         22
    31        145
    32         10
    39         32
    40         50
    41         86
    42         63
    43        173
    45        145
    47         16
    53         28
    54         63
    55        195
    56         68
    57        622
    58         63
    59         22
    60         59
    61        114
    68         73
    69        218
    70        132
    71        140
    72         14
    73        818
    74         55
    75         36
    81         32
    82         50
    83         36
    84         41
    85        109
    86        182
    87         32
    95         36
    96         59
    97         55
    98        140
   101         14
   103         63
   104         28
   110         42
   112        159
   113        999
   114        100
   115        114
   132         91
   139         45
   141        182
   142         27
   152         23
   153         23
   154         14
   155         45
   166         22
   171        123
   179         22
   183         22
   209         22
   226        145
   227         22
   244         32