##TITLE=Library Entry 13348
##JCAMP-DX=Revision 4.10 
##DATA TYPE=MASS SPECTRUM
##SAMPLE DESCRIPTION=H. Fales, LC, NHLBI, NIH, Bethesda, MD 20892
##NAMES=HP
##CAS NAME=2H-Cyclohepta[b]furan-2-one, 6-[1-(acetyloxy)-3-oxobutyl]-3,3a,4,
7,8,8a-hexahydro-7-methyl-3-methylene-
##MOLFORM=C17H22O5
##CAS REGISTRY NO=580-49-4
##MP= -300
##BP= -300
##MW= 306
##$RETENTION INDEX=2383
##$CONDENSED SPECTRUM=NO
##NPOINTS= 203
##XYDATA=(XY..XY) 1 
    41         97
    42          9
    43        999
    44          6
    45         66
    46          2
    47          0
    49          1
    50          4
    51         21
    52         12
    53         69
    54         10
    55         68
    56          7
    57         21
    58         10
    59          3
    60         33
    61          4
    62          1
    63          8
    64          0
    65         43
    66         19
    67         58
    68         16
    69         38
    70          5
    71         19
    72          3
    73          2
    74          0
    75          2
    76          0
    77         70
    78         28
    79        105
    80         16
    81         44
    82         26
    83         16
    84         10
    85         13
    86          2
    87          4
    88          0
    89          3
    91         88
    92         14
    93         54
    94         25
    95         42
    96         10
    97         17
    98          4
    99          3
   100          1
   101          1
   102          2
   103         15
   104          7
   105         50
   106         21
   107         32
   108         19
   109         39
   110         22
   111         15
   112          3
   113          4
   114          0
   115         17
   116         10
   117         35
   118         11
   119         39
   120         11
   121         32
   122         34
   123         34
   124         13
   125          6
   126          2
   127          4
   128          9
   129         17
   130          7
   131         34
   132         13
   133         40
   134         18
   135         68
   136         32
   137         13
   138          3
   139          4
   140          2
   141          5
   142          7
   143         21
   144          8
   145         19
   146          8
   147         30
   148         45
   149         37
   150         12
   151          5
   152          3
   153          4
   154          1
   155          3
   156          1
   157         16
   158          9
   159         36
   160         29
   161         51
   162         42
   163         21
   164          7
   165          6
   166          3
   167          4
   168          1
   169          2
   170          2
   171          7
   172          2
   173         13
   174          4
   175         42
   176         83
   177         40
   178         10
   179          4
   180          2
   181          1
   182          1
   183          2
   184          0
   185          9
   186         10
   187          9
   188        132
   189         81
   190         10
   191          5
   192          1
   193          1
   194          0
   195          1
   197          0
   199          3
   200          4
   201          6
   202          4
   203         28
   204         98
   205         29
   206         11
   207          7
   208          1
   209          1
   210          1
   211          1
   213          7
   214          0
   215          0
   217          3
   218          5
   219          2
   221          5
   222          2
   223          1
   225          1
   226          0
   227          1
   228         26
   229         10
   230          1
   231         14
   232          2
   233          0
   235          1
   239          0
   240          0
   245          3
   246         76
   247         26
   248          4
   249          2
   250          0
   254          0
   260          0
   263          2
   264         11
   265          2
   266          0
   305          1
   306          4
   307          0