##TITLE=Library Entry 8223
##JCAMP-DX=Revision 4.10 
##DATA TYPE=MASS SPECTRUM
##SAMPLE DESCRIPTION=Philip Morris R&D
##NAMES=HP
##CAS NAME=trans-5-Isopropyl-6,7-epoxy-8-hydroxy-8-methylnonan-2-one
##MOLFORM=C13H24O3
##CAS REGISTRY NO=58002-07-6
##MP= -300
##BP= -300
##MW= 228
##$RETENTION INDEX=0
##$CONDENSED SPECTRUM=NO
##NPOINTS= 96
##XYDATA=(XY..XY) 1 
    38          6
    39         55
    40         18
    41        193
    42         22
    43        999
    44         46
    45         28
    47          3
    51          4
    52          2
    53         30
    54          9
    55        158
    56         29
    57        112
    58         79
    59        437
    60         17
    61         21
    65          6
    66          4
    67         59
    68         15
    69        143
    70         51
    71        232
    72        151
    73         17
    74          5
    77          7
    79         19
    80          4
    81        205
    82         67
    83        205
    84         30
    85         50
    86          7
    87         11
    91          7
    93         38
    94         12
    95         76
    96         13
    97        307
    98         24
    99         70
   100         11
   101          8
   105          3
   107         48
   108         11
   109        101
   110         14
   111         42
   112        383
   113         44
   114          6
   115          4
   116          4
   119          6
   120          2
   121         46
   122         13
   123         53
   124         13
   125         30
   126          9
   127         53
   128          5
   133          4
   134          4
   135         16
   136          4
   137         26
   138          6
   139         82
   140         50
   141         10
   142          2
   149          9
   150          2
   151         12
   152         10
   153         10
   155          7
   157         32
   158          3
   159          2
   167          6
   169         14
   170          9
   177          3
   195          6
   213          3