##TITLE=Library Entry 65863
##JCAMP-DX=Revision 4.10 
##DATA TYPE=MASS SPECTRUM
##SAMPLE DESCRIPTION=NIST Mass Spectrometry Data Center
##NAMES=HP
##CAS NAME=Methylthio(methylthio-methyl)sulfone,
##MOLFORM=C3H8O2S3
##CAS REGISTRY NO=58000-45-6
##MP= -300
##BP= -300
##MW= 172
##$RETENTION INDEX=1404
##$CONDENSED SPECTRUM=NO
##NPOINTS= 27
##XYDATA=(XY..XY) 1 
    33          2
    35         20
    45        263
    46         98
    47         66
    48         20
    49         19
    59         13
    61        224
    62          9
    63         52
    64         37
    65         15
    76          5
    77         11
    78         38
    79         52
    80         10
    81         16
    92         75
    93        999
    94         48
    95         87
   125         11
   127          4
   172         23
   174          3