##TITLE=Library Entry 44735
##JCAMP-DX=Revision 4.10 
##DATA TYPE=MASS SPECTRUM
##SAMPLE DESCRIPTION=NIST Mass Spectrometry Data Center
##NAMES=HP
##CAS NAME=Hexacosanoic acid, methyl ester
##MOLFORM=C27H54O2
##CAS REGISTRY NO=5802-82-4
##MP= -300
##BP= -300
##MW= 410
##$RETENTION INDEX=2935
##$CONDENSED SPECTRUM=NO
##NPOINTS= 211
##XYDATA=(XY..XY) 1 
    15          3
    26          1
    27         20
    28         16
    29         71
    30          2
    31          5
    33          1
    37          1
    38          1
    39         19
    40          4
    41        259
    42         66
    43        605
    44         31
    45         11
    50          1
    53         13
    54         32
    55        425
    56         98
    57        490
    58         26
    59         77
    60          5
    61          5
    65          2
    66          1
    67         48
    68         22
    69        219
    70         51
    71        164
    72         12
    73         27
    74        999
    75        383
    76         17
    77          3
    78          1
    79          9
    80          5
    81         45
    82         20
    83        160
    84         54
    85         93
    87        816
    88         62
    89          7
    91          2
    93          9
    94          4
    95         41
    96         19
    97        139
    98         53
    99         21
   100          1
   101         69
   102          8
   106          1
   107         11
   108          2
   109         23
   110          9
   111         59
   112         13
   113         10
   114          4
   115         26
   116         19
   117          2
   119          1
   121         16
   122          1
   123         13
   124          5
   125         31
   126          5
   127          5
   128          1
   129         89
   130         26
   131          3
   135         18
   136          3
   137          7
   138          3
   139         14
   140          3
   141          3
   143        280
   144         27
   145          2
   149         10
   150          2
   151          3
   152          2
   153          9
   154          2
   155          1
   157         23
   158          4
   159          1
   161          1
   163          5
   164          1
   165          1
   167          6
   168          2
   169          1
   170          1
   171          8
   172          4
   175          1
   177          4
   180          1
   181          4
   182          2
   183          1
   184          1
   185         37
   186          6
   191          2
   193          1
   194          1
   195          3
   196          1
   197          1
   199         56
   200          8
   201          2
   205          2
   209          2
   210          1
   213          9
   214          2
   219          1
   222          1
   223          3
   224          2
   227          8
   228          3
   233          1
   235          1
   237          1
   238          1
   241         13
   242          3
   243          1
   247          1
   249          1
   251          2
   252          1
   255         24
   256          5
   257          1
   264          1
   265          1
   266          1
   267          1
   269         13
   270          3
   275          1
   279          1
   280          1
   282          1
   283          7
   284          2
   293          2
   294          1
   297          9
   298          3
   307          1
   308          1
   311         42
   312         11
   313          2
   317          1
   321          1
   325         19
   326          6
   327          1
   334          1
   335          1
   336          1
   339          4
   340          1
   352          1
   353         13
   354          5
   359          1
   361          1
   363          1
   367         84
   368         23
   369          2
   370          1
   377          2
   378          1
   379         15
   380          6
   381         10
   382          2
   383          1
   410        214
   411         64
   412          9
   413          1