##TITLE=Library Entry 14346
##JCAMP-DX=Revision 4.10 
##DATA TYPE=MASS SPECTRUM
##SAMPLE DESCRIPTION=H. BREUNIG,FAC. BIOL./CHEM.,ANORG. CHEM.,BREMEN UNIV.,W
. GER.
##NAMES=HP
##CAS NAME=Triisopropylantimony dichloride
##MOLFORM=C9H21Cl2Sb
##CAS REGISTRY NO=58037-60-8
##MP= -300
##BP= -300
##MW= 320
##$RETENTION INDEX=0
##$CONDENSED SPECTRUM=NO
##NPOINTS= 33
##XYDATA=(XY..XY) 1 
    43        999
   136         40
   138         30
   164        160
   165        180
   166        240
   167        270
   201         80
   203         85
   205         16
   206         80
   207        140
   208          6
   209        112
   232         20
   234         12
   236          8
   238          0
   242        160
   244        162
   246         32
   250        220
   252        179
   277        680
   279        750
   281        430
   283         75
   285        300
   287        340
   289         60
   320         10
   322         12
   324          7