##TITLE=Library Entry 87446
##JCAMP-DX=Revision 4.10 
##DATA TYPE=MASS SPECTRUM
##SAMPLE DESCRIPTION=Div. of Experiment Therapeutics WRAIR, WRAMC, Washingto
n DC 20307
##NAMES=HP
##CAS NAME=1-[.beta.-Hydroxyethyl]-5-amino-4-pyrazole carboxamide
##MOLFORM=C6H10N4O2
##CAS REGISTRY NO=58046-52-9
##MP= -300
##BP= -300
##MW= 170
##$RETENTION INDEX=0
##$CONDENSED SPECTRUM=NO
##NPOINTS= 69
##XYDATA=(XY..XY) 1 
    41         97
    42        136
    43        165
    44        182
    45         84
    46          2
    51          7
    52        232
    53        169
    54        135
    55        245
    56         17
    57          8
    58          1
    59          3
    60          3
    62          3
    64          3
    65         15
    66         37
    67        124
    68        170
    69         68
    70         28
    72          5
    77          2
    78          1
    79          5
    80         17
    81         13
    82          6
    83         11
    84         28
    85         11
    87          2
    92          1
    93         12
    94         87
    95        130
    96         25
    97          8
   106          3
   108         12
   109        413
   110        999
   111         45
   112          4
   122        497
   123         80
   124          1
   126        867
   127         56
   128          2
   134          5
   136         21
   137          7
   139        161
   140         41
   141          3
   142          0
   152         25
   153         23
   154        227
   155          8
   156          1
   169          8
   170        632
   171         64
   172          0