##TITLE=Library Entry 14900
##JCAMP-DX=Revision 4.10 
##DATA TYPE=MASS SPECTRUM
##SAMPLE DESCRIPTION=LAC, NIDDK, NIH, Bethesda, MD 20892
##NAMES=HP
##CAS NAME=Anthiaergosatn-5,7,9,22-tetraen, 3-acetoxy-
##MOLFORM=C30H44O2
##CAS REGISTRY NO=58046-92-7
##MP= -300
##BP= -300
##MW= 436
##$RETENTION INDEX=0
##$CONDENSED SPECTRUM=NO
##NPOINTS= 231
##XYDATA=(XY..XY) 1 
    41        190
    42          8
    43        999
    44         46
    45         22
    47         14
    48          5
    49         60
    51         23
    53         32
    54         24
    55        377
    56         24
    57         89
    58          8
    59         18
    60          5
    61         11
    65         12
    66          5
    67         84
    69        356
    70         53
    71         43
    77         31
    78          7
    79         52
    80          7
    81        141
    82         30
    83        100
    84         53
    85         21
    86         28
    87          5
    91         59
    92          9
    93         48
    94         11
    95         64
    96         17
    97         29
    98          9
    99         26
   103          8
   104          6
   105         45
   106          8
   107         38
   108          7
   109         34
   110          7
   111         12
   115         29
   116         10
   117         37
   118          8
   119         20
   121         16
   123         22
   124         13
   125         48
   126          7
   127         12
   128         29
   129         35
   130         10
   131         22
   133         12
   135         10
   137          7
   139          5
   141         43
   142         30
   143         42
   144         12
   145         23
   146          5
   147         10
   149          5
   151          7
   152         15
   153         30
   154         23
   155         76
   156         27
   157         75
   158         14
   159         12
   165         55
   166         30
   167         53
   168         26
   169         49
   170         18
   171         19
   173          7
   178         26
   179         53
   180         30
   181         57
   182         28
   183         52
   184         14
   185         13
   189          5
   191         15
   192         17
   193         59
   194         45
   195        121
   196         47
   197         59
   198         12
   199          7
   203          9
   204          7
   205         18
   206         15
   207         85
   208         39
   209        109
   210         34
   211         32
   212          9
   213          8
   215          5
   217          8
   218          6
   219         18
   220         11
   221         38
   222         18
   223         46
   224         35
   225         27
   226          6
   227          6
   231          5
   232          5
   233         24
   234         18
   235         79
   236         34
   237         43
   238         11
   239          8
   245          5
   247         21
   248         18
   249         90
   250         47
   251        170
   252         42
   253         13
   261          8
   262          5
   263         25
   264         10
   265         17
   266          9
   267         11
   268          6
   275         10
   276          7
   277         39
   278         33
   279         22
   280         10
   281          7
   289          6
   291         16
   292         10
   293         15
   294         28
   295         18
   296         16
   297          5
   303          6
   305         10
   306         14
   307         13
   308         14
   309         14
   310          8
   311          6
   317          7
   319          5
   321          8
   322         20
   323         10
   324          9
   331         11
   332          7
   333         21
   334         13
   335          6
   336          6
   337         10
   338         16
   339          6
   347         12
   348         33
   349         18
   350          5
   359          6
   360          6
   361         38
   362         12
   363          5
   364          6
   373          5
   374         12
   375        150
   376        933
   377        295
   378         55
   379          9
   381          5
   390          5
   391          5
   392         16
   393          7
   394          7
   407         10
   408         11
   409         10
   435         19
   436        127
   437         45
   438         12