##TITLE=Library Entry 53882
##JCAMP-DX=Revision 4.10 
##DATA TYPE=MASS SPECTRUM
##SAMPLE DESCRIPTION=V.G. Zaikin, TIPS RAS, Moscow, Russia
##NAMES=HP
##CAS NAME=1-Pyrrolidinyl-2-triethylsilylethane
##MOLFORM=C12H27NSi
##CAS REGISTRY NO=5804-90-0
##MP= -300
##BP= -300
##MW= 213
##$RETENTION INDEX=0
##$CONDENSED SPECTRUM=NO
##NPOINTS= 41
##XYDATA=(XY..XY) 1 
    29         16
    30         12
    31         24
    40          7
    41         26
    42         54
    43         37
    45         39
    51          7
    53          5
    54          7
    55         47
    56         25
    57         39
    58         34
    59        118
    60          9
    69         11
    70         29
    71         11
    72         14
    73          5
    84        999
    85         69
    86         46
    87         69
    88          5
    96         16
    98         16
   114          9
   115         23
   128          9
   156         67
   157          9
   158          4
   184         15
   185          5
   212          7
   213         19
   214          4
   215          2