##TITLE=Library Entry 98642
##JCAMP-DX=Revision 4.10 
##DATA TYPE=MASS SPECTRUM
##SAMPLE DESCRIPTION=Japan AIST/NIMC Database- Spectrum MS-IW-7056
##NAMES=HP
##CAS NAME=Methyl benzimidazole-2-carboxylate
##MOLFORM=C9H8N2O2
##CAS REGISTRY NO=5805-53-8
##MP= -300
##BP= -300
##MW= 176
##$RETENTION INDEX=0
##$CONDENSED SPECTRUM=NO
##NPOINTS= 71
##XYDATA=(XY..XY) 1 
    15         19
    26          1
    27          3
    28         12
    29          4
    30          1
    31          6
    32          4
    37          7
    38         15
    39         32
    40          5
    41          6
    42          4
    43          1
    44          5
    45          1
    50          8
    51          9
    52         15
    53          2
    58          4
    59         23
    60          1
    61          5
    62         22
    63         69
    64         53
    65         33
    66          4
    67          1
    72          8
    73          1
    74          3
    75          6
    76          8
    77         19
    78          8
    79          2
    87          2
    88         17
    89         31
    90        149
    91         35
    92          6
   102          3
   103          2
   104         14
   105          3
   106          2
   115          6
   116        165
   117         85
   118        999
   119         92
   120          4
   129          1
   130          1
   131         11
   132          8
   133          2
   143          1
   144        542
   145        137
   146         41
   147         10
   148          2
   175          3
   176        798
   177         86
   178          8