##TITLE=Library Entry 44656
##JCAMP-DX=Revision 4.10 
##DATA TYPE=MASS SPECTRUM
##SAMPLE DESCRIPTION=James Little,Eastman Chem.Co.,Kingsport,TN
##NAMES=HP
##CAS NAME=N-Formyl-N'-methylsemithiocarbazide
##MOLFORM=C3H7N3OS
##CAS REGISTRY NO=58064-52-1
##MP= -300
##BP= -300
##MW= 133
##$RETENTION INDEX=0
##$CONDENSED SPECTRUM=NO
##NPOINTS= 36
##XYDATA=(XY..XY) 1 
    27         49
    28        362
    29        247
    30        242
    31        122
    32        336
    42        233
    43         85
    45        145
    46         72
    47        145
    55        108
    57        230
    59        166
    60        442
    61         36
    62         84
    69         24
    72         54
    73         64
    74        999
    75         45
    76         57
    88         25
    90         38
   100         17
   103         59
   105        236
   106         12
   107         12
   115         48
   116         13
   133        407
   134         31
   135         23
   136          3