##TITLE=Library Entry 17530
##JCAMP-DX=Revision 4.10 
##DATA TYPE=MASS SPECTRUM
##SAMPLE DESCRIPTION=RADIAN CORP
##NAMES=HP
##CAS NAME=Silane, dichloro(2-methoxyethyl)methyl-
##MOLFORM=C4H10Cl2OSi
##CAS REGISTRY NO=58066-88-9
##MP= -300
##BP= -300
##MW= 172
##$RETENTION INDEX=0
##$CONDENSED SPECTRUM=NO
##NPOINTS= 88
##XYDATA=(XY..XY) 1 
    14          6
    15         46
    26         19
    27         58
    28         64
    29        166
    30         20
    31         31
    39         11
    41         17
    42         32
    43         76
    44         10
    45        999
    46         25
    53         15
    55          4
    57          2
    58         18
    59         74
    60          6
    63        327
    64         26
    65        130
    66         11
    67          8
    76          6
    77         34
    78         58
    79        138
    80         29
    81         47
    91          4
    92         10
    93          9
    94         13
    95         31
    96          3
    97         11
    98         62
    99        137
   100         48
   101         92
   102         11
   103         18
   105          8
   108         32
   109        543
   110         52
   111        199
   112         84
   113        716
   114         95
   115        493
   116         39
   117         98
   118          2
   119          6
   121         51
   122          1
   123         19
   125         46
   126          2
   127         28
   128          5
   129        680
   130         46
   131        462
   132         28
   133         84
   139          3
   140          1
   141         32
   142          4
   143        339
   144         62
   145        310
   146         47
   147        104
   148         10
   149         11
   157         51
   159         35
   161          4
   171         48
   172          1
   173         33
   175          4