##TITLE=Library Entry 49386
##JCAMP-DX=Revision 4.10 
##DATA TYPE=MASS SPECTRUM
##SAMPLE DESCRIPTION=Humboldt-Universitat zu Berlin, Department of Chemistry
, Analytical Group
##NAMES=HP
##CAS NAME=2-Morpholin-4-yl-acrylnitrile
##MOLFORM=C7H10N2O
##CAS REGISTRY NO=5807-03-4
##MP= -300
##BP= -300
##MW= 138
##$RETENTION INDEX=0
##$CONDENSED SPECTRUM=NO
##NPOINTS= 82
##XYDATA=(XY..XY) 1 
    12          4
    13          8
    14         54
    15        237
    16          9
    17         16
    18         58
    19          7
    24          3
    25         14
    26        207
    27        447
    28        888
    29        314
    30        109
    31         70
    32          1
    36          1
    37         12
    38         25
    39         84
    40         83
    41        187
    42        494
    43         85
    44         21
    45         32
    49          4
    50          8
    51         75
    52        377
    53        730
    54        207
    55        138
    56         92
    57         95
    58         13
    59          1
    63          1
    64          4
    65          5
    66         49
    67         41
    68        105
    69        348
    70         38
    71          9
    72          3
    76          1
    77          4
    79        162
    80        999
    81        101
    82         17
    83          7
    84          6
    85          3
    86         14
    87          1
    91          1
    92          4
    93         26
    94         21
    95         52
    96          5
    97          5
    98         25
    99          1
   105          1
   107         80
   108         19
   109         34
   110         32
   111          3
   112         10
   123         28
   124          2
   125          5
   137         30
   138        333
   139         31
   140          2