##TITLE=Library Entry 56726
##JCAMP-DX=Revision 4.10 
##DATA TYPE=MASS SPECTRUM
##SAMPLE DESCRIPTION=Org.Mass.Spectrom.,24(2)81(1989);Z.Moldovan ET AL
##NAMES=HP
##CAS NAME=Cyclohexyl morpholinylamidophosphonothionic acid
##MOLFORM=C10H20NO2PS
##CAS REGISTRY NO=58078-30-1
##MP= -300
##BP= -300
##MW= 249
##$RETENTION INDEX=0
##$CONDENSED SPECTRUM=NO
##NPOINTS= 58
##XYDATA=(XY..XY) 1 
    27         48
    28        150
    29        134
    30        165
    31         17
    39         39
    41        205
    42         73
    43         60
    53         25
    54         24
    55        174
    56         93
    57         85
    58         25
    63         18
    65          9
    67         43
    68         14
    69         26
    70         83
    71         17
    76         15
    79         21
    81         75
    82         25
    83        143
    84         19
    85         36
    86        999
    87        168
    88         41
    95         14
    98         12
   106          8
   107          5
   109         34
   110         25
   111         19
   113          4
   116          5
   117          4
   120          7
   134        489
   135         25
   148          9
   149          8
   150          9
   163          5
   164          8
   166          9
   167         60
   168          5
   192         25
   216         12
   249         85
   250         14
   251          9