##TITLE=Library Entry 54348
##JCAMP-DX=Revision 4.10 
##DATA TYPE=MASS SPECTRUM
##SAMPLE DESCRIPTION=Darrick Lee, Cayman Chemical, Ann Arbor, MI
##NAMES=HP
##CAS NAME=Desoxypipradol
##MOLFORM=C18H21N
##CAS REGISTRY NO=5807-81-8
##MP= -300
##BP= -300
##MW= 251
##$RETENTION INDEX=0
##$CONDENSED SPECTRUM=NO
##NPOINTS= 134
##XYDATA=(XY..XY) 1 
    40          1
    41         14
    42         13
    43          3
    44          2
    50          3
    51         11
    52          2
    53          4
    54          8
    55         26
    56        100
    57          8
    62          1
    63          7
    64          1
    65          9
    66          1
    67         10
    68         10
    69          2
    70          3
    74          2
    75          3
    76          5
    77         17
    78          6
    79          1
    80          4
    82         22
    84        999
    85         61
    86          2
    87          2
    88          2
    89         15
    90          5
    91         33
    92          3
    93          1
    94          1
    95          1
    96          1
    97          1
    98          1
    99          1
   100          1
   101          2
   102          8
   103          8
   104          4
   105          3
   106          1
   110          1
   111          1
   113          3
   114          2
   115         34
   116          9
   117          9
   118          3
   119          1
   125          1
   126          3
   127          5
   128         15
   129          6
   130          9
   131          2
   132          1
   137          1
   139         11
   140          2
   141          6
   142          1
   143          2
   144          4
   145          1
   150          2
   151          9
   152         60
   153         13
   154          2
   155          1
   156          1
   157          1
   158          1
   159          1
   163         10
   164         16
   165        157
   166         58
   167         63
   168         14
   169          2
   170          1
   171          1
   172          2
   173          1
   174          1
   175          1
   176          4
   177          4
   178         25
   179         13
   180          3
   181          1
   182          1
   188          1
   189          4
   190          2
   191          4
   192          2
   193          4
   194          3
   195          1
   196          1
   202          1
   203          1
   204          1
   205          1
   206          3
   207          1
   208          1
   209          1
   219          1
   220          1
   222          1
   246          1
   248          3
   249          2
   250          9
   251          2
   252          1