##TITLE=Library Entry 24401
##JCAMP-DX=Revision 4.10 
##DATA TYPE=MASS SPECTRUM
##SAMPLE DESCRIPTION=Japan AIST/NIMC Database- Spectrum MS-NW-5305
##NAMES=HP
##CAS NAME=Myristic acid vinyl ester
##MOLFORM=C16H30O2
##CAS REGISTRY NO=5809-91-6
##MP= -300
##BP= -300
##MW= 254
##$RETENTION INDEX=1784
##$CONDENSED SPECTRUM=NO
##NPOINTS= 131
##XYDATA=(XY..XY) 1 
    14          3
    15         15
    16          1
    17          1
    18          3
    25          2
    26         12
    27        123
    28         27
    29        221
    30          5
    31          3
    32          2
    37          1
    38          2
    39         73
    40         15
    41        464
    42        134
    43        800
    44         30
    45          7
    50          1
    51          4
    52          3
    53         31
    54         36
    55        423
    56         96
    57        999
    58         75
    59         12
    60          3
    63          1
    65          5
    66          5
    67        107
    68         31
    69        276
    70         54
    71        577
    72         33
    73          4
    74          2
    77          5
    78          3
    79         16
    80          8
    81        138
    82         26
    83        159
    84         52
    85        334
    86        145
    87         19
    88          2
    91          8
    92          4
    93         10
    94          5
    95        244
    96         28
    97        108
    98         82
    99         52
   100          5
   101          1
   104          1
   105          2
   106          1
   107          8
   108          2
   109        136
   110         15
   111         76
   112         17
   113         23
   114          3
   115          2
   117          1
   119          1
   121          7
   122          2
   123         65
   124          9
   125         11
   126          3
   127         13
   128          2
   129          2
   133          1
   135          4
   136          1
   137         32
   138          6
   139          4
   140          1
   141          7
   142          1
   143          1
   149          2
   151          9
   152          2
   153          2
   154          1
   155          2
   163          2
   165          1
   166          1
   167          1
   168          1
   176          1
   177          1
   181          1
   183          2
   191          1
   192          1
   193         11
   194          3
   197          1
   205          1
   206          1
   207          1
   208          1
   209          2
   210          2
   211        543
   212         88
   213          8
   214          1
   225          1