##TITLE=Library Entry 7552
##JCAMP-DX=Revision 4.10 
##DATA TYPE=MASS SPECTRUM
##SAMPLE DESCRIPTION=Exported from NIST MS Search
##NAMES=HP
##CAS NAME=1H-Azepine, 1-acetylhexahydro-
##MOLFORM=C8H15NO
##CAS REGISTRY NO=5809-41-6
##MP= -300
##BP= -300
##MW= 141
##$RETENTION INDEX=0
##$CONDENSED SPECTRUM=NO
##NPOINTS= 55
##XYDATA=(XY..XY) 1 
    26         30
    27        320
    28        280
    29        150
    30        370
    31         20
    38         30
    39        310
    40         60
    41        530
    42        510
    43        999
    44        350
    45         50
    50         10
    51         20
    52         10
    53         40
    54         50
    55        190
    56        620
    57        350
    58         70
    60         60
    65         10
    66         10
    67         50
    68         60
    69         70
    70        560
    71        130
    72        110
    73         40
    74         10
    81         10
    82         30
    83         30
    84        400
    85        120
    86         50
    87        100
    88         20
    96         10
    97         20
    98        300
    99        100
   100         30
   112         60
   113         30
   126        260
   127         60
   128         10
   140         20
   141        280
   142         60