##TITLE=Library Entry 85197
##JCAMP-DX=Revision 4.10 
##DATA TYPE=MASS SPECTRUM
##SAMPLE DESCRIPTION=NIST Mass Spectrometry Data Center, 2009
##NAMES=HP
##CAS NAME=Acetamide, N-(2-ethoxyphenyl)-
##MOLFORM=C10H13NO2
##CAS REGISTRY NO=581-08-8
##MP= -300
##BP= -300
##MW= 179
##$RETENTION INDEX=1590
##$CONDENSED SPECTRUM=NO
##NPOINTS= 81
##XYDATA=(XY..XY) 1 
    14          1
    15          6
    26          6
    27         28
    28          9
    29         19
    30          2
    37          2
    38          7
    39         26
    40          3
    41          7
    42         16
    43        214
    44          6
    45          1
    49          1
    50         21
    51         55
    52        114
    53        102
    54         19
    55          4
    56          1
    61          2
    62          7
    63         31
    64         25
    65         84
    66         14
    67          3
    68          1
    74          2
    75          3
    76          7
    77         14
    78         25
    79         38
    80        403
    81         40
    82          3
    88          1
    89          1
    90          5
    91         24
    92         49
    93         48
    94         18
    95          5
   102          1
   104          3
   105         10
   106          7
   108        999
   109        772
   110         61
   111          3
   117          2
   118          4
   119          8
   120         29
   121          5
   122         37
   123          3
   132          1
   133          9
   134         15
   135         15
   136         44
   137        566
   138         56
   139          4
   146          2
   149          1
   150         12
   151          1
   163          1
   164          3
   179        572
   180         67
   181          6