##TITLE=Library Entry 1737
##JCAMP-DX=Revision 4.10 
##DATA TYPE=MASS SPECTRUM
##SAMPLE DESCRIPTION=Chemical Concepts
##NAMES=HP
##CAS NAME=1,1-Cyclopropanedicarboxamide
##MOLFORM=C5H8N2O2
##CAS REGISTRY NO=5813-85-4
##MP= -300
##BP= -300
##MW= 128
##$RETENTION INDEX=0
##$CONDENSED SPECTRUM=NO
##NPOINTS= 73
##XYDATA=(XY..XY) 1 
    33         38
    34          9
    37        143
    38        182
    39        999
    40        487
    41        627
    42        158
    44        985
    45        266
    47          4
    48          4
    49          4
    50          9
    51         18
    53        217
    54         74
    55        103
    56         49
    57         63
    58         25
    60         16
    61          8
    62          5
    63          4
    64          9
    65         13
    66         41
    67         65
    68        196
    69        159
    70         33
    71         53
    72          9
    73          9
    74          2
    76          1
    77          3
    78          2
    79          5
    80          5
    81         17
    83        325
    84        338
    85        104
    86         39
    91          3
    92          1
    93          4
    95         56
    97         11
    98          5
    99          7
   100          4
   101          1
   105          1
   107          3
   109          7
   110         27
   111        179
   112         98
   113         43
   114          4
   115          2
   121          2
   123          2
   124          1
   125          3
   126          4
   128        296
   129         50
   130          5
   131          1