##TITLE=Library Entry 13530
##JCAMP-DX=Revision 4.10 
##DATA TYPE=MASS SPECTRUM
##SAMPLE DESCRIPTION=CARL DJERASSI DEPT OF CHEM STANFORD UNIV STANFORD CALIF
 94305
##NAMES=HP
##CAS NAME=1,4-Naphthalenedione, 2-acetyl-
##MOLFORM=C12H8O3
##CAS REGISTRY NO=5813-57-0
##MP= -300
##BP= -300
##MW= 200
##$RETENTION INDEX=0
##$CONDENSED SPECTRUM=NO
##NPOINTS= 47
##XYDATA=(XY..XY) 1 
    41         10
    42         60
    43        999
    44         40
    49         10
    50        180
    51        180
    53        140
    61         10
    62         30
    63         40
    73         10
    74        120
    75        270
    76        240
    77         60
    86         10
    87         10
    89         10
    98         10
   100         10
   101        280
   102        280
   103         40
   104        120
   105         30
   115         30
   116         20
   128         20
   129        150
   130        160
   131         30
   144         30
   147         10
   157        340
   158        340
   159         60
   172         20
   184         40
   185        200
   186         20
   187         50
   188         10
   200        950
   201        140
   202        120
   203         20