##TITLE=Library Entry 88533
##JCAMP-DX=Revision 4.10 
##DATA TYPE=MASS SPECTRUM
##SAMPLE DESCRIPTION=V.I. COHEN, 38 MODABER AVE., TEHRAN, IRA
##NAMES=HP
##CAS NAME=2-Thienylamide
##MOLFORM=C5H5NOS
##CAS REGISTRY NO=5813-89-8
##MP= -300
##BP= -300
##MW= 127
##$RETENTION INDEX=0
##$CONDENSED SPECTRUM=NO
##NPOINTS= 18
##XYDATA=(XY..XY) 1 
    38        100
    39        600
    44        180
    45        190
    50         50
    53         40
    54         40
    57        180
    58        130
    81         70
    82         80
    83        130
   111        999
   112         70
   113         60
   127        750
   128         50
   129         40