##TITLE=Library Entry 1069
##JCAMP-DX=Revision 4.10 
##DATA TYPE=MASS SPECTRUM
##SAMPLE DESCRIPTION=Japan AIST/NIMC Database- Spectrum MS-NW-8551
##NAMES=HP
##CAS NAME=Neopentylamine
##MOLFORM=C5H13N
##CAS REGISTRY NO=5813-64-9
##MP= -300
##BP= -300
##MW= 87
##$RETENTION INDEX=0
##$CONDENSED SPECTRUM=NO
##NPOINTS= 37
##XYDATA=(XY..XY) 1 
    15          7
    17          1
    18          3
    26          3
    27         34
    28         60
    29        108
    30        999
    31         42
    32         65
    33          1
    37          2
    38          4
    39         46
    40          7
    41        132
    42         16
    43         14
    44         22
    50          2
    51          3
    52          2
    53          7
    54          5
    55        134
    56         43
    57         80
    58          4
    68          1
    69          5
    70          9
    71          7
    72        100
    73          5
    86          4
    87         38
    88          5