##TITLE=Library Entry 80521
##JCAMP-DX=Revision 4.10 
##DATA TYPE=MASS SPECTRUM
##SAMPLE DESCRIPTION=Chemical Concepts
##NAMES=HP
##CAS NAME=Benzene, 1,1'-(1-methyl-1,2-ethanediyl)bis-
##MOLFORM=C15H16
##CAS REGISTRY NO=5814-85-7
##MP= -300
##BP= -300
##MW= 196
##$RETENTION INDEX=0
##$CONDENSED SPECTRUM=NO
##NPOINTS= 110
##XYDATA=(XY..XY) 1 
    26          2
    27         28
    28         28
    30          0
    34          0
    36          0
    37          1
    38          5
    39         46
    41         10
    47          0
    49          0
    50         19
    51         53
    52         13
    53          8
    55          0
    56          0
    57          0
    59          1
    60          0
    61          1
    62          6
    63         30
    64          6
    65         64
    66          3
    68          0
    69          0
    70          0
    72          0
    73          0
    74          7
    75         10
    76         12
    77        130
    78         33
    79        110
    80          7
    81          0
    82          1
    83          1
    84          0
    86          2
    87          2
    88          3
    89         19
    90          5
    91        112
    92         15
    93          0
    95          0
    97          0
    98          1
   100          0
   101          4
   102         11
   103         65
   104        175
   105        999
   106         81
   107          3
   108          0
   109          0
   113          0
   114          0
   115         18
   116          3
   117          6
   118          1
   125          0
   126          0
   127          2
   128          2
   129          0
   134          0
   139          2
   141          1
   142          0
   149          0
   150          1
   151          2
   152          8
   153          2
   154          0
   162          0
   163          0
   164          1
   165         12
   166          3
   167          1
   168          0
   171          0
   174          0
   175          0
   176          2
   177          2
   178          9
   179          7
   180          2
   181          1
   187          0
   188          0
   189          0
   190          0
   191          0
   193          1
   194          1
   196         31
   197          5