##TITLE=Library Entry 73647
##JCAMP-DX=Revision 4.10 
##DATA TYPE=MASS SPECTRUM
##SAMPLE DESCRIPTION=PYTCAS, 16(7)943(1977); G. BIANCHI AND M. CORBELLINI
##NAMES=HP
##CAS NAME=12,14-Nonacosanedione
##MOLFORM=C29H56O2
##CAS REGISTRY NO=58141-94-9
##MP= -300
##BP= -300
##MW= 436
##$RETENTION INDEX=0
##$CONDENSED SPECTRUM=NO
##NPOINTS= 15
##XYDATA=(XY..XY) 1 
   100        999
   169        160
   183        160
   220        190
   222         30
   225        140
   239        430
   240         90
   253        340
   278        210
   281        410
   296        250
   309        180
   418         60
   436         80