##TITLE=Library Entry 62115
##JCAMP-DX=Revision 4.10 
##DATA TYPE=MASS SPECTRUM
##SAMPLE DESCRIPTION=Japan AIST/NIMC Database- Spectrum MS-NW-9908
##NAMES=HP
##CAS NAME=3-(Benzylmethylamino)-1-propanol
##MOLFORM=C11H17NO
##CAS REGISTRY NO=5814-42-6
##MP= -300
##BP= -300
##MW= 179
##$RETENTION INDEX=0
##$CONDENSED SPECTRUM=NO
##NPOINTS= 74
##XYDATA=(XY..XY) 1 
    15          4
    27          5
    28          7
    29          4
    30          6
    31         13
    38          1
    39         16
    40          2
    41         11
    42         48
    43          9
    44         42
    45          1
    50          3
    51         11
    52          3
    53          1
    54          1
    55          1
    56          3
    57          5
    58         36
    59          2
    62          2
    63          9
    64          3
    65         64
    66          5
    67          3
    68          1
    70          3
    72          1
    74          1
    76          1
    77         10
    78          5
    79          4
    84          1
    86          3
    88          1
    89         12
    90          8
    91        999
    92         85
    93          3
   100          1
   102          7
   103          2
   104          3
   105          3
   106          3
   107          2
   108          2
   117          3
   118          9
   119          2
   120         43
   121         13
   122          1
   131          1
   132          9
   133          2
   134        624
   135         64
   136          3
   146          2
   149          1
   160          1
   161          1
   176          1
   178          5
   179         38
   180          5