##TITLE=Library Entry 83927
##JCAMP-DX=Revision 4.10 
##DATA TYPE=MASS SPECTRUM
##SAMPLE DESCRIPTION=Div. of Experiment Therapeutics WRAIR, WRAMC, Washingto
n DC 20307
##NAMES=HP
##CAS NAME=1-[4-Chlorophenyl]-2-[4-pyridyl]-n-propanol
##MOLFORM=C14H14ClNO
##CAS REGISTRY NO=58158-35-3
##MP= -300
##BP= -300
##MW= 247
##$RETENTION INDEX=0
##$CONDENSED SPECTRUM=NO
##NPOINTS= 102
##XYDATA=(XY..XY) 1 
    41         25
    42          1
    43         37
    44          4
    45          1
    48          0
    49          1
    50         44
    51        115
    52         32
    53         37
    54         16
    55         43
    56         11
    57         44
    60          1
    61          1
    62          4
    63         23
    64         12
    65         31
    66          4
    67         21
    69         22
    70          1
    71         16
    73         10
    74         18
    75         54
    77        424
    78         97
    79         91
    80         50
    81         15
    82          8
    83         30
    84          3
    85         20
    86          1
    87          4
    89         10
    91         18
    92          9
    93         10
    94          3
    95         10
    96          1
    97         18
    98          0
    99          6
   101          5
   102          5
   104         31
   106        687
   107        999
   108         73
   109          8
   111         73
   113         75
   114          3
   115         22
   116          1
   117          3
   119          2
   121          2
   123          9
   125         14
   126          1
   127         11
   128          4
   136          3
   137          6
   139         55
   141        197
   142          3
   143         66
   144          3
   149          6
   150          1
   151          4
   152          6
   153          0
   154          3
   159          5
   160          1
   161          2
   162          1
   163          3
   165         10
   166          3
   167          3
   169          3
   177          1
   179          2
   180          1
   181          1
   191          5
   193          4
   194          5
   229          5
   231          1
   247          1