##TITLE=Library Entry 12677
##JCAMP-DX=Revision 4.10 
##DATA TYPE=MASS SPECTRUM
##SAMPLE DESCRIPTION=Div. of Experiment Therapeutics WRAIR, WRAMC, Washingto
n DC 20307
##NAMES=HP
##CAS NAME=N-Acetyl-1-[4-piperidyl]-2-[4-chlorophenyl]-2-propanol
##MOLFORM=C16H22ClNO2
##CAS REGISTRY NO=58158-48-8
##MP= -300
##BP= -300
##MW= 295
##$RETENTION INDEX=0
##$CONDENSED SPECTRUM=NO
##NPOINTS= 73
##XYDATA=(XY..XY) 1 
    41         74
    43        999
    44         77
    45         15
    47          9
    49         11
    50          7
    51         10
    52          5
    53         16
    55         63
    56         64
    57         44
    58         22
    60          9
    63          6
    65         11
    67         11
    68         13
    69         18
    70         11
    71          4
    72         28
    75          9
    77         26
    78         15
    80          6
    82         75
    83         17
    84         31
    85         13
    86          9
    87          4
    89          4
    91         15
    96         18
    98         54
    99          8
   100          9
   105          9
   106          3
   111         12
   112         28
   113         17
   115          4
   121         20
   124         48
   125          9
   126         42
   127          5
   128          5
   137          4
   138         15
   139         18
   140         14
   141        101
   142          8
   152          3
   155        160
   157         55
   165          3
   183          5
   184          5
   237          5
   260          7
   261          3
   277          9
   280         28
   282          8
   295         63
   296         10
   297         18
   298          4