##TITLE=Library Entry 52798
##JCAMP-DX=Revision 4.10 
##DATA TYPE=MASS SPECTRUM
##SAMPLE DESCRIPTION=Div. of Experiment Therapeutics WRAIR, WRAMC, Washingto
n DC 20307
##NAMES=HP
##CAS NAME=N-Carboxy-1-[4-chlorophenyl]-2-[4-piperidyl]-1,2-epoxypropane
##MOLFORM=C15H18ClNO3
##CAS REGISTRY NO=58158-38-6
##MP= -300
##BP= -300
##MW= 295
##$RETENTION INDEX=0
##$CONDENSED SPECTRUM=NO
##NPOINTS= 164
##XYDATA=(XY..XY) 1 
    41         47
    42         79
    43        105
    44         89
    45          5
    46          4
    47          5
    48          3
    49         21
    50          8
    51         17
    53         24
    54          9
    55        108
    56        356
    57         71
    58          8
    60          2
    61          1
    62          8
    63         19
    64          8
    65         17
    67         37
    68         35
    69         15
    70          7
    71          7
    73         11
    74          2
    75         26
    77         41
    79         12
    80          8
    82        549
    83        999
    84         92
    86         10
    87          3
    89         59
    90          3
    91         19
    92          3
    93          7
    94          4
    95          4
    96         12
    97          7
    98          5
    99          2
   100          4
   101          3
   102          2
   103         11
   104          2
   105          2
   106          2
   108          6
   109          7
   110         60
   111         54
   112         12
   113          8
   114          1
   115         10
   116          3
   117          1
   118          6
   119          2
   120          1
   121          1
   123          5
   124          8
   125         27
   126         13
   127         23
   128         11
   129          7
   130          1
   131          2
   132          1
   133          1
   134          0
   135          0
   136          1
   137          1
   138          9
   139         26
   140          3
   141         16
   142          2
   143          6
   144          2
   145          2
   146          1
   147          1
   149          2
   151          3
   152         10
   153          6
   154         10
   155          6
   156          2
   157          1
   159         35
   161          6
   162          0
   163          6
   164          1
   165          6
   166          5
   167          0
   168          4
   169          3
   170          0
   171          3
   172          1
   173          1
   174          0
   175          0
   176          0
   177          2
   178          2
   179          5
   180          3
   181          4
   182          2
   183          1
   188          0
   189          1
   190          1
   191          4
   192          7
   194         35
   196         13
   197          1
   199          1
   201          0
   203          1
   206          3
   207          2
   208          4
   209          1
   210          1
   218          7
   219          1
   220          1
   222          1
   223          1
   225          1
   232          0
   233          9
   234          5
   235         21
   236          5
   237          4
   238          0
   239          0
   250          1
   251         15
   252          2
   253         11
   254          1
   262          1