##TITLE=Library Entry 26785
##JCAMP-DX=Revision 4.10 
##DATA TYPE=MASS SPECTRUM
##SAMPLE DESCRIPTION=D.HENNEBERG, MAX-PLANCK INSTITUTE, MULHEIM, WEST GERMAN
Y
##NAMES=HP
##CAS NAME=3,9-Dispiro[5,5]undecane, 3,9-diethyl-, 2,4,8,10-tetraoxa-3,9-dib
ora-
##MOLFORM=C9H18B2O4
##CAS REGISTRY NO=58163-67-0
##MP= -300
##BP= -300
##MW= 212
##$RETENTION INDEX=0
##$CONDENSED SPECTRUM=NO
##NPOINTS= 116
##XYDATA=(XY..XY) 1 
    27        370
    28        344
    29        549
    30         27
    31         52
    36          2
    37          9
    38         21
    39        493
    40        143
    41        452
    42        276
    43         78
    44         33
    45        106
    48          7
    49          5
    50         12
    51         34
    52         41
    53        527
    54        399
    55        347
    56        314
    57        999
    58         64
    59        157
    60          5
    62         20
    63          7
    65         15
    66         28
    67        115
    68        172
    69        338
    70        338
    71        120
    72         47
    73         29
    74          1
    77          9
    78          4
    79         26
    80         18
    81         45
    82        243
    83        280
    84         55
    85         85
    86         20
    87         57
    88          3
    91          2
    93          6
    94         12
    95         33
    96        165
    97        445
    98        130
    99         75
   100         68
   101         85
   102          3
   103          3
   106          2
   107          7
   108          7
   109         22
   110        190
   111        688
   112        145
   113        205
   114         12
   115          7
   121          5
   122         18
   123         60
   124        266
   125        767
   126        404
   127        256
   128         81
   129         15
   131          3
   134         15
   135         34
   136         12
   137        222
   138        850
   139        109
   140        289
   141        536
   142         35
   143          5
   147          4
   150          3
   151         35
   152        212
   153        437
   154         45
   155         24
   156         25
   157          4
   164          3
   165          9
   166          8
   167          3
   168          3
   169          4
   178          2
   181         12
   182         70
   183        106
   184         20
   185          1
   211          3