##TITLE=Library Entry 3847
##JCAMP-DX=Revision 4.10 
##DATA TYPE=MASS SPECTRUM
##SAMPLE DESCRIPTION=D.HENNEBERG, MAX-PLANCK INSTITUTE, MULHEIM, WEST GERMAN
Y
##NAMES=HP
##CAS NAME=Borinic acid, diethyl-, (2-ethyl-1,3,2-dioxaborinan-4-yl)methyl e
ster
##MOLFORM=C10H22B2O3
##CAS REGISTRY NO=58163-61-4
##MP= -300
##BP= -300
##MW= 212
##$RETENTION INDEX=0
##$CONDENSED SPECTRUM=NO
##NPOINTS= 118
##XYDATA=(XY..XY) 1 
    27         27
    28         37
    29         85
    30          2
    31          4
    32          3
    36          1
    37          0
    38          1
    39         18
    40         27
    41        999
    42         53
    43        152
    44          6
    45          6
    49          0
    50          0
    51          0
    52          1
    53         12
    54         24
    55         53
    56         63
    57        249
    58         12
    59         10
    62          1
    63          0
    65          0
    66          1
    67          8
    68         23
    69         68
    70         24
    71        644
    72         28
    73          1
    75          0
    76          0
    77          0
    78          0
    79          1
    80          0
    81          4
    82         12
    83         56
    84         13
    85         31
    86          4
    87          1
    88          2
    89          0
    91          1
    92          0
    93          1
    94          1
    95          6
    96        173
    97        645
    98         71
    99        133
   100          7
   101          3
   102          0
   105          0
   106          0
   107          0
   108          1
   109          2
   110          9
   111         28
   112         28
   113         83
   114          4
   115          1
   119          0
   121          0
   122          1
   123          3
   124         16
   125         36
   126         60
   127        208
   128         15
   129          1
   131          0
   132          0
   133          1
   134          2
   135          2
   136          0
   137          0
   138          1
   139         15
   140         98
   141        208
   142         13
   143          1
   147          0
   150          0
   151         25
   152        220
   153        433
   154         35
   155          6
   156          0
   161          0
   166          0
   167          0
   168          0
   169          0
   180          0
   181         13
   182        104
   183        217
   184         19
   185          1