##TITLE=Library Entry 37054
##JCAMP-DX=Revision 4.10 
##DATA TYPE=MASS SPECTRUM
##SAMPLE DESCRIPTION=Exported from NIST MS Search
##NAMES=HP
##CAS NAME=L-Proline, ethyl ester
##MOLFORM=C7H13NO2
##CAS REGISTRY NO=5817-26-5
##MP= -300
##BP= -300
##MW= 143
##$RETENTION INDEX=0
##$CONDENSED SPECTRUM=NO
##NPOINTS= 19
##XYDATA=(XY..XY) 1 
    29         71
    30         19
    31          8
    39         44
    40         11
    41        118
    42         49
    43         66
    44          5
    53          5
    54          5
    55          5
    67          8
    68         77
    69         27
    70        999
    71         49
    86         11
   143          2