##TITLE=Library Entry 23631
##JCAMP-DX=Revision 4.10 
##DATA TYPE=MASS SPECTRUM
##SAMPLE DESCRIPTION=NIST Mass Spectrometry Data Center
##NAMES=HP
##CAS NAME=2-Propyl-1-pentanol
##MOLFORM=C8H18O
##CAS REGISTRY NO=58175-57-8
##MP= -300
##BP= -300
##MW= 130
##$RETENTION INDEX=1053
##$CONDENSED SPECTRUM=NO
##NPOINTS= 56
##XYDATA=(XY..XY) 1 
    15          3
    19          1
    26          5
    27         89
    28         12
    29        125
    30          5
    31         66
    32          1
    33          1
    37          1
    39         83
    41        360
    42         84
    43        302
    44         15
    45         17
    50          3
    51          7
    52          3
    53         25
    54         16
    55        203
    56        184
    57        999
    58         46
    59          6
    62          1
    63          2
    65          5
    66          2
    67         19
    68         24
    69        204
    70        313
    71         44
    72          2
    73          2
    77          3
    78          1
    79          3
    81          3
    82         33
    83        137
    84         95
    85          7
    86          5
    87          1
    91          1
    95          1
    97         25
    98         83
    99         11
   100          2
   112         34
   113          3