##TITLE=Library Entry 12309
##JCAMP-DX=Revision 4.10 
##DATA TYPE=MASS SPECTRUM
##SAMPLE DESCRIPTION=Div. of Experiment Therapeutics WRAIR, WRAMC, Washingto
n DC 20307
##NAMES=HP
##CAS NAME=N-Acetyl-1-[4-chlorophenyl]-2-[4-piperidyl]-n-propanol
##MOLFORM=C16H22ClNO2
##CAS REGISTRY NO=58189-80-3
##MP= -300
##BP= -300
##MW= 295
##$RETENTION INDEX=0
##$CONDENSED SPECTRUM=NO
##NPOINTS= 129
##XYDATA=(XY..XY) 1 
    41        210
    42        345
    43        999
    44        206
    45         15
    46          2
    48          0
    49          1
    50         30
    51         82
    52         20
    53         48
    54         32
    55        275
    56        288
    57        192
    58        187
    60         43
    62          9
    63         16
    65         23
    67         81
    68        265
    69         93
    70         72
    72        170
    73         16
    75         40
    77        579
    78         67
    79         23
    80         20
    82        232
    83         47
    84         83
    85         86
    86         41
    88        177
    89         10
    91         21
    93          6
    94          6
    95         31
    96         39
    98        101
   100        227
   101         14
   103         14
   105         40
   106         25
   107         13
   108          7
   110         16
   111         39
   112        193
   113        123
   115         73
   116         12
   117         16
   118          1
   119          0
   120          0
   122          0
   124        249
   126        221
   127        161
   128         17
   129          5
   130          1
   131          2
   132          1
   133          4
   134          0
   136          0
   137          1
   139         61
   141        642
   143        199
   144          8
   149          1
   150          0
   151          6
   152         14
   154         52
   155        205
   156         16
   157          2
   159          1
   162          0
   163          0
   165          2
   167          2
   168          2
   169          2
   170          1
   171          0
   177          3
   178          0
   179          2
   180          0
   183          0
   192          3
   193          0
   194          1
   196          0
   200          0
   203          0
   205          0
   206          0
   218          2
   220          2
   234          2
   236          2
   238          1
   252          6
   253          0
   254          1
   260          0
   261          1
   262          0
   277          9
   278          2
   279          2
   280          1
   294          9
   295        126
   296         15
   297         40
   298          2