##TITLE=Library Entry 2593
##JCAMP-DX=Revision 4.10 
##DATA TYPE=MASS SPECTRUM
##SAMPLE DESCRIPTION=Chemical Concepts
##NAMES=HP
##CAS NAME=4,7,10,13,16-Pentaoxanonadeca-1,18-diene
##MOLFORM=C14H26O5
##CAS REGISTRY NO=58185-54-9
##MP= -300
##BP= -300
##MW= 274
##$RETENTION INDEX=0
##$CONDENSED SPECTRUM=NO
##NPOINTS= 83
##XYDATA=(XY..XY) 1 
    26          6
    27         51
    28         27
    29         56
    30          7
    31         47
    38          4
    39         88
    40         20
    41        999
    42         51
    43        193
    44         59
    45        349
    46          7
    53          2
    54          6
    55         49
    56         32
    57         37
    58         32
    59         79
    60          4
    61          2
    66          7
    67         17
    68          6
    69         15
    70          4
    71         65
    72         14
    73        207
    74          4
    75          8
    76          1
    77          2
    79          2
    80          3
    81          6
    82          2
    83         22
    84         39
    85        144
    86         18
    87         88
    88         18
    89         91
    90          4
    91          6
    94          1
    95          2
    97          1
    98          1
    99          8
   100          7
   101         14
   102          4
   103         24
   105          4
   107          3
   111          3
   112          1
   113          3
   114          2
   115          7
   117         16
   124          3
   125          1
   127          5
   129         17
   130          3
   131          4
   133         27
   134          2
   135          1
   142          1
   145          4
   147          5
   159          2
   173          1
   177          2
   191          1
   205          1