##TITLE=Library Entry 79662
##JCAMP-DX=Revision 4.10 
##DATA TYPE=MASS SPECTRUM
##SAMPLE DESCRIPTION=Japan AIST/NIMC Database- Spectrum MS-IW-4267
##NAMES=HP
##CAS NAME=Benzamide, N-(4-methylphenyl)-
##MOLFORM=C14H13NO
##CAS REGISTRY NO=582-78-5
##MP= -300
##BP= -300
##MW= 211
##$RETENTION INDEX=0
##$CONDENSED SPECTRUM=NO
##NPOINTS= 51
##XYDATA=(XY..XY) 1 
    26          1
    27          9
    28          7
    38          2
    39         13
    40          1
    41          3
    50         19
    51         86
    52         16
    53          9
    54          1
    62          2
    63          7
    64          3
    65         10
    66          1
    74          5
    75          6
    76         14
    77        445
    78         42
    79         20
    80          2
    89          2
    90          1
    91          7
   103          1
   104          8
   105        999
   106         97
   107         20
   108         10
   115          1
   132          2
   133          1
   139          1
   152          1
   165          1
   166          1
   167          4
   180          2
   181          1
   182          1
   195          1
   208          1
   209          2
   210          4
   211        412
   212         64
   213          6