##TITLE=Library Entry 1237
##JCAMP-DX=Revision 4.10 
##DATA TYPE=MASS SPECTRUM
##SAMPLE DESCRIPTION=Drug Lab
##NAMES=HP
##CAS NAME=Benzeneethanamine, .beta.-methyl-
##MOLFORM=C9H13N
##CAS REGISTRY NO=582-22-9
##MP= -300
##BP= -300
##MW= 135
##$RETENTION INDEX=1130
##$CONDENSED SPECTRUM=NO
##NPOINTS= 63
##XYDATA=(XY..XY) 1 
    30        999
    31         17
    37          1
    38          5
    39         37
    40          4
    41          8
    42          7
    43          1
    47          1
    49          1
    50         26
    51         71
    52         19
    53         11
    54          4
    55          1
    56          8
    57          1
    59          9
    60          2
    61          1
    62          8
    63         26
    64          5
    65         30
    66          4
    67          1
    73          1
    74         10
    75          9
    76         12
    77        149
    78         68
    79         86
    80          6
    86          1
    87          2
    89         16
    90          6
    91        153
    92         13
    93          2
    98          1
   101          2
   102         16
   103         85
   104         57
   105        140
   106         31
   107          2
   115         17
   116          5
   117         16
   118         16
   119          5
   120          2
   130          2
   132          3
   133          2
   134          3
   135         45
   136          5