##TITLE=Library Entry 79197
##JCAMP-DX=Revision 4.10 
##DATA TYPE=MASS SPECTRUM
##SAMPLE DESCRIPTION=Japan AIST/NIMC Database- Spectrum MS-NW-5146
##NAMES=HP
##CAS NAME=1-Butanone, 3-methyl-1-phenyl-
##MOLFORM=C11H14O
##CAS REGISTRY NO=582-62-7
##MP= -300
##BP= -300
##MW= 162
##$RETENTION INDEX=1271
##$CONDENSED SPECTRUM=NO
##NPOINTS= 72
##XYDATA=(XY..XY) 1 
    15          2
    18          1
    26          1
    27         24
    28          5
    29         21
    37          1
    38          3
    39         31
    40          3
    41         39
    42          4
    43         11
    50         25
    51         97
    52          8
    53          3
    55          4
    56          4
    57         12
    58          1
    62          2
    63          6
    64          3
    65          8
    66          3
    69         16
    70          1
    72          2
    73          3
    74          7
    75          6
    76         14
    77        354
    78         56
    79          5
    83          1
    85          2
    89          2
    91         15
    92          4
   102          2
   103          3
   104          2
   105        999
   106         78
   107          5
   115          3
   116          1
   117          1
   119          1
   120        248
   121         23
   122          1
   127          1
   128          3
   129          7
   131          2
   132          1
   133          1
   134          7
   135          1
   143          1
   144          4
   145          2
   146          1
   147         47
   148          5
   161          7
   162        160
   163         19
   164          1