##TITLE=Library Entry 73848
##JCAMP-DX=Revision 4.10 
##DATA TYPE=MASS SPECTRUM
##SAMPLE DESCRIPTION=Japan AIST/NIMC Database- Spectrum MS-NW-9494
##NAMES=HP
##CAS NAME=Diacetoneglucose
##MOLFORM=C12H20O6
##CAS REGISTRY NO=582-52-5
##MP= -300
##BP= -300
##MW= 260
##$RETENTION INDEX=0
##$CONDENSED SPECTRUM=NO
##NPOINTS= 116
##XYDATA=(XY..XY) 1 
    14          1
    15         27
    17         11
    18         59
    19         11
    26          2
    27         25
    28         21
    29         44
    30          2
    31         56
    32          1
    39         25
    40          7
    41         88
    42         42
    43        730
    44         25
    45         17
    47          2
    53          9
    54          3
    55        129
    56          9
    57         62
    58         24
    59        590
    60         43
    61         40
    62          1
    67          1
    68         16
    69         99
    70         19
    71         60
    72        112
    73        146
    74          7
    75          1
    79          1
    80          8
    81         38
    82          3
    83         43
    84          7
    85        202
    86         47
    87          9
    88          1
    89          4
    95          5
    96          1
    97         32
    98         23
    99         62
   100         66
   101        999
   102         57
   103         18
   104          1
   107          2
   109         41
   110          3
   111          4
   113         77
   114         32
   115         55
   116          4
   117          3
   119          2
   121          1
   123          5
   125         12
   126         12
   127        301
   128         21
   129         77
   130          6
   131         88
   132          6
   139          3
   141          8
   142         14
   143         16
   144         12
   145         42
   146          2
   149          3
   155          1
   157          2
   158          1
   159         57
   160          9
   161          1
   167         11
   168          1
   169          7
   173          1
   185         11
   186          1
   187        272
   188         25
   189          4
   201          2
   202          2
   203          5
   205          1
   215          2
   227          1
   229          1
   231          1
   245        624
   246         77
   247         11
   248          1
   261          5