##TITLE=Library Entry 21506
##JCAMP-DX=Revision 4.10 
##DATA TYPE=MASS SPECTRUM
##SAMPLE DESCRIPTION=Chemical Concepts
##NAMES=HP
##CAS NAME=Benzene, [(2-methyl-2-propenyl)oxy]-
##MOLFORM=C10H12O
##CAS REGISTRY NO=5820-22-4
##MP= -300
##BP= -300
##MW= 148
##$RETENTION INDEX=0
##$CONDENSED SPECTRUM=NO
##NPOINTS= 90
##XYDATA=(XY..XY) 1 
    26         19
    27        177
    28          7
    29        267
    30          4
    31          4
    37         10
    38         44
    39        409
    40         46
    41         29
    42          4
    43         18
    45          0
    47          3
    49          3
    50         44
    51        166
    52         18
    53         91
    54         16
    55        999
    56         43
    58          0
    59          1
    60          1
    61          5
    62         18
    63         54
    64         26
    65        179
    66        111
    67         11
    68          6
    69          2
    70          3
    71          2
    72          1
    73          1
    74         10
    75          8
    76         10
    77        162
    78         44
    79         44
    80         16
    81          1
    82          3
    85          1
    89          2
    90          3
    91         80
    92         37
    93         50
    94        449
    95         39
    96          3
    97          0
   102          2
   103         15
   104         10
   105        177
   106         31
   107         51
   108          8
   109          1
   111          1
   115         19
   116          5
   117          7
   118          3
   119         39
   120         16
   121          3
   125          0
   127          2
   128          3
   129         11
   130         15
   131         30
   132          7
   133        989
   134         92
   135          6
   145          2
   146          1
   147         49
   148        415
   149         50
   150          2