##TITLE=Library Entry 57697
##JCAMP-DX=Revision 4.10 
##DATA TYPE=MASS SPECTRUM
##SAMPLE DESCRIPTION=Chemical Concepts
##NAMES=HP
##CAS NAME=Hexanedioic acid, 2,3-dimethyl-, dimethyl ester
##MOLFORM=C10H18O4
##CAS REGISTRY NO=58219-48-0
##MP= -300
##BP= -300
##MW= 202
##$RETENTION INDEX=0
##$CONDENSED SPECTRUM=NO
##NPOINTS= 92
##XYDATA=(XY..XY) 1 
    26         28
    27        220
    28         99
    29        225
    30         19
    31         54
    32         16
    33         10
    37          5
    38          7
    39        142
    40         14
    41        434
    42         68
    43        175
    44          9
    45         64
    50          4
    51         15
    52          8
    53         77
    54         25
    55        818
    56        254
    57        262
    58         16
    59        544
    60         25
    61          3
    62          3
    65          9
    66          3
    67         57
    68         34
    69        410
    70         40
    71         24
    72         11
    73        679
    74        151
    75          9
    77          5
    78          3
    79          9
    81         35
    82        106
    83        604
    84         48
    85         52
    86          9
    87         87
    88        999
    89         47
    92          2
    93          4
    94          5
    95         17
    96         16
    97         70
    99         16
   100         12
   101         50
   109          9
   110        111
   111        281
   112         26
   113         46
   114         59
   115        493
   116         58
   117          4
   120          4
   123          4
   125          4
   127         62
   128         26
   129        172
   130         12
   138          9
   139         30
   140          5
   141          9
   142        260
   143        202
   144         21
   145          3
   152          5
   153          3
   155         14
   170         11
   171        123
   172         14