##TITLE=Library Entry 69764
##JCAMP-DX=Revision 4.10 
##DATA TYPE=MASS SPECTRUM
##SAMPLE DESCRIPTION=A.A.Kutin, Moscow, Russia
##NAMES=HP
##CAS NAME=Acetamide, N-(1-acetyl-2-methyl-4-imidazolyl)-
##MOLFORM=C8H11N3O2
##CAS REGISTRY NO=58216-76-5
##MP= -300
##BP= -300
##MW= 181
##$RETENTION INDEX=0
##$CONDENSED SPECTRUM=NO
##NPOINTS= 48
##XYDATA=(XY..XY) 1 
    33          6
    38          2
    39          6
    40         37
    41         41
    42        212
    43        673
    45         47
    46          1
    51          1
    52          7
    53         15
    54         16
    55         35
    56        200
    57         11
    59          1
    60          4
    67          8
    68          9
    69         13
    70         15
    71          5
    80          2
    81          5
    82          3
    83          4
    84          5
    85          2
    87         22
    95          7
    96         59
    97        999
    98         49
    99          1
   109          2
   110          3
   111          2
   122          1
   123          7
   124          8
   125          2
   129         18
   139        439
   140         32
   141          2
   181        192
   182         21