##TITLE=Library Entry 39994
##JCAMP-DX=Revision 4.10 
##DATA TYPE=MASS SPECTRUM
##SAMPLE DESCRIPTION=Chemical Concepts
##NAMES=HP
##CAS NAME=Arabino-heptitol, 2,3:5,6-dianhydro-1,7-dideoxy-2,6-di-C-methyl-
##MOLFORM=C9H16O3
##CAS REGISTRY NO=58210-18-7
##MP= -300
##BP= -300
##MW= 172
##$RETENTION INDEX=0
##$CONDENSED SPECTRUM=NO
##NPOINTS= 126
##XYDATA=(XY..XY) 1 
    25         16
    27        199
    28         36
    29        226
    30         14
    31         89
    38         14
    39        313
    40         43
    41        529
    42        149
    43        743
    44         46
    45         55
    47         12
    49          5
    50          9
    51         23
    52          9
    53         93
    54         60
    55        615
    56        142
    57        437
    58         51
    59        454
    60        137
    61         18
    62          2
    63          6
    65         24
    66          8
    67         83
    68         41
    69        173
    70        268
    71        663
    72        999
    73        556
    74         32
    75         18
    76          4
    77         88
    78          7
    79         32
    80          4
    81        129
    82         22
    83        806
    84        563
    85        538
    86         39
    87        579
    88         27
    89         28
    90         10
    91         94
    92         23
    93         20
    94          4
    95         61
    96        125
    97         80
    98         13
    99         36
   100         68
   101        459
   102        250
   103         40
   104          4
   105         13
   106          3
   107         60
   108          9
   109         21
   110          4
   111         40
   112         21
   113         76
   114         83
   115         12
   116          2
   117          6
   118          1
   119          6
   120          2
   121         13
   122          4
   123          9
   124          2
   125         12
   126          8
   127          7
   128         12
   129          7
   130          2
   131        122
   132         15
   133          6
   135          2
   136          5
   137         14
   138          3
   139         50
   140          5
   141          2
   142          2
   143          8
   144          1
   145         10
   146          1
   147          1
   149          1
   150          0
   151          1
   153          3
   154        134
   155         38
   156          6
   157         12
   158          1
   170          1
   171          1
   172        151
   173         21
   174          4