##TITLE=Library Entry 78101
##JCAMP-DX=Revision 4.10 
##DATA TYPE=MASS SPECTRUM
##SAMPLE DESCRIPTION=Div. of Experiment Therapeutics WRAIR, WRAMC, Washingto
n DC 20307
##NAMES=HP
##CAS NAME=3,5-Dichloro-2-pyridyl 3-methyl-.alpha.-toluenesulfonate
##MOLFORM=C13H11Cl2NO3S
##CAS REGISTRY NO=58236-58-1
##MP= -300
##BP= -300
##MW= 331
##$RETENTION INDEX=0
##$CONDENSED SPECTRUM=NO
##NPOINTS= 86
##XYDATA=(XY..XY) 1 
    41         19
    42          6
    43         13
    44         10
    45          6
    47         42
    48         43
    49        101
    50         97
    51        233
    52         77
    53         87
    54          9
    55          6
    56          0
    57          1
    59          2
    60         17
    61          9
    62         52
    63        111
    64         75
    65        103
    66         10
    67         14
    69         10
    71         26
    72         63
    73         73
    74         30
    75         33
    76         21
    77        233
    78         98
    79        167
    81        136
    82          1
    83         10
    84         25
    85          6
    86         21
    87          5
    88          4
    89         28
    90          8
    91         22
    92          3
    93          2
    97          3
    98          8
    99          7
   100         29
   101          3
   102         19
   103        106
   104         15
   105        999
   106         91
   107         48
   109         12
   110         11
   111          2
   112          2
   119          1
   120          3
   121          3
   127          0
   128          6
   130          2
   134          4
   135         90
   137         45
   138          2
   139          7
   161          2
   163         75
   164          4
   165         38
   166          2
   167          7
   168          0
   184          0
   185          0
   186         95
   187          9
   188          6