##TITLE=Library Entry 59606
##JCAMP-DX=Revision 4.10 
##DATA TYPE=MASS SPECTRUM
##SAMPLE DESCRIPTION=Div. of Experiment Therapeutics WRAIR, WRAMC, Washingto
n DC 20307
##NAMES=HP
##CAS NAME=3,5,6-Trichloro-2-pyridyl .alpha.-toluenesulfonate
##MOLFORM=C12H8Cl3NO3S
##CAS REGISTRY NO=58236-69-4
##MP= -300
##BP= -300
##MW= 351
##$RETENTION INDEX=0
##$CONDENSED SPECTRUM=NO
##NPOINTS= 105
##XYDATA=(XY..XY) 1 
    41         29
    42          2
    43          2
    44          0
    45          7
    47         31
    48         13
    49         58
    50         16
    51         58
    52         16
    53          9
    54          0
    55          1
    57          1
    60          3
    61          2
    62         26
    63         88
    64         28
    65        203
    66         10
    67          0
    69          2
    71         10
    72         25
    73          7
    74          9
    75          5
    76          3
    77          6
    78          2
    79          0
    82          3
    83          6
    84         23
    85          1
    86         21
    87          2
    88          2
    89         53
    91        999
    92         79
    93          3
    94          0
    95          0
    96          0
    97          6
    98         54
   100         19
   101          0
   105          1
   106          1
   107         34
   108          7
   109         18
   110          4
   111          3
   112          1
   117          0
   118          0
   119          1
   121          1
   125          0
   126          0
   127          0
   132          2
   133          7
   134          3
   135          4
   136          1
   137          0
   141          1
   143          0
   144          1
   145          0
   146          0
   161          2
   162          0
   163          1
   168         33
   169          1
   170         34
   171          3
   172          8
   173          1
   174          0
   180          0
   181          0
   182          0
   184          0
   196          1
   197          2
   198          1
   199          2
   201          0
   287         22
   288          0
   289         22
   291          8
   292          0
   293          0
   351          2
   353          2
   355          0