##TITLE=Library Entry 59611
##JCAMP-DX=Revision 4.10 
##DATA TYPE=MASS SPECTRUM
##SAMPLE DESCRIPTION=Div. of Experiment Therapeutics WRAIR, WRAMC, Washingto
n DC 20307
##NAMES=HP
##CAS NAME=5-Bromo-3-chloro-2-pyridyl .alpha.-toluenesulfonate
##MOLFORM=C12H9BrClNO3S
##CAS REGISTRY NO=58236-61-6
##MP= -300
##BP= -300
##MW= 361
##$RETENTION INDEX=0
##$CONDENSED SPECTRUM=NO
##NPOINTS= 95
##XYDATA=(XY..XY) 1 
    41         25
    43         13
    44          8
    45          9
    47         22
    48         42
    49         69
    50         81
    51        100
    52         39
    53         23
    54          4
    55          2
    57          1
    58          0
    59          4
    60          4
    61         12
    62         53
    63        142
    64         84
    65        238
    66         16
    67          4
    69          3
    71         10
    72         44
    73         66
    74         16
    75         26
    76          9
    77         18
    79         29
    81        128
    83          8
    84         25
    86         27
    87          6
    89         83
    91        999
    92         50
    93          5
    94          0
    95          1
    97          1
    98          6
   100         46
   102         13
   104          4
   105          3
   106          2
   107          2
   108          0
   109          2
   115          3
   116          5
   117          9
   118          5
   119          4
   120          1
   121          1
   125          0
   126          0
   128          7
   129          1
   130          2
   131          1
   135          0
   137          0
   142          0
   144          9
   146          6
   147          1
   150          0
   151          7
   153         12
   154          2
   155          1
   159          3
   162          0
   169          3
   171          3
   172         57
   173          2
   174          6
   175          1
   179         36
   181         40
   183          8
   207         53
   209         51
   211         16
   225          0
   251          0
   253          1