##TITLE=Library Entry 29828
##JCAMP-DX=Revision 4.10 
##DATA TYPE=MASS SPECTRUM
##SAMPLE DESCRIPTION=Chemical Concepts
##NAMES=HP
##CAS NAME=.beta.-d-Fructopyranose, 2,3-O-(1-methylethylidene)-
##MOLFORM=C9H16O6
##CAS REGISTRY NO=58238-46-3
##MP= -300
##BP= -300
##MW= 220
##$RETENTION INDEX=0
##$CONDENSED SPECTRUM=NO
##NPOINTS= 142
##XYDATA=(XY..XY) 1 
    25          0
    26         12
    27         75
    28          0
    29        135
    30         14
    31        258
    33          1
    36          0
    37          3
    38          6
    39         72
    40         14
    41        174
    42         68
    43        913
    44         74
    45        109
    46          3
    47          8
    49          7
    50          1
    51          3
    52          1
    53         26
    54          9
    55        261
    56         34
    57        139
    58         75
    59        999
    60         73
    61         62
    62          2
    63          0
    64          0
    65          2
    66          1
    67          5
    69         96
    70         13
    71        272
    72         42
    73        382
    74         24
    75         10
    76          3
    77          8
    78          0
    79          1
    80          0
    81         35
    82          6
    83         27
    84          9
    85        139
    86         95
    87         28
    88          4
    89         19
    90          9
    91          6
    92          0
    93          1
    94          1
    95          6
    96          2
    97         44
    98          8
    99         71
   100         12
   101        100
   102         11
   103         69
   104          7
   105          2
   109         17
   110          1
   111         26
   112          3
   113         28
   114          4
   115        106
   116          9
   117          5
   118          1
   119          3
   120          0
   121          1
   122          0
   123          2
   124          1
   125          3
   126          3
   127        288
   128         21
   129         18
   130         56
   131        131
   132         12
   133          3
   135          1
   137          1
   139         25
   140          2
   141          9
   142          1
   143          3
   144         11
   145         79
   146          6
   147          2
   148          1
   151          1
   153         36
   154          4
   155          2
   157          1
   158          0
   159         13
   160          1
   161          3
   162          1
   163          5
   166          1
   167          6
   168          1
   169         12
   170          3
   171         23
   172          3
   173          1
   185          0
   187        103
   188         11
   189        652
   190         68
   191         10
   192          1
   205        135
   206         14
   207          2