##TITLE=Library Entry 29827
##JCAMP-DX=Revision 4.10 
##DATA TYPE=MASS SPECTRUM
##SAMPLE DESCRIPTION=Chemical Concepts
##NAMES=HP
##CAS NAME=.beta.-d-Arabino-2-hexulopyranosonic acid, 2,3-O-(1-methylethylid
ene)-
##MOLFORM=C9H14O7
##CAS REGISTRY NO=58238-50-9
##MP= -300
##BP= -300
##MW= 234
##$RETENTION INDEX=0
##$CONDENSED SPECTRUM=NO
##NPOINTS= 143
##XYDATA=(XY..XY) 1 
    25         12
    27         84
    28         10
    29        171
    30         23
    31        230
    33          1
    35          2
    36          1
    37          4
    38         76
    39         13
    40        213
    42         77
    43        909
    44        125
    45        153
    46          8
    47         11
    49          0
    50          1
    51          2
    52          1
    53         11
    54          8
    55        214
    56         25
    57        137
    58         62
    59        999
    60         98
    61         36
    62          1
    63          1
    64          1
    65          1
    67          3
    68         19
    69         76
    70         11
    71        382
    72         21
    73        243
    74         17
    75         35
    76         12
    77          3
    78          5
    79          1
    81          3
    82          2
    83         18
    84         11
    85        139
    86         27
    87         71
    88         19
    89         48
    90          2
    91          7
    92          1
    93          1
    95         10
    96          1
    97          7
    98          1
    99         61
   100         11
   101         99
   102          9
   103         76
   104         12
   105         24
   106          0
   107          1
   108          0
   109          1
   111         39
   112          3
   113         44
   114          5
   115         15
   116          8
   117         31
   118          6
   119          2
   121          0
   123          1
   124          1
   125          3
   126          1
   127         11
   128          3
   129         41
   130          5
   131        199
   132         13
   133          3
   137          1
   140          3
   141        131
   142          8
   143          3
   144         22
   145         27
   146          3
   147          3
   148          1
   153         48
   154          5
   155          3
   156          1
   157          1
   158         18
   159        234
   160         16
   161          4
   171         33
   172          3
   173         14
   174          3
   175         10
   176          4
   177         17
   178          1
   186          1
   187          1
   189        909
   190         70
   191         11
   192          1
   198          2
   199          0
   201        182
   202         15
   203          3
   216          1
   217          0
   219        104
   220          9
   221          2
   235          7
   236          0