##TITLE=Library Entry 85958
##JCAMP-DX=Revision 4.10 
##DATA TYPE=MASS SPECTRUM
##SAMPLE DESCRIPTION=Div. of Experiment Therapeutics WRAIR, WRAMC, Washingto
n DC 20307
##NAMES=HP
##CAS NAME=3,5-Dichloro-2-pyridyl 2-fluoro-.alpha.-toluenesulfonate
##MOLFORM=C12H8Cl2FNO3S
##CAS REGISTRY NO=58236-47-8
##MP= -300
##BP= -300
##MW= 335
##$RETENTION INDEX=0
##$CONDENSED SPECTRUM=NO
##NPOINTS= 84
##XYDATA=(XY..XY) 1 
    42         29
    43         19
    44         29
    45         11
    47         52
    48         61
    49         84
    50         86
    51         69
    52         21
    53         30
    54         11
    55         10
    56         14
    57         84
    58         14
    59         29
    60         22
    61         17
    62         57
    63         99
    64        103
    65         69
    66          7
    67         24
    69         24
    70         13
    71         28
    72         70
    73        110
    74         41
    75         55
    76         16
    77         11
    78          4
    81        129
    83        242
    84         38
    85         14
    86         52
    87         10
    88          6
    89         35
    90          1
    91         50
    92          5
    93          1
    94          2
    95          7
    96          4
    97          5
    98          8
    99         10
   100         52
   101         11
   102         22
   105          4
   106          6
   107         88
   108         60
   109        999
   110         89
   111          7
   112          4
   123          1
   127          3
   128         14
   130          5
   134          7
   135        136
   137        103
   139         21
   163        150
   165        109
   166          6
   167         16
   172          2
   176          1
   178          3
   189          2
   190         50
   191         12
   192          7
   221          4