##TITLE=Library Entry 59636
##JCAMP-DX=Revision 4.10 
##DATA TYPE=MASS SPECTRUM
##SAMPLE DESCRIPTION=Div. of Experiment Therapeutics WRAIR, WRAMC, Washingto
n DC 20307
##NAMES=HP
##CAS NAME=3,5-Dibromo-2-pyridyl .alpha.-toluenesulfonate
##MOLFORM=C12H9Br2NO3S
##CAS REGISTRY NO=58236-62-7
##MP= -300
##BP= -300
##MW= 405
##$RETENTION INDEX=0
##$CONDENSED SPECTRUM=NO
##NPOINTS= 127
##XYDATA=(XY..XY) 1 
    41         35
    42         15
    43         25
    44         31
    45         12
    47         16
    48         60
    49        139
    50        219
    51        129
    52         63
    53        105
    54         20
    55          6
    56          2
    57          2
    58          5
    59          2
    60          2
    61         14
    62         89
    63        197
    64        231
    65        318
    66         60
    67         10
    68          3
    69          2
    70          2
    72         27
    73         16
    74         11
    75         28
    76         18
    77         19
    79        145
    81        266
    82         27
    83          6
    84         22
    85          3
    86         38
    87          7
    88          3
    89         75
    91        999
    92         79
    93         70
    94          8
    95         18
    96          0
    97          1
    98          2
    99          2
   100          2
   101          2
   102          3
   104         25
   105          9
   106         31
   107         12
   108          6
   109          5
   111         13
   112         25
   113         13
   115         26
   116         84
   117        169
   118         71
   119         93
   120          6
   121          3
   122          2
   125          1
   126          2
   127          1
   128         13
   129          8
   130         13
   131          9
   132          1
   133          2
   134          0
   135          0
   139          0
   141          2
   142         14
   143         12
   144        240
   145         18
   146        142
   147          9
   153          0
   154          2
   155          1
   156          1
   157          1
   158          1
   160          2
   162          1
   171          3
   172        101
   174         50
   175          4
   179          0
   180          0
   181          1
   194          1
   195         12
   196          5
   197         25
   198          6
   199         10
   200          1
   209          0
   222          2
   223         51
   225        114
   226          2
   227         42
   228          1
   251        146
   253        248
   254          9
   255         99
   256          6