##TITLE=Library Entry 45129
##JCAMP-DX=Revision 4.10 
##DATA TYPE=MASS SPECTRUM
##SAMPLE DESCRIPTION=Div. of Experiment Therapeutics WRAIR, WRAMC, Washingto
n DC 20307
##NAMES=HP
##CAS NAME=6-Iodoanthraquinone-1-carboxylic acid
##MOLFORM=C15H7IO4
##CAS REGISTRY NO=58236-25-2
##MP= -300
##BP= -300
##MW= 378
##$RETENTION INDEX=0
##$CONDENSED SPECTRUM=NO
##NPOINTS= 75
##XYDATA=(XY..XY) 1 
    41          9
    42          5
    43         13
    45        874
    49         10
    50        417
    51        106
    53        199
    61         85
    62         83
    63        311
    65         13
    66         12
    69         20
    72         19
    73         24
    74        630
    75        999
    76        123
    77         96
    85         23
    86         85
    87        136
    88         12
    89         73
    91         16
    92         30
    96          4
    97         42
    98        122
    99        114
   100         34
   101         23
   103         96
   104         30
   110         19
   111         57
   112         15
   113         28
   119          3
   122         47
   123         64
   124         30
   125         48
   127        349
   128          4
   134          4
   137         10
   138          5
   139        117
   140         10
   149        283
   150        147
   151        637
   152         20
   167         12
   177         38
   179        167
   180          8
   201          5
   202          6
   205         31
   207        129
   208         18
   223         20
   233         10
   276          4
   278         35
   305         19
   306         26
   334        222
   335         27
   361         10
   378         55
   379          4