##TITLE=Library Entry 59927
##JCAMP-DX=Revision 4.10 
##DATA TYPE=MASS SPECTRUM
##SAMPLE DESCRIPTION=Div. of Experiment Therapeutics WRAIR, WRAMC, Washingto
n DC 20307
##NAMES=HP
##CAS NAME=3,5-Dichloro-4-methyl-2-pyridyl .alpha.-toluenesulfonate
##MOLFORM=C13H11Cl2NO3S
##CAS REGISTRY NO=58236-67-2
##MP= -300
##BP= -300
##MW= 331
##$RETENTION INDEX=0
##$CONDENSED SPECTRUM=NO
##NPOINTS= 139
##XYDATA=(XY..XY) 1 
    41         17
    42          2
    43          4
    44          2
    45          5
    47         17
    48         14
    49         45
    50         36
    51        101
    52         23
    53          7
    54          2
    55          2
    57          6
    60          4
    61         12
    62         23
    63         70
    64         35
    65        233
    66         12
    67          2
    69          1
    70          0
    71          4
    72          4
    73         11
    74          7
    75         13
    76         33
    77         12
    78         14
    79          4
    81         15
    82          1
    83          5
    84         47
    85         55
    86         48
    87         36
    88          8
    89         44
    91        999
    92         91
    93          3
    94          0
    95          1
    96          0
    97          4
    98          2
    99          2
   100          1
   101          0
   102          0
   104          1
   105          2
   106          8
   107          4
   108          2
   109          1
   110          1
   112         61
   113          8
   114         67
   115          7
   116         15
   117          0
   120          0
   121         12
   122          1
   123          9
   124          4
   125          3
   126          2
   127          1
   128          0
   133          1
   134          0
   135          2
   137          0
   140          0
   141          1
   142          4
   143          0
   144          1
   148         43
   149         10
   150         21
   151          6
   152          5
   153          1
   160          1
   161         13
   162          9
   163         10
   164          5
   165          2
   166          1
   167          1
   168          1
   169          0
   172         24
   173          2
   174          1
   176          6
   177         64
   178          6
   179         30
   180          2
   181          6
   182          0
   190          3
   192          2
   202          0
   203          0
   204          0
   214          0
   230          0
   232          8
   233          1
   234          3
   238          1
   240          0
   250          2
   252          1
   266         49
   267        105
   268         41
   269         59
   270          9
   271          7
   272          0
   331         26
   332          4
   333         18
   334          3
   335          4
   336          0