##TITLE=Library Entry 85987
##JCAMP-DX=Revision 4.10 
##DATA TYPE=MASS SPECTRUM
##SAMPLE DESCRIPTION=Div. of Experiment Therapeutics WRAIR, WRAMC, Washingto
n DC 20307
##NAMES=HP
##CAS NAME=3,5-Dichloro-2-pyridyl 4-fluoro-.alpha.-toluenesulfonate
##MOLFORM=C12H8Cl2FNO3S
##CAS REGISTRY NO=58236-49-0
##MP= -300
##BP= -300
##MW= 335
##$RETENTION INDEX=0
##$CONDENSED SPECTRUM=NO
##NPOINTS= 98
##XYDATA=(XY..XY) 1 
    41         15
    42          8
    43         14
    44         14
    45         14
    47         52
    48         61
    49         16
    50         79
    51        118
    52         25
    53         25
    54          9
    55          8
    56          8
    57         73
    59         33
    60         16
    61         18
    62         68
    63        126
    64        100
    65        116
    66          8
    67         19
    69         22
    70         13
    71         23
    72         59
    73         84
    74         32
    75         43
    76         15
    77         15
    78          5
    79          3
    80          5
    81        130
    83        231
    84         84
    86          7
    87         11
    88         11
    89         55
    91        328
    92         21
    93          2
    94          3
    95          6
    96          3
    97          4
    98          7
    99          8
   100         39
   101          4
   102         11
   103          1
   104          2
   105          5
   107        110
   109        999
   110         88
   111          5
   112          3
   115          1
   119          1
   121          1
   123          2
   125          1
   127          2
   128         11
   129          1
   130          4
   132          0
   134          6
   135        117
   137         75
   139         16
   140          0
   145          0
   149          1
   159          1
   160          0
   161          1
   163        125
   165         84
   166          1
   167         17
   168          1
   172         22
   173          1
   174          2
   180          0
   190         63
   191          5
   192          3
   193          0
   219          0