##TITLE=Library Entry 32229
##JCAMP-DX=Revision 4.10 
##DATA TYPE=MASS SPECTRUM
##SAMPLE DESCRIPTION=NIST Mass Spectrometry Data Center
##NAMES=HP
##CAS NAME=Dimethyl-5-norbornene-2,3-dicarboxylate
##MOLFORM=C11H14O4
##CAS REGISTRY NO=5826-73-3
##MP= -300
##BP= -300
##MW= 210
##$RETENTION INDEX=1429
##$CONDENSED SPECTRUM=NO
##NPOINTS= 103
##XYDATA=(XY..XY) 1 
    14          4
    15        185
    16          3
    18          3
    26         13
    27         37
    28         14
    29         33
    30          6
    31         10
    33          2
    37          3
    38         14
    39        127
    40         42
    41         31
    42          7
    43          5
    44          2
    45         33
    46          3
    47          1
    50         14
    51         39
    52         14
    53         34
    54         13
    55         21
    56          1
    57          2
    59        130
    60          5
    61          2
    62          8
    63         30
    64         11
    65        138
    66        999
    67         60
    68          4
    69          4
    71          2
    74          1
    75          2
    76          1
    77         37
    78         12
    79         27
    80          3
    81          4
    82          6
    83          3
    85         59
    86          3
    87          1
    89         16
    90         24
    91        206
    92         34
    93          6
    94          2
    95          2
    96          1
    97          1
    98          1
    99          2
   100          1
   103          1
   105          8
   106          3
   107          6
   108          7
   109          8
   110          1
   111          3
   113        628
   114         38
   115          4
   118         52
   119        207
   120         19
   121          5
   122          4
   123          2
   124          1
   133          1
   135          3
   136          1
   137          1
   145        395
   146         26
   147          6
   148          1
   149          4
   150         50
   151        115
   152         10
   178         57
   179        137
   180         13
   181          1
   210         47
   211          6