##TITLE=Library Entry 78963
##JCAMP-DX=Revision 4.10 
##DATA TYPE=MASS SPECTRUM
##SAMPLE DESCRIPTION=Chemical Concepts
##NAMES=HP
##CAS NAME=Butanedioic acid, hydroxy-, bis(2-oxo-2-phenylethyl) ester
##MOLFORM=C20H18O7
##CAS REGISTRY NO=58265-78-4
##MP= -300
##BP= -300
##MW= 370
##$RETENTION INDEX=0
##$CONDENSED SPECTRUM=NO
##NPOINTS= 68
##XYDATA=(XY..XY) 1 
    26          8
    27         12
    28          4
    29         11
    30          2
    31          7
    38          3
    39         18
    41          5
    42         10
    43         42
    44         30
    45          4
    50         32
    51        115
    52          8
    53          4
    54          7
    55          3
    58          2
    62          3
    63          8
    64          2
    65         35
    66          2
    71         25
    74          9
    75          7
    76         15
    77        300
    78         29
    79          6
    82          5
    89          6
    90          3
    91        160
    92         12
    99          3
   104          3
   105        999
   106         81
   107          6
   118         12
   119         61
   120         51
   121          5
   135         10
   137         80
   138          6
   149          1
   150          2
   178          2
   204          3
   207         33
   208          3
   217          3
   218          2
   220          2
   221          6
   224          5
   234         53
   235         11
   236          1
   322          4
   339         13
   340          2
   370          5
   371          1