##TITLE=Library Entry 87675
##JCAMP-DX=Revision 4.10 
##DATA TYPE=MASS SPECTRUM
##SAMPLE DESCRIPTION=ASES Database, Dalian Institute, P.R. China
##NAMES=HP
##CAS NAME=N-(2,5,8-Trioxo-2,5,8-triethoxy-2,5,8-triphospha-3,6-diaza-9-oxa-
undecyl)isoindole-1,3-dione
##MOLFORM=C19H32N3O9P3
##CAS REGISTRY NO=58276-60-1
##MP= -300
##BP= -300
##MW= 539
##$RETENTION INDEX=0
##$CONDENSED SPECTRUM=NO
##NPOINTS= 50
##XYDATA=(XY..XY) 1 
    43        417
    45         50
    54         54
    58        188
    65        160
    82        567
    83        397
    93         46
    94         42
   110        999
   111        749
   124         99
   125        526
   138        537
   139        293
   153         32
   160        774
   167        233
   171         97
   181        147
   189          8
   202         18
   224        283
   230         70
   243          9
   245         32
   252        868
   253        147
   258        184
   259        207
   281         18
   282          8
   288          8
   297         68
   316          4
   317         18
   344         46
   345         55
   372        670
   373        656
   374        137
   379          4
   402         22
   418        174
   419         14
   466          9
   493         46
   494         32
   538        623
   539        142