##TITLE=Library Entry 46856
##JCAMP-DX=Revision 4.10 
##DATA TYPE=MASS SPECTRUM
##SAMPLE DESCRIPTION=D.HENNEBERG, MAX-PLANCK INSTITUTE, MULHEIM, WEST GERMAN
Y
##NAMES=HP
##CAS NAME=2-Hepten-4-yne, 2-methyl-
##MOLFORM=C8H12
##CAS REGISTRY NO=58275-91-5
##MP= -300
##BP= -300
##MW= 108
##$RETENTION INDEX=0
##$CONDENSED SPECTRUM=NO
##NPOINTS= 83
##XYDATA=(XY..XY) 1 
    24          0
    25          2
    26         17
    27        200
    28         60
    29         69
    30          1
    31          2
    33          1
    34          1
    35          2
    36          2
    37         19
    38         48
    39        425
    40         87
    41        269
    42         19
    43         31
    44         16
    45          7
    46          3
    47          2
    48          2
    49         10
    50         83
    51        200
    52         81
    53        165
    54         21
    55         27
    56          5
    57          2
    58          3
    59          2
    60          2
    61         15
    62         40
    63         95
    64         30
    65        231
    66         75
    67         76
    68         10
    69          2
    71          1
    72          3
    73          5
    74         21
    75         24
    76         13
    77        999
    78        173
    79        215
    80         42
    81         12
    82          1
    83          0
    84          1
    85          3
    86          7
    87          7
    88          2
    89         35
    90         11
    91        766
    92         83
    93        526
    94         46
    95          2
    96          0
    98          1
    99          0
   101          1
   102          3
   103         22
   104         14
   105         44
   106         36
   107         41
   108        701
   109         63
   110          2