##TITLE=Library Entry 9437
##JCAMP-DX=Revision 4.10 
##DATA TYPE=MASS SPECTRUM
##SAMPLE DESCRIPTION=Chuck Anderson, Aldrich Chemical Co.
##NAMES=HP
##CAS NAME=3-Acetylnoradamantane
##MOLFORM=C11H16O
##CAS REGISTRY NO=58275-58-4
##MP= -300
##BP= -300
##MW= 164
##$RETENTION INDEX=0
##$CONDENSED SPECTRUM=NO
##NPOINTS= 100
##XYDATA=(XY..XY) 1 
    14          1
    15         30
    26          7
    27         94
    28         15
    29         50
    31          0
    37          3
    38         15
    39        266
    40         45
    41        287
    42         25
    43        999
    44         24
    45         26
    50         26
    51         87
    52         49
    53        129
    54         26
    55        125
    56          8
    57         45
    58         15
    59          3
    62          6
    63         24
    64          8
    65        102
    66         46
    67        252
    68         51
    69         76
    70          8
    71         57
    72          4
    73          0
    74          9
    75          3
    76          9
    77        280
    78        102
    79        823
    80        159
    81         96
    82          8
    83          8
    84         31
    85        150
    86         43
    87          6
    89          4
    90          5
    91        145
    92         43
    93        384
    94         39
    95         18
    96          3
    97         11
    98          8
    99         10
   102          2
   103         13
   104         33
   105         47
   106         34
   107         50
   108         11
   109         36
   110         11
   115          9
   116          5
   117         37
   118          7
   119         15
   120         48
   121        777
   122        152
   123         31
   124          2
   129          2
   130          4
   131         51
   132          6
   133          0
   135         10
   136          4
   145          4
   146          7
   147          1
   148         23
   149        388
   150         43
   151          3
   163         18
   164        370
   165         45
   166          3