##TITLE=Library Entry 31377
##JCAMP-DX=Revision 4.10 
##DATA TYPE=MASS SPECTRUM
##SAMPLE DESCRIPTION=R.SELF AGRICULTURAL RES., FOOD RES. INSTITUTE, NORWICH,
 U.K.
##NAMES=HP
##CAS NAME=Butanoic acid, 4-(methylthio)-2-oxo-
##MOLFORM=C5H8O3S
##CAS REGISTRY NO=583-92-6
##MP= -300
##BP= -300
##MW= 148
##$RETENTION INDEX=0
##$CONDENSED SPECTRUM=NO
##NPOINTS= 51
##XYDATA=(XY..XY) 1 
    25         11
    26         72
    27        349
    29         62
    31         46
    33         23
    34         32
    35         65
    39         18
    41        127
    42         18
    43         39
    44        186
    45        372
    46         88
    47        500
    48        372
    49         68
    50         19
    55        465
    56         36
    57         27
    58         31
    59         62
    60         34
    61        999
    62         31
    63         44
    69         11
    72         13
    73         24
    74         20
    75        442
    76         31
    77         13
    81         15
    87         15
    89         15
    92         65
   100         34
   101         54
   102         18
   103        221
   104         17
   105         17
   120         67
   130         37
   133         13
   148        628
   149         14
   150         34