##TITLE=Library Entry 78378
##JCAMP-DX=Revision 4.10 
##DATA TYPE=MASS SPECTRUM
##SAMPLE DESCRIPTION=NIST Mass Spectrometry Data Center
##NAMES=HP
##CAS NAME=1,4-Pentanedione, 1-phenyl-
##MOLFORM=C11H12O2
##CAS REGISTRY NO=583-05-1
##MP= -300
##BP= -300
##MW= 176
##$RETENTION INDEX=0
##$CONDENSED SPECTRUM=NO
##NPOINTS= 70
##XYDATA=(XY..XY) 1 
    14          9
    15         62
    16          1
    17          1
    18          6
    25          1
    26         18
    27         70
    28         52
    29         11
    31          2
    32          3
    37          4
    38         11
    39         35
    40          4
    41         10
    42         34
    43        332
    44          8
    45          2
    50         78
    51        225
    52         16
    53          9
    55         55
    56          9
    57          1
    61          1
    62          5
    63         11
    64          2
    65          7
    66          2
    71         15
    72          1
    73          2
    74         19
    75         17
    77        507
    78         41
    79          7
    87          1
    89          4
    91         12
    92          2
    99          4
   102          2
   103          6
   105        999
   106         73
   107          6
   115         14
   116          4
   117          3
   118          1
   128          1
   129          1
   131          2
   133        100
   134         40
   135          3
   157          1
   158          3
   159          1
   161        176
   162         20
   163          1
   176         41
   177          6