##TITLE=Library Entry 25090
##JCAMP-DX=Revision 4.10 
##DATA TYPE=MASS SPECTRUM
##SAMPLE DESCRIPTION=Japan AIST/NIMC Database- Spectrum MS-NW- 689
##NAMES=HP
##CAS NAME=Cyclohexanol, 2-methyl-
##MOLFORM=C7H14O
##CAS REGISTRY NO=583-59-5
##MP= -300
##BP= -300
##MW= 114
##$RETENTION INDEX=960
##$CONDENSED SPECTRUM=NO
##NPOINTS= 68
##XYDATA=(XY..XY) 1 
    15         16
    17          7
    18         27
    19          1
    26         15
    27        183
    28         45
    29        178
    30         16
    31         72
    32          2
    37          4
    38         13
    39        214
    40         39
    41        381
    42        212
    43        200
    44        249
    45        110
    46          5
    47          1
    50         15
    51         24
    52         10
    53         90
    54        194
    55        446
    56        114
    57        999
    58        179
    59         14
    61          1
    62          3
    63          6
    64          1
    65         18
    66         27
    67        295
    68        783
    69         88
    70        163
    71        505
    72         96
    73          9
    74          2
    77         19
    78          9
    79         38
    80          9
    81        741
    82         60
    83         39
    84         11
    85         77
    86         77
    87          4
    94          3
    95         65
    96        657
    97         54
    98          4
    99         15
   100          3
   112          4
   113         13
   114        174
   115         14