##TITLE=Library Entry 22404
##JCAMP-DX=Revision 4.10 
##DATA TYPE=MASS SPECTRUM
##SAMPLE DESCRIPTION=Exported from NIST MS Search
##NAMES=HP
##CAS NAME=Hexane, 3,4-dimethyl-
##MOLFORM=C8H18
##CAS REGISTRY NO=583-48-2
##MP= -300
##BP= -300
##MW= 114
##$RETENTION INDEX=771
##$CONDENSED SPECTRUM=NO
##NPOINTS= 61
##XYDATA=(XY..XY) 1 
     1          3
     2          4
    12          1
    13          1
    14          2
    15         27
    26         11
    27        245
    28         46
    29        480
    30         10
    31          1
    37          2
    38          3
    39        128
    40         21
    41        565
    42         40
    43        681
    44         22
    45          1
    46          1
    50          2
    51          7
    52          3
    53         31
    54         10
    55         99
    56        999
    57        792
    58         33
    59          1
    63          1
    65          3
    66          1
    67          7
    68          1
    69         33
    70         19
    71         15
    72          1
    77          1
    78          1
    79          1
    80          1
    81          1
    82          1
    83          4
    84         73
    85        381
    86         24
    87          1
    91          1
    93          1
    97          1
    98          1
    99          3
   100          1
   113          1
   114         22
   115          2