##TITLE=Library Entry 78717
##JCAMP-DX=Revision 4.10 
##DATA TYPE=MASS SPECTRUM
##SAMPLE DESCRIPTION=NIST Mass Spectrometry Data Center, 1994
##NAMES=HP
##CAS NAME=Benzoylacrylic acid
##MOLFORM=C10H8O3
##CAS REGISTRY NO=583-06-2
##MP= -300
##BP= -300
##MW= 176
##$RETENTION INDEX=0
##$CONDENSED SPECTRUM=NO
##NPOINTS= 76
##XYDATA=(XY..XY) 1 
    12          2
    16          0
    17          0
    18          3
    25         11
    26         85
    27        103
    28          5
    37         11
    38         26
    39         39
    40          3
    42          2
    43          5
    44          5
    45        111
    49         14
    50        182
    51        436
    52         36
    53         68
    54         39
    55          9
    57          3
    60          2
    61          9
    62         16
    63         22
    64          4
    65          7
    66          3
    69          3
    71         19
    73         11
    74         52
    75         41
    76         67
    77        770
    78         61
    79          5
    81         23
    82          7
    85          4
    86          5
    87          4
    89          4
    91         14
    92          2
    99         44
   100          3
   101          5
   102         27
   103         52
   104          2
   105        999
   106         73
   107          5
   115          2
   119          2
   120          3
   121          3
   130         89
   131         82
   132         71
   133          5
   138          5
   139          3
   147         53
   148         42
   149          4
   158          9
   159         13
   160          3
   176        179
   177         21
   178          2