##TITLE=Library Entry 83134
##JCAMP-DX=Revision 4.10 
##DATA TYPE=MASS SPECTRUM
##SAMPLE DESCRIPTION=RADIAN CORP
##NAMES=HP
##CAS NAME=Benzenamine, 4-bromo-2-methyl-
##MOLFORM=C7H8BrN
##CAS REGISTRY NO=583-75-5
##MP= -300
##BP= -300
##MW= 185
##$RETENTION INDEX=0
##$CONDENSED SPECTRUM=NO
##NPOINTS= 99
##XYDATA=(XY..XY) 1 
    14          1
    15          8
    16          2
    17          7
    25          2
    26         37
    27         89
    28         31
    29         12
    30         21
    31          1
    36          2
    37         31
    38         71
    39        111
    40         30
    41         61
    42         27
    43          4
    45          2
    46          1
    48          2
    49         25
    50        156
    51        236
    52        209
    53        131
    54         69
    55          7
    60          4
    61         35
    62         72
    63        130
    64         37
    65         58
    66         34
    67         16
    68          4
    72          2
    73         21
    74         73
    75         61
    76         69
    77        414
    78        284
    79        366
    80         73
    81         58
    82         11
    83          8
    84          2
    85          7
    86         14
    87         12
    88          9
    89        101
    90         20
    91         16
    93         27
    94         25
    95          3
    99          5
   100          5
   102         10
   103          7
   104        182
   105        133
   106        999
   107         87
   108          5
   116          4
   117         12
   118          5
   119         11
   128          2
   129          1
   130          3
   131          4
   132          2
   133          2
   143          4
   145          3
   155          2
   156          3
   157         10
   158          9
   159          8
   160          7
   168          3
   169          5
   170          4
   171          4
   182          5
   184        170
   185        806
   186        228
   187        782
   188         66
   189          3