##TITLE=Library Entry 83936
##JCAMP-DX=Revision 4.10 
##DATA TYPE=MASS SPECTRUM
##SAMPLE DESCRIPTION=Japan AIST/NIMC Database- Spectrum MS-NW- 651
##NAMES=HP
##CAS NAME=Pyridine, 3,4-dimethyl-
##MOLFORM=C7H9N
##CAS REGISTRY NO=583-58-4
##MP= -300
##BP= -300
##MW= 107
##$RETENTION INDEX=999
##$CONDENSED SPECTRUM=NO
##NPOINTS= 57
##XYDATA=(XY..XY) 1 
    15          2
    26         11
    27         50
    28         25
    29          3
    30          1
    31          1
    37         11
    38         25
    39        122
    40         21
    41         30
    42          8
    43          2
    44          2
    45          2
    46          1
    49          5
    50         37
    51         67
    52         57
    53         51
    54         29
    55          5
    56          2
    57          1
    58          4
    61          5
    62          9
    63         28
    64         13
    65         68
    66         39
    67         28
    68          9
    69          1
    73          1
    74          6
    75          5
    76          5
    77        100
    78         38
    79        297
    80         74
    81          8
    86          4
    89          1
    90          1
    91          7
    92        180
    93         14
   104          9
   105          8
   106        483
   107        999
   108         79
   109          3