##TITLE=Library Entry 21073
##JCAMP-DX=Revision 4.10 
##DATA TYPE=MASS SPECTRUM
##SAMPLE DESCRIPTION=NIST Mass Spectrometry Data Center, 1990.
##NAMES=HP
##CAS NAME=Cyclohexane, 1,2-dimethyl- (cis/trans)
##MOLFORM=C8H16
##CAS REGISTRY NO=583-57-3
##MP= -300
##BP= -300
##MW= 112
##$RETENTION INDEX=800
##$CONDENSED SPECTRUM=NO
##NPOINTS= 47
##XYDATA=(XY..XY) 1 
    14          2
    15         22
    26         30
    27        276
    28         65
    29        191
    30          4
    37          5
    38         27
    39        345
    40         80
    41        617
    42        263
    43        139
    44          4
    50         20
    51         45
    52         18
    53         89
    54          4
    55        999
    56        306
    57         67
    58          3
    63          8
    64          3
    65         20
    66         11
    67         81
    68        112
    69        300
    70        227
    71         21
    77         19
    78          5
    79         15
    81         18
    82         37
    83        160
    84         72
    85          6
    91          6
    95          7
    97        840
    98         52
   112        292
   113         24