##TITLE=Library Entry 83912
##JCAMP-DX=Revision 4.10 
##DATA TYPE=MASS SPECTRUM
##SAMPLE DESCRIPTION=Japan AIST/NIMC Database- Spectrum MS-NW- 435
##NAMES=HP
##CAS NAME=Pyridine, 2,3-dimethyl-
##MOLFORM=C7H9N
##CAS REGISTRY NO=583-61-9
##MP= -300
##BP= -300
##MW= 107
##$RETENTION INDEX=941
##$CONDENSED SPECTRUM=NO
##NPOINTS= 67
##XYDATA=(XY..XY) 1 
    14          1
    15          4
    17          1
    18          4
    26         11
    27         37
    28          4
    29          3
    37         10
    38         29
    39        175
    40         44
    41         30
    42         43
    43          3
    44          2
    46          1
    49          4
    50         31
    51         55
    52         37
    53         30
    54         12
    55          8
    56          2
    57          2
    60          1
    61          7
    62         15
    63         48
    64         22
    65        145
    66        173
    67         32
    68          7
    69          9
    70          1
    71          1
    73          1
    74          4
    75          5
    76          5
    77         55
    78         25
    79        147
    80         53
    81          9
    82          1
    83          1
    87          1
    88          1
    89          2
    90          2
    91          9
    92        163
    93         14
    94          1
    95          3
    96          1
    99          1
   101          1
   104          9
   105         11
   106        548
   107        999
   108         79
   109          3