##TITLE=Library Entry 81587
##JCAMP-DX=Revision 4.10 
##DATA TYPE=MASS SPECTRUM
##SAMPLE DESCRIPTION=Japan AIST/NIMC Database- Spectrum MS-NW-3386
##NAMES=HP
##CAS NAME=Benzene, 1-bromo-2,4-dimethyl-
##MOLFORM=C8H9Br
##CAS REGISTRY NO=583-70-0
##MP= -300
##BP= -300
##MW= 184
##$RETENTION INDEX=1135
##$CONDENSED SPECTRUM=NO
##NPOINTS= 76
##XYDATA=(XY..XY) 1 
    15          4
    26          4
    27         40
    29          1
    36          1
    37         10
    38         25
    39         76
    40          7
    41          6
    43          1
    44          1
    49          6
    50         51
    51        133
    52         37
    53         28
    54          1
    59          2
    60          2
    61         13
    62         34
    63         78
    64         18
    65         25
    66          5
    73          4
    74         22
    75         20
    76         18
    77        215
    78        117
    79        157
    80          9
    81          4
    82          3
    83          1
    84          1
    85          5
    86          8
    87          9
    88          3
    89         32
    90         25
    91         10
    92         13
    93          4
    97          1
    98          3
    99          1
   101          6
   102         29
   103        204
   104         98
   105        999
   106         92
   107          3
   116          1
   117          4
   118          1
   119          3
   143          2
   145          2
   156          1
   158          1
   169         45
   170          4
   171         47
   172          4
   182          2
   183         51
   184        614
   185        106
   186        600
   187         52
   188          2