##TITLE=Library Entry 81588
##JCAMP-DX=Revision 4.10 
##DATA TYPE=MASS SPECTRUM
##SAMPLE DESCRIPTION=NIST Mass Spectrometry Data Center, 1990.
##NAMES=HP
##CAS NAME=Benzene, 4-bromo-1,2-dimethyl-
##MOLFORM=C8H9Br
##CAS REGISTRY NO=583-71-1
##MP= -300
##BP= -300
##MW= 184
##$RETENTION INDEX=0
##$CONDENSED SPECTRUM=NO
##NPOINTS= 97
##XYDATA=(XY..XY) 1 
    13          1
    15         27
    24          0
    26         22
    27         97
    29          3
    36          2
    37         19
    38         54
    39        142
    40         13
    41         11
    42          1
    43          6
    44          1
    45          0
    49         19
    50        123
    51        268
    52         57
    53         33
    54          2
    55          1
    56          0
    57          1
    60          3
    61         27
    62         69
    63        143
    64         25
    65         31
    66          5
    67          1
    71          1
    72          1
    73         10
    74         50
    75         42
    76         40
    77        282
    78        126
    79        255
    80         20
    81         10
    82          4
    83          1
    84          2
    85          6
    86         13
    87         15
    88          6
    89         62
    90         53
    91         19
    92         17
    93          6
    95          1
    97          2
    98          9
    99          2
   100          1
   101          7
   102         44
   103        201
   104        134
   105        999
   106         87
   107          4
   116          1
   117          5
   118          1
   119          5
   128          0
   129          0
   130          1
   131          1
   141          1
   142          0
   143          4
   144          0
   145          3
   155          0
   156          1
   157          1
   158          1
   159          0
   167          0
   169         90
   170         12
   171         84
   172          7
   173          0
   184        433
   185        100
   186        412
   187         33
   188          1