##TITLE=Library Entry 83670
##JCAMP-DX=Revision 4.10 
##DATA TYPE=MASS SPECTRUM
##SAMPLE DESCRIPTION=Chemical Concepts
##NAMES=HP
##CAS NAME=Fenipentol
##MOLFORM=C11H16O
##CAS REGISTRY NO=583-03-9
##MP= -300
##BP= -300
##MW= 164
##$RETENTION INDEX=1321
##$CONDENSED SPECTRUM=NO
##NPOINTS= 83
##XYDATA=(XY..XY) 1 
    26          2
    27         33
    28          2
    29         26
    30          0
    31          3
    37          0
    38          1
    39         22
    40          4
    41         25
    42          1
    43         15
    44          0
    45          1
    50          8
    51         35
    52         11
    53          7
    55          5
    56          0
    57         10
    58          0
    59          0
    61          0
    62          0
    63          5
    64          1
    65          9
    66          0
    67          1
    68          0
    69          2
    71          1
    74          2
    75          1
    76          3
    77        131
    78         32
    79        310
    80         22
    81          0
    85          4
    86          0
    87          0
    89          3
    90          0
    91         20
    92          2
    93          0
   102          1
   103          8
   104          7
   105         38
   106          8
   107        999
   108         76
   109          5
   110          0
   115          5
   116          1
   117          7
   118          0
   119          0
   120          2
   121          6
   122          1
   127          0
   128          1
   129          1
   130          0
   131          0
   133          1
   136          0
   145          1
   146          0
   147          1
   149          0
   162          0
   163          4
   164        151
   165         17
   166          1