##TITLE=Library Entry 57213
##JCAMP-DX=Revision 4.10 
##DATA TYPE=MASS SPECTRUM
##SAMPLE DESCRIPTION=Zaikin V.G., TIPS RAS, Moscow, Russia
##NAMES=HP
##CAS NAME=N,N-Dimethylhexanamide
##MOLFORM=C8H17NO
##CAS REGISTRY NO=5830-30-8
##MP= -300
##BP= -300
##MW= 143
##$RETENTION INDEX=0
##$CONDENSED SPECTRUM=NO
##NPOINTS= 43
##XYDATA=(XY..XY) 1 
    27         21
    28         10
    29         25
    30          7
    39         16
    40          3
    41         39
    42         49
    43        184
    44        186
    45        409
    46         62
    53          3
    54          2
    55         47
    56         11
    57          7
    58         17
    68          2
    69          8
    70         10
    71         51
    72        319
    73         19
    74          2
    81          2
    83          2
    86          4
    87        999
    88         43
    89          2
    98          5
    99         20
   100        159
   101         36
   113          4
   114         72
   115          6
   126          2
   128          7
   142          8
   143         49
   144         16