##TITLE=Library Entry 45694
##JCAMP-DX=Revision 4.10 
##DATA TYPE=MASS SPECTRUM
##SAMPLE DESCRIPTION=V.G. Zaikin, TIPS RAS, Moscow, Russia
##NAMES=HP
##CAS NAME=2-Dimethyl(chloromethyl)silyloxybutane
##MOLFORM=C7H17ClOSi
##CAS REGISTRY NO=58307-45-2
##MP= -300
##BP= -300
##MW= 180
##$RETENTION INDEX=0
##$CONDENSED SPECTRUM=NO
##NPOINTS= 90
##XYDATA=(XY..XY) 1 
    26         16
    27         79
    29        119
    30          3
    31         19
    39         39
    40         15
    41         59
    42         21
    43        131
    44         69
    45        175
    46         12
    47         39
    48          3
    49         18
    50          6
    51         24
    52          3
    53          9
    55         21
    56         18
    57         29
    58         37
    59         66
    60         15
    61         48
    62          3
    63         59
    64          6
    65         35
    67          6
    68          3
    69          8
    71         11
    72         19
    73         19
    74         23
    75        999
    76         79
    77         45
    78         29
    79        358
    80         39
    81        208
    82         18
    83         45
    84          4
    85          8
    86          3
    87         19
    88          3
    91          6
    92          9
    93         23
    94          7
    95         75
    96          6
    97         25
    98          3
    99          8
   101         18
   102         23
   103          9
   105          3
   106          7
   107        335
   108         31
   109        139
   110         11
   111         11
   113          3
   115         15
   116          3
   128          8
   129         39
   130          6
   131        601
   132         68
   133         24
   134          5
   151        244
   152         27
   153         91
   154         12
   155          5
   165         37
   166          7
   167         15
   168          2