##TITLE=Library Entry 55780
##JCAMP-DX=Revision 4.10 
##DATA TYPE=MASS SPECTRUM
##SAMPLE DESCRIPTION=R.T.HOLMAN,UNIVERSITY OF MINNESOTA
##NAMES=HP
##CAS NAME=9-Octadecenamide, N,N-bis(1-methylethyl)-
##MOLFORM=C24H47NO
##CAS REGISTRY NO=5831-78-7
##MP= -300
##BP= -300
##MW= 365
##$RETENTION INDEX=0
##$CONDENSED SPECTRUM=NO
##NPOINTS= 124
##XYDATA=(XY..XY) 1 
    39         60
    40         13
    41        460
    42        140
    43        670
    44        290
    45         10
    47          7
    49         15
    51          9
    52          6
    53         37
    54         76
    55        390
    56        100
    57        180
    58        420
    59         22
    60         25
    65         10
    66          9
    67        120
    68         40
    69        180
    70        110
    71         32
    72         46
    73         13
    77         13
    78          7
    79         27
    80         13
    81         72
    82         21
    83         79
    84         67
    85         23
    86        999
    87         55
    88          6
    91          8
    92          5
    93         13
    94          8
    95         41
    96         15
    97         36
    98         24
    99         17
   100        380
   101        120
   102         18
   103          5
   105          7
   107         10
   108          6
   109         18
   110          8
   111          9
   112         17
   113          7
   114         71
   115         17
   119          5
   120          5
   121          9
   122          6
   123         10
   124          8
   125          5
   126          9
   127          5
   128         41
   129         14
   135          7
   136          5
   137          6
   138          5
   139          5
   140          8
   141          5
   142         19
   143        110
   144         15
   149          6
   154          9
   156        130
   157         17
   168          9
   170         45
   171          9
   182          6
   184         14
   185          5
   196          9
   198         16
   199          7
   210          9
   212         40
   213          8
   224          9
   226          7
   238         11
   252         12
   253          6
   265          7
   266         39
   267         11
   280         31
   281          9
   294          9
   308          7
   322        200
   323         36
   324         11
   336          7
   337          7
   350          7
   351          7
   363          5
   364         13
   365        160
   366         41
   367         10