##TITLE=Library Entry 6535
##JCAMP-DX=Revision 4.10 
##DATA TYPE=MASS SPECTRUM
##SAMPLE DESCRIPTION=P.- L.Lehtela ET AL, Org.Mass Spectrom.,29,647(1994)
##NAMES=HP
##CAS NAME=5-Methyloxazolidine
##MOLFORM=C4H9NO
##CAS REGISTRY NO=58328-22-6
##MP= -300
##BP= -300
##MW= 87
##$RETENTION INDEX=0
##$CONDENSED SPECTRUM=NO
##NPOINTS= 19
##XYDATA=(XY..XY) 1 
    15         50
    27         58
    28        122
    29         53
    30         63
    31         42
    39         23
    40          7
    41        125
    42        396
    43        999
    44         93
    45        148
    56        132
    57         55
    58         47
    72         15
    86         21
    87          4