##TITLE=Library Entry 1784
##JCAMP-DX=Revision 4.10 
##DATA TYPE=MASS SPECTRUM
##SAMPLE DESCRIPTION=NIST Mass Spectrometry Data Center, 1994
##NAMES=HP
##CAS NAME=4-Methyl-3-nitropyridine
##MOLFORM=C6H6N2O2
##CAS REGISTRY NO=5832-44-0
##MP= -300
##BP= -300
##MW= 138
##$RETENTION INDEX=0
##$CONDENSED SPECTRUM=NO
##NPOINTS= 65
##XYDATA=(XY..XY) 1 
    12          3
    13          4
    14          3
    15         18
    16          6
    17          1
    18          4
    24          2
    25          8
    26         60
    27        104
    28         76
    29         12
    30        193
    36          6
    37         86
    38        186
    39        999
    40         65
    41         31
    42          6
    43          1
    44          3
    45          1
    46         39
    48          4
    49         32
    50        148
    51        134
    52        112
    53        110
    54         15
    55         11
    56          2
    60          6
    61         42
    62         96
    63        247
    64        155
    65        965
    66        130
    67         10
    68          5
    75         19
    76         17
    77          4
    78         11
    79          7
    80         16
    81          6
    82          1
    87          2
    88          2
    90          5
    92        394
    93         88
    94         12
   108          4
   109          1
   121        671
   122         48
   123          3
   138        178
   139         16
   140          1