##TITLE=Library Entry 24222
##JCAMP-DX=Revision 4.10 
##DATA TYPE=MASS SPECTRUM
##SAMPLE DESCRIPTION=J. Klune, Insect Chem. Ecol. Lab., USDA, Beltsville, MD
 20705
##NAMES=HP
##CAS NAME=10-Methyldotriacontane
##MOLFORM=C33H68
##CAS REGISTRY NO=58349-83-0
##MP= -300
##BP= -300
##MW= 464
##$RETENTION INDEX=3230
##$CONDENSED SPECTRUM=NO
##NPOINTS= 232
##XYDATA=(XY..XY) 1 
    41        321
    42        124
    43        831
    44         40
    45         11
    47          2
    49          9
    51          4
    53         17
    54         43
    55        414
    56        258
    57        999
    58         91
    59         32
    60         15
    61          5
    65          3
    66          7
    67         73
    68         78
    69        319
    70        163
    71        764
    72         50
    73         20
    74          5
    77          3
    79         12
    80          7
    81         71
    82        107
    83        270
    84        108
    85        575
    86         43
    87         12
    88          1
    91          6
    92          2
    93          7
    94          6
    95         56
    96         79
    97        267
    98         74
    99        192
   100         21
   101          5
   105          3
   107          5
   108          3
   109         30
   110         40
   111        142
   112         53
   113        109
   114          8
   115          8
   116          2
   119          2
   120          2
   121          5
   122          3
   123         16
   124         21
   125         75
   126        110
   127         70
   128          8
   129         11
   130          1
   133          2
   135          9
   136          1
   137         15
   138         12
   139         22
   140         21
   141         46
   142          7
   143         10
   147          3
   149          9
   150          2
   151          8
   152         21
   153         32
   154        713
   155        245
   156         23
   157          3
   159          2
   163          2
   165          4
   166          8
   167         12
   168         40
   169         47
   170         32
   171        115
   172         13
   173          2
   177          2
   179          3
   180          6
   181         12
   182         20
   183         31
   184         15
   185          9
   186          3
   187          5
   191          1
   193          2
   194          5
   195         14
   196         14
   197         30
   198          5
   199          4
   207          2
   208          5
   209          6
   210         15
   211         21
   212          4
   213          2
   221          1
   222          5
   223          4
   224          9
   225         14
   226          3
   227          2
   236          4
   237          4
   238          6
   239         11
   240          2
   241          3
   250          4
   251          3
   252          5
   253          9
   254          2
   264          3
   265          2
   266          4
   267          8
   268          2
   269          1
   278          4
   279          3
   280          5
   281          6
   282          2
   283          2
   292          5
   293          2
   294          5
   295          6
   296          2
   297          2
   306          9
   307          4
   308         94
   309         48
   310         10
   311          7
   312          3
   321          1
   322          6
   323         21
   324          7
   325          4
   326         11
   327          3
   334         11
   335          7
   336        286
   337        284
   338         63
   339          8
   340         14
   341          4
   348          2
   349          6
   350         21
   351         85
   352         31
   353         20
   354          5
   363          3
   364         13
   365         17
   366          8
   367         10
   368          4
   369          4
   377          2
   378         12
   379         15
   380          5
   381          1
   392         13
   393         19
   394          6
   395          1
   406         11
   407         19
   408          7
   409          1
   420          9
   421         20
   422          6
   423          1
   434         12
   435         31
   436         11
   437          2
   448          5
   449         38
   450         13
   451          2
   460          4
   461          3
   462         11
   463         15
   464         21
   465          7
   466          1