##TITLE=Library Entry 109508
##JCAMP-DX=Revision 4.10 
##DATA TYPE=MASS SPECTRUM
##SAMPLE DESCRIPTION=NIST Mass Spectrometry Data Center
##NAMES=HP
##CAS NAME=3-Methyl-2-thiophenecarboxaldehyde
##MOLFORM=C6H6OS
##CAS REGISTRY NO=5834-16-2
##MP= -300
##BP= -300
##MW= 126
##$RETENTION INDEX=1121
##$CONDENSED SPECTRUM=NO
##NPOINTS= 67
##XYDATA=(XY..XY) 1 
    12          5
    13          7
    14          7
    15          5
    24          3
    25         12
    26         50
    27        149
    28         25
    29        113
    30          4
    32         23
    33          8
    34          3
    35          3
    36         17
    37         84
    38        100
    39        177
    40         12
    45        485
    46         25
    47         39
    48         16
    49         55
    50        131
    51        113
    53        356
    54         20
    56         11
    57         66
    58         77
    60         13
    61         30
    62         33
    63         44
    64          7
    65         16
    66          6
    67         10
    69        211
    70         92
    71         78
    72         15
    73          5
    77          5
    79          2
    81         34
    82         34
    83          9
    84          5
    85          1
    92          7
    93         23
    94          5
    95         28
    97        499
    98         40
    99         25
   100          1
   109          1
   111          5
   125        999
   126        872
   127        108
   128         42
   129          3