##TITLE=Library Entry 24273
##JCAMP-DX=Revision 4.10 
##DATA TYPE=MASS SPECTRUM
##SAMPLE DESCRIPTION=J. Klune, Insect Chem. Ecol. Lab., USDA, Beltsville, MD
 20705
##NAMES=HP
##CAS NAME=17-Methyltritriacontane
##MOLFORM=C34H70
##CAS REGISTRY NO=58349-88-5
##MP= -300
##BP= -300
##MW= 478
##$RETENTION INDEX=3327
##$CONDENSED SPECTRUM=NO
##NPOINTS= 140
##XYDATA=(XY..XY) 1 
    41        217
    42         88
    43        694
    44         22
    47          8
    49         31
    51         10
    53          9
    54         29
    55        267
    56        177
    57        999
    58         39
    67         39
    68         42
    69        197
    70        121
    71        645
    72         32
    79          7
    81         28
    82         57
    83        177
    84         89
    85        424
    86         39
    95         18
    96         39
    97        170
    98         53
    99        163
   100         11
   109          9
   110         21
   111         93
   112         44
   113        104
   114         10
   123          3
   124         15
   125         51
   126         36
   127         74
   128          7
   137          4
   138         11
   139         24
   140         34
   141         58
   142          4
   152         10
   153         17
   154         30
   155         49
   156          5
   166          6
   167         10
   168         26
   169         43
   170          2
   171          2
   180          2
   181          7
   182         23
   183         35
   184          2
   194          2
   195          2
   196         24
   197         30
   208          2
   209          2
   210         22
   211         24
   222          4
   223          2
   224        113
   225         48
   226          6
   238         18
   239         24
   240          4
   241          2
   250          5
   251          2
   252        457
   253        255
   254         42
   255          2
   266         28
   267         28
   268          2
   280         22
   281         25
   282          2
   294         18
   295         22
   296          5
   308         16
   309         25
   310          4
   322         13
   323         21
   324          2
   336         13
   337         22
   338          4
   350         11
   351         20
   352          5
   364          8
   365         21
   366          6
   378          7
   379         20
   380          4
   392          8
   393         20
   394          5
   406          7
   407         17
   408          5
   420          6
   421         15
   422          3
   423          5
   434          4
   435          9
   448         14
   449         24
   450        127
   451         44
   452          7
   462          2
   463         26
   464         11
   476          4
   477          4
   478         14
   479          2