##TITLE=Library Entry 24249
##JCAMP-DX=Revision 4.10 
##DATA TYPE=MASS SPECTRUM
##SAMPLE DESCRIPTION=J. Klune, Insect Chem. Ecol. Lab., USDA, Beltsville, MD
 20705
##NAMES=HP
##CAS NAME=9-Methyltritriacontane
##MOLFORM=C34H70
##CAS REGISTRY NO=58349-86-3
##MP= -300
##BP= -300
##MW= 478
##$RETENTION INDEX=3327
##$CONDENSED SPECTRUM=NO
##NPOINTS= 220
##XYDATA=(XY..XY) 1 
    41        264
    42         27
    43        857
    44         23
    45          2
    49          4
    51          2
    53         17
    54         10
    55        374
    56        163
    57        999
    58         41
    59          7
    65          4
    66          2
    67         67
    68         65
    69        243
    70         87
    71        603
    72         30
    73          3
    77          3
    79         14
    80          2
    81         66
    82         80
    83        206
    84         81
    85        404
    86         25
    91          5
    93          6
    94          5
    95         40
    96         62
    97        220
    98         60
    99        126
   100          9
   105          4
   106          0
   107          3
   108          2
   109         24
   110         30
   111        128
   112         58
   113         54
   114          5
   115          2
   117          0
   119          3
   121          3
   122          1
   123         11
   124         12
   125         44
   126         23
   127         34
   128          5
   129          3
   131          2
   132          0
   133          3
   134          0
   135          4
   136          2
   137          9
   138         35
   139         76
   140        489
   141        140
   142         12
   143          1
   145          1
   149          2
   150          0
   151          5
   152          8
   153         15
   154         47
   155         38
   156          8
   157         21
   158          2
   159          2
   161          1
   163          1
   165          5
   166          6
   167         11
   168         13
   169         22
   170          6
   171          7
   173          2
   177          0
   179          3
   180          6
   181         12
   182         14
   183         29
   184          5
   185          4
   187          1
   189          1
   191          2
   192          0
   193          2
   194          4
   195          5
   196          8
   197         12
   198          0
   203          0
   205          1
   207          1
   208          4
   209          5
   210          7
   211         12
   212          1
   221          1
   222          5
   223          6
   224          8
   225         13
   226          2
   229          0
   236          2
   237          3
   238          3
   239          8
   240          1
   241          2
   250          4
   251          4
   252          4
   253          8
   254          1
   255          0
   263          0
   264          3
   265          3
   266          4
   267          9
   268          2
   269          1
   278          3
   279          3
   280          3
   281          6
   282          1
   292          3
   293          2
   294          4
   295          7
   296          1
   297          1
   306          2
   307          1
   308          4
   309          5
   312          0
   320          4
   321          1
   322          5
   323          4
   324          0
   334         11
   335          4
   336         57
   337         27
   338          5
   339          1
   350          6
   351         15
   352          5
   353         30
   354          8
   356          0
   362         17
   363         13
   364        164
   365        179
   366         45
   367          6
   378         21
   379         28
   380         10
   381          4
   392          6
   393          9
   394          3
   404          0
   406          9
   407         12
   408          4
   420          8
   421         15
   422          5
   434          7
   435         14
   436          5
   438          0
   448         10
   449         24
   450          8
   462          4
   463         27
   464         10
   465          2
   474          5
   475          3
   476         14
   477         24
   478         50
   479          5