##TITLE=Library Entry 91236
##JCAMP-DX=Revision 4.10 
##DATA TYPE=MASS SPECTRUM
##SAMPLE DESCRIPTION=Japan AIST/NIMC Database- Spectrum MS-NW-9822
##NAMES=HP
##CAS NAME=1,8,15,22-Tetraaza-2,9,16,23-cyclooctacosanetetrone
##MOLFORM=C24H44N4O4
##CAS REGISTRY NO=5834-63-9
##MP= -300
##BP= -300
##MW= 452
##$RETENTION INDEX=0
##$CONDENSED SPECTRUM=NO
##NPOINTS= 387
##XYDATA=(XY..XY) 1 
    14          1
    15          3
    16          1
    17          1
    18          8
    26          5
    27         25
    28         33
    29         24
    30        159
    31          5
    37          1
    38          2
    39         24
    40          7
    41        148
    42         47
    43         57
    44         60
    45          9
    46          5
    50          2
    51          3
    52          4
    53         13
    54         27
    55        178
    56         97
    57         44
    58         29
    59         15
    60         10
    63          1
    64          1
    65          6
    66          7
    67         64
    68         32
    69        200
    70         60
    71         22
    72         58
    73         26
    74          6
    77          4
    78          3
    79         46
    80         11
    81         15
    82         27
    83         38
    84        109
    85         73
    86        147
    87         26
    88          9
    91          4
    92          3
    93          9
    94         18
    95         32
    96        215
    97         75
    98         51
    99         25
   100         31
   101         25
   102          5
   103          1
   104          1
   105          2
   106          4
   107          6
   108          8
   109         10
   110         25
   111         45
   112        120
   113        123
   114        999
   115         97
   116          9
   117          2
   118          2
   119          2
   120          5
   121          6
   122         11
   123         11
   124         19
   125         19
   126         47
   127         38
   128         32
   129         47
   130          9
   131         21
   132          6
   133          3
   134          5
   135          5
   136          9
   137         15
   138         19
   139         33
   140         64
   141         23
   142         38
   143         64
   144         25
   145         15
   146          4
   147          4
   148          5
   149          7
   150         13
   151         16
   152         20
   153         27
   154         57
   155         48
   156         63
   157        117
   158         20
   159          9
   160          3
   161          3
   162          5
   163          7
   164          9
   165         17
   166         12
   167         40
   168        132
   169         36
   170         42
   171        133
   172         50
   173         25
   174          4
   175          2
   176          2
   177          3
   178          5
   179         11
   180         23
   181         41
   182         76
   183         72
   184         38
   185         88
   186         72
   187         13
   188          3
   189          5
   190          6
   191          6
   192          5
   193          5
   194          5
   195         14
   196         20
   197         44
   198         51
   199        218
   200        101
   201         38
   202          5
   203          2
   204          1
   205          3
   206          8
   207         29
   208         55
   209         63
   210         27
   211         35
   212         32
   213         69
   214        116
   215         20
   216          3
   217          1
   218          1
   219          2
   220          2
   221          6
   222          7
   223          9
   224         33
   225         80
   226         96
   227        307
   228        117
   229         18
   230          2
   231          1
   232          1
   233          2
   234          4
   235          9
   236          5
   237         10
   238         13
   239        105
   240         53
   241        101
   242        180
   243         46
   244         37
   245          8
   246          2
   247          1
   248          2
   249          6
   250         11
   251         14
   252         24
   253        103
   254         48
   255        111
   256         66
   257         21
   258         11
   259          2
   260          1
   261          2
   262          4
   263          5
   264          8
   265         14
   266         27
   267         66
   268         96
   269        109
   270         90
   271         20
   272          9
   273          2
   274          1
   275          1
   276          3
   277          4
   278         15
   279         26
   280         30
   281         80
   282         48
   283         54
   284         47
   285         25
   286         24
   287          5
   288          1
   290          1
   291          2
   292         10
   293         23
   294         29
   295         49
   296         89
   297         45
   298         60
   299         41
   300         12
   301          2
   302          1
   303          2
   304          2
   305          2
   306          4
   307          4
   308          8
   309         14
   310         52
   311         61
   312        113
   313         70
   314         81
   315         14
   316          2
   317          1
   318          1
   319          4
   320         20
   321         18
   322         23
   323         13
   324         41
   325         29
   326         43
   327         26
   328         69
   329         13
   330          2
   331          1
   332          1
   333          1
   334          8
   335          5
   336          8
   337         14
   338        103
   339         62
   340        216
   341         65
   342         17
   343          3
   346          1
   347          2
   348          8
   349          4
   350          7
   351          9
   352         92
   353         42
   354         47
   355         96
   356         37
   357          8
   358          1
   360          1
   361          1
   362          4
   363          8
   364         16
   365          9
   366         87
   367         38
   368         54
   369         32
   370          8
   371          2
   374          1
   375          1
   376          3
   377          6
   378         17
   379         17
   380         50
   381         70
   382         47
   383         19
   384          4
   385          1
   389          2
   390          2
   391          6
   392          9
   393          5
   394         26
   395         28
   396         19
   397          6
   398          2
   399          1
   405          4
   406          7
   407         22
   408         12
   409         23
   410         15
   411          6
   412          1
   416          1
   417          2
   418          1
   419          1
   422          1
   423         16
   424        138
   425         37
   426          6
   427          1
   432          1
   433          4
   434         22
   435          9
   436          2
   437          3
   438          1
   450          2
   451          8
   452        156
   453         63
   454         12
   455          2