##TITLE=Library Entry 27288
##JCAMP-DX=Revision 4.10 
##DATA TYPE=MASS SPECTRUM
##SAMPLE DESCRIPTION=J. Klune, Insect Chem. Ecol. Lab., USDA, Beltsville, MD
 20705
##NAMES=HP
##CAS NAME=14-Methyldotriacontane
##MOLFORM=C33H68
##CAS REGISTRY NO=58349-84-1
##MP= -300
##BP= -300
##MW= 464
##$RETENTION INDEX=3228
##$CONDENSED SPECTRUM=NO
##NPOINTS= 202
##XYDATA=(XY..XY) 1 
    41        304
    42        104
    43        842
    44         27
    45          2
    49          1
    51          0
    53         15
    54         33
    55        334
    56        303
    57        999
    58         71
    59         46
    60          1
    65          2
    66          7
    67         67
    68         82
    69        349
    70        160
    71        660
    72         38
    73          2
    77          1
    79         12
    80          8
    81         73
    82        129
    83        289
    84        116
    85        472
    86         32
    87          2
    91          2
    93          6
    94          4
    95         59
    96        112
    97        368
    98         76
    99        194
   100         28
   101          1
   107          3
   108          2
   109         29
   110         48
   111        230
   112         59
   113        121
   114         17
   115          1
   119         10
   121          3
   122          1
   123         16
   124         29
   125        121
   126         37
   127         95
   128          9
   129          1
   131         40
   132          1
   135          3
   136          1
   137          9
   138         22
   139         57
   140         27
   141         71
   142          8
   149          2
   150          2
   151          4
   152         15
   153         35
   154         23
   155         53
   156          7
   165          2
   166         18
   167         23
   168         39
   169         44
   170          6
   179          1
   180         12
   181         21
   182        151
   183         61
   184          8
   185          2
   193          1
   194          7
   195         10
   196         28
   197         28
   198          4
   199          2
   207          3
   208         70
   209         80
   210        909
   211        465
   212         61
   213          5
   219         78
   220          2
   221          1
   222          8
   223          9
   224         91
   225         89
   226         36
   227        146
   228         21
   229          2
   235          2
   236         10
   237         13
   238         32
   239         35
   240         14
   241          5
   243          0
   250         12
   251         18
   252        159
   253        133
   254         23
   255          3
   264         30
   265          6
   266         38
   267         34
   268          8
   269         10
   278         65
   279         58
   280        501
   281        415
   282         78
   283          9
   292          4
   293          5
   294         84
   295        173
   296         44
   297         26
   298          5
   307          7
   308         17
   309         23
   310          7
   311          6
   312          0
   319          0
   321          3
   322         12
   323         21
   324          5
   336         12
   337         15
   338          4
   350          9
   351         12
   352          2
   353          1
   364          9
   365         11
   366          2
   367          1
   378          8
   379         12
   380          2
   392         10
   393         15
   394          3
   406          9
   407         17
   408          6
   414          6
   420          9
   421         20
   422          6
   426          0
   434         17
   435         38
   436         12
   437          2
   448          7
   449         49
   450         17
   451          3
   460          8
   461         14
   462         17
   463         42
   464         82
   465         10