##TITLE=Library Entry 12611
##JCAMP-DX=Revision 4.10 
##DATA TYPE=MASS SPECTRUM
##SAMPLE DESCRIPTION=Y. SAINT-JALM, DEP. BIOL. CHIM., SEITA, PARIS, FR.
##NAMES=HP
##CAS NAME=1,3,7,7-Tetramethyl-9-oxo-2-oxabicyclo[4.4.0]decane
##MOLFORM=C13H22O2
##CAS REGISTRY NO=5835-18-7
##MP= -300
##BP= -300
##MW= 210
##$RETENTION INDEX=0
##$CONDENSED SPECTRUM=NO
##NPOINTS= 23
##XYDATA=(XY..XY) 1 
    39        170
    41        530
    43        999
    53        140
    55        470
    67        350
    68        120
    69        650
    81        140
    82        230
    83        330
    85        100
    95        360
    96        200
   110        220
   111        360
   123        100
   138        140
   153        890
   154        100
   195        620
   196        180
   210        100