##TITLE=Library Entry 17192
##JCAMP-DX=Revision 4.10 
##DATA TYPE=MASS SPECTRUM
##SAMPLE DESCRIPTION=A.QUAYLE SHELL LTD., THORNTON RES. CENT., CHESTER, CHES
., UK
##NAMES=HP
##CAS NAME=2-Pentanol, formate
##MOLFORM=C6H12O2
##CAS REGISTRY NO=58368-66-4
##MP= -300
##BP= -300
##MW= 116
##$RETENTION INDEX=731
##$CONDENSED SPECTRUM=NO
##NPOINTS= 16
##XYDATA=(XY..XY) 1 
    27        145
    29        159
    31        165
    39        114
    41        232
    42        218
    43        381
    44        106
    45        999
    55        555
    59        384
    70        606
    71        182
    73        280
    87         99
   101         36