##TITLE=Library Entry 52083
##JCAMP-DX=Revision 4.10 
##DATA TYPE=MASS SPECTRUM
##SAMPLE DESCRIPTION=Chuck Anderson, Aldrich Chemical Co.
##NAMES=HP
##CAS NAME=Ethyl tiglate
##MOLFORM=C7H12O2
##CAS REGISTRY NO=5837-78-5
##MP= -300
##BP= -300
##MW= 128
##$RETENTION INDEX=939
##$CONDENSED SPECTRUM=NO
##NPOINTS= 72
##XYDATA=(XY..XY) 1 
    14          2
    15         16
    16          0
    19          0
    25          1
    26         33
    27        343
    28         81
    29        543
    30         15
    31          7
    32          0
    36          0
    37          4
    38         13
    39        201
    40         20
    41         46
    42          8
    43         48
    44          4
    45         41
    46          0
    47          0
    49          1
    50         15
    51         24
    52         12
    53         86
    54         78
    55        679
    56         58
    57         10
    58          3
    59          5
    60          1
    65          0
    66          0
    67          6
    68          0
    69         18
    70          4
    71          7
    72          6
    73         12
    74          1
    79          0
    81         15
    82        147
    83        999
    84         63
    85        153
    86          7
    87          2
    95         11
    96          0
    97          1
    98          2
    99         32
   100        343
   101         19
   102          1
   109          0
   110          3
   111          1
   113        401
   114         26
   115          2
   127          2
   128        249
   129         21
   130          1