##TITLE=Library Entry 9945
##JCAMP-DX=Revision 4.10 
##DATA TYPE=MASS SPECTRUM
##SAMPLE DESCRIPTION=Chemical Concepts
##NAMES=HP
##CAS NAME=Pentanoic acid, 2,2-dimethyl-, ethyl ester
##MOLFORM=C9H18O2
##CAS REGISTRY NO=5837-93-4
##MP= -300
##BP= -300
##MW= 158
##$RETENTION INDEX=0
##$CONDENSED SPECTRUM=NO
##NPOINTS= 75
##XYDATA=(XY..XY) 1 
    26          7
    27        168
    29        246
    30          6
    31          8
    37          0
    38          1
    39         81
    40         49
    41        227
    42         38
    43        999
    44         27
    45         31
    46          0
    47          2
    50          0
    51          2
    52          1
    53         12
    54          2
    55         45
    56         75
    57        128
    58          5
    59         35
    60          2
    61          1
    63          0
    65          2
    66          0
    67          5
    68          2
    69         76
    70         27
    71          5
    72          0
    73         38
    74          1
    75          1
    77          0
    79          0
    80          0
    81          0
    82          0
    83         10
    84         97
    85        687
    86         41
    87         19
    88        127
    89          7
    90          0
    91          1
    92          0
    97          4
    98          0
    99          0
   101         21
   102          2
   111          0
   112          0
   113         36
   114          3
   115         16
   116        287
   117         21
   118          1
   129         21
   130          2
   131          0
   143          1
   144          0
   157          0
   159          1