##TITLE=Library Entry 71145
##JCAMP-DX=Revision 4.10 
##DATA TYPE=MASS SPECTRUM
##SAMPLE DESCRIPTION=Chemical Concepts
##NAMES=HP
##CAS NAME=Cyclohexanone, 2-(1-hydroxyethyl)-
##MOLFORM=C8H14O2
##CAS REGISTRY NO=58372-28-4
##MP= -300
##BP= -300
##MW= 142
##$RETENTION INDEX=0
##$CONDENSED SPECTRUM=NO
##NPOINTS= 101
##XYDATA=(XY..XY) 1 
    25          3
    26         25
    27        207
    28         32
    29        180
    30          5
    31         33
    33          0
    34          1
    35          0
    36          1
    37          5
    38         15
    39        206
    40         62
    41        370
    42        272
    43        471
    44        149
    45        439
    46         12
    47          3
    48          3
    49         14
    50         14
    51         28
    52         15
    53         75
    54         96
    55        618
    56        106
    57        147
    58         72
    59         11
    60         34
    61          9
    62          4
    63         10
    64          3
    65         24
    66         59
    67        287
    68        102
    69        176
    70        850
    71        195
    72         14
    73         33
    74         14
    75          2
    76          2
    77         27
    78          8
    79         71
    80        110
    81        332
    82        148
    83        429
    84         37
    85         95
    86          8
    87         19
    88          4
    89          3
    90          2
    91         53
    92         32
    93         10
    94          3
    95         69
    96        106
    97        301
    98        999
    99        150
   100         35
   101          6
   102          1
   103          2
   104          2
   105          8
   106          7
   107          3
   108          1
   109        230
   110         19
   111          2
   112          0
   113         86
   114          8
   122          1
   123         13
   124        662
   125         72
   126          5
   127         81
   128          8
   129          0
   141          7
   142         15
   143          6
   144          0