##TITLE=Library Entry 45424
##JCAMP-DX=Revision 4.10 
##DATA TYPE=MASS SPECTRUM
##SAMPLE DESCRIPTION=NIST Mass Spectrometry Data Center, 2009
##NAMES=HP
##CAS NAME=Benzene, 1-bromo-2,4-dinitro-
##MOLFORM=C6H3BrN2O4
##CAS REGISTRY NO=584-48-5
##MP= -300
##BP= -300
##MW= 246
##$RETENTION INDEX=1755
##$CONDENSED SPECTRUM=NO
##NPOINTS= 139
##XYDATA=(XY..XY) 1 
    16          1
    25          1
    26          3
    27          3
    28         11
    30        440
    31          2
    32          1
    36          4
    37         41
    38         49
    39         12
    40          2
    41          4
    42          1
    44          2
    45          5
    46         34
    47          1
    48          3
    49         28
    50         71
    51         33
    52         22
    53         37
    54          4
    55          2
    60          8
    61         57
    62         98
    63        363
    64         44
    65         16
    66          8
    67          3
    68          2
    69          3
    72          5
    73         97
    74        635
    75        999
    76        138
    77         33
    78          5
    79         88
    80         14
    81          9
    82          4
    83          1
    86          6
    87         13
    88         15
    89          7
    90         31
    91         46
    92          6
    93         18
    94          1
    95          3
   103          1
   104         27
   105          8
   106         16
   107        190
   108         16
   109          5
   115          2
   116          9
   117         22
   118         12
   119         22
   120          5
   121          3
   122          1
   123          5
   128         41
   129         16
   130         47
   131         21
   132          8
   133         14
   134          2
   135          9
   136          1
   137          1
   139          1
   140          1
   141          7
   142         23
   143         15
   144         23
   145          9
   146          2
   147          1
   152          6
   153        235
   154        305
   155        253
   156        281
   157         27
   158         11
   159          3
   160         10
   161          1
   162          2
   167          8
   168          4
   169          6
   170        101
   171         22
   172         98
   173         15
   174          2
   183          2
   184          8
   185          7
   186         12
   187          6
   188          4
   199          4
   200         44
   201          7
   202         46
   203          3
   216         60
   217          5
   218         62
   219          5
   230         12
   231          1
   232         13
   233          1
   234          1
   244          1
   246        444
   247         35
   248        430
   249         31
   250          5