##TITLE=Library Entry 46653
##JCAMP-DX=Revision 4.10 
##DATA TYPE=MASS SPECTRUM
##SAMPLE DESCRIPTION=Exported from NIST MS Search
##NAMES=HP
##CAS NAME=Propanedioic acid, (phenylmethylene)-
##MOLFORM=C10H8O4
##CAS REGISTRY NO=584-45-2
##MP= -300
##BP= -300
##MW= 192
##$RETENTION INDEX=0
##$CONDENSED SPECTRUM=NO
##NPOINTS= 49
##XYDATA=(XY..XY) 1 
    38        115
    39        313
    45        277
    50        484
    51        973
    52        226
    53        173
    59         51
    61         64
    62        140
    63        224
    64         66
    65        151
    69        191
    73         51
    74        286
    75        340
    76        326
    77        999
    78        406
    79        131
    87         64
    89        200
    90        471
    91        295
    92         46
    94         42
    98         53
   101        142
   102        673
   103        533
   104         64
   105         71
   106         93
   107         93
   118        688
   119        115
   120         48
   129        148
   130        148
   131        126
   146        682
   147        251
   148         73
   173        268
   174        959
   175        173
   191         60
   192        213