##TITLE=Library Entry 69785
##JCAMP-DX=Revision 4.10 
##DATA TYPE=MASS SPECTRUM
##SAMPLE DESCRIPTION=NIST Mass Spectrometry Data Center, 1994
##NAMES=HP
##CAS NAME=3-Thiopheneacetic acid, methyl ester
##MOLFORM=C7H8O2S
##CAS REGISTRY NO=58414-52-1
##MP= -300
##BP= -300
##MW= 156
##$RETENTION INDEX=0
##$CONDENSED SPECTRUM=NO
##NPOINTS= 75
##XYDATA=(XY..XY) 1 
    12          2
    13          2
    14          9
    15        117
    16          1
    17          1
    18          4
    25          1
    26         15
    27         30
    28          4
    29         31
    30         10
    32          1
    33          2
    37         13
    38         27
    39         61
    40          3
    41          3
    42          8
    43          1
    44          1
    45        271
    46         11
    47         21
    49         11
    50         35
    51         43
    52         16
    53        117
    54          5
    55          2
    57         16
    58         23
    59         49
    60          3
    61          5
    62          8
    63         17
    64          2
    65          3
    67          1
    68          6
    69         72
    70         31
    71         25
    72          3
    73          1
    77          1
    81          7
    82          7
    83          2
    84          4
    85          7
    92          1
    93          5
    95         16
    97        999
    98         72
    99         48
   100          2
   111          9
   112          2
   113          3
   124         20
   125         12
   126          2
   127          3
   128         11
   141          2
   156        239
   157         21
   158         12
   159          1