##TITLE=Library Entry 4426
##JCAMP-DX=Revision 4.10 
##DATA TYPE=MASS SPECTRUM
##SAMPLE DESCRIPTION=Institute of Organic Chemistry, Novosibirsk, USSR 1988
##NAMES=HP
##CAS NAME=4,4,6,6-Tetramethyltetrahydro-1,3-oxazine-2-thione
##MOLFORM=C8H15NOS
##CAS REGISTRY NO=58418-17-0
##MP= -300
##BP= -300
##MW= 173
##$RETENTION INDEX=0
##$CONDENSED SPECTRUM=NO
##NPOINTS= 73
##XYDATA=(XY..XY) 1 
    25          7
    26         51
    27        284
    28        411
    29        328
    30         68
    31         21
    32         10
    33          4
    34          1
    38         17
    39        329
    40         42
    41        612
    42        999
    43        337
    44          8
    45          2
    50          7
    51         29
    52         18
    53         67
    54         40
    55        278
    56        329
    57        402
    58        193
    59        158
    60        182
    61         20
    62         10
    63          5
    64         29
    65         10
    66          1
    67         24
    68         10
    69         34
    70         10
    71          1
    73          2
    74         19
    75          4
    77          9
    78         30
    80         11
    81         89
    82         10
    83         44
    84        162
    85         10
    86          9
    87          1
    94          3
    95          9
    96         80
    97        140
    98         52
    99         13
   100         39
   101          7
   116          3
   117         11
   118        232
   119         14
   120          8
   140          5
   141          1
   158          8
   159          3
   173        251
   174         25
   175         11