##TITLE=Library Entry 10908
##JCAMP-DX=Revision 4.10 
##DATA TYPE=MASS SPECTRUM
##SAMPLE DESCRIPTION=NIST Mass Spectrometry Data Center
##NAMES=HP
##CAS NAME=Diisopropyl thiodiglycolate
##MOLFORM=C10H18O4S
##CAS REGISTRY NO=58415-97-7
##MP= -300
##BP= -300
##MW= 234
##$RETENTION INDEX=0
##$CONDENSED SPECTRUM=NO
##NPOINTS= 86
##XYDATA=(XY..XY) 1 
    12          1
    13          1
    14          8
    15         44
    16          2
    18          2
    19          3
    27        195
    28         31
    29         32
    31         36
    33          1
    34          1
    35          4
    36          1
    37          2
    38          6
    39         84
    40         15
    41        289
    42        151
    43        999
    44         38
    45        120
    46        109
    47        103
    48          6
    49          3
    55         10
    56          8
    57         16
    58          9
    59         89
    60        188
    61         93
    62         20
    63         15
    64          1
    69          2
    72          2
    73          2
    74         23
    75         12
    77        300
    78          8
    79         11
    87         19
    88          9
    89         18
    90          5
    91         11
    92         14
    93          4
   101          3
   102         10
   103         10
   104         49
   105        553
   106         85
   107         29
   108          5
   114          6
   115          4
   116          1
   121          1
   132        495
   133        309
   134         41
   135         15
   136          1
   147          5
   148         17
   150        400
   151         22
   152         21
   174         77
   175        132
   176         15
   177          7
   192         92
   193          7
   194          5
   234        183
   235         26
   236         12
   237          1