##TITLE=Library Entry 81646
##JCAMP-DX=Revision 4.10 
##DATA TYPE=MASS SPECTRUM
##SAMPLE DESCRIPTION=Chemical Concepts
##NAMES=HP
##CAS NAME=2,4-Oxazolidinedione, 3-methyl-5-phenyl-
##MOLFORM=C10H9NO3
##CAS REGISTRY NO=5841-66-7
##MP= -300
##BP= -300
##MW= 191
##$RETENTION INDEX=1695
##$CONDENSED SPECTRUM=NO
##NPOINTS= 84
##XYDATA=(XY..XY) 1 
    24          6
    27         28
    28         34
    29         25
    30          5
    31          1
    34          0
    37          6
    38         25
    39        104
    40         16
    41          6
    42         49
    43          2
    44         14
    45         20
    49          4
    50         75
    51        247
    52         58
    53          4
    54          1
    55          1
    56         40
    57         24
    58         24
    59          6
    60          1
    61          7
    62         40
    63         99
    64         56
    65         10
    66          1
    67          0
    70         55
    71          3
    72          0
    73          3
    74         16
    75         16
    76         25
    77        293
    78        104
    79         11
    80          0
    84          0
    85          1
    86          5
    87          6
    88         18
    89        236
    90        932
    91         63
    92          3
    94          1
    96          0
   101          0
   102          1
   103          4
   104         19
   105        999
   106        467
   107         42
   108          2
   116          3
   117          2
   118         61
   119          6
   120          0
   122          0
   131          0
   132          3
   133          0
   134         11
   135          3
   146          2
   162          1
   163          1
   176          1
   189          0
   191        998
   192        106
   193         11