##TITLE=Library Entry 70198
##JCAMP-DX=Revision 4.10 
##DATA TYPE=MASS SPECTRUM
##SAMPLE DESCRIPTION=V.G.Zaikin,TIPS,Russian Acad.Sci.Moscow
##NAMES=HP
##CAS NAME=2-Thiopheneacetic acid, benzyl ester
##MOLFORM=C13H12O2S
##CAS REGISTRY NO=58416-23-2
##MP= -300
##BP= -300
##MW= 232
##$RETENTION INDEX=0
##$CONDENSED SPECTRUM=NO
##NPOINTS= 55
##XYDATA=(XY..XY) 1 
    26          9
    27         39
    28          8
    29         18
    31          2
    35          2
    36         17
    37          9
    38         31
    39        122
    40         11
    41         33
    42          2
    43          2
    44         36
    45        151
    47         12
    49          4
    50         39
    51         75
    52         29
    53         98
    57         13
    58         25
    59          2
    60          2
    61          2
    62         13
    63         42
    64         13
    65        128
    66          4
    69         31
    70         13
    71         16
    75          5
    77         53
    78         16
    79         10
    85         11
    89         29
    90         18
    91        948
    92         79
    93          2
    95          5
    96         13
    97        999
    98         76
    99         48
   105          4
   108          2
   232         88
   233         18
   234          6