##TITLE=Library Entry 81661
##JCAMP-DX=Revision 4.10 
##DATA TYPE=MASS SPECTRUM
##SAMPLE DESCRIPTION=JACSAT, 99(5)1536(1977); D. S. WATT ET AL.
##NAMES=HP
##CAS NAME=Ethaneperoxoic acid, cyanodiphenylmethyl ester
##MOLFORM=C16H13NO3
##CAS REGISTRY NO=58422-81-4
##MP= -300
##BP= -300
##MW= 267
##$RETENTION INDEX=0
##$CONDENSED SPECTRUM=NO
##NPOINTS= 19
##XYDATA=(XY..XY) 1 
   105        999
   152         60
   153         60
   154         60
   165        340
   166         80
   181         90
   182        530
   183         80
   190         80
   191         50
   192        990
   193        560
   194         80
   208         80
   209         40
   210         10
   235         10
   267         10