##TITLE=Library Entry 81093
##JCAMP-DX=Revision 4.10 
##DATA TYPE=MASS SPECTRUM
##SAMPLE DESCRIPTION=JACSAT, 99(5)1536(1977); D. S. WATT ET AL.
##NAMES=HP
##CAS NAME=Ethaneperoxoic acid, 1-cyano-4,4-dimethyl-1-phenylpentyl ester
##MOLFORM=C16H21NO3
##CAS REGISTRY NO=58422-75-6
##MP= -300
##BP= -300
##MW= 275
##$RETENTION INDEX=0
##$CONDENSED SPECTRUM=NO
##NPOINTS= 9
##XYDATA=(XY..XY) 1 
   105        999
   120         70
   131         70
   133        200
   134         50
   190         60
   191         10
   200         20
   201         20