##TITLE=Library Entry 81058
##JCAMP-DX=Revision 4.10 
##DATA TYPE=MASS SPECTRUM
##SAMPLE DESCRIPTION=JACSAT, 99(5)1536(1977); D. S. WATT ET AL.
##NAMES=HP
##CAS NAME=Ethaneperoxoic acid, 1-cyano-1-phenylbutyl ester
##MOLFORM=C13H15NO3
##CAS REGISTRY NO=58422-71-2
##MP= -300
##BP= -300
##MW= 233
##$RETENTION INDEX=0
##$CONDENSED SPECTRUM=NO
##NPOINTS= 9
##XYDATA=(XY..XY) 1 
   105        999
   106         90
   131        360
   132         30
   133         10
   146         10
   147         10
   148         30
   173         10