##TITLE=Library Entry 80911
##JCAMP-DX=Revision 4.10 
##DATA TYPE=MASS SPECTRUM
##SAMPLE DESCRIPTION=JACSAT, 99(5)1536(1977); D. S. WATT ET AL.
##NAMES=HP
##CAS NAME=Ethaneperoxoic acid, 1-cyano-1,4-diphenylpentyl ester
##MOLFORM=C20H21NO3
##CAS REGISTRY NO=58422-77-8
##MP= -300
##BP= -300
##MW= 323
##$RETENTION INDEX=0
##$CONDENSED SPECTRUM=NO
##NPOINTS= 10
##XYDATA=(XY..XY) 1 
   105        999
   120        860
   121         80
   131        120
   133         60
   238        100
   239         20
   248         50
   249         30
   250         10