##TITLE=Library Entry 109723
##JCAMP-DX=Revision 4.10 
##DATA TYPE=MASS SPECTRUM
##SAMPLE DESCRIPTION=JACSAT, 99(5)1536(1977); D. S. WATT ET AL.
##NAMES=HP
##CAS NAME=Ethaneperoxoic acid, 1-cyano-1,4,8-trimethyl-7-nonenyl ester
##MOLFORM=C15H25NO3
##CAS REGISTRY NO=58422-65-4
##MP= -300
##BP= -300
##MW= 267
##$RETENTION INDEX=0
##$CONDENSED SPECTRUM=NO
##NPOINTS= 13
##XYDATA=(XY..XY) 1 
   125        999
   134        454
   135        545
   136        909
   137        909
   149        545
   150        545
   151        636
   164        636
   179        454
   182        272
   190        181
   192        272