##TITLE=Library Entry 81207
##JCAMP-DX=Revision 4.10 
##DATA TYPE=MASS SPECTRUM
##SAMPLE DESCRIPTION=JACSAT, 99(5)1536(1977); D. S. WATT ET AL.
##NAMES=HP
##CAS NAME=Ethaneperoxoic acid, 1-cyano-1-phenylpropyl ester
##MOLFORM=C12H13NO3
##CAS REGISTRY NO=58422-70-1
##MP= -300
##BP= -300
##MW= 219
##$RETENTION INDEX=0
##$CONDENSED SPECTRUM=NO
##NPOINTS= 11
##XYDATA=(XY..XY) 1 
   105        999
   130        180
   131        180
   132        190
   134         80
   144        830
   145        890
   146        100
   187         90
   188         10
   219         20