##TITLE=Library Entry 81062
##JCAMP-DX=Revision 4.10 
##DATA TYPE=MASS SPECTRUM
##SAMPLE DESCRIPTION=JACSAT, 99(5)1536(1977); D. S. WATT ET AL.
##NAMES=HP
##CAS NAME=Ethaneperoxoic acid, 1-cyano-2-methyl-1-phenylpropyl ester
##MOLFORM=C13H15NO3
##CAS REGISTRY NO=58422-72-3
##MP= -300
##BP= -300
##MW= 233
##$RETENTION INDEX=0
##$CONDENSED SPECTRUM=NO
##NPOINTS= 11
##XYDATA=(XY..XY) 1 
   105        999
   131        330
   132         50
   142        110
   148         40
   156         60
   157        130
   158         90
   159         70
   160         10
   163         20