##TITLE=Library Entry 81061
##JCAMP-DX=Revision 4.10 
##DATA TYPE=MASS SPECTRUM
##SAMPLE DESCRIPTION=JACSAT, 99(5)1536(1977); D. S. WATT ET AL.
##NAMES=HP
##CAS NAME=Ethaneperoxoic acid, cyanocyclohexylphenylmethyl ester
##MOLFORM=C16H19NO3
##CAS REGISTRY NO=58422-78-9
##MP= -300
##BP= -300
##MW= 273
##$RETENTION INDEX=0
##$CONDENSED SPECTRUM=NO
##NPOINTS= 9
##XYDATA=(XY..XY) 1 
   105        999
   131        150
   132         40
   133         90
   168         90
   198         50
   199         70
   200         10
   207         10