##TITLE=Library Entry 80917
##JCAMP-DX=Revision 4.10 
##DATA TYPE=MASS SPECTRUM
##SAMPLE DESCRIPTION=JACSAT, 99(5)1536(1977); D. S. WATT ET AL.
##NAMES=HP
##CAS NAME=Ethaneperoxoic acid, 1-cyano-4-methyl-1-phenylpentyl ester
##MOLFORM=C15H19NO3
##CAS REGISTRY NO=58422-74-5
##MP= -300
##BP= -300
##MW= 261
##$RETENTION INDEX=0
##$CONDENSED SPECTRUM=NO
##NPOINTS= 14
##XYDATA=(XY..XY) 1 
   105        999
   120        520
   121         60
   130         80
   131         80
   133         60
   147         50
   148         70
   176         60
   186         90
   187        110
   204         50
   205         20
   220         10