##TITLE=Library Entry 25179
##JCAMP-DX=Revision 4.10 
##DATA TYPE=MASS SPECTRUM
##SAMPLE DESCRIPTION=NIST Mass Spectrometry Data Center
##NAMES=HP
##CAS NAME=3,5,5-Trimethylhexyl acetate
##MOLFORM=C11H22O2
##CAS REGISTRY NO=58430-94-7
##MP= -300
##BP= -300
##MW= 186
##$RETENTION INDEX=1180
##$CONDENSED SPECTRUM=NO
##NPOINTS= 78
##XYDATA=(XY..XY) 1 
    15          8
    26          1
    27         33
    28         11
    29         79
    30          3
    31          5
    37          1
    39         85
    40         19
    41        356
    42        126
    43        652
    44         22
    45          7
    50          2
    51          8
    52          4
    53         42
    54         20
    55        480
    56        233
    57        999
    58         54
    59          7
    61        357
    62          8
    63          3
    65          7
    66          2
    67         34
    68         18
    69        551
    70        933
    71        226
    72         12
    73         14
    74          1
    77          6
    78          1
    79          8
    80          2
    81          9
    82          7
    83        241
    84         55
    85         11
    86          2
    87         22
    88         20
    89          1
    91          2
    93          2
    95         21
    96          3
    97         10
    98         47
    99          7
   100          4
   101          1
   102         12
   103          1
   109          3
   111        383
   112         36
   113          6
   115        431
   116         30
   117          4
   125          1
   126         28
   127          5
   129         34
   130         31
   131         42
   132          3
   171          2
   187          1