##TITLE=Library Entry 100413
##JCAMP-DX=Revision 4.10 
##DATA TYPE=MASS SPECTRUM
##SAMPLE DESCRIPTION=V.Zaikin,Inst.Petrochem.Synth.,RAS,Moscow
##NAMES=HP
##CAS NAME=Benzoic acid, 4-methyl-, cyclohexyl ester
##MOLFORM=C14H18O2
##CAS REGISTRY NO=58435-19-1
##MP= -300
##BP= -300
##MW= 218
##$RETENTION INDEX=0
##$CONDENSED SPECTRUM=NO
##NPOINTS= 92
##XYDATA=(XY..XY) 1 
    26          6
    27         63
    28         10
    29         62
    35          4
    36         24
    38         20
    39        123
    40         25
    41        169
    42         25
    43         46
    44          2
    50         32
    51         44
    52         26
    53         30
    54         90
    55        117
    56          8
    57         28
    58          4
    59          4
    61          5
    62         13
    63         45
    64         21
    65        112
    66          6
    67        165
    68         14
    69          7
    70         11
    71          5
    73          4
    74          3
    75          5
    76          3
    77         20
    78          8
    79         32
    80          4
    81         38
    82        161
    83         32
    84          5
    85          6
    86          5
    87          2
    89         39
    90         38
    91        409
    92         55
    93         40
    94          5
    95          4
    96          3
    97          3
    98          6
    99         64
   100          5
   101          2
   103          2
   104          3
   105         10
   106          5
   107          8
   108          6
   109          4
   110          5
   112          5
   113          3
   115          3
   117          6
   118         14
   119        999
   120         83
   121          5
   122          2
   126          2
   127          2
   129          3
   131          2
   132          3
   133          4
   134          6
   135         15
   136        130
   137        675
   138         55
   139          2
   218          4