##TITLE=Library Entry 48487
##JCAMP-DX=Revision 4.10 
##DATA TYPE=MASS SPECTRUM
##SAMPLE DESCRIPTION=NIST Mass Spectrometry Data Center, 1990.
##NAMES=HP
##CAS NAME=Hexane, 1,2,5,6-tetrabromo-
##MOLFORM=C6H10Br4
##CAS REGISTRY NO=58443-86-0
##MP= -300
##BP= -300
##MW= 398
##$RETENTION INDEX=0
##$CONDENSED SPECTRUM=NO
##NPOINTS= 67
##XYDATA=(XY..XY) 1 
    14          0
    15         34
    18          4
    26         77
    27        463
    28         64
    29         93
    32          3
    37         23
    38         97
    39        820
    40        158
    41        678
    42         26
    49          8
    50         73
    51        124
    52         64
    53        421
    54         56
    55         91
    62          8
    63         21
    65         69
    66         42
    67         64
    77        177
    79        999
    80        441
    81        294
    82         39
    83          9
    93         64
    95         56
   105         46
   106         23
   107        101
   108         21
   109         50
   117          7
   119        209
   120         35
   121        239
   122         28
   131          9
   133        132
   135        113
   159        187
   160         30
   161        188
   162         18
   185         13
   187         25
   189          9
   199         17
   201         12
   213          8
   239        363
   241        728
   242         51
   243        344
   244         18
   319         38
   321        101
   323         95
   324          8
   325         33