##TITLE=Library Entry 401
##JCAMP-DX=Revision 4.10 
##DATA TYPE=MASS SPECTRUM
##SAMPLE DESCRIPTION=NIST Mass Spectrometry Data Center, 1994
##NAMES=HP
##CAS NAME=Diethyl methyl-isopropylmalonate
##MOLFORM=C11H20O4
##CAS REGISTRY NO=58447-69-1
##MP= -300
##BP= -300
##MW= 216
##$RETENTION INDEX=0
##$CONDENSED SPECTRUM=NO
##NPOINTS= 82
##XYDATA=(XY..XY) 1 
    12          3
    14          8
    15         52
    16          3
    17          2
    18          3
    19          8
    26         46
    27        448
    28        104
    29        999
    30         35
    31         26
    39        126
    41        328
    42         39
    43        279
    44         16
    45        111
    46          4
    47          4
    50          3
    51         10
    53         58
    54         34
    55        236
    56         63
    57        113
    58          3
    59        165
    60          8
    65          4
    66          2
    67         29
    68          2
    69        204
    70         22
    71         47
    72         77
    73         54
    74         10
    79          1
    81          5
    82         37
    83        189
    84         22
    85         24
    86          1
    87        271
    88         17
    89          2
    95          7
    96         73
    97        124
    98         33
    99         67
   100        336
   101        211
   102         26
   110         52
   111          3
   113         21
   114         14
   115         32
   116          3
   128        409
   129        201
   130         18
   131          2
   142         40
   143        107
   144         23
   145          6
   146         27
   147          3
   155          8
   157         17
   171        110
   172         11
   174        420
   175         40
   176          5