##TITLE=Library Entry 64211
##JCAMP-DX=Revision 4.10 
##DATA TYPE=MASS SPECTRUM
##SAMPLE DESCRIPTION=NIST Mass Spectrometry Data Center, 1994
##NAMES=HP
##CAS NAME=3-Benzyloxy-4-methoxybenzoic acid
##MOLFORM=C15H14O4
##CAS REGISTRY NO=58452-00-9
##MP= -300
##BP= -300
##MW= 258
##$RETENTION INDEX=0
##$CONDENSED SPECTRUM=NO
##NPOINTS= 65
##XYDATA=(XY..XY) 1 
    15          2
    16          3
    26          6
    38         10
    39         63
    40         11
    41         20
    45          1
    50         30
    51         83
    52         19
    53         21
    54          3
    55         10
    62         16
    63         47
    64         13
    65        142
    66          9
    67          9
    68         19
    69          9
    75          6
    76          9
    77         32
    78          7
    79         45
    80          6
    81         14
    82          4
    83          4
    89         22
    91        999
    92         74
    93         12
    95          6
    96         19
    97          3
   105          5
   107          4
   109          4
   111         17
   115          4
   119         12
   120          4
   121         11
   122          5
   139          4
   150          6
   151          4
   152          5
   153          6
   163          7
   164          9
   165         33
   166         15
   167          7
   168          4
   203          4
   210         14
   211          7
   241          4
   258        146
   259         24
   260          1