##TITLE=Library Entry 34515
##JCAMP-DX=Revision 4.10 
##DATA TYPE=MASS SPECTRUM
##SAMPLE DESCRIPTION=NIST Mass Spectrometry Data Center
##NAMES=HP
##CAS NAME=4-Hexen-1-ol, 5-methyl-2-(1-methylethenyl)-
##MOLFORM=C10H18O
##CAS REGISTRY NO=58461-27-1
##MP= -300
##BP= -300
##MW= 154
##$RETENTION INDEX=1170
##$CONDENSED SPECTRUM=NO
##NPOINTS= 90
##XYDATA=(XY..XY) 1 
    15          2
    26          2
    27         50
    28          8
    29         64
    30          3
    31         45
    37          1
    38          6
    39        152
    40         31
    41        629
    42         39
    43         87
    44          6
    45          4
    50         10
    51         34
    52         16
    53        120
    54         14
    55        105
    56         24
    57         39
    58          3
    59          4
    61          1
    62          3
    63         10
    64          2
    65         41
    66         15
    67        177
    68        224
    69        999
    70         86
    71         70
    72          5
    73          1
    74          1
    75          1
    77         70
    78         13
    79         88
    80         29
    81        118
    82         16
    83         39
    84         48
    85         39
    86          7
    87          1
    89          2
    91         86
    92         26
    93        218
    94         27
    95         26
    96          5
    97         12
    98          5
    99          1
   102          1
   103          5
   104          1
   105         27
   106          6
   107         39
   108         11
   109         13
   110         39
   111        354
   112         29
   113          2
   115          1
   117          1
   119          5
   120          2
   121         88
   122         15
   123        151
   124         18
   125          2
   134          1
   135          1
   136         19
   137          3
   139          9
   140          1
   154          3