##TITLE=Library Entry 33158
##JCAMP-DX=Revision 4.10 
##DATA TYPE=MASS SPECTRUM
##SAMPLE DESCRIPTION=ORMSBG,10(9)797(1975); S. SCHOCH
##NAMES=HP
##CAS NAME=2,5-Pyrrolidinedione, 3-[1-(ethylsulfinyl)ethylidene]-4-methyl-
##MOLFORM=C9H13NO3S
##CAS REGISTRY NO=58467-31-5
##MP= -300
##BP= -300
##MW= 215
##$RETENTION INDEX=0
##$CONDENSED SPECTRUM=NO
##NPOINTS= 21
##XYDATA=(XY..XY) 1 
    39        400
    41        500
    43        300
    47        250
    55        100
    57        100
    59        100
    61        150
    62        150
    63        150
    65        180
    66        270
    67        999
    77        180
    85        300
    95        200
   137        150
   138        700
   139        120
   186        100
   215         10