##TITLE=Library Entry 76202
##JCAMP-DX=Revision 4.10 
##DATA TYPE=MASS SPECTRUM
##SAMPLE DESCRIPTION=Patti Price, Georgia Bureau of Investigation, Decatur,
 Georgia
##NAMES=HP
##CAS NAME=Cinromide
##MOLFORM=C11H12BrNO
##CAS REGISTRY NO=58473-74-8
##MP= -300
##BP= -300
##MW= 253
##$RETENTION INDEX=0
##$CONDENSED SPECTRUM=NO
##NPOINTS= 148
##XYDATA=(XY..XY) 1 
    41          3
    42          8
    43          5
    44        243
    45          1
    46          1
    49          4
    50        107
    51        149
    52         33
    53         17
    54          2
    55          5
    56          3
    57          1
    58          3
    59          3
    60          1
    61          6
    62         24
    63         58
    64          6
    65          6
    68          1
    69          1
    70          2
    71          1
    72         11
    73          8
    74        101
    75        217
    76        193
    77         49
    78          6
    79          4
    80          2
    81          2
    82          1
    83          1
    84         20
    85          2
    86          4
    87         12
    88          3
    89         14
    90         11
    91         13
    93          1
    95          1
    96          7
    97         11
    98        149
    99         18
   100         11
   101        164
   102        999
   103        129
   104         15
   105          7
   107          1
   110          1
   112          1
   113          1
   114          1
   115          7
   116         12
   117         15
   118          6
   119          3
   120          1
   126          1
   127          5
   128         17
   129         29
   130        130
   131        256
   132         27
   133          1
   140          1
   141          1
   142          1
   143          1
   144          1
   145         10
   146          7
   147          1
   152          1
   153          1
   154          1
   155         20
   156          6
   157         21
   158          4
   159          1
   167          1
   169          7
   170          1
   171          6
   172          1
   173          2
   174         15
   175          1
   179          1
   180         23
   181        161
   182         51
   183        160
   184         26
   185          3
   186          1
   193          1
   194          1
   195          1
   196          8
   197          3
   198          7
   199          2
   200          1
   206          9
   207          3
   208         26
   209        522
   210        125
   211        519
   212        111
   213         11
   214          4
   215          1
   222          1
   223          1
   224         43
   225          7
   226         40
   227          6
   228          1
   235          1
   236          8
   237          1
   238         27
   239          2
   240         17
   241          1
   252         97
   253        229
   254        124
   255        223
   256         26
   257          1