##TITLE=Library Entry 2597
##JCAMP-DX=Revision 4.10 
##DATA TYPE=MASS SPECTRUM
##SAMPLE DESCRIPTION=NIST Mass Spectrometry Data Center
##NAMES=HP
##CAS NAME=Thiodiacetonitrile
##MOLFORM=C4H4N2S
##CAS REGISTRY NO=5848-75-9
##MP= -300
##BP= -300
##MW= 112
##$RETENTION INDEX=0
##$CONDENSED SPECTRUM=NO
##NPOINTS= 50
##XYDATA=(XY..XY) 1 
    12          5
    13         11
    14          9
    15          1
    24          2
    25          7
    26         18
    27         10
    32         29
    33          9
    34          3
    37          1
    38         64
    39         83
    40        206
    41        999
    42         43
    44         60
    45        585
    46        151
    47         32
    48          6
    50          1
    51          6
    52          7
    53          1
    54          1
    56          9
    57         19
    58         18
    59          5
    60          2
    66          4
    67          8
    70        170
    71         91
    72        470
    73         21
    74         21
    76          1
    82          1
    83          2
    84         13
    85         13
    86          7
   111          8
   112        540
   113         34
   114         25
   115          1