##TITLE=Library Entry 53308
##JCAMP-DX=Revision 4.10 
##DATA TYPE=MASS SPECTRUM
##SAMPLE DESCRIPTION=R. Greene, CPB, DCT, NCI, Bethesda, MD 20892
##NAMES=HP
##CAS NAME=Glycopyrrolate
##MOLFORM=C19H28BrNO3
##CAS REGISTRY NO=58493-54-2
##MP= -300
##BP= -300
##MW= 397
##$RETENTION INDEX=0
##$CONDENSED SPECTRUM=NO
##NPOINTS= 148
##XYDATA=(XY..XY) 1 
    41         20
    42         33
    43          7
    44          9
    45          6
    46          0
    50          4
    51         15
    52          4
    53         10
    54          5
    55         50
    56          5
    57         53
    58         43
    59          9
    60          0
    61          0
    62          1
    63          6
    64          3
    65         16
    66          5
    67         40
    68         15
    69         76
    70          7
    71          8
    72          2
    73          3
    74          4
    75          4
    76          2
    77        220
    78         31
    79        116
    80         21
    81         45
    82        311
    83        999
    84         35
    85         39
    86          3
    87          2
    88          4
    89          8
    91        193
    92         15
    93         37
    94        147
    95         26
    96        143
    97         16
    98         17
    99          2
   100         20
   101         24
   102         22
   103         22
   105        388
   106         92
   107        121
   108          9
   109          2
   110          1
   111          1
   112          0
   113          1
   115         72
   116         15
   117         21
   118          5
   119          3
   120          1
   121          2
   122          4
   123          1
   124          1
   125          1
   126          0
   127         20
   128         25
   129         49
   130          5
   131         29
   133         37
   134         10
   135          3
   136          1
   137          1
   138          0
   139          1
   140          0
   141          8
   142         10
   143          3
   145         21
   146          5
   147          2
   148          0
   149          1
   150          0
   151          9
   152         79
   153          9
   154          3
   155          8
   157         44
   158          5
   159          0
   163          0
   165         13
   166         23
   167          2
   169          0
   170          0
   171          0
   173          6
   175        468
   176         54
   177          9
   178          1
   179          4
   180          0
   183          0
   184          2
   185          0
   186          0
   187          0
   202          0
   203          0
   205          0
   207          0
   215          0
   216          0
   217          0
   220          1
   234         19
   236          3
   237          0
   269          0
   286          3
   287          0
   297          0
   302          0
   303          0
   304          4
   318          0