##TITLE=Library Entry 18226
##JCAMP-DX=Revision 4.10 
##DATA TYPE=MASS SPECTRUM
##SAMPLE DESCRIPTION=Asinex Ltd, Moscow, Russia
##NAMES=HP
##CAS NAME=N-(3-Methoxy-phenyl)-2-nitro-benzamide
##MOLFORM=C14H12N2O4
##CAS REGISTRY NO=58495-04-8
##MP= -300
##BP= -300
##MW= 272
##$RETENTION INDEX=0
##$CONDENSED SPECTRUM=NO
##NPOINTS= 171
##XYDATA=(XY..XY) 1 
    33          0
    36          0
    37          3
    38         23
    39        135
    40          4
    41        133
    42          5
    46          0
    49          3
    50        194
    51        999
    52        303
    53         60
    54          9
    62         12
    63        100
    64        126
    65        130
    66         23
    67         20
    68         14
    74         17
    75         49
    76        333
    77        131
    78        199
    79        123
    80         30
    82          0
    86          0
    88          2
    89          5
    90         13
    91         31
    92         68
    93         16
    94          6
    95        243
    96         16
    98          2
   100          0
   101          1
   102          4
   103          3
   104         86
   105         20
   106         28
   107        103
   108         10
   109          1
   110         12
   111          5
   112          0
   113          1
   114          1
   115          5
   116          1
   117          1
   118          1
   119          7
   120         14
   121         19
   122        343
   123         81
   124         11
   125          1
   126          4
   127         19
   128         17
   129          4
   130          2
   131          0
   132          0
   134         25
   135         33
   136          3
   137          2
   138        148
   139         39
   140         11
   141          7
   142          1
   143          1
   144          1
   145          1
   146          0
   147          1
   148          1
   150        747
   151         91
   152         15
   153          8
   154         49
   155         15
   156          3
   157          0
   158          0
   159          0
   160          0
   163          1
   164          2
   165          2
   166          8
   167          9
   168         11
   169          3
   170          2
   171          1
   172          0
   173          5
   174          0
   175          1
   176          0
   177          0
   178          0
   179          3
   180          1
   181          5
   182         19
   183         29
   184          6
   185          1
   186          0
   187          0
   190          0
   192          0
   193          1
   194          0
   195          5
   196         11
   197          5
   198          3
   199          3
   200          1
   201          0
   207          5
   208          8
   209         10
   210          6
   211         38
   212         13
   213          2
   214          0
   215          0
   223         10
   224          4
   225          5
   226        158
   227         25
   228          3
   229          0
   230          0
   236          0
   237         38
   238          7
   239          5
   240          1
   241          1
   242          0
   243          0
   244          7
   245          1
   253          0
   254          7
   255          9
   256          1
   271          1
   272        230
   273         47
   274          6