##TITLE=Library Entry 15348
##JCAMP-DX=Revision 4.10 
##DATA TYPE=MASS SPECTRUM
##SAMPLE DESCRIPTION=Chemical Concepts
##NAMES=HP
##CAS NAME=Acetic acid, [(aminocarbonyl)amino]oxo-
##MOLFORM=C3H4N2O4
##CAS REGISTRY NO=585-05-7
##MP= -300
##BP= -300
##MW= 132
##$RETENTION INDEX=0
##$CONDENSED SPECTRUM=NO
##NPOINTS= 65
##XYDATA=(XY..XY) 1 
    27         52
    28        110
    29        107
    30          9
    31          5
    32          1
    33          0
    35          0
    36          6
    37          0
    38          2
    39          1
    40          1
    41          3
    42         88
    43        385
    44        999
    45        226
    46         12
    47          0
    50          0
    51          1
    52          0
    53          0
    54          2
    55          0
    56          2
    58          0
    59          0
    60         35
    61          3
    62          1
    63          0
    64          1
    65          0
    66          0
    67          0
    69          1
    70         12
    71          1
    73          0
    75          0
    77          3
    78          0
    80          0
    82          0
    86          2
    87         59
    88          3
    89         97
    90          4
    91          3
    92          1
    93          1
   104         11
   105          0
   114          1
   115          0
   117          0
   118          0
   119          4
   120          2
   121          0
   132          3
   133          0