##TITLE=Library Entry 17023
##JCAMP-DX=Revision 4.10 
##DATA TYPE=MASS SPECTRUM
##SAMPLE DESCRIPTION=Japan AIST/NIMC Database- Spectrum MS-NW- 918
##NAMES=HP
##CAS NAME=Propanoic acid, 2-hydroxy-, 2-methylpropyl ester
##MOLFORM=C7H14O3
##CAS REGISTRY NO=585-24-0
##MP= -300
##BP= -300
##MW= 146
##$RETENTION INDEX=947
##$CONDENSED SPECTRUM=NO
##NPOINTS= 50
##XYDATA=(XY..XY) 1 
    14          2
    15         18
    17          2
    18          7
    26          8
    27         84
    28         23
    29        177
    30          7
    31         30
    32          2
    33         11
    37          2
    38          4
    39         51
    40          8
    41        241
    42         29
    43        105
    44         22
    45        999
    46         21
    47          3
    50          1
    51          1
    53          4
    54          1
    55         27
    56        109
    57        403
    58         15
    59         33
    60          6
    61          1
    63          3
    71          3
    72          4
    73         21
    74          5
    75         66
    76          3
    85         15
    86          1
    87          2
    89          2
    90          6
    91         10
   101          1
   102          3
   103          1