##TITLE=Library Entry 99543
##JCAMP-DX=Revision 4.10 
##DATA TYPE=MASS SPECTRUM
##SAMPLE DESCRIPTION=Japan AIST/NIMC Database- Spectrum MS-NW-3400
##NAMES=HP
##CAS NAME=Ethanone, 1-(3-methylphenyl)-
##MOLFORM=C9H10O
##CAS REGISTRY NO=585-74-0
##MP= -300
##BP= -300
##MW= 134
##$RETENTION INDEX=1182
##$CONDENSED SPECTRUM=NO
##NPOINTS= 68
##XYDATA=(XY..XY) 1 
    14          3
    15         18
    18          3
    26          4
    27         14
    28          1
    29          1
    37          8
    38         17
    39         99
    40          8
    41         23
    42          6
    43        116
    44          4
    45          8
    49          4
    50         34
    51         58
    52         12
    53          9
    55          1
    58          1
    59          6
    60          1
    61         12
    62         33
    63         84
    64         22
    65        188
    66         11
    69          1
    73          3
    74         14
    75          9
    76          7
    77         24
    78          7
    79          7
    84          1
    85          5
    86          9
    87          7
    88          2
    89         69
    90         37
    91        808
    92         69
    93          3
    98          1
   102          3
   103          9
   104          3
   105          9
   106          1
   115          8
   116          4
   117          9
   118          9
   119        999
   120         89
   121          5
   131          2
   132          5
   133          9
   134        371
   135         36
   136          3