##TITLE=Library Entry 5598
##JCAMP-DX=Revision 4.10 
##DATA TYPE=MASS SPECTRUM
##SAMPLE DESCRIPTION=M.E.FITZGERALD ARCO CHEMICAL COMPANY, PHILADELPHIA, USA
##NAMES=HP
##CAS NAME=2,3-Octanedione
##MOLFORM=C8H14O2
##CAS REGISTRY NO=585-25-1
##MP= -300
##BP= -300
##MW= 142
##$RETENTION INDEX=984
##$CONDENSED SPECTRUM=NO
##NPOINTS= 98
##XYDATA=(XY..XY) 1 
    25          2
    26         37
    27        220
    28         63
    29        195
    30        565
    31          4
    33         44
    34          0
    35          0
    36          1
    37          6
    38         14
    39        118
    40         25
    41        222
    42         93
    43        999
    44         37
    45         11
    46          0
    47          0
    48          0
    49          1
    50          6
    51         13
    52          6
    53         16
    54         50
    55        107
    56         13
    57         33
    58         37
    59          8
    60          2
    61          1
    62          2
    63          3
    64          1
    65          2
    66          1
    67          3
    68         20
    69         23
    70         15
    71        174
    72         13
    73          1
    74          1
    75          0
    76          0
    77          2
    78          0
    79          1
    80          0
    81          5
    82         15
    83          3
    84          1
    85          4
    86          2
    87          6
    88          0
    89          2
    90          0
    91          1
    92          0
    93          0
    94          0
    95          1
    96          7
    97          2
    98          1
    99        177
   100         13
   101          1
   102          0
   103          0
   105          1
   106          1
   107          0
   109          0
   110          0
   111          1
   112          0
   113          2
   114          0
   115          0
   121          0
   122          0
   123          0
   124          0
   125         13
   126          1
   127          4
   140          0
   142         16
   143          1