##TITLE=Library Entry 50850
##JCAMP-DX=Revision 4.10 
##DATA TYPE=MASS SPECTRUM
##SAMPLE DESCRIPTION=Chemical Concepts
##NAMES=HP
##CAS NAME=2-Oxaadamantan-6-one
##MOLFORM=C9H12O2
##CAS REGISTRY NO=58512-56-4
##MP= -300
##BP= -300
##MW= 152
##$RETENTION INDEX=0
##$CONDENSED SPECTRUM=NO
##NPOINTS= 90
##XYDATA=(XY..XY) 1 
    26         31
    27        326
    28         48
    29        146
    30          2
    31         14
    37          5
    38         22
    39        342
    40         61
    41        314
    42         42
    43         54
    44          6
    45          5
    46          0
    47          1
    49          1
    50         19
    51         47
    52         27
    53        138
    54        263
    55        485
    56         38
    57         43
    58          4
    60          1
    61          3
    62          5
    63         16
    64          3
    65         40
    66         50
    67        222
    68        101
    69         57
    70         48
    71          5
    73          1
    74          2
    75          2
    77         62
    78         34
    79        161
    80        162
    81        999
    82        343
    83        208
    84         26
    85          3
    89          1
    90          2
    91         68
    92         21
    93         69
    94        728
    95        269
    96         54
    97         14
    98          3
   103          4
   104          1
   105         28
   106         32
   107         27
   108         52
   109         86
   110         14
   111          7
   117          0
   118          0
   119          4
   120          0
   121          4
   122          1
   123         29
   124         76
   125          8
   126          0
   133          4
   134          2
   135          0
   137          0
   149          1
   150          2
   151          1
   152        896
   153         82
   154          6