##TITLE=Library Entry 50855
##JCAMP-DX=Revision 4.10 
##DATA TYPE=MASS SPECTRUM
##SAMPLE DESCRIPTION=Chemical Concepts
##NAMES=HP
##CAS NAME=2-Oxaadamantan-6-ol
##MOLFORM=C9H14O2
##CAS REGISTRY NO=58512-55-3
##MP= -300
##BP= -300
##MW= 154
##$RETENTION INDEX=0
##$CONDENSED SPECTRUM=NO
##NPOINTS= 98
##XYDATA=(XY..XY) 1 
    25         12
    27        194
    28         18
    29        204
    30          9
    31         76
    38         16
    39        284
    40         48
    41        400
    42         58
    43        207
    44         37
    45         27
    47          4
    50         18
    51         51
    52         25
    53        137
    54         97
    55        284
    56         52
    57        406
    58        175
    59         13
    60          2
    61          2
    62          6
    63         17
    64          6
    65         65
    66         96
    67        278
    68        107
    69        131
    70        138
    71         75
    72         18
    73          8
    74          3
    75          8
    77        120
    78         43
    79        275
    80         78
    81        999
    82        199
    83        394
    84        155
    85         24
    86         40
    87          6
    89          3
    90          5
    91        136
    92         87
    93        107
    94        143
    95        238
    96        489
    97        249
    98        120
    99         26
   100          3
   103         17
   105         30
   106          8
   107         58
   108        118
   109         43
   110         72
   111         59
   112         16
   113         11
   114          2
   115          6
   116          4
   117         33
   118         39
   119          7
   120          3
   121         44
   122          4
   123         26
   124          5
   125         48
   126        322
   127         31
   128          1
   135          7
   136         42
   137          9
   139          6
   152          4
   153          9
   154        811
   155         82
   156          6