##TITLE=Library Entry 96431
##JCAMP-DX=Revision 4.10 
##DATA TYPE=MASS SPECTRUM
##SAMPLE DESCRIPTION=A.Pleshkova, Nesmeyanov Inst.Org.Elem.Cpds, Moscow
##NAMES=HP
##CAS NAME=3-Aminobutyric acid, 2TMS derivative
##MOLFORM=C10H25NO2Si2
##CAS REGISTRY NO=58521-54-3
##MP= -300
##BP= -300
##MW= 247
##$RETENTION INDEX=1223
##$CONDENSED SPECTRUM=NO
##NPOINTS= 34
##XYDATA=(XY..XY) 1 
    44        219
    45        258
    46         13
    47         10
    59        175
    60         12
    61          7
    73        851
    74         73
    75        213
    76         17
    77          8
    88         53
    89          5
   100        341
   101         25
   102         12
   116        999
   117        111
   118         37
   119          2
   130         32
   147        108
   148         17
   149          8
   150          2
   188         25
   189         12
   232         48
   233         10
   234          5
   247         17
   248          3
   249          2