##TITLE=Library Entry 76005
##JCAMP-DX=Revision 4.10 
##DATA TYPE=MASS SPECTRUM
##SAMPLE DESCRIPTION=James Shoemaker, St. Louis Online Library of Metabolic
 Mass Spectra
##NAMES=HP
##CAS NAME=3-Aminoisobutyric acid, 2TMS derivative
##MOLFORM=C10H25NO2Si2
##CAS REGISTRY NO=58521-52-1
##MP= -300
##BP= -300
##MW= 247
##$RETENTION INDEX=0
##$CONDENSED SPECTRUM=NO
##NPOINTS= 111
##XYDATA=(XY..XY) 1 
    51          0
    52          2
    53          1
    54          1
    55         10
    56         30
    57         12
    58         25
    59         71
    60          9
    61         10
    62          0
    63          0
    66         28
    67          4
    68          1
    69          5
    70         10
    71          4
    72         23
    73        650
    74         68
    75         82
    76          5
    77          5
    78          0
    80          0
    81         94
    82         14
    83          1
    84          2
    85          3
    86         25
    87          6
    88          3
    89          0
    90          0
    94          1
    95          1
    96          0
    98          2
    99          1
   100         12
   101          9
   102        999
   103         99
   104         35
   105          2
   109          5
   112          0
   113          2
   114          9
   115          7
   116          8
   117          6
   118          1
   119          2
   128          1
   129          6
   130         12
   131         63
   132         12
   133         18
   134          2
   135          1
   142          2
   143          3
   144          0
   145          0
   146          6
   147        255
   148         38
   149         19
   150          1
   151          0
   155          0
   156          0
   157          0
   158          0
   160          0
   163          0
   169          0
   173          0
   174          1
   175          1
   176        143
   177         22
   178         10
   179          0
   189          0
   190          1
   191          0
   202          0
   203          0
   204          0
   205          0
   216          0
   217          0
   218         83
   219         14
   220          6
   221          0
   230          0
   231          0
   232         24
   233          5
   234          1
   245          0
   246          0
   247          2
   248          0