##TITLE=Library Entry 76013
##JCAMP-DX=Revision 4.10 
##DATA TYPE=MASS SPECTRUM
##SAMPLE DESCRIPTION=Chemical Concepts
##NAMES=HP
##CAS NAME=Isoserine, 3TMS derivative
##MOLFORM=C12H31NO3Si3
##CAS REGISTRY NO=58521-60-1
##MP= -300
##BP= -300
##MW= 321
##$RETENTION INDEX=0
##$CONDENSED SPECTRUM=NO
##NPOINTS= 145
##XYDATA=(XY..XY) 1 
    26          0
    27          2
    28          0
    29          5
    30          1
    31          4
    33          0
    36          0
    39          0
    40          0
    41          1
    42          6
    43         18
    44         17
    45         80
    46          6
    47          8
    48          0
    49          0
    51          0
    53          1
    54          0
    55          6
    56          2
    57          4
    58          9
    59         44
    60          4
    61          4
    62          0
    63          0
    64          0
    66          2
    67          0
    68          0
    69          0
    70          7
    71          3
    72         15
    73        542
    74         50
    75         45
    76          2
    77          4
    78          0
    79          0
    80          0
    83          0
    84          1
    85          1
    86         12
    87          3
    88          3
    89          1
    93          0
    95          0
    98          1
    99          3
   100         15
   101         13
   102        999
   103        104
   104         38
   105          2
   113          0
   114          4
   115          4
   116         11
   117          4
   118          1
   119          3
   120          0
   121          0
   127          0
   128          0
   129          1
   130         14
   131          9
   132          6
   133         26
   134          4
   135          2
   136          0
   137          0
   142          2
   143          0
   144          0
   145          0
   146          1
   147         79
   148         13
   149         12
   150          1
   151          0
   158          0
   159          0
   160          0
   161          1
   162          0
   163          0
   172          1
   173          0
   174          3
   175          1
   176          1
   177          3
   178          0
   179          0
   188         10
   189          2
   190          2
   191          1
   192          0
   202          0
   203          2
   204         16
   205         24
   206          5
   207          3
   208          0
   216          7
   217          1
   218          2
   219          1
   220          2
   221         14
   222          3
   223          1
   249          0
   277          5
   278         15
   279          4
   280          2
   281          0
   290          0
   292        157
   293         44
   294         22
   295          4
   296          1
   304          0
   305          0
   306          6
   307          1
   308          0