##TITLE=Library Entry 52564
##JCAMP-DX=Revision 4.10 
##DATA TYPE=MASS SPECTRUM
##SAMPLE DESCRIPTION=Y. IKEYA, TSUMURA LAB., FAC. PHARM. SCI., TOKYO UNIV.,
 JAPAN
##NAMES=HP
##CAS NAME=Gomisin B
##MOLFORM=C28H34O9
##CAS REGISTRY NO=58546-55-7
##MP= -300
##BP= -300
##MW= 514
##$RETENTION INDEX=0
##$CONDENSED SPECTRUM=NO
##NPOINTS= 21
##XYDATA=(XY..XY) 1 
    55        980
    83        999
    84        100
   115         70
   128         50
   165         50
   199         40
   269        550
   285        180
   300        540
   301        190
   312        190
   313        160
   316        130
   331        140
   342        160
   343        340
   344         90
   414        160
   514        560
   515        180