##TITLE=Library Entry 685
##JCAMP-DX=Revision 4.10 
##DATA TYPE=MASS SPECTRUM
##SAMPLE DESCRIPTION=NIST Mass Spectrometry Data Center, 1994
##NAMES=HP
##CAS NAME=Diethyl 2-isothiocyanatoglutarate
##MOLFORM=C10H15NO4S
##CAS REGISTRY NO=58560-28-4
##MP= -300
##BP= -300
##MW= 245
##$RETENTION INDEX=1660
##$CONDENSED SPECTRUM=NO
##NPOINTS= 94
##XYDATA=(XY..XY) 1 
     4          1
    14          7
    15         37
    16          5
    26         38
    27        367
    28        167
    29        999
    30         37
    31         32
    32         19
    38         15
    39        191
    40         39
    41        227
    42        130
    43         82
    44         39
    45        106
    46          8
    50         11
    52          5
    53          9
    54         40
    55        160
    56         48
    57        111
    58         73
    59         53
    60        147
    61         66
    62          4
    63         21
    66         14
    67         33
    68         40
    69         24
    70         68
    71         76
    72        113
    73         36
    74          8
    82         43
    83         30
    84         85
    85        372
    86         71
    87         31
    88         66
    89         19
    95         11
    96          5
    98        863
    99        103
   100         89
   101         33
   111        444
   112         55
   113         49
   114         42
   115         65
   116         19
   117          6
   126        470
   127         46
   128         30
   129         51
   130         14
   131          7
   138          5
   139         53
   140         24
   141          5
   142        160
   143        129
   144         26
   145          7
   157        113
   158         19
   159          8
   168         23
   170         10
   171        132
   172        152
   173         19
   174          7
   199        414
   200        178
   201         36
   202          9
   245         57
   246          7
   247          3
   248          0