##TITLE=Library Entry 25524
##JCAMP-DX=Revision 4.10 
##DATA TYPE=MASS SPECTRUM
##SAMPLE DESCRIPTION=Chemical Concepts
##NAMES=HP
##CAS NAME=Tetrapentacontane
##MOLFORM=C54H110
##CAS REGISTRY NO=5856-66-6
##MP= -300
##BP= -300
##MW= 758
##$RETENTION INDEX=0
##$CONDENSED SPECTRUM=NO
##NPOINTS= 180
##XYDATA=(XY..XY) 1 
    27          0
    28         10
    29         30
    41         83
    42         21
    43        397
    44          1
    54          9
    55        182
    56        131
    57        999
    58         48
    67         27
    68         42
    69        204
    70        122
    71        768
    72         40
    81         28
    82         88
    83        249
    84         88
    85        569
    86         37
    95         18
    96         64
    97        267
    98         78
    99        253
   100         13
   109          5
   110         27
   111        158
   112         69
   113        193
   114         14
   123          1
   124         23
   125         98
   126         62
   127        155
   128          9
   138         18
   139         55
   140         59
   141        127
   142          8
   152          5
   153         45
   154         54
   155        114
   156          1
   166          2
   167         31
   168         49
   169        102
   170          1
   180          2
   181         22
   182         51
   183         83
   184          3
   194          0
   195         18
   196         47
   197         74
   198          4
   208          0
   209          8
   210         45
   211         68
   212          0
   222          1
   223          5
   224         37
   225         63
   226          1
   236          0
   237          1
   238         35
   239         59
   240          0
   250          0
   251          0
   252         33
   253         54
   254          0
   264          0
   265          0
   266         30
   267         47
   268          1
   279          0
   280         35
   281         41
   282          0
   292          0
   293          0
   294         23
   295         38
   296          1
   308         21
   309         38
   310          0
   322         21
   323         36
   324          0
   336         19
   337         36
   338          0
   350         16
   351         29
   352          0
   364         15
   365         32
   366          0
   378         18
   379         25
   392         10
   393         21
   406         14
   407         24
   420          9
   421         22
   434          6
   435         21
   436          0
   448          7
   449         23
   450          0
   462          9
   463         21
   476          9
   477         19
   490          8
   491         17
   492          0
   504          7
   505         21
   518          5
   519         20
   520          1
   532          2
   533         20
   534          0
   546          0
   547         13
   548          0
   560          0
   561         13
   574          2
   575         18
   576          0
   588          0
   589         12
   590          4
   602          0
   603         15
   616          1
   617         20
   618          1
   631         11
   632          1
   644          0
   645         17
   646          1
   659          9
   673         13
   674          3
   675          1
   687          9
   688          2
   701          9
   702          3
   715          4
   716          0
   729          0
   758         45
   759         19
   760          6