##TITLE=Library Entry 27713
##JCAMP-DX=Revision 4.10 
##DATA TYPE=MASS SPECTRUM
##SAMPLE DESCRIPTION=Chuck Anderson, Aldrich Chemical Co.
##NAMES=HP
##CAS NAME=R(-)-2-Amino-1-butanol
##MOLFORM=C4H11NO
##CAS REGISTRY NO=5856-63-3
##MP= -300
##BP= -300
##MW= 89
##$RETENTION INDEX=0
##$CONDENSED SPECTRUM=NO
##NPOINTS= 49
##XYDATA=(XY..XY) 1 
    14          1
    15         28
    16          0
    17          2
    18         51
    19          1
    25          0
    26         11
    27         53
    28        114
    29         59
    30        216
    31         51
    32          2
    33          0
    36          0
    37          1
    38          4
    39         36
    40          8
    41        336
    42        170
    43        103
    44         25
    45          1
    46          2
    50          1
    51          2
    52          4
    53          6
    54         11
    55          8
    56         40
    57          6
    58        999
    59         46
    60        173
    61          4
    62          0
    68          0
    69          0
    70          3
    71          4
    72          2
    86          0
    88          2
    89          0
    90         11
    91          0