##TITLE=Library Entry 27732
##JCAMP-DX=Revision 4.10 
##DATA TYPE=MASS SPECTRUM
##SAMPLE DESCRIPTION=Japan AIST/NIMC Database- Spectrum MS-NW-6037
##NAMES=HP
##CAS NAME=1-Butanol, 2-amino-, (S)-
##MOLFORM=C4H11NO
##CAS REGISTRY NO=5856-62-2
##MP= -300
##BP= -300
##MW= 89
##$RETENTION INDEX=0
##$CONDENSED SPECTRUM=NO
##NPOINTS= 46
##XYDATA=(XY..XY) 1 
    14          3
    15         36
    16          1
    17          3
    18         10
    25          1
    26         11
    27         45
    28        101
    29         31
    30        160
    31         36
    32          2
    37          2
    38          5
    39         29
    40          8
    41        266
    42        155
    43         82
    44         21
    45          2
    46          2
    50          2
    51          3
    52          5
    53          7
    54         12
    55          7
    56         52
    57         17
    58        999
    59         45
    60        189
    61          5
    67          1
    68          2
    69          2
    70         17
    71          9
    72          4
    85          2
    86          1
    88          2
    89          1
    90          1