##TITLE=Library Entry 24012
##JCAMP-DX=Revision 4.10 
##DATA TYPE=MASS SPECTRUM
##SAMPLE DESCRIPTION=NIST Mass Spectrometry Data Center, 1990.
##NAMES=HP
##CAS NAME=2,2,4-Trimethyl-3-pentanone
##MOLFORM=C8H16O
##CAS REGISTRY NO=5857-36-3
##MP= -300
##BP= -300
##MW= 128
##$RETENTION INDEX=0
##$CONDENSED SPECTRUM=NO
##NPOINTS= 22
##XYDATA=(XY..XY) 1 
    14         10
    15         22
    26         15
    27        143
    28        103
    29        156
    32         13
    39        166
    41        468
    42         72
    43        474
    44         17
    51          8
    53         14
    55         34
    57        999
    58         44
    70        110
    71        239
    72         11
    85         49
   128         70