##TITLE=Library Entry 12022
##JCAMP-DX=Revision 4.10 
##DATA TYPE=MASS SPECTRUM
##SAMPLE DESCRIPTION=Chemical Concepts
##NAMES=HP
##CAS NAME=2,5-Methano-1H-inden-8-ol, 2,3,3a,4,5,7a-hexahydro-, acetate, (2.
alpha.,3a.beta.,5.alpha.,7a.beta.,8s*)-
##MOLFORM=C12H16O2
##CAS REGISTRY NO=58594-26-6
##MP= -300
##BP= -300
##MW= 192
##$RETENTION INDEX=0
##$CONDENSED SPECTRUM=NO
##NPOINTS= 69
##XYDATA=(XY..XY) 1 
    27         71
    28          8
    29         34
    31          9
    39        142
    40         22
    41        145
    42         13
    43        999
    44         22
    50         12
    52         60
    53         28
    54         64
    55         83
    56         57
    58         36
    63         20
    64          7
    65         80
    66         45
    67        104
    68         11
    69          7
    70         10
    71         11
    72         19
    77        193
    78        142
    79        326
    80         53
    81         39
    82         11
    83         25
    89          7
    90          6
    91        643
    92        100
    93        125
    94         21
    95         27
    96         16
   103         22
   104        228
   105         61
   106         13
   107         21
   108         24
   109         23
   115         32
   116         28
   117        420
   118         45
   119         40
   120          8
   121         86
   122         11
   128          5
   129         17
   130         10
   131        180
   132        840
   134          7
   135        103
   149         24
   150         34
   164          2
   192         21
   193          2