##TITLE=Library Entry 60321
##JCAMP-DX=Revision 4.10 
##DATA TYPE=MASS SPECTRUM
##SAMPLE DESCRIPTION=Chemical Concepts
##NAMES=HP
##CAS NAME=2,5-Methano-1H-indene, 8-chloro-2,3,3a,4,5,7a-hexahydro-, (2.alph
a.,3a.beta.,5.alpha.,7a.beta.,8S*)-
##MOLFORM=C10H13Cl
##CAS REGISTRY NO=58594-27-7
##MP= -300
##BP= -300
##MW= 168
##$RETENTION INDEX=0
##$CONDENSED SPECTRUM=NO
##NPOINTS= 110
##XYDATA=(XY..XY) 1 
    26          5
    27         67
    28          7
    29         14
    36          1
    37          2
    38         13
    39        166
    40         20
    41         92
    42          4
    43          2
    44          2
    45          0
    49          8
    50         28
    51         96
    52         41
    53         67
    54         64
    55         47
    56          4
    57          4
    58          7
    59          1
    60          0
    61          3
    62         12
    63         44
    64         34
    65        142
    66         47
    67         84
    68          6
    69          2
    70          1
    71          1
    73          7
    74          7
    75         22
    76          8
    77        255
    78        189
    79        437
    80        113
    81          9
    82          1
    83          1
    84          1
    85          1
    86          2
    87          4
    88          3
    89         23
    90         14
    91        999
    92        403
    93        151
    94         11
    95          1
    97          1
    98          1
    99          6
   100          6
   101         18
   102         12
   103         37
   104         90
   105        112
   106         34
   107          3
   111          1
   112          9
   113         16
   114         30
   115         56
   116         31
   117        143
   118         19
   119        378
   120         41
   121          2
   123          0
   125         17
   126         75
   127         54
   128         38
   129         23
   130          3
   131         37
   132        101
   133        224
   134         26
   135          2
   138          0
   139          6
   140          4
   141          3
   142          1
   143          0
   151          0
   152          0
   153          4
   154          0
   167          3
   168        430
   169         51
   170        142
   171         16
   172          1