##TITLE=Library Entry 45992
##JCAMP-DX=Revision 4.10 
##DATA TYPE=MASS SPECTRUM
##SAMPLE DESCRIPTION=Japan AIST/NIMC Database- Spectrum MS-NW-8782
##NAMES=HP
##CAS NAME=Benzene, 1-bromo-4-nitro-
##MOLFORM=C6H4BrNO2
##CAS REGISTRY NO=586-78-7
##MP= -300
##BP= -300
##MW= 201
##$RETENTION INDEX=0
##$CONDENSED SPECTRUM=NO
##NPOINTS= 98
##XYDATA=(XY..XY) 1 
    17          1
    18          3
    25          2
    26          9
    27          7
    28         39
    29          2
    30        172
    31          1
    32          1
    36          6
    37         55
    38         84
    39         28
    40          2
    43          2
    44          2
    45          1
    46          4
    48          3
    49         39
    50        601
    51         84
    52          6
    53          4
    60          5
    61         26
    62         29
    63         75
    64         64
    65          8
    66          2
    72          4
    73         65
    74        316
    75        999
    76        803
    77         52
    78          2
    79          7
    80         12
    81          6
    82         11
    86          2
    87          4
    88          3
    89          1
    90         10
    91          3
    92         37
    93          4
    95          1
   104          3
   105          9
   106          3
   107          9
   111          1
   116          2
   117         21
   118          3
   119         20
   120          1
   128          7
   129         27
   130          8
   131         27
   132          1
   134          1
   143        249
   144         13
   145        241
   146         13
   147          1
   152          1
   153          2
   154          9
   155        738
   156         55
   157        715
   158         48
   159          2
   166          1
   169          1
   170          1
   171        449
   172         30
   173        439
   174         29
   175          2
   185         25
   186          2
   187         25
   188          2
   201        839
   202         59
   203        815
   204         58
   205          5