##TITLE=Library Entry 84333
##JCAMP-DX=Revision 4.10 
##DATA TYPE=MASS SPECTRUM
##SAMPLE DESCRIPTION=Japan AIST/NIMC Database- Spectrum MS-NW-7984
##NAMES=HP
##CAS NAME=3-Hydroxy-4-methylbenzoic acid
##MOLFORM=C8H8O3
##CAS REGISTRY NO=586-30-1
##MP= -300
##BP= -300
##MW= 152
##$RETENTION INDEX=0
##$CONDENSED SPECTRUM=NO
##NPOINTS= 102
##XYDATA=(XY..XY) 1 
    14          1
    15          4
    17          1
    18          3
    25          2
    26         12
    27         81
    28         17
    29         15
    31         13
    36          1
    37         20
    38         48
    39        158
    40         14
    41         27
    42          4
    43         27
    44         13
    45         20
    46          1
    47          2
    48          2
    49          8
    50         84
    51        167
    52         82
    53         94
    54          9
    55         39
    56          4
    57         13
    58          5
    59          8
    60          1
    61         12
    62         35
    63         63
    64         11
    65         19
    66         15
    67         30
    68          7
    69          9
    70          2
    71          2
    73          6
    74         25
    75         20
    76         18
    77        356
    78        121
    79        198
    80         30
    81         13
    82          5
    83         27
    84          4
    85          4
    86          6
    87          5
    88          3
    89         21
    90         27
    91          8
    92         11
    93          3
    94          3
    95         18
    96          5
    97          2
   103          1
   104          1
   105         71
   106        124
   107        999
   108        114
   109        143
   110         23
   111          2
   117          6
   118          1
   119          1
   121          3
   122          2
   123         42
   124          9
   125          8
   126          2
   133          7
   134         59
   135        401
   136         40
   137         87
   138          7
   139          1
   149          3
   150          2
   151         72
   152        942
   153         90
   154          9