##TITLE=Library Entry 85839
##JCAMP-DX=Revision 4.10 
##DATA TYPE=MASS SPECTRUM
##SAMPLE DESCRIPTION=NIST Mass Spectrometry Data Center, 1994
##NAMES=HP
##CAS NAME=4-Pyridinemethanol
##MOLFORM=C6H7NO
##CAS REGISTRY NO=586-95-8
##MP= -300
##BP= -300
##MW= 109
##$RETENTION INDEX=0
##$CONDENSED SPECTRUM=NO
##NPOINTS= 54
##XYDATA=(XY..XY) 1 
    15          5
    17          2
    18          2
    25         12
    26         73
    27        137
    28          2
    29        107
    30         20
    31        125
    36          7
    37         43
    38         69
    39        177
    40         19
    41         22
    42         12
    43          5
    44          0
    49         39
    50        207
    51        333
    52        211
    53        276
    54         80
    55         30
    56          8
    60          3
    61         18
    62         26
    63         67
    64         61
    65         68
    66         10
    67          4
    68          8
    70          4
    74          3
    75         16
    76         12
    77          3
    78        140
    79        113
    80        835
    81        106
    82         10
    91         45
    92         21
    93          4
   106         21
   108        755
   109        999
   110         70
   111          4