##TITLE=Library Entry 66487
##JCAMP-DX=Revision 4.10 
##DATA TYPE=MASS SPECTRUM
##SAMPLE DESCRIPTION=NIST Mass Spectrometry Data Center
##NAMES=HP
##CAS NAME=Cyclohexanol, 1-methyl-4-(1-methylethylidene)-
##MOLFORM=C10H18O
##CAS REGISTRY NO=586-81-2
##MP= -300
##BP= -300
##MW= 154
##$RETENTION INDEX=1197
##$CONDENSED SPECTRUM=NO
##NPOINTS= 87
##XYDATA=(XY..XY) 1 
    27         44
    29         31
    37          1
    38          4
    39         98
    40         19
    41        229
    42         22
    43        693
    44         18
    45         17
    50          8
    51         33
    52         17
    53         86
    54         13
    55        121
    56         10
    57         21
    58         15
    59          7
    60          7
    61          7
    63         12
    64          3
    65         55
    66         17
    67        124
    68         37
    69        150
    70         12
    71        144
    72         12
    77        180
    78         31
    79        201
    80         82
    81        289
    82         30
    83         38
    84         76
    85          9
    86          7
    89          3
    90          1
    91        201
    92        211
    93        999
    94        125
    95        106
    96         21
    97         18
    98          4
    99          6
   101          1
   102          1
   103         10
   104          3
   105         71
   106         14
   107        133
   108         51
   109         25
   110          6
   111        162
   112         18
   113         23
   114          2
   115          5
   117          4
   119         19
   120          6
   121        926
   122         90
   123         34
   125          8
   126         20
   127          2
   135         11
   136        630
   137        140
   138         12
   139         44
   140          4
   153          9
   154         17
   155          2