##TITLE=Library Entry 84863
##JCAMP-DX=Revision 4.10 
##DATA TYPE=MASS SPECTRUM
##SAMPLE DESCRIPTION=Japan AIST/NIMC Database- Spectrum MS-NW-3076
##NAMES=HP
##CAS NAME=Piconol
##MOLFORM=C6H7NO
##CAS REGISTRY NO=586-98-1
##MP= -300
##BP= -300
##MW= 109
##$RETENTION INDEX=1305
##$CONDENSED SPECTRUM=NO
##NPOINTS= 62
##XYDATA=(XY..XY) 1 
    14          1
    15          3
    18          2
    25          4
    26         36
    27         88
    28         43
    29         38
    30          4
    31         57
    32          2
    36          3
    37         19
    38         34
    39         86
    40         10
    41          9
    42          4
    43          6
    44          2
    45          1
    48          2
    49         16
    50         87
    51        213
    52        292
    53        216
    54         17
    55          8
    56          2
    57          1
    60          2
    61          8
    62         11
    63         27
    64         30
    65         47
    66          7
    67          1
    68          1
    74          2
    75          9
    76         12
    77          6
    78        323
    79        328
    80        582
    81         41
    82          2
    90          2
    91          9
    92         19
    93          6
    94          1
   104          1
   105          1
   106         25
   107         10
   108        999
   109        543
   110         37
   111          3