##TITLE=Library Entry 66615
##JCAMP-DX=Revision 4.10 
##DATA TYPE=MASS SPECTRUM
##SAMPLE DESCRIPTION=NIST Mass Spectrometry Data Center
##NAMES=HP
##CAS NAME=Cyclohexene, 3-methyl-6-(1-methylethylidene)-
##MOLFORM=C10H16
##CAS REGISTRY NO=586-63-0
##MP= -300
##BP= -300
##MW= 136
##$RETENTION INDEX=1086
##$CONDENSED SPECTRUM=NO
##NPOINTS= 66
##XYDATA=(XY..XY) 1 
    27         40
    29         26
    30          1
    37          2
    38         11
    39        192
    40         41
    41        205
    42         16
    43        143
    44          5
    50         24
    51         89
    52         40
    53        146
    54         15
    55         89
    56          5
    57          7
    58         18
    61          4
    62         14
    63         45
    64         13
    65        130
    66         34
    67        217
    68         54
    69         15
    74          7
    75          9
    76          9
    77        407
    78         80
    79        433
    80         61
    81         39
    82          4
    89         15
    90          3
    91        493
    92        143
    93        999
    94         88
    95         24
   102          9
   103         44
   104         16
   105        247
   106         61
   107        231
   108         31
   115         30
   116         10
   117         27
   119         89
   120         25
   121        764
   122         56
   123          3
   133          3
   134          7
   135         15
   136        820
   137         81
   138          5