##TITLE=Library Entry 77774
##JCAMP-DX=Revision 4.10 
##DATA TYPE=MASS SPECTRUM
##SAMPLE DESCRIPTION=NIST Mass Spectrometry Data Center, 1992
##NAMES=HP
##CAS NAME=Benzene, 1-bromo-4-(1-methylethyl)-
##MOLFORM=C9H11Br
##CAS REGISTRY NO=586-61-8
##MP= -300
##BP= -300
##MW= 198
##$RETENTION INDEX=0
##$CONDENSED SPECTRUM=NO
##NPOINTS= 108
##XYDATA=(XY..XY) 1 
    12          0
    13          1
    14          7
    15         49
    16          1
    17          5
    18         29
    26         16
    27        105
    28         35
    29          5
    32          0
    36          0
    37         13
    38         41
    39        145
    40         13
    41        100
    42          5
    43         11
    44          1
    45          1
    49         17
    50        175
    51        282
    52         51
    53         19
    54          1
    55          2
    58         32
    59          5
    60          1
    61         15
    62         43
    63         94
    64         16
    65         33
    66          3
    73         15
    74         79
    75        104
    76         96
    77        273
    78        157
    79         30
    80          7
    81          5
    82          4
    83          2
    84          1
    85          5
    86         12
    87         23
    88          7
    89         44
    90         35
    91        166
    92         24
    95          0
    97          2
    98         12
    99          7
   101         28
   102        113
   103        300
   104        999
   105         88
   106          4
   107          1
   109          1
   110          1
   113          2
   115         45
   116         13
   117         36
   118         24
   119        183
   120         18
   121          1
   128          1
   129          3
   130          1
   131          2
   141          1
   143          3
   145          2
   154          1
   155          6
   156         11
   157          9
   158         10
   159          2
   169         22
   170          4
   171         22
   172          1
   180          1
   183        731
   184        127
   185        729
   186         64
   187          2
   196          1
   198        252
   199         44
   200        262
   201         26
   202          0