##TITLE=Library Entry 46906
##JCAMP-DX=Revision 4.10 
##DATA TYPE=MASS SPECTRUM
##SAMPLE DESCRIPTION=NIST Mass Spectrometry Data Center, 1994
##NAMES=HP
##CAS NAME=Benzene, 1-ethenyl-3-nitro-
##MOLFORM=C8H7NO2
##CAS REGISTRY NO=586-39-0
##MP= -300
##BP= -300
##MW= 149
##$RETENTION INDEX=0
##$CONDENSED SPECTRUM=NO
##NPOINTS= 78
##XYDATA=(XY..XY) 1 
    14          0
    15          4
    16          8
    17          1
    26         47
    27         82
    28          5
    29          0
    30        307
    31          3
    37         38
    38         76
    39        157
    40         26
    41         24
    42          4
    43          7
    44          3
    45          3
    46         92
    50        320
    51        607
    52         95
    53         42
    54         13
    55         28
    56          2
    61         40
    62         93
    63        180
    64         39
    65        240
    66        251
    67         69
    68         17
    69          4
    73         29
    74        156
    75        141
    76        226
    77        999
    78        132
    79         25
    80          8
    81         10
    83          3
    84          2
    85          8
    86         13
    87         20
    88          2
    89         66
    90          2
    91        584
    92        100
    93         62
    94         54
    95          7
    96         20
    97          6
    98         22
    99          6
   102        655
   103        254
   104        103
   105         58
   106         12
   116          5
   118         27
   119         41
   120         33
   121         16
   122          4
   132        159
   133         19
   149        503
   150         48
   151          3