##TITLE=Library Entry 49862
##JCAMP-DX=Revision 4.10 
##DATA TYPE=MASS SPECTRUM
##SAMPLE DESCRIPTION=Exported from NIST MS Search
##NAMES=HP
##CAS NAME=3-Cyclohexen-1-ol, 1-methyl-4-(1-methylethyl)-
##MOLFORM=C10H18O
##CAS REGISTRY NO=586-82-3
##MP= -300
##BP= -300
##MW= 154
##$RETENTION INDEX=1137
##$CONDENSED SPECTRUM=NO
##NPOINTS= 81
##XYDATA=(XY..XY) 1 
    15         25
    26          7
    27        154
    29         89
    31         18
    38          9
    39        172
    40         29
    41        306
    42         26
    43        743
    44         15
    45         27
    50         13
    51         49
    52         26
    53        132
    54         74
    55        309
    56         33
    57         52
    58        360
    59        132
    60          9
    61          7
    62         23
    63         19
    64          5
    65         57
    66         23
    67        132
    68         60
    69        240
    70         27
    71         69
    72         14
    75          5
    77        149
    78         28
    79        192
    80         69
    81        999
    82         80
    83         69
    84         57
    85         10
    89          8
    91        118
    92         73
    93        420
    94         57
    95        106
    96        306
    97        126
    98         16
   103         10
   105         43
   106         17
   107        200
   108         34
   109         17
   110         12
   111        163
   112         16
   115          6
   117          7
   119         29
   120         12
   121        391
   122         43
   123         15
   125         86
   126          9
   134          7
   135          8
   136        374
   137         52
   139         77
   140          8
   154         43
   155          5