##TITLE=Library Entry 75840
##JCAMP-DX=Revision 4.10 
##DATA TYPE=MASS SPECTRUM
##SAMPLE DESCRIPTION=H. Fales, LC, NHLBI, NIH, Bethesda, MD 20892
##NAMES=HP
##CAS NAME=Tetramethyl tricyclo[10.3.3.0]octadecan-14,17-dione-13,15,16,18-t
etracarboxylate
##MOLFORM=C26H36O10
##CAS REGISTRY NO=58602-53-2
##MP= -300
##BP= -300
##MW= 508
##$RETENTION INDEX=0
##$CONDENSED SPECTRUM=NO
##NPOINTS= 232
##XYDATA=(XY..XY) 1 
    41        504
    42        383
    43        465
    44         38
    45        108
    49          6
    51          4
    53         95
    55        500
    57        335
    59        891
    65         68
    67        188
    69        466
    71         60
    74        125
    77        105
    78         36
    79        122
    81        130
    83         58
    84          5
    85         30
    86          2
    89         51
    91        184
    93        116
    95        105
    97         23
   101        999
   102         40
   103         98
   105        151
   106         21
   107         73
   109         48
   111         56
   113         27
   114        101
   115        135
   116         45
   117         80
   118         36
   119         67
   120         30
   121         83
   123         31
   125         30
   127         37
   128         46
   129         70
   131        117
   132         29
   133         91
   134         31
   135         78
   137         29
   142        287
   143        408
   144         45
   145        145
   146         35
   147        128
   148         27
   149         52
   153         27
   155         42
   157         97
   158         57
   159         97
   160         85
   161        120
   162         26
   163         57
   165         39
   169         40
   171        121
   173        205
   174         93
   175        106
   176         33
   177         33
   179         27
   181         21
   183         37
   185        112
   186        116
   187        162
   188         53
   189         59
   190         30
   191         34
   192         42
   193         26
   197         44
   199        144
   200         43
   201        140
   202         39
   203         49
   205         54
   206         33
   211         36
   213        166
   214         93
   215         88
   216         46
   217         33
   218         48
   219         45
   220         29
   224         21
   225         39
   226         35
   227         79
   228         49
   229         53
   231         62
   232         29
   233         26
   239         30
   240         23
   241         68
   242         90
   243        166
   244         58
   245        117
   246         57
   247         30
   248         31
   253         29
   255         65
   256         35
   257         48
   258         36
   259         46
   260         23
   267         38
   268         38
   269         64
   270        560
   271        246
   272         74
   273         42
   274         42
   275         31
   276         35
   277         36
   278         25
   281         24
   283         51
   284         38
   285         71
   286         55
   288         27
   295         28
   296         21
   297         37
   298         22
   300         27
   302        656
   303        602
   304        189
   305         45
   309         27
   310         23
   311         73
   312         78
   313         38
   315         35
   316         39
   317         71
   318         23
   323         21
   324         37
   325         58
   326         21
   327         21
   331         21
   334        127
   335        238
   336         70
   337         25
   338         26
   339         24
   343        111
   344         74
   345         23
   349         22
   352         68
   353        208
   354         53
   356         54
   357         52
   358         20
   366         32
   367         28
   368         21
   370         31
   375        153
   376         44
   379         21
   380         57
   381         31
   384        190
   385        223
   386         72
   387         21
   398         51
   399         28
   411         27
   412        296
   413        115
   414         26
   416        116
   417         71
   418         38
   426         64
   430         23
   444        724
   445        258
   446         55
   448         26
   458         68
   459         26
   476        966
   477        495
   478        116
   479         21
   508        195
   509         60
   510         18