##TITLE=Library Entry 97384
##JCAMP-DX=Revision 4.10 
##DATA TYPE=MASS SPECTRUM
##SAMPLE DESCRIPTION=L.N.Kulikova, V.G. Zaikin, Peoples' Friendship Universi
ty of Russia, Moscow
##NAMES=HP
##CAS NAME=Methyl trans-2-phenyl-1-cyclopropanecarboxylate
##MOLFORM=C11H12O2
##CAS REGISTRY NO=5861-31-4
##MP= -300
##BP= -300
##MW= 176
##$RETENTION INDEX=1375
##$CONDENSED SPECTRUM=NO
##NPOINTS= 69
##XYDATA=(XY..XY) 1 
    26          4
    27         21
    29          5
    30          1
    31          2
    38          7
    39        102
    40          5
    41          7
    50         24
    51         78
    52         16
    53          4
    55         22
    58         61
    59         51
    61          1
    62         14
    63         66
    64         13
    65         83
    66          4
    73          2
    74          9
    75         11
    76         13
    77         73
    78         39
    79          5
    86          2
    87          5
    88          4
    89         79
    90         16
    91        259
    92         19
    93          1
   101          1
   102         29
   103         36
   104         31
   105         33
   106          1
   113          4
   114          8
   115        753
   116        372
   117        999
   118        102
   119          4
   121        299
   122         25
   127         69
   128          9
   129          1
   131          7
   133         64
   134         46
   135          3
   143          3
   144        328
   145        196
   146         19
   147          2
   161          6
   175          5
   176        508
   177         63
   178          4