##TITLE=Library Entry 29249
##JCAMP-DX=Revision 4.10 
##DATA TYPE=MASS SPECTRUM
##SAMPLE DESCRIPTION=V.G. Zaikin, TIPS RAS, Moscow, Russia
##NAMES=HP
##CAS NAME=1-Dimethylamino-2-methyl(diphenyl)silylethane
##MOLFORM=C17H23NSi
##CAS REGISTRY NO=58617-50-8
##MP= -300
##BP= -300
##MW= 269
##$RETENTION INDEX=0
##$CONDENSED SPECTRUM=NO
##NPOINTS= 129
##XYDATA=(XY..XY) 1 
    29         35
    30         19
    35          5
    36          9
    37          5
    38          9
    39         22
    40         35
    41         19
    42         78
    43         78
    45          8
    47          5
    49          5
    50         18
    51         37
    52          8
    53         52
    54          9
    55         19
    56         37
    57         22
    58        999
    59         47
    60          5
    62          5
    63         16
    64          5
    65         16
    66          5
    67         13
    68          5
    69         13
    70         34
    71         19
    72         19
    73          5
    74          7
    75          5
    76          9
    77         32
    78         35
    79         25
    80          5
    81          5
    82          5
    83          7
    84         11
    85          9
    86          9
    87          8
    89          8
    90          5
    91         31
    92          5
    93         25
    94          3
    95         13
    96          5
    97          7
    98         19
    99         25
   100         11
   101          5
   102          3
   103         18
   104          5
   105        118
   106         23
   107         11
   108          3
   111          3
   113         69
   114          6
   115          9
   116          2
   117          6
   118          3
   119         27
   120         18
   121         39
   122          7
   123          5
   124          3
   125          7
   126          3
   130          5
   131          8
   132          5
   133          5
   134          5
   135          7
   136          5
   137          5
   138          7
   139          9
   140          7
   155         12
   162         19
   163          5
   164          9
   165         28
   166          7
   176         28
   177         18
   178          9
   179          9
   180         17
   181         45
   182         15
   183         19
   184          7
   186          7
   190          7
   191         29
   192          9
   193         12
   194          5
   195         51
   196         19
   197        443
   198         99
   199         25
   200          5
   254          9
   255          3
   268         28
   269         19
   270          8