##TITLE=Library Entry 25671
##JCAMP-DX=Revision 4.10 
##DATA TYPE=MASS SPECTRUM
##SAMPLE DESCRIPTION=NIST Mass Spectrometry Data Center, 1998.
##NAMES=HP
##CAS NAME=Boc-ON
##MOLFORM=C13H14N2O3
##CAS REGISTRY NO=58632-95-4
##MP= -300
##BP= -300
##MW= 246
##$RETENTION INDEX=0
##$CONDENSED SPECTRUM=NO
##NPOINTS= 76
##XYDATA=(XY..XY) 1 
    15          4
    16          1
    26          5
    27         22
    29         51
    30          4
    31          5
    36          1
    37          7
    38         14
    39         69
    40         13
    41        195
    42         13
    43         56
    44         63
    45          2
    48          1
    49          6
    50         53
    51        113
    52         16
    53         10
    54          3
    55         23
    56         54
    57        999
    58         47
    59         26
    60          2
    61          6
    62         18
    63         22
    64         11
    65         19
    66          3
    73          3
    74         12
    75         20
    76         47
    77        244
    78         23
    79          1
    84          1
    85          1
    86          2
    87          7
    88         26
    89         85
    90         10
    91          4
    92          1
    93          5
    94          1
    99          2
   100          1
   101          2
   102          6
   103         79
   104          9
   105          1
   111          1
   114         25
   115         40
   116         74
   117          8
   118          3
   119          6
   120          1
   129         78
   130         12
   131          1
   145          1
   146         46
   147          5
   231          1