##TITLE=Library Entry 50127
##JCAMP-DX=Revision 4.10 
##DATA TYPE=MASS SPECTRUM
##SAMPLE DESCRIPTION=Y. FUJIWARA, KYOTO COLL. PHARMACY, KYOTO, JA
##NAMES=HP
##CAS NAME=3.alpha.-Methyl-cis-hexahydrophthalide
##MOLFORM=C9H14O2
##CAS REGISTRY NO=58648-38-7
##MP= -300
##BP= -300
##MW= 154
##$RETENTION INDEX=0
##$CONDENSED SPECTRUM=NO
##NPOINTS= 38
##XYDATA=(XY..XY) 1 
    27        172
    28         40
    29         78
    39        201
    40         45
    41        288
    42         27
    43        187
    51         37
    53        176
    54        287
    55        176
    65         31
    66         36
    67        701
    68        147
    69         77
    77         44
    79         91
    80         67
    81        999
    82        641
    83         52
    93         30
    95        141
    96         13
   108         24
   109         20
   110        290
   111         34
   112          2
   125          4
   126          2
   139          6
   153          6
   154         21
   155          9
   156          1