##TITLE=Library Entry 8255
##JCAMP-DX=Revision 4.10 
##DATA TYPE=MASS SPECTRUM
##SAMPLE DESCRIPTION=LAC, NIDDK, NIH, Bethesda, MD 20892
##NAMES=HP
##CAS NAME=4-Fluoro-1-ribofuranosylimidazole-5-carboxamide
##MOLFORM=C9H12FN3O5
##CAS REGISTRY NO=58650-06-9
##MP= -300
##BP= -300
##MW= 261
##$RETENTION INDEX=0
##$CONDENSED SPECTRUM=NO
##NPOINTS= 104
##XYDATA=(XY..XY) 1 
    41         92
    42        231
    43        999
    44        367
    45        220
    46        378
    47         18
    48          2
    56         47
    57        219
    58        106
    59        241
    60        498
    61         81
    62          4
    70         33
    71         96
    72         70
    73        324
    74         31
    75         17
    82          8
    83         13
    84         45
    85         75
    86        106
    87         53
    88        318
    89         30
    93          4
    94          8
    95         19
    96         14
    99         12
   100         48
   101         53
   102         20
   103         15
   104         29
   105          5
   111          8
   112         34
   113         99
   114         49
   115         27
   116          5
   117          9
   118         73
   119         12
   120          6
   123         10
   124         13
   125          6
   128          7
   129         72
   130         73
   131         17
   132         19
   133         56
   134          5
   140          2
   141         14
   142         12
   143          7
   154          6
   155         13
   156         21
   157          5
   158         27
   159         24
   160         24
   161          6
   168          4
   169         20
   170          6
   172          7
   173         21
   174          8
   175         10
   176          2
   183          3
   184          6
   185          2
   187          1
   188          8
   189          1
   199          1
   200          5
   201          1
   212          1
   213          4
   214          1
   225          1
   226          4
   227          0
   234          3
   240          0
   241          0
   243          5
   244          3
   245          2
   260          0
   261          3
   262          0