##TITLE=Library Entry 8317
##JCAMP-DX=Revision 4.10 
##DATA TYPE=MASS SPECTRUM
##SAMPLE DESCRIPTION=Exported from NIST MS Search
##NAMES=HP
##CAS NAME=Ethane, 1,2-bis(isopropylthio)-
##MOLFORM=C8H18S2
##CAS REGISTRY NO=5865-15-6
##MP= -300
##BP= -300
##MW= 178
##$RETENTION INDEX=1259
##$CONDENSED SPECTRUM=NO
##NPOINTS= 85
##XYDATA=(XY..XY) 1 
    15         15
    16          4
    17         46
    19         23
    26         19
    27        285
    29         35
    32         19
    33          8
    34         22
    35         53
    37          7
    38         11
    39        126
    40         21
    41        413
    42         49
    43        999
    44         75
    45        128
    46         42
    47        600
    48         19
    49         38
    55        427
    56         22
    57         12
    58         48
    59        280
    60        342
    61        988
    62         49
    63         46
    64         35
    65         16
    66         10
    67          6
    68          4
    69          9
    73         19
    74        718
    75        357
    76        184
    77         36
    78         29
    87         21
    88         17
    89        662
    90         40
    91         35
    92         19
    93        304
    94         21
    95         29
   101          9
   102        200
   103        371
   104         51
   105         24
   107         32
   108         27
   109          4
   110          3
   117         15
   119          4
   121         15
   122          3
   134          3
   135        141
   136         69
   137         18
   138          6
   149          6
   150         10
   151          2
   152          1
   162          3
   163         47
   164          5
   165          4
   178        739
   179         78
   180         69
   181          7
   182          2