##TITLE=Library Entry 24306
##JCAMP-DX=Revision 4.10 
##DATA TYPE=MASS SPECTRUM
##SAMPLE DESCRIPTION=J. Klune, Insect Chem. Ecol. Lab., USDA, Beltsville, MD
 20705
##NAMES=HP
##CAS NAME=13,17,21-Trimethylpentatriacontane
##MOLFORM=C38H78
##CAS REGISTRY NO=58668-39-6
##MP= -300
##BP= -300
##MW= 534
##$RETENTION INDEX=3580
##$CONDENSED SPECTRUM=NO
##NPOINTS= 193
##XYDATA=(XY..XY) 1 
    41        275
    42         91
    43        798
    44         23
    49          0
    51          1
    53         12
    55        339
    56        224
    57        999
    58         40
    59          1
    65          2
    67         36
    68         34
    69        229
    70        157
    71        790
    72         39
    73          1
    77          1
    79          4
    81         28
    82         50
    83        181
    85        717
    86         34
    87          1
    91          1
    93          1
    95          3
    96        115
    97        212
    98         73
    99        237
   100         15
   101          0
   105          0
   107          0
   109          8
   110         33
   111        116
   112         76
   113        180
   114         13
   115          0
   119          0
   123          4
   124         20
   125         66
   126         42
   127        133
   128         11
   129          0
   133          0
   137          0
   138         16
   139         36
   140         24
   141        103
   142         10
   151          1
   152         10
   153         19
   154         28
   155         82
   156          9
   157          0
   165          0
   166          7
   167         20
   168         69
   169         66
   170          8
   171          0
   180          4
   181          8
   182         26
   183         46
   184          5
   185          0
   194         17
   195         19
   196        515
   197        221
   198         27
   199          1
   208          2
   209          4
   210         34
   211         36
   212          5
   213          0
   222         15
   223         14
   224        587
   225        327
   226         45
   227          4
   236          3
   237          2
   238         80
   239         68
   240         11
   241          1
   250          1
   251          0
   252         18
   253         27
   254          5
   263          0
   264          2
   265          2
   266        179
   267        207
   268         36
   269          3
   278          0
   279          0
   280         17
   281         25
   282          4
   283          0
   286          0
   292          0
   293          1
   294        108
   295        157
   296         30
   297          3
   308         47
   309         41
   310          8
   311          1
   322          7
   323         11
   324          2
   336        106
   337        136
   338         30
   339          3
   350          7
   351         12
   352          2
   364         64
   365        109
   366         26
   367          3
   368          0
   369          0
   378          5
   379         19
   380          5
   381          0
   392          4
   393         10
   394         10
   395          2
   406          2
   407         11
   408          3
   410          0
   420          2
   421          7
   422          6
   423          2
   434          1
   435          4
   436          1
   448          1
   449          3
   450          1
   462          3
   463          6
   464          2
   476          1
   477          2
   478          1
   490          1
   491          5
   492          1
   504          3
   505         11
   506          4
   507          0
   518          1
   519         17
   520          6
   521          1
   532          2
   533          2
   534          7
   535          3