##TITLE=Library Entry 25574
##JCAMP-DX=Revision 4.10 
##DATA TYPE=MASS SPECTRUM
##SAMPLE DESCRIPTION=J. Klune, Insect Chem. Ecol. Lab., USDA, Beltsville, MD
 20705
##NAMES=HP
##CAS NAME=13,17,21-Trimethyltritriacontane
##MOLFORM=C36H74
##CAS REGISTRY NO=58668-38-5
##MP= -300
##BP= -300
##MW= 506
##$RETENTION INDEX=3375
##$CONDENSED SPECTRUM=NO
##NPOINTS= 122
##XYDATA=(XY..XY) 1 
    41        283
    42        107
    43        682
    44         21
    53         10
    54         19
    55        261
    56        193
    57        999
    58         42
    67         33
    68         30
    69        218
    70        144
    71        757
    72         40
    79          3
    81         29
    82         32
    83        155
    84         80
    85        603
    86         36
    95         16
    96         66
    97        210
    98         61
    99        211
   100         13
   109          4
   110         16
   111        103
   112         68
   113        166
   114         11
   124          9
   125         51
   126         34
   127        115
   128          8
   138          4
   139         27
   140         14
   141         92
   142          4
   153         12
   154         27
   155         74
   156          4
   167         14
   168         65
   169         65
   170          4
   182         19
   183         48
   184          4
   194         36
   195         68
   196        616
   197        254
   198         31
   209          3
   210         68
   211         65
   212          6
   224         15
   225         45
   226          5
   238        107
   239        127
   240         19
   253         30
   254          4
   265          5
   266        403
   267        750
   268        147
   269         13
   280         26
   281         43
   282          5
   283          4
   294          4
   295         20
   308        153
   309        154
   310         31
   323          9
   336        306
   337        596
   338        144
   339         13
   350          8
   351         15
   364          4
   365         14
   379         11
   392          4
   393         15
   406          5
   407         21
   408          3
   420          8
   421         16
   434         13
   435         32
   436          6
   449         13
   462          9
   463         29
   464          9
   476         15
   477         69
   478         28
   490          9
   491        104
   492         43
   493          3
   504          4
   505         15
   506         49
   507         20