##TITLE=Library Entry 25371
##JCAMP-DX=Revision 4.10 
##DATA TYPE=MASS SPECTRUM
##SAMPLE DESCRIPTION=J. Klune, Insect Chem. Ecol. Lab., USDA, Beltsville, MD
 20705
##NAMES=HP
##CAS NAME=13,17,21-Trimethylheptatriacontane
##MOLFORM=C40H82
##CAS REGISTRY NO=58668-40-9
##MP= -300
##BP= -300
##MW= 562
##$RETENTION INDEX=3762
##$CONDENSED SPECTRUM=NO
##NPOINTS= 200
##XYDATA=(XY..XY) 1 
    41        232
    42         92
    43        674
    44         28
    47          0
    49          4
    51          2
    53          9
    54         27
    55        374
    56        316
    57        999
    59          0
    65          1
    66          2
    67         34
    68         44
    69        297
    70        192
    71        703
    72         47
    73          1
    77          1
    79          3
    80          2
    81         26
    82         46
    83        200
    84        102
    85        588
    86         42
    87          1
    91          5
    92          1
    93          1
    94          1
    95         16
    96         73
    97        224
    98         63
    99        226
   100         16
   104          0
   105          1
   107          0
   108          0
   109          8
   110         20
   111        105
   112         66
   113        155
   114         12
   119          1
   123          3
   124          9
   125         47
   126         30
   127         99
   128          8
   133          1
   137          1
   138          7
   139         21
   140         13
   141         73
   142          7
   147          0
   151          0
   152          4
   153         10
   154         15
   155         56
   156          6
   165          0
   166          3
   167         11
   168         26
   169         45
   170          4
   180          1
   181          4
   182         14
   183         36
   184          5
   194         11
   195         21
   196        170
   197         87
   198         10
   199          0
   208          1
   209          3
   210         20
   211         27
   212          4
   222          1
   223          2
   224         28
   225         27
   226          4
   235          0
   236          2
   237          2
   238         24
   239         30
   240          5
   250          8
   251         12
   252        122
   253         74
   254         13
   255          1
   263          1
   264          2
   265          4
   266         81
   267        109
   268         23
   269          2
   278          0
   279          0
   280          8
   281         13
   282          3
   292          0
   293          0
   294         17
   295         21
   296          4
   301          0
   302          0
   307          0
   308         18
   309         20
   310          4
   311          0
   315          0
   321          0
   322         44
   323         83
   324         20
   325          2
   336         43
   337         67
   338         16
   339          2
   350          2
   351          5
   352          1
   364         14
   365         15
   366          3
   367          0
   378          1
   379          3
   380          0
   392         28
   393         54
   394         15
   395          2
   406          1
   407          4
   408          1
   420          1
   421          2
   422          2
   423          0
   434          0
   435          2
   436          0
   448          1
   449          2
   450          1
   462          0
   463          2
   464          0
   476          0
   477          2
   478          0
   490          1
   491          3
   492          1
   504          0
   505          1
   506          0
   518          0
   519          2
   520          0
   532          1
   533          6
   534          2
   535          0
   546          1
   547         10
   548          4
   549          0
   560          0
   561          1
   562          1
   563          0