##TITLE=Library Entry 53446
##JCAMP-DX=Revision 4.10 
##DATA TYPE=MASS SPECTRUM
##SAMPLE DESCRIPTION=ORMSBG,10(11)946(1975); R.G.COOKS
##NAMES=HP
##CAS NAME=1H-1,2,4-Triazol-5-amine, 1-ethyl-
##MOLFORM=C4H8N4
##CAS REGISTRY NO=58661-94-2
##MP= -300
##BP= -300
##MW= 112
##$RETENTION INDEX=0
##$CONDENSED SPECTRUM=NO
##NPOINTS= 17
##XYDATA=(XY..XY) 1 
    26        100
    27        850
    28        650
    29        200
    40         80
    41        140
    42        270
    43        350
    55        650
    57        250
    69         90
    70        370
    84        999
    85         30
    97        180
   112        750
   113         50