##TITLE=Library Entry 42371
##JCAMP-DX=Revision 4.10 
##DATA TYPE=MASS SPECTRUM
##SAMPLE DESCRIPTION=L. Cohen, LC, NIDDK, NIH, Bethesda, MD 20892
##NAMES=HP
##CAS NAME=Uridine, 5-tridecafluorohexyl-
##MOLFORM=C15H11F13N2O6
##CAS REGISTRY NO=58671-32-2
##MP= -300
##BP= -300
##MW= 562
##$RETENTION INDEX=0
##$CONDENSED SPECTRUM=NO
##NPOINTS= 98
##XYDATA=(XY..XY) 1 
    41        188
    42         22
    43        315
    44        433
    45        632
    46        505
    47         28
    48          7
    51         34
    53         66
    54         49
    55        189
    56        101
    57        643
    58        117
    59         46
    60        142
    61        116
    67         12
    68         99
    69        226
    70        113
    71        200
    73        999
    74         98
    75        102
    77         44
    78         40
    79          6
    81         79
    82         23
    83         41
    84         75
    85        154
    86        132
    87         66
    89         22
    90         29
    91         79
    93          8
    94         10
    95         20
    96         32
    97         97
    98         32
    99         59
   100         30
   101         47
   102         14
   103         63
   104         58
   105         13
   106         31
   111          6
   112         13
   113         15
   114         75
   115        101
   116         12
   117        276
   118         87
   119         32
   121         19
   122         25
   124         31
   129         27
   131         46
   132        142
   133        753
   134         54
   135         16
   139         23
   141         12
   144         13
   145          5
   149          8
   161        157
   162         11
   163          7
   169          7
   173         30
   175          7
   187         24
   253         13
   341        111
   368         22
   373         27
   381         17
   400         17
   411         72
   412          5
   414         20
   423         41
   430          7
   431        170
   432         14
   489         41
   544         53