##TITLE=Library Entry 57939
##JCAMP-DX=Revision 4.10 
##DATA TYPE=MASS SPECTRUM
##SAMPLE DESCRIPTION=Institute of Organic Chemistry, USSR, 1990
##NAMES=HP
##CAS NAME=1,10-Dimethyl-4,7,13-trioxa-1,10-diazacyclopentadecane
##MOLFORM=C12H26N2O3
##CAS REGISTRY NO=58688-38-3
##MP= -300
##BP= -300
##MW= 246
##$RETENTION INDEX=0
##$CONDENSED SPECTRUM=NO
##NPOINTS= 76
##XYDATA=(XY..XY) 1 
    54         29
    55         61
    56        250
    57        421
    58        711
    59        147
    70        421
    71        263
    72        553
    73         71
    79        395
    80         11
    81         18
    82         90
    83        395
    84        242
    85        290
    86        263
    87         79
    88        999
    89        158
    90         45
    91         45
    98         84
    99        118
   100        783
   101        290
   102        206
   103         21
   112         32
   113         40
   114        247
   115        216
   116        158
   117         17
   118         26
   119          6
   128         40
   129          8
   130        145
   131         26
   132        290
   133         37
   143         74
   144         90
   145         79
   146        500
   147         50
   148         55
   149          7
   158         47
   159         13
   160          8
   161          9
   162        111
   163        111
   164         45
   165         10
   169         66
   170          7
   171         66
   172         22
   185         47
   186          9
   187          9
   188          8
   189         15
   201         26
   202          6
   203         18
   204          5
   215        111
   229          4
   231          1
   246          2
   247          1