##TITLE=Library Entry 89781
##JCAMP-DX=Revision 4.10 
##DATA TYPE=MASS SPECTRUM
##SAMPLE DESCRIPTION=ORMSBG,10(12)1111(1975); H. ACHENBACH
##NAMES=HP
##CAS NAME=1-Azabicyclo[2.2.2]octan-2-ol, 4-phenyl-
##MOLFORM=C13H17NO
##CAS REGISTRY NO=58690-17-8
##MP= -300
##BP= -300
##MW= 203
##$RETENTION INDEX=0
##$CONDENSED SPECTRUM=NO
##NPOINTS= 53
##XYDATA=(XY..XY) 1 
    39        101
    41        293
    42        645
    43        430
    44        128
    45         42
    51         80
    53         45
    55        120
    56        193
    57        230
    58        425
    59         30
    60         30
    63         25
    65         70
    67         48
    68         35
    69        120
    70         35
    71        115
    72        155
    77        130
    78         50
    81         28
    82         35
    83         40
    84         92
    85         38
    91        293
    92         30
   103         75
   111         63
   112        999
   113         65
   115        150
   116         55
   117        100
   118         65
   129        373
   130         88
   131        100
   132         42
   143         55
   144        195
   145         53
   158         40
   174         42
   175        111
   178         12
   202         73
   203        810
   204         98