##TITLE=Library Entry 40348
##JCAMP-DX=Revision 4.10 
##DATA TYPE=MASS SPECTRUM
##SAMPLE DESCRIPTION=Exported from NIST MS Search
##NAMES=HP
##CAS NAME=Urea, N'-(3-chlorophenyl)-N,N-dimethyl-
##MOLFORM=C9H11ClN2O
##CAS REGISTRY NO=587-34-8
##MP= -300
##BP= -300
##MW= 198
##$RETENTION INDEX=0
##$CONDENSED SPECTRUM=NO
##NPOINTS= 20
##XYDATA=(XY..XY) 1 
    15         40
    38         20
    39         20
    41         20
    42         40
    43         30
    44        220
    45         50
    56         20
    57         20
    67         20
    69         30
    71         20
    72        999
    73         70
    90         30
    91         30
   111         20
   198        250
   200         90