##TITLE=Library Entry 46704
##JCAMP-DX=Revision 4.10 
##DATA TYPE=MASS SPECTRUM
##SAMPLE DESCRIPTION=Japan AIST/NIMC Database- Spectrum MS-NW-7218
##NAMES=HP
##CAS NAME=Mercury, diphenyl-
##MOLFORM=C12H10Hg
##CAS REGISTRY NO=587-85-9
##MP= -300
##BP= -300
##MW= 356
##$RETENTION INDEX=0
##$CONDENSED SPECTRUM=NO
##NPOINTS= 55
##XYDATA=(XY..XY) 1 
    27         10
    37          3
    38          6
    39         10
    49          4
    50         69
    51        255
    52         15
    61          1
    62          3
    63          3
    64          1
    73          4
    74         23
    75         16
    76         30
    77        999
    78         75
    79          2
   115          5
   126          3
   127          3
   128          4
   139          2
   150          2
   151          7
   152         25
   153         27
   154         45
   155          6
   176          1
   177          1
   178          1
   198          1
   199          2
   200          3
   201          2
   202          4
   204          1
   275         20
   276         35
   277         49
   278         29
   279         63
   280          4
   281         13
   282          1
   352         34
   353         61
   354         88
   355         54
   356        107
   357         14
   358         24
   359          3