##TITLE=Library Entry 82909
##JCAMP-DX=Revision 4.10 
##DATA TYPE=MASS SPECTRUM
##SAMPLE DESCRIPTION=NIST Mass Spectrometry Data Center, 1994
##NAMES=HP
##CAS NAME=m-Ethylaniline
##MOLFORM=C8H11N
##CAS REGISTRY NO=587-02-0
##MP= -300
##BP= -300
##MW= 121
##$RETENTION INDEX=1141
##$CONDENSED SPECTRUM=NO
##NPOINTS= 71
##XYDATA=(XY..XY) 1 
    14          7
    15         45
    16          2
    17          2
    18          4
    26         23
    27         81
    28         79
    29         14
    30         16
    37         12
    38         41
    39        131
    40         24
    41         51
    42         28
    43          5
    44          1
    46          3
    47          8
    50         42
    51         78
    52         62
    53         64
    54         33
    55          2
    56          1
    59         39
    60         27
    61         12
    62         26
    63         61
    64         28
    65        100
    66         53
    67         20
    68          3
    73          2
    74         13
    75         13
    76          2
    77        216
    78         78
    79        142
    80         69
    81          5
    86          4
    87          3
    89         26
    90         13
    91         83
    92         32
    93        156
    94         56
    95          5
   101          2
   102         10
   103         38
   104         40
   105          2
   106        999
   107         80
   108          3
   116          3
   117         14
   118         34
   119         31
   120        205
   121        760
   122         66
   123          2