##TITLE=Library Entry 57582
##JCAMP-DX=Revision 4.10 
##DATA TYPE=MASS SPECTRUM
##SAMPLE DESCRIPTION=Exported from NIST MS Search
##NAMES=HP
##CAS NAME=Pentanoic acid, 3-methyl-, ethyl ester
##MOLFORM=C8H16O2
##CAS REGISTRY NO=5870-68-8
##MP= -300
##BP= -300
##MW= 144
##$RETENTION INDEX=960
##$CONDENSED SPECTRUM=NO
##NPOINTS= 40
##XYDATA=(XY..XY) 1 
    14          4
    15         11
    16          2
    17          4
    18         22
    26         10
    27        147
    28        139
    29        453
    30         16
    31         14
    32         19
    39         77
    40         16
    41        264
    42        121
    43        415
    44         18
    45        140
    53         19
    55        121
    56         54
    57         81
    59         20
    60        323
    61        234
    69         70
    70        308
    71        239
    73        114
    83         29
    87         85
    88        999
    89         69
    97         13
    99        294
   101         40
   115        102
   129         12
   144         47