##TITLE=Library Entry 70377
##JCAMP-DX=Revision 4.10 
##DATA TYPE=MASS SPECTRUM
##SAMPLE DESCRIPTION=A.A.Kutin, Moscow, Russia
##NAMES=HP
##CAS NAME=Di-2-Thenylamine
##MOLFORM=C10H11NS2
##CAS REGISTRY NO=58703-21-2
##MP= -300
##BP= -300
##MW= 209
##$RETENTION INDEX=0
##$CONDENSED SPECTRUM=NO
##NPOINTS= 125
##XYDATA=(XY..XY) 1 
    33          1
    34          2
    39         81
    40         30
    41         22
    42          8
    43         12
    44         14
    45        173
    47         18
    48          0
    49          1
    50         10
    51         21
    52         15
    53        115
    54          7
    55          3
    56          9
    57         19
    58         30
    59          6
    60          2
    61          1
    62          4
    63         13
    64          3
    65          5
    66          2
    67          3
    68          8
    69         35
    70         18
    71         20
    72          2
    73          1
    74          0
    75          0
    76          1
    77          2
    78          6
    79          2
    80         18
    81          7
    82          9
    83          9
    84         18
    85        131
    86          9
    87          6
    88          0
    89          0
    90          0
    91          3
    92          2
    93          3
    95         14
    97        999
    98        158
    99         51
   100          7
   101          0
   102          0
   103          0
   104          0
   105          0
   106          0
   107          0
   108          0
   109          2
   110         29
   112        386
   113         28
   114         17
   115          1
   116          0
   117          0
   118          0
   119          0
   120          3
   121          1
   122          1
   123          8
   124         95
   125        227
   126         23
   127         11
   128          1
   129          0
   130          0
   133          0
   134          1
   135          1
   136          0
   140          0
   141          1
   142          0
   143          0
   145          0
   147          1
   148          0
   149          0
   150          0
   153          0
   156          0
   164          1
   165          0
   166          0
   167          0
   169          0
   171          0
   173          0
   174          0
   175          0
   176          0
   177          0
   179          2
   180          0
   181          0
   182          0
   207          6
   208          9
   209         25
   210          3
   211          2