##TITLE=Library Entry 84047
##JCAMP-DX=Revision 4.10 
##DATA TYPE=MASS SPECTRUM
##SAMPLE DESCRIPTION=Chemical Concepts
##NAMES=HP
##CAS NAME=2-Oxabicyclo[2.2.2]oct-5-en-3-one, 4,7,7-trimethyl-
##MOLFORM=C10H14O2
##CAS REGISTRY NO=58705-39-8
##MP= -300
##BP= -300
##MW= 166
##$RETENTION INDEX=0
##$CONDENSED SPECTRUM=NO
##NPOINTS= 55
##XYDATA=(XY..XY) 1 
    26         12
    27        166
    28         42
    29         81
    37          6
    38         16
    39        262
    40         37
    41        206
    42         18
    43         53
    44        232
    50         26
    51         86
    52         44
    53        132
    54         89
    55         61
    56         45
    57          8
    62         10
    63         30
    64          9
    65        104
    66         19
    68          7
    69          9
    77        117
    78         32
    79        169
    80         25
    81         72
    82        484
    83         45
    89          8
    91        526
    92         76
    93         35
    94         11
    95         36
   105        159
   106         27
   107        999
   108        106
   109         14
   110        589
   111        381
   112         29
   121         18
   122        375
   123         45
   138          0
   139          6
   167         11
   168          1