##TITLE=Library Entry 86037
##JCAMP-DX=Revision 4.10 
##DATA TYPE=MASS SPECTRUM
##SAMPLE DESCRIPTION=L.F. ZERILLI, RES. LABS. GRUPPO LEPETIT, MILAN, ITAL
##NAMES=HP
##CAS NAME=Madumycin II
##MOLFORM=C26H37N3O7
##CAS REGISTRY NO=58717-24-1
##MP= -300
##BP= -300
##MW= 503
##$RETENTION INDEX=0
##$CONDENSED SPECTRUM=NO
##NPOINTS= 141
##XYDATA=(XY..XY) 1 
    32        120
    36        100
    38         50
    39        240
    40         60
    41        460
    42        170
    43        500
    44        530
    45         90
    50         50
    51        110
    52         70
    53        200
    54        210
    55        450
    56        160
    57        150
    58         20
    59         20
    60         20
    63         40
    64         30
    65        150
    66         40
    67        490
    68        130
    69        230
    70        110
    71         90
    72         30
    74         20
    77        290
    78         90
    79        310
    80        150
    81        340
    82        370
    83        210
    84         90
    85         40
    91        440
    92         70
    93        250
    94        180
    95        720
    96        250
    97        100
    98        110
    99         50
   103         60
   104         80
   105        370
   106        170
   107        240
   108        250
   109        999
   110        540
   111        180
   112        110
   113         20
   116         80
   117         40
   118        140
   119         80
   120        150
   121        150
   122        150
   123        290
   124        130
   125        100
   126         40
   130        100
   131        150
   132        170
   133        260
   134        210
   135        140
   136        120
   137        670
   138        270
   139        110
   150        120
   151        100
   152        480
   153        490
   154        430
   155        100
   156         60
   157         50
   179        110
   180        220
   181        300
   182         60
   183         20
   185         90
   186        120
   187         20
   197         70
   198        280
   199        120
   200         50
   224         80
   225        150
   226         90
   227        120
   228         30
   243         80
   244        260
   245         70
   267         70
   268        150
   269        170
   270         90
   271         20
   285         80
   286         60
   287        150
   288         50
   289         40
   313         70
   314        200
   315         70
   330         60
   331         50
   332         40
   351        150
   352         50
   378        100
   379         30
   380         70
   441        160
   442         60
   467        140
   468         50
   469         40
   485        200
   486         60
   487         30
   503         60
   504         10