##TITLE=Library Entry 10713
##JCAMP-DX=Revision 4.10 
##DATA TYPE=MASS SPECTRUM
##SAMPLE DESCRIPTION=R.D. PLATTNER, US DEP. AGRIC., PEORIA, ILL.,
##NAMES=HP
##CAS NAME=2,3,5-Tri-O-acetyl-4,6-di-O-methyl-D-mannonitrile
##MOLFORM=C14H21NO8
##CAS REGISTRY NO=58720-12-0
##MP= -300
##BP= -300
##MW= 331
##$RETENTION INDEX=0
##$CONDENSED SPECTRUM=NO
##NPOINTS= 145
##XYDATA=(XY..XY) 1 
    37          8
    38         14
    39         77
    40         44
    41        203
    42        361
    43        999
    44        198
    45        270
    46          4
    47          6
    48          3
    49          2
    50          9
    51         14
    52         11
    53         12
    57         71
    58         21
    59         24
    60         30
    61         31
    62          9
    63          7
    64          4
    66          5
    67         29
    68         15
    69         15
    70         22
    71        256
    72         34
    73        114
    74         41
    75         14
    77          7
    78          9
    79          5
    80          6
    81         12
    82          7
    83         16
    84         14
    85         26
    86          6
    87         91
    88         15
    89         13
    90          2
    93          5
    94          8
    95         16
    96         19
    97         23
    98         19
    99         39
   100         23
   101        551
   102         34
   103         29
   104         10
   105          9
   106          6
   108          8
   109         10
   110         15
   111         17
   112         93
   113         68
   114         18
   115         27
   116          5
   117         13
   119         23
   121          5
   122          3
   124         18
   125          5
   126         15
   127         18
   128         33
   129        214
   130         19
   131         32
   132          4
   134          5
   137          9
   138         14
   139          8
   140          7
   141          8
   142         22
   143         10
   144         12
   145          4
   147          6
   150          5
   151          5
   152          5
   153          4
   154         67
   155         26
   156          8
   157         10
   159         14
   160          8
   161         82
   162          5
   167          3
   168          8
   169         10
   170          6
   171         10
   172         10
   173         46
   174          4
   176          5
   178          3
   180          4
   184         37
   189          3
   191          5
   197          7
   202          3
   203          2
   211         13
   213          4
   214        100
   215          8
   217          3
   221          2
   226          4
   228          7
   230          2
   239          3
   242          5
   246          9
   252          3
   254          5
   257          5
   259          5
   267          2
   268          2
   288          5
   317          7