##TITLE=Library Entry 10784
##JCAMP-DX=Revision 4.10 
##DATA TYPE=MASS SPECTRUM
##SAMPLE DESCRIPTION=R.D. PLATTNER, U.S. DEP. AGRIC., PEORIA, ILL., U
##NAMES=HP
##CAS NAME=3,5-Di-O-acetyl-2,4,6-tri-O-methyl-D-mannonitrile
##MOLFORM=C13H21NO7
##CAS REGISTRY NO=58720-07-3
##MP= -300
##BP= -300
##MW= 303
##$RETENTION INDEX=0
##$CONDENSED SPECTRUM=NO
##NPOINTS= 73
##XYDATA=(XY..XY) 1 
    39          9
    41         20
    42         15
    43        999
    44         40
    45        358
    46          5
    51          5
    52          5
    53          5
    54          5
    55         21
    57         10
    59         21
    60          5
    61          5
    66          5
    68          5
    69         11
    70         40
    71        111
    72          6
    73         24
    74         77
    75         34
    79          6
    83         11
    85         28
    87        123
    88         12
    89         13
    96        157
    97         26
    99        157
   100         28
   101        672
   102         47
   103          8
   109          8
   110          8
   111          8
   112        351
   113         39
   114         13
   115         47
   116         15
   117         51
   119         21
   124         45
   126         84
   127        101
   129        504
   130         50
   131         27
   138         22
   139          9
   152          9
   154        214
   155         21
   156          5
   157          6
   159         63
   161        245
   162         15
   169         15
   173         12
   184         13
   186        321
   187         34
   189          8
   214          9
   216         21
   233          9