##TITLE=Library Entry 26676
##JCAMP-DX=Revision 4.10 
##DATA TYPE=MASS SPECTRUM
##SAMPLE DESCRIPTION=Chemical Concepts
##NAMES=HP
##CAS NAME=dl-Alanine, N-(2,2-dimethyl-1-oxopropyl)-
##MOLFORM=C8H15NO3
##CAS REGISTRY NO=5872-15-1
##MP= -300
##BP= -300
##MW= 173
##$RETENTION INDEX=0
##$CONDENSED SPECTRUM=NO
##NPOINTS= 99
##XYDATA=(XY..XY) 1 
    26          4
    27         52
    28         39
    29        177
    30          7
    31          4
    36          1
    38          3
    39         58
    40         12
    41        301
    42         71
    43         73
    44        309
    45         40
    46          5
    47          2
    48          1
    49          2
    50          3
    51          4
    52          2
    53          8
    54          5
    55         63
    56         85
    57        999
    58         49
    59          5
    60         18
    61          4
    62          1
    65          8
    66          1
    67          9
    68          6
    69         86
    70         87
    71         51
    72         48
    73         32
    74         47
    75          6
    76          8
    77          5
    78          1
    79          4
    80          2
    81         12
    82          8
    83         23
    84         20
    85        192
    86         18
    87         39
    88        174
    89         12
    90         49
    91          6
    92          2
    93         10
    94          3
    95         11
    96          7
    97         14
    98          7
    99         10
   100         26
   101          6
   102          2
   104          8
   105          8
   106          1
   107          3
   108          2
   109          7
   110          4
   111         10
   112         16
   113          5
   114         21
   115          6
   116         22
   117          1
   118         46
   119          4
   127          4
   128        363
   129         66
   130         21
   155         19
   156          2
   157          3
   158          4
   171          2
   172          1
   173        103
   174         12
   175          1