##TITLE=Library Entry 86490
##JCAMP-DX=Revision 4.10 
##DATA TYPE=MASS SPECTRUM
##SAMPLE DESCRIPTION=Japan AIST/NIMC Database- Spectrum MS-IW-3903
##NAMES=HP
##CAS NAME=Bicyclo[2.2.1]heptane-1-methanesulfonic acid, 7,7-dimethyl-2-oxo-
, (.+/-.)-
##MOLFORM=C10H16O4S
##CAS REGISTRY NO=5872-08-2
##MP= -300
##BP= -300
##MW= 232
##$RETENTION INDEX=0
##$CONDENSED SPECTRUM=NO
##NPOINTS= 111
##XYDATA=(XY..XY) 1 
    15          3
    17          2
    18          7
    26          3
    27         74
    28         17
    29         56
    30          1
    31          4
    32          1
    38          4
    39        118
    40         31
    41        275
    42         19
    43        135
    44          4
    45          4
    46          1
    48          3
    50          6
    51         28
    52         21
    53        121
    54         32
    55        156
    56          9
    57         41
    58          4
    59          7
    60          2
    61          1
    62          1
    63          7
    64          7
    65         42
    66         14
    67        283
    68         44
    69        143
    70          9
    71          3
    75          1
    76          1
    77         78
    78         16
    79        133
    80         23
    81        530
    82         47
    83         25
    84          5
    85         23
    86          1
    89          1
    90          1
    91         89
    92         14
    93        241
    94         32
    95        112
    96         12
    97         20
    98          2
    99          3
   103          3
   104          1
   105         21
   106         37
   107        246
   108        141
   109        999
   110         90
   111          5
   115          1
   117          2
   119          2
   120          1
   121         14
   122         11
   123        386
   124         39
   125          2
   132          1
   133         71
   134          8
   135         12
   136          2
   137          6
   138          1
   148          1
   149          2
   150         49
   151        660
   152        164
   153         63
   154          6
   161          3
   163          3
   168         41
   169          4
   175          9
   176          1
   188         10
   189         11
   190          2
   191          1
   214          1
   232         16
   233          5
   234          1