##TITLE=Library Entry 62907
##JCAMP-DX=Revision 4.10 
##DATA TYPE=MASS SPECTRUM
##SAMPLE DESCRIPTION=Chemical Concepts
##NAMES=HP
##CAS NAME=Benzeneethane(dithioic) acid
##MOLFORM=C8H8S2
##CAS REGISTRY NO=5873-91-6
##MP= -300
##BP= -300
##MW= 168
##$RETENTION INDEX=0
##$CONDENSED SPECTRUM=NO
##NPOINTS= 89
##XYDATA=(XY..XY) 1 
    26          1
    27          7
    33          4
    34          5
    37          3
    38          8
    39         52
    41          6
    44          0
    45         22
    46          2
    47          1
    49          1
    50         25
    51         51
    52         11
    53          2
    54          0
    57          2
    58         13
    59          1
    60          1
    61          5
    62         17
    63         52
    64         11
    65        148
    66         10
    67         29
    69         17
    70          1
    71          3
    73          1
    74         13
    75          9
    76         11
    77         67
    78          8
    79          6
    81          2
    82          5
    83          3
    84          7
    85          3
    86          4
    87          3
    88          1
    89         78
    90         46
    91        999
    92        485
    93         32
    94          1
    95          1
    98          0
    99          0
   101          1
   102         15
   103          6
   104          2
   105          1
   106          2
   107          0
   108         13
   109          6
   110          3
   111          0
   115          0
   118          1
   119          1
   120          0
   121         10
   122          1
   123          4
   132          1
   133          9
   134        212
   135        182
   136         31
   137          7
   153          0
   165          1
   166          1
   167          4
   168        590
   169         55
   170         48
   171          4
   172          1