##TITLE=Library Entry 39768
##JCAMP-DX=Revision 4.10 
##DATA TYPE=MASS SPECTRUM
##SAMPLE DESCRIPTION=ASES Database, Dalian Institute, P.R. China
##NAMES=HP
##CAS NAME=Benzamide, N-[20.alpha.-(dimethylamino)-4.beta.-hydroxy-5.alpha.-
pregnan-3.beta.-yl]-, acetate (ester)
##MOLFORM=C32H48N2O3
##CAS REGISTRY NO=5874-20-4
##MP= -300
##BP= -300
##MW= 508
##$RETENTION INDEX=0
##$CONDENSED SPECTRUM=NO
##NPOINTS= 25
##XYDATA=(XY..XY) 1 
    43        173
    44        909
    51        124
    58        109
    72        999
    77        418
    96        151
   105        768
   106         74
   108         69
   121         58
   122        305
   135        192
   136         73
   148        105
   149        210
   162         41
   163         41
   434        180
   435        179
   491        542
   506        298
   507        330
   508        661
   509        240