##TITLE=Library Entry 109187
##JCAMP-DX=Revision 4.10 
##DATA TYPE=MASS SPECTRUM
##SAMPLE DESCRIPTION=Div. of Experiment Therapeutics WRAIR, WRAMC, Washingto
n DC 20307
##NAMES=HP
##CAS NAME=.alpha.-[p-Chlorophenyl]succinic acid
##MOLFORM=C10H9ClO4
##CAS REGISTRY NO=58755-91-2
##MP= -300
##BP= -300
##MW= 228
##$RETENTION INDEX=0
##$CONDENSED SPECTRUM=NO
##NPOINTS= 103
##XYDATA=(XY..XY) 1 
    41         25
    42         38
    43        192
    45        613
    46         11
    47         12
    49         56
    50        234
    51        498
    52         70
    53         50
    54          2
    55         60
    56          2
    57         10
    59          6
    60         16
    61         30
    62         73
    63        171
    64         21
    65         46
    66          5
    67          3
    68          7
    69         67
    70         10
    71          8
    72          2
    73         67
    74        106
    75        259
    76         42
    77        991
    78        119
    79         42
    82         22
    83          5
    84         30
    85         28
    86         30
    87         32
    88          7
    89         97
    90         23
    91         74
    97         15
    98         18
    99         38
   100          6
   101        217
   102        216
   103        607
   104         88
   105         43
   107        227
   108         10
   111         49
   112         81
   113        158
   114         36
   115         48
   119         13
   123         19
   125        999
   127        384
   128         21
   130          6
   131         10
   134          9
   136         35
   137        287
   138        545
   139        175
   140        184
   141        632
   143        244
   147         10
   149         51
   150          4
   152          2
   154          5
   165         22
   167         15
   169         16
   171          2
   180         16
   181          8
   182        775
   183         69
   184        666
   185         72
   186        147
   187          7
   208          2
   209          6
   210        224
   211         20
   212         77
   213         12
   228         38
   229          3
   230         12