##TITLE=Library Entry 30117
##JCAMP-DX=Revision 4.10 
##DATA TYPE=MASS SPECTRUM
##SAMPLE DESCRIPTION=Chemical Concepts
##NAMES=HP
##CAS NAME=Undecanamide, 11-bromo-
##MOLFORM=C11H22BrNO
##CAS REGISTRY NO=5875-26-3
##MP= -300
##BP= -300
##MW= 263
##$RETENTION INDEX=0
##$CONDENSED SPECTRUM=NO
##NPOINTS= 117
##XYDATA=(XY..XY) 1 
    26          1
    27         40
    28          8
    29         51
    30          4
    31          2
    38          0
    39         25
    40          0
    41        116
    42         19
    43         83
    44         96
    45          3
    46          1
    51          0
    52          0
    53          9
    54          6
    55         86
    56         10
    57         29
    58          2
    59        999
    60         63
    61          3
    63          0
    65          1
    66          0
    67          9
    68          2
    69         32
    70          3
    71          8
    72        207
    73         35
    74          1
    77          0
    79          2
    80          0
    81          7
    82          1
    83         16
    84          6
    85          2
    86         41
    87          4
    88          0
    91          0
    93          1
    94          0
    95          2
    96          0
    97          7
    98          7
    99          0
   100         11
   101          4
   102          0
   107          4
   108          0
   109          4
   110          0
   111          1
   112          1
   113          0
   114         19
   115          6
   116          0
   121          1
   122          0
   123          1
   124          0
   125          2
   126          0
   128         10
   129          1
   135          1
   137          1
   139          0
   140          0
   142          3
   147          0
   149          2
   150          0
   151          0
   156          3
   157          0
   163          0
   166          0
   167          2
   170          0
   183          0
   184         90
   185         13
   186          1
   200          0
   204          0
   206          0
   207          0
   208          0
   220          3
   221          0
   222          2
   223          0
   234          2
   235          0
   236          1
   247          0
   248          0
   249          0
   262          0
   263          2
   264          1
   265          2
   266          1
   267          0