##TITLE=Library Entry 4764
##JCAMP-DX=Revision 4.10 
##DATA TYPE=MASS SPECTRUM
##SAMPLE DESCRIPTION=ORMSBG,10(12)1155(1975); O. THORSTAD
##NAMES=HP
##CAS NAME=Oxaziridine, 2-methyl-3-propyl-
##MOLFORM=C5H11NO
##CAS REGISTRY NO=58751-77-2
##MP= -300
##BP= -300
##MW= 101
##$RETENTION INDEX=0
##$CONDENSED SPECTRUM=NO
##NPOINTS= 9
##XYDATA=(XY..XY) 1 
    41        380
    42        999
    43        490
    57        510
    58        290
    59        130
    73        280
    86        110
   101         60