##TITLE=Library Entry 15729
##JCAMP-DX=Revision 4.10 
##DATA TYPE=MASS SPECTRUM
##SAMPLE DESCRIPTION=Japan AIST/NIMC Database- Spectrum MS-NW-7639
##NAMES=HP
##CAS NAME=3-Chloropropionamide
##MOLFORM=C3H6ClNO
##CAS REGISTRY NO=5875-24-1
##MP= -300
##BP= -300
##MW= 107
##$RETENTION INDEX=0
##$CONDENSED SPECTRUM=NO
##NPOINTS= 65
##XYDATA=(XY..XY) 1 
    12          1
    13          3
    14          8
    15          9
    16         23
    17         17
    18         18
    24          1
    25          9
    26         94
    27        319
    28        395
    29         21
    30         18
    31          8
    32          1
    35          9
    36         56
    37          4
    38         17
    39          4
    40          5
    41         10
    42         17
    43         47
    44        999
    45         71
    46          4
    47          2
    48          3
    49         28
    50          4
    51         14
    52         27
    53         32
    54         20
    55        107
    56          6
    58          1
    60          5
    61         13
    62         15
    63        147
    64         25
    65         47
    66          7
    70          4
    71        152
    72        722
    73         29
    74          2
    78          2
    80          5
    82          2
    88          1
    89          9
    90          3
    91         46
    92          2
    93         13
   106          8
   107         65
   108          8
   109         23
   110          2