##TITLE=Library Entry 58719
##JCAMP-DX=Revision 4.10 
##DATA TYPE=MASS SPECTRUM
##SAMPLE DESCRIPTION=ORMSBG,10(12)1084(1975); A. CROISY
##NAMES=HP
##CAS NAME=Acetic acid, [(3-formylbenzo[b]selenophene-2-yl)seleno]-, ethyl e
ster
##MOLFORM=C13H12O3Se2
##CAS REGISTRY NO=58751-61-4
##MP= -300
##BP= -300
##MW= 376
##$RETENTION INDEX=0
##$CONDENSED SPECTRUM=NO
##NPOINTS= 119
##XYDATA=(XY..XY) 1 
    50         16
    51         51
    61          8
    62         11
    63         35
    74         37
    75        105
    76         13
    77         10
    87         16
    88         16
    89        999
   101        213
   102         49
   113          6
   114          6
   115         70
   116          3
   117         28
   118          3
   119          6
   125          3
   126          3
   127          8
   128         10
   129         13
   130         16
   131          6
   132          3
   137          5
   138          5
   139         13
   141         30
   142          6
   143         10
   165         23
   166         23
   167         51
   168         20
   169        103
   171         13
   176         20
   177         28
   178         50
   179         40
   180         85
   181         71
   182         34
   183         18
   184          6
   191         16
   192         13
   193         30
   194         13
   195         37
   196          8
   197          8
   205         56
   206         58
   207        140
   208         28
   209        268
   210         44
   211         55
   212         10
   253         13
   254         21
   255         44
   256         60
   257        108
   258        108
   259        163
   260         85
   261        180
   262         38
   263         56
   280         10
   281         26
   282         58
   283         95
   284        143
   285        225
   286        251
   287        308
   288        220
   289        333
   290         85
   291        106
   292         16
   293         10
   298          8
   299          8
   300         13
   301         10
   302         16
   303         13
   304          6
   305         10
   326          3
   328          6
   330         10
   332          2
   354          6
   356         11
   358         13
   360          3
   368          6
   369         10
   370         30
   371         23
   372         78
   373         47
   374        130
   375         26
   376        146
   377         21
   378         47
   379          6
   380          5