##TITLE=Library Entry 2785
##JCAMP-DX=Revision 4.10 
##DATA TYPE=MASS SPECTRUM
##SAMPLE DESCRIPTION=Exported from NIST MS Search
##NAMES=HP
##CAS NAME=1,11-Dodecadiene
##MOLFORM=C12H22
##CAS REGISTRY NO=5876-87-9
##MP= -300
##BP= -300
##MW= 166
##$RETENTION INDEX=1179
##$CONDENSED SPECTRUM=NO
##NPOINTS= 115
##XYDATA=(XY..XY) 1 
    14          5
    15         29
    25          1
    26         23
    27        307
    28         78
    29        321
    30          8
    31          2
    36          1
    37          5
    38         14
    39        379
    40         60
    41        999
    42        125
    43        182
    44         10
    45          2
    49          1
    50         10
    51         27
    52         18
    53        133
    54        542
    55        998
    56        121
    57         87
    58          6
    59          1
    62          2
    63          6
    64          2
    65         24
    66         42
    67        585
    68        413
    69        462
    70         83
    71         23
    72          8
    73          2
    74          1
    75          1
    76          1
    77         24
    78         18
    79         44
    80         32
    81        542
    82        478
    83        263
    84         34
    85          8
    86          2
    91         22
    92          8
    93         18
    94         19
    95        311
    96        318
    97         74
    98         15
    99          2
   101          2
   103          2
   104          2
   105         11
   106          4
   107          8
   108          8
   109        145
   110         65
   111         15
   112          4
   113          1
   115          3
   116          1
   117          3
   118          2
   119          7
   120          2
   121          5
   122          3
   123         39
   124         51
   125          8
   126          2
   128          2
   129          2
   131          5
   132          1
   133          6
   134          1
   135          4
   136          2
   137         18
   138         36
   139          6
   141          1
   142          1
   143          1
   145          2
   146          2
   147          2
   148          1
   149          2
   151          6
   152          2
   160          1
   162          5
   164          2
   165          2
   166         18
   167          3