##TITLE=Library Entry 28758
##JCAMP-DX=Revision 4.10 
##DATA TYPE=MASS SPECTRUM
##SAMPLE DESCRIPTION=J.BARTLEY,DEP. CHEM.,QUEENSLAND INST. TECHNOL.,BRISBANE
,AUST.
##NAMES=HP
##CAS NAME=2-Methoxy-N,N-dimethylbenzylamine
##MOLFORM=C10H15NO
##CAS REGISTRY NO=58774-83-7
##MP= -300
##BP= -300
##MW= 165
##$RETENTION INDEX=0
##$CONDENSED SPECTRUM=NO
##NPOINTS= 19
##XYDATA=(XY..XY) 1 
    39         58
    42        209
    44        199
    46        143
    51         70
    57         61
    58        999
    65         96
    77         56
    78         57
    91        542
    92         55
   120         45
   121        346
   122         68
   150         68
   164        141
   165        261
   166         26