##TITLE=Library Entry 24044
##JCAMP-DX=Revision 4.10 
##DATA TYPE=MASS SPECTRUM
##SAMPLE DESCRIPTION=Japan AIST/NIMC Database- Spectrum MS-NW-4839
##NAMES=HP
##CAS NAME=1-Octyn-3-ol, 4-ethyl-
##MOLFORM=C10H18O
##CAS REGISTRY NO=5877-42-9
##MP= -300
##BP= -300
##MW= 154
##$RETENTION INDEX=0
##$CONDENSED SPECTRUM=NO
##NPOINTS= 82
##XYDATA=(XY..XY) 1 
    14          1
    15          4
    16          1
    17          5
    18         15
    25          1
    26         10
    27         91
    28         10
    29        165
    30          4
    31          6
    37          1
    38          4
    39         49
    40          8
    41        260
    42         37
    43        349
    44         12
    45          4
    50          4
    51         10
    52          7
    53         21
    54         11
    55        136
    56        113
    57        999
    58         46
    59          4
    62          1
    63          3
    64          1
    65         10
    66          6
    67         18
    68         15
    69         77
    70         58
    71         15
    72         31
    73          3
    74          1
    77         16
    78          4
    79         36
    80         15
    81         28
    82          9
    83         98
    84         68
    85         11
    86          1
    87          1
    88          1
    91         12
    92          2
    93         18
    94          6
    95          9
    96          5
    97         45
    98        130
    99         28
   100          2
   105          3
   107         18
   108          3
   109          3
   110          2
   111         27
   112         19
   113          1
   121          4
   123          4
   124          1
   125         17
   126          3
   136          2
   139          4
   153          2