##TITLE=Library Entry 16859
##JCAMP-DX=Revision 4.10 
##DATA TYPE=MASS SPECTRUM
##SAMPLE DESCRIPTION=RADIAN CORP
##NAMES=HP
##CAS NAME=2-Propanone, 1-methoxy-
##MOLFORM=C4H8O2
##CAS REGISTRY NO=5878-19-3
##MP= -300
##BP= -300
##MW= 88
##$RETENTION INDEX=1104
##$CONDENSED SPECTRUM=NO
##NPOINTS= 31
##XYDATA=(XY..XY) 1 
    14          2
    15         18
    26          9
    27         27
    28         13
    29        139
    30          8
    31         18
    32          3
    33          1
    37          3
    38          5
    39         13
    40          2
    41         11
    42         70
    43        755
    44         35
    45        999
    46         25
    47          3
    53          3
    55          2
    56          2
    57         20
    58        387
    59         19
    60          2
    61          8
    88         15
    89          1