##TITLE=Library Entry 69257
##JCAMP-DX=Revision 4.10 
##DATA TYPE=MASS SPECTRUM
##SAMPLE DESCRIPTION=Chemical Concepts
##NAMES=HP
##CAS NAME=3-Cyclohexen-1-one, 2,5,5-trimethyl-
##MOLFORM=C9H14O
##CAS REGISTRY NO=58795-34-9
##MP= -300
##BP= -300
##MW= 138
##$RETENTION INDEX=0
##$CONDENSED SPECTRUM=NO
##NPOINTS= 69
##XYDATA=(XY..XY) 1 
    26         11
    27        142
    28         35
    29         72
    30          2
    37          3
    38         16
    39        225
    40         33
    41        225
    42         36
    43         38
    44          1
    45          4
    50         24
    51         59
    52         30
    53        124
    54         84
    55        118
    56         23
    57          4
    58          1
    61          1
    62          6
    63         17
    64          4
    65         43
    66         15
    67        166
    68         43
    69         18
    70          3
    71          2
    72          3
    73          1
    74          4
    75          3
    76          2
    77         75
    78         20
    79        113
    81        822
    82         94
    83          8
    85          4
    89          2
    91         28
    92          3
    93         21
    94          6
    96        999
    97         94
    98          4
   105          5
   107          4
   108          2
   109         12
   110          3
   119          4
   120          1
   121          3
   122          1
   123         11
   124          5
   133          2
   138        159
   139         19
   140          1