##TITLE=Library Entry 14189
##JCAMP-DX=Revision 4.10 
##DATA TYPE=MASS SPECTRUM
##SAMPLE DESCRIPTION=Div. of Experiment Therapeutics WRAIR, WRAMC, Washingto
n DC 20307
##NAMES=HP
##CAS NAME=4,6-Diamino-1-[p-chlorophenyl]pyrazolo[3,4-d]pyrimidine
##MOLFORM=C11H9ClN6
##CAS REGISTRY NO=58791-56-3
##MP= -300
##BP= -300
##MW= 260
##$RETENTION INDEX=0
##$CONDENSED SPECTRUM=NO
##NPOINTS= 191
##XYDATA=(XY..XY) 1 
    41         19
    42        141
    43        999
    44         49
    45          5
    47          3
    49          8
    50         72
    51         75
    52        155
    53        101
    54         40
    55         17
    56          4
    57          1
    58          0
    59          3
    60          3
    61         18
    62         37
    63        103
    64         62
    65         70
    66         89
    67         54
    68         39
    69         32
    70          5
    71          2
    72          7
    73         52
    74         69
    75        308
    76         62
    77         60
    78         26
    79         15
    80         13
    81          8
    82          7
    83          1
    84         11
    85         58
    86          8
    87         13
    88         10
    89         11
    90         48
    91         26
    92         48
    93         13
    94         14
    95          6
    96         22
    97          4
    98          8
    99         27
   100         12
   101         20
   102         38
   103         21
   104         14
   105         11
   106          4
   107          3
   108         10
   109          8
   110          5
   111        214
   112         50
   113         97
   114         25
   115          6
   116          5
   117          5
   118          6
   119          5
   120         25
   121          5
   122         14
   123         14
   124         17
   125         57
   126         38
   127         43
   128         13
   129         22
   130         34
   131         23
   133          3
   134         14
   135          5
   136         14
   137         25
   138         20
   139         12
   140          9
   141          5
   142          5
   143          4
   144          8
   145          3
   148          4
   149          5
   150          6
   151          7
   152         30
   153         33
   154         24
   155         41
   156         70
   157         19
   158          8
   159          0
   161          1
   162          5
   163         20
   164         10
   165         17
   166          8
   167          5
   168          2
   169          1
   170          5
   171          6
   172          0
   174          1
   175         10
   176         17
   177         12
   178         16
   179          3
   180          4
   181         20
   182         63
   183         47
   184         13
   185          1
   187          0
   188          2
   189          4
   190         16
   191         20
   192         17
   193          9
   194          3
   195          1
   196          2
   197          2
   198         17
   199          2
   200          7
   201          6
   202          8
   203          4
   204          4
   205          3
   206          1
   207          3
   208          4
   209          5
   215          3
   216          7
   217         52
   218         95
   219         47
   220         29
   221         13
   222          1
   223          8
   224         34
   225         21
   226          7
   227          0
   228          0
   232          5
   233          4
   234          6
   235          3
   236          3
   242          3
   243         26
   244          9
   245         11
   246          2
   259         49
   260        723
   261        122
   262        251
   263         45
   264          3