##TITLE=Library Entry 66940
##JCAMP-DX=Revision 4.10 
##DATA TYPE=MASS SPECTRUM
##SAMPLE DESCRIPTION=Japan AIST/NIMC Database- Spectrum MS-NW-5681
##NAMES=HP
##CAS NAME=Benzene, (3-bromopropoxy)-
##MOLFORM=C9H11BrO
##CAS REGISTRY NO=588-63-6
##MP= -300
##BP= -300
##MW= 214
##$RETENTION INDEX=0
##$CONDENSED SPECTRUM=NO
##NPOINTS= 82
##XYDATA=(XY..XY) 1 
    14          2
    15          4
    18          2
    26          5
    27         21
    28         10
    29          5
    31          1
    37          4
    38         16
    39         96
    40         18
    41        186
    42         14
    43          3
    44          5
    49          1
    50         20
    51         60
    52          8
    53          4
    54          1
    55         11
    56          1
    57          5
    58          1
    60          1
    61          3
    62          7
    63         22
    64         11
    65         77
    66         73
    67          6
    68          3
    69          1
    73          1
    74          6
    75          5
    76          6
    77        123
    78         18
    79         18
    80          6
    81          3
    82          5
    83          1
    91         10
    92          5
    93          9
    94        999
    95         77
    96          6
   103          2
   104          2
   105          6
   106          2
   107         44
   108          4
   109          1
   115          3
   116          1
   117          2
   119          5
   120          2
   121         43
   122          3
   123         40
   124          1
   131          1
   133          5
   134         13
   135         54
   136          5
   151          8
   152          2
   153          9
   214        164
   215         18
   216        164
   217         18
   218          1