##TITLE=Library Entry 83031
##JCAMP-DX=Revision 4.10 
##DATA TYPE=MASS SPECTRUM
##SAMPLE DESCRIPTION=Japan AIST/NIMC Database- Spectrum MS-NW-4228
##NAMES=HP
##CAS NAME=Acetamide, N-(phenylmethyl)-
##MOLFORM=C9H11NO
##CAS REGISTRY NO=588-46-5
##MP= -300
##BP= -300
##MW= 149
##$RETENTION INDEX=1444
##$CONDENSED SPECTRUM=NO
##NPOINTS= 81
##XYDATA=(XY..XY) 1 
    14          5
    15         32
    17          1
    18          6
    26          4
    27         14
    28         24
    29          9
    30        104
    31          2
    32          1
    37          4
    38          9
    39         49
    40          6
    41         12
    42         12
    43        315
    44         10
    45          1
    49          3
    50         37
    51         81
    52         23
    53          9
    54          3
    55          1
    56          1
    58          2
    61          3
    62          9
    63         29
    64          9
    65         72
    66          5
    67          2
    71          8
    72          7
    73          2
    74          9
    75          8
    76          9
    77        117
    78         61
    79        137
    80         13
    85          1
    86          2
    87          2
    89         31
    90         22
    91        342
    92         35
    93          2
   102          2
   103          5
   104         54
   105         26
   106        999
   107        226
   108         17
   109          4
   116          1
   117          1
   118          8
   119          2
   120          1
   121          1
   129          1
   130          6
   131          7
   132          6
   133          2
   134          7
   135          2
   146          2
   147          6
   148         42
   149        805
   150         84
   151          7