##TITLE=Library Entry 60533
##JCAMP-DX=Revision 4.10 
##DATA TYPE=MASS SPECTRUM
##SAMPLE DESCRIPTION=Japan AIST/NIMC Database- Spectrum MS-NW-5707
##NAMES=HP
##CAS NAME=Benzene, (butoxymethyl)-
##MOLFORM=C11H16O
##CAS REGISTRY NO=588-67-0
##MP= -300
##BP= -300
##MW= 164
##$RETENTION INDEX=1238
##$CONDENSED SPECTRUM=NO
##NPOINTS= 63
##XYDATA=(XY..XY) 1 
    15          2
    26          3
    27         31
    28          8
    29         47
    30          1
    31          4
    32          1
    37          1
    38          3
    39         42
    40          3
    41         53
    42          3
    43          9
    44          1
    45          1
    50          9
    51         27
    52          8
    53          4
    55          9
    56          8
    57         24
    58          1
    62          3
    63         14
    64          5
    65         81
    66          5
    71          1
    72          1
    73          1
    74          2
    75          2
    76          2
    77         41
    78         16
    79         75
    80          7
    89         18
    90         14
    91        999
    92        671
    93         51
    94          2
   104          5
   105         24
   106          5
   107         78
   108         74
   109          6
   117          2
   118          3
   119          2
   121          1
   122          2
   123          7
   131          2
   146          1
   163          5
   164         13
   165          1