##TITLE=Library Entry 15216
##JCAMP-DX=Revision 4.10 
##DATA TYPE=MASS SPECTRUM
##SAMPLE DESCRIPTION=Finnigan MAT: Toxicological Library (LIBR-TX)
##NAMES=HP
##CAS NAME=Amphetamine-3-methyl
##MOLFORM=C10H15N
##CAS REGISTRY NO=588-06-7
##MP= -300
##BP= -300
##MW= 149
##$RETENTION INDEX=0
##$CONDENSED SPECTRUM=NO
##NPOINTS= 21
##XYDATA=(XY..XY) 1 
    39         52
    41         17
    42         65
    44        999
    45         45
    51         20
    53         11
    63          9
    65         20
    77         28
    78          9
    79         13
    91         25
   103          8
   105         15
   106          5
   115          3
   117          3
   118          1
   132          1
   134          3