##TITLE=Library Entry 107038
##JCAMP-DX=Revision 4.10 
##DATA TYPE=MASS SPECTRUM
##SAMPLE DESCRIPTION=M. ODA, MIN. AGRIC. CHEM. INSP. STN., TOKYO, JAPAN
##NAMES=HP
##CAS NAME=3-Methoxyacetanilide
##MOLFORM=C9H11NO2
##CAS REGISTRY NO=588-16-9
##MP= -300
##BP= -300
##MW= 165
##$RETENTION INDEX=0
##$CONDENSED SPECTRUM=NO
##NPOINTS= 8
##XYDATA=(XY..XY) 1 
    43        400
    80         80
    93        230
    94        310
    95         70
   122        100
   123        999
   165        660