##TITLE=Library Entry 32248
##JCAMP-DX=Revision 4.10 
##DATA TYPE=MASS SPECTRUM
##SAMPLE DESCRIPTION=NIST Mass Spectrometry Data Center, 2010
##NAMES=HP
##CAS NAME=Bicyclo[2.2.1]hept-5-ene-2,3-dicarboxylic acid, diethyl ester
##MOLFORM=C13H18O4
##CAS REGISTRY NO=5883-33-0
##MP= -300
##BP= -300
##MW= 238
##$RETENTION INDEX=1561
##$CONDENSED SPECTRUM=NO
##NPOINTS= 101
##XYDATA=(XY..XY) 1 
    14          2
    15          2
    16          1
    26          7
    27         49
    28         22
    29        128
    30          4
    31         15
    32         10
    37          1
    38          6
    39         43
    40         27
    41         19
    43         13
    45         13
    46          5
    49          1
    50          4
    51         15
    52          7
    53         26
    54          8
    55         42
    56          3
    57          1
    60          3
    62          2
    63         14
    64          7
    65        115
    66        999
    67         59
    68          6
    69          4
    71         27
    72          3
    73          2
    74          1
    76          1
    77         57
    78         19
    79         57
    80          5
    81         22
    82         13
    83          4
    84          2
    88          1
    89         19
    90         23
    91        278
    92         53
    93         19
    94          4
    95          5
    96          1
    97          3
    99        270
   100         15
   101          8
   102          2
   103          3
   105          9
   106          1
   107         11
   109          4
   110          2
   111          1
   117         78
   118         71
   119        296
   120         32
   121          4
   122          4
   123         11
   126          2
   127        650
   128         41
   129         10
   135         12
   136         17
   137         23
   145         92
   146          9
   147          4
   163          7
   164         49
   165        208
   166         26
   173        419
   174         38
   175          5
   181          1
   192         45
   193        136
   194         15
   195          1
   238         15
   239          1