##TITLE=Library Entry 12341
##JCAMP-DX=Revision 4.10 
##DATA TYPE=MASS SPECTRUM
##SAMPLE DESCRIPTION=Div. of Experiment Therapeutics WRAIR, WRAMC, Washingto
n DC 20307
##NAMES=HP
##CAS NAME=1,2,4-Triazine-5-thiol, 3-amino-6-methyl-
##MOLFORM=C4H6N4S
##CAS REGISTRY NO=58848-75-2
##MP= -300
##BP= -300
##MW= 142
##$RETENTION INDEX=0
##$CONDENSED SPECTRUM=NO
##NPOINTS= 49
##XYDATA=(XY..XY) 1 
    42        248
    43        999
    45        270
    46         22
    47         12
    49         11
    51         39
    52        110
    53         45
    54        102
    55         16
    56          8
    57         74
    59        202
    60         59
    61          7
    62          3
    63          3
    64          2
    66          2
    67          3
    69        136
    71        598
    72        718
    73         40
    74         26
    77          9
    78          4
    79          5
    80          3
    81         52
    82         10
    84         10
    85         46
    87        144
    88          9
    89          4
    91          4
    98          3
    99          2
   100         69
   101          3
   102          2
   114         41
   115         11
   141         35
   142        803
   143         58
   144         27