##TITLE=Library Entry 5392
##JCAMP-DX=Revision 4.10 
##DATA TYPE=MASS SPECTRUM
##SAMPLE DESCRIPTION=Div. of Experiment Therapeutics WRAIR, WRAMC, Washingto
n DC 20307
##NAMES=HP
##CAS NAME=3,5-Bis[dimethylaminomethyleneimino]-6-[3,4-methylenedioxyphenyl]
-1,2,4-triazine
##MOLFORM=C16H19N7O2
##CAS REGISTRY NO=58848-72-9
##MP= -300
##BP= -300
##MW= 341
##$RETENTION INDEX=0
##$CONDENSED SPECTRUM=NO
##NPOINTS= 127
##XYDATA=(XY..XY) 1 
    42        999
    44        708
    45         46
    46          9
    50         48
    51         38
    53        106
    55         71
    57        141
    58          8
    61          7
    62         57
    63         46
    64          4
    65         35
    66          5
    67          4
    68         18
    69         51
    70         22
    71         11
    73         16
    75         86
    76         69
    77         36
    78         16
    79         13
    80          7
    82         30
    83         24
    84          1
    85          3
    86         24
    87         33
    89         69
    90          6
    91         22
    92          1
    93         10
    94          2
    95         19
    98        198
   100         18
   101         23
   102         29
   103         71
   104         24
   105          8
   106          1
   107          2
   108         18
   110          1
   111          7
   113          4
   114         31
   116         48
   117         29
   118          3
   119          7
   120         21
   121          3
   123         17
   124          1
   125          4
   126          1
   127          3
   128         10
   129         18
   130          5
   131         27
   133         46
   135         13
   136          1
   140          2
   141          4
   142          5
   143         66
   144         10
   146        199
   147         39
   148          6
   149          1
   150          4
   151          1
   156         28
   158         37
   159         23
   160         33
   161        722
   162         16
   163          1
   166         12
   167          3
   170         13
   171         40
   172         19
   174         42
   175          7
   185          7
   186         13
   188         46
   199          2
   200          1
   201        120
   202          9
   213          7
   215        134
   216        966
   218          2
   229          3
   230          6
   231         46
   232          5
   242         18
   257          1
   271          5
   285          3
   286        153
   287         28
   297          6
   299          3
   314          8
   326          5
   340          1
   341        234
   342         43
   343          5