##TITLE=Library Entry 77874
##JCAMP-DX=Revision 4.10 
##DATA TYPE=MASS SPECTRUM
##SAMPLE DESCRIPTION=Div. of Experiment Therapeutics WRAIR, WRAMC, Washingto
n DC 20307
##NAMES=HP
##CAS NAME=3,5Bis(iphenethylamino)-6-methyl-1,2,4-triazine
##MOLFORM=C20H23N5
##CAS REGISTRY NO=58848-86-5
##MP= -300
##BP= -300
##MW= 333
##$RETENTION INDEX=0
##$CONDENSED SPECTRUM=NO
##NPOINTS= 197
##XYDATA=(XY..XY) 1 
    41         96
    42         59
    43         53
    44          8
    45          4
    49          1
    50          9
    51         51
    52         26
    53         40
    54         45
    55        118
    56         24
    57         17
    58          1
    60          2
    61          1
    62          2
    63         26
    64          9
    65        160
    66         37
    67         40
    68        249
    69         45
    70          8
    71          4
    72          1
    73          4
    74          3
    75          5
    76          9
    77        200
    78         56
    79        155
    80         18
    81         20
    82         63
    83         13
    84         20
    85          4
    86          1
    87          1
    88          0
    89         20
    90         12
    91        591
    92         61
    93         22
    94         11
    95          6
    96         27
    97          7
    98          2
    99          1
   101          3
   102         18
   103        197
   104        999
   105        661
   106         62
   107          0
   108          8
   109          5
   110          7
   111         23
   113          2
   114          0
   115         11
   116         10
   117         19
   118         15
   119         10
   120         32
   121         15
   122         24
   123         10
   124          3
   125        268
   126         39
   127          0
   128         29
   129          7
   130         22
   131          9
   132         15
   133          5
   134          1
   135          3
   136          8
   137         11
   138        121
   139          8
   140          0
   141          4
   142          4
   143         10
   144          8
   145         15
   146          6
   147          4
   148          3
   149          8
   150         42
   151         39
   152          6
   153          1
   154          1
   155          1
   156          6
   157          3
   158         12
   159          6
   160          2
   161          1
   162          1
   164          2
   165          2
   166          0
   167          1
   168          1
   169          2
   170          4
   171          2
   172         23
   173         10
   174          1
   177          0
   178          7
   179          1
   181          0
   182          0
   183          1
   184          3
   185          6
   186          6
   187         15
   188          3
   191          0
   192          4
   193          1
   196          0
   197          0
   198          2
   199          3
   200          4
   201          6
   202          1
   207          0
   211          1
   212          5
   213          5
   214         32
   215          5
   216          1
   217          2
   225          0
   226          2
   227          2
   228         44
   229        602
   230         84
   231          7
   234          1
   240          5
   241          7
   242        978
   243        207
   244         16
   245          1
   246          2
   247          0
   248          0
   254          2
   256         10
   257          1
   260          0
   262          0
   263          0
   270          0
   281          0
   286          1
   289          1
   291          1
   292          0
   296          0
   298          1
   304         10
   305          2
   318          1
   330          0
   331          1
   332         35
   333        750
   334        287
   335         36
   336          2