##TITLE=Library Entry 107265
##JCAMP-DX=Revision 4.10 
##DATA TYPE=MASS SPECTRUM
##SAMPLE DESCRIPTION=Div. of Experiment Therapeutics WRAIR, WRAMC, Washingto
n DC 20307
##NAMES=HP
##CAS NAME=3,5-Diamino-6-[2-thienyl]-1,2,4-triazine
##MOLFORM=C7H7N5S
##CAS REGISTRY NO=58848-66-1
##MP= -300
##BP= -300
##MW= 193
##$RETENTION INDEX=0
##$CONDENSED SPECTRUM=NO
##NPOINTS= 74
##XYDATA=(XY..XY) 1 
    42        172
    43        272
    45        359
    46         13
    47         14
    49         26
    50         67
    51        174
    52        153
    53         66
    54         23
    55          7
    57         48
    58         50
    59         13
    60         12
    61         28
    62         36
    63         40
    64         21
    65         31
    66          6
    68         15
    69        100
    70         98
    71         21
    72          6
    73          2
    75          9
    76         41
    77          5
    78         95
    79         15
    81         14
    82         16
    83         14
    84         18
    85         14
    86          4
    87          4
    88          7
    89         14
    90         16
    91          4
    92          1
    93         14
    95        116
    96        301
    97         33
    98         16
   106          1
   107          1
   109         15
   110         13
   111          2
   115          4
   118          3
   120          6
   122         80
   123        999
   124         77
   125         45
   126          1
   137         11
   138          1
   148          1
   150          2
   160          3
   165          3
   192          6
   193        992
   194         87
   195         30
   196          3