##TITLE=Library Entry 84522
##JCAMP-DX=Revision 4.10 
##DATA TYPE=MASS SPECTRUM
##SAMPLE DESCRIPTION=Div. of Experiment Therapeutics WRAIR, WRAMC, Washingto
n DC 20307
##NAMES=HP
##CAS NAME=6-[p-Hydroxybenzyl]-3-mercapto-5-oxo-2,5-dihydro-1,2,4-triazine
##MOLFORM=C10H9N3O2S
##CAS REGISTRY NO=58848-83-2
##MP= -300
##BP= -300
##MW= 235
##$RETENTION INDEX=0
##$CONDENSED SPECTRUM=NO
##NPOINTS= 135
##XYDATA=(XY..XY) 1 
    41         43
    42         50
    43         63
    44         56
    45         28
    46         30
    47         28
    48          1
    49          1
    50         84
    51        214
    52         92
    53        173
    54         24
    55         70
    56          1
    57          9
    59        176
    60        186
    61         22
    62         67
    63        117
    64          8
    65        141
    66         24
    67         11
    69        239
    70          6
    71         10
    72          1
    73          2
    74         36
    75         29
    76         12
    77        438
    78        190
    79         46
    80          5
    81         16
    82          3
    83          5
    84          7
    86         56
    87          9
    89         74
    90         24
    91         69
    92         13
    93          8
    94         30
    95         19
    96          4
    97          2
    98          3
    99          3
   101         14
   102         17
   103         38
   104         59
   105         93
   107        999
   108         52
   109         12
   112          1
   113          0
   114          5
   115         12
   116         20
   118         60
   119         34
   120         43
   121         75
   122         64
   123          7
   124          1
   126          9
   127          0
   128          1
   129          5
   130          5
   132        399
   133        394
   134        118
   135         10
   136          1
   137         13
   138         18
   139          7
   140          0
   141          7
   142          4
   143          0
   144          1
   145          5
   147         99
   148         36
   149         11
   150          6
   151          1
   152          2
   156          0
   158          4
   159         14
   160         64
   161          8
   162          1
   163          2
   164         26
   165         26
   166          5
   167          0
   173          1
   174          5
   175          5
   176          5
   177          1
   178          1
   179          7
   180          3
   181          3
   189          3
   190         16
   191          3
   192          2
   201          1
   202          3
   203          2
   204          0
   206          5
   207          2
   218          4
   235        755
   236         93
   237         40
   238          5