##TITLE=Library Entry 66134
##JCAMP-DX=Revision 4.10 
##DATA TYPE=MASS SPECTRUM
##SAMPLE DESCRIPTION=NIST Mass Spectrometry Data Center
##NAMES=HP
##CAS NAME=1,3-Isobenzofurandione, 3a,4,7,7a-tetrahydro-5-methyl-, trans-
##MOLFORM=C9H10O3
##CAS REGISTRY NO=58863-19-7
##MP= -300
##BP= -300
##MW= 166
##$RETENTION INDEX=0
##$CONDENSED SPECTRUM=NO
##NPOINTS= 72
##XYDATA=(XY..XY) 1 
    15          6
    26         12
    27         64
    29          7
    37          7
    38         25
    39        176
    40         31
    41         54
    42          7
    43          5
    44          4
    45         22
    46         15
    49          3
    50         46
    51        103
    52         48
    53         85
    54         17
    55         13
    60          1
    61          7
    62         18
    63         44
    64          9
    65         81
    66         31
    67         37
    68         15
    69          1
    73          1
    74          6
    75          4
    76          4
    77        362
    78         91
    79        894
    80         65
    81          6
    82          1
    85          1
    86          2
    87          1
    89          6
    90          2
    91        253
    92         72
    93        999
    94        255
    95         32
    96          4
    97          1
    99          3
   105          7
   107          2
   108          1
   109          3
   110         12
   111          8
   119          4
   120         12
   121          9
   122          1
   123         51
   124          5
   137         16
   138        401
   139         35
   140          3
   166         31
   167          4