##TITLE=Library Entry 109994
##JCAMP-DX=Revision 4.10 
##DATA TYPE=MASS SPECTRUM
##SAMPLE DESCRIPTION=NIST Mass Spectrometry Data Center
##NAMES=HP
##CAS NAME=1-(4-Chlorophenyl)-1-cyclohexane-carboxylic acid
##MOLFORM=C13H15ClO2
##CAS REGISTRY NO=58880-37-8
##MP= -300
##BP= -300
##MW= 238
##$RETENTION INDEX=0
##$CONDENSED SPECTRUM=NO
##NPOINTS= 140
##XYDATA=(XY..XY) 1 
    12          3
    15          7
    16          1
    17          1
    18          9
    19          2
    26         10
    27         75
    28         29
    29         66
    30          2
    31          4
    32          2
    35          2
    36          5
    37          3
    39         97
    40         12
    41         87
    42          8
    43         31
    44         34
    45         40
    46          3
    47          2
    50         30
    51         69
    52         14
    53         39
    55        115
    56          7
    57          9
    59          1
    61          4
    62         11
    63         43
    64         22
    65         26
    66          7
    67         70
    68          6
    69          8
    70          7
    73         10
    74         19
    75         60
    76         28
    77         84
    78         15
    79         33
    81        149
    82         14
    83          2
    84          2
    85          6
    86          6
    87         14
    88          6
    89         56
    90         22
    91         38
    92          4
    96          4
    97          5
    98          4
    99         15
   101         69
   102         60
   103         33
   104          6
   105          3
   107          2
   110          2
   111         11
   112         13
   113         14
   114         20
   115        139
   116         58
   117         15
   118          2
   121          1
   123          6
   125        999
   126         93
   127        356
   128         99
   129         93
   130         19
   131          5
   132          2
   133          2
   135          3
   136         13
   137         67
   138         24
   139         45
   140         10
   141         23
   142         13
   143          8
   144          2
   147          2
   149         22
   150          7
   151         76
   152         13
   153         24
   154          6
   155          5
   156          3
   157         23
   158          6
   159          5
   162          3
   163          8
   164          6
   165          6
   166          5
   167          4
   169          1
   170          2
   176          2
   177         10
   178          4
   179          3
   181          2
   182         19
   183          5
   184          9
   191          8
   193        678
   194        106
   195        239
   196         31
   197          2
   238        141
   239         21
   240         50
   241          9