##TITLE=Library Entry 67886
##JCAMP-DX=Revision 4.10 
##DATA TYPE=MASS SPECTRUM
##SAMPLE DESCRIPTION=NIST Mass Spectrometry Data Center
##NAMES=HP
##CAS NAME=2-Propenoic acid, 1,7,7-trimethylbicyclo[2.2.1]hept-2-yl ester, e
xo-
##MOLFORM=C13H20O2
##CAS REGISTRY NO=5888-33-5
##MP= -300
##BP= -300
##MW= 208
##$RETENTION INDEX=0
##$CONDENSED SPECTRUM=NO
##NPOINTS= 98
##XYDATA=(XY..XY) 1 
    26          8
    27        100
    29         35
    31          1
    38          2
    39         85
    40         14
    41        268
    42         18
    43        121
    44          7
    45          5
    50          4
    51         20
    52         10
    53         94
    54         19
    55        916
    56         39
    57         39
    58          2
    59          7
    62          1
    63          5
    64          1
    65         42
    66         14
    67        184
    68         53
    69        230
    70         16
    71         17
    72          6
    73          5
    77         97
    78         19
    79        134
    80         85
    81        140
    82         63
    83         75
    84          7
    85          2
    89          1
    91        107
    92        147
    93        561
    94         99
    95        999
    96         81
    97         35
    98          7
    99          3
   103          5
   104          1
   105         46
   106         11
   107        155
   108        376
   109        347
   110        264
   111         50
   112          3
   113          1
   115          1
   117          2
   119         15
   120          7
   121        664
   122         65
   123         23
   124          7
   125         15
   126          3
   133          1
   134          3
   135         46
   136        810
   137        137
   138         11
   139         17
   140          2
   147          2
   149          1
   151          2
   152          6
   153         29
   154         10
   155          1
   165         70
   166         10
   167          2
   175          1
   179          1
   180          2
   193         12
   194          1
   208          5