##TITLE=Library Entry 54960
##JCAMP-DX=Revision 4.10 
##DATA TYPE=MASS SPECTRUM
##SAMPLE DESCRIPTION=Japan AIST/NIMC Database- Spectrum MS-NW- 920
##NAMES=HP
##CAS NAME=Isobutyl isovalerate
##MOLFORM=C9H18O2
##CAS REGISTRY NO=589-59-3
##MP= -300
##BP= -300
##MW= 158
##$RETENTION INDEX=1005
##$CONDENSED SPECTRUM=NO
##NPOINTS= 55
##XYDATA=(XY..XY) 1 
    14          2
    15         14
    17          3
    18         13
    26          7
    27        145
    28         29
    29        262
    30          6
    31         19
    32          9
    37          2
    38          7
    39        135
    40         24
    41        448
    42         65
    43        137
    44          5
    45         15
    50          3
    51          3
    53         10
    54          3
    55         52
    56        515
    57        979
    58         44
    59         27
    60        172
    61         39
    62          2
    68          1
    69         17
    70          2
    71          6
    72          4
    73         26
    74          2
    83          3
    84          7
    85        999
    86         57
    87         90
    88          5
   100          1
   101         10
   102         29
   103        163
   104          9
   115         28
   116         29
   117          2
   128         11
   143          2