##TITLE=Library Entry 8697
##JCAMP-DX=Revision 4.10 
##DATA TYPE=MASS SPECTRUM
##SAMPLE DESCRIPTION=NIST Mass Spectrometry Data Center, 1990.
##NAMES=HP
##CAS NAME=Heptane, 4-methyl-
##MOLFORM=C8H18
##CAS REGISTRY NO=589-53-7
##MP= -300
##BP= -300
##MW= 114
##$RETENTION INDEX=767
##$CONDENSED SPECTRUM=NO
##NPOINTS= 30
##XYDATA=(XY..XY) 1 
    15          9
    27        187
    28         49
    29        168
    39        209
    40         44
    41        410
    42        213
    43        999
    44         37
    50          7
    51         16
    52          6
    53         40
    54          6
    55        223
    56         44
    57        186
    58          8
    65          7
    67         11
    70        682
    71        604
    72         34
    84         49
    85         55
    98         13
    99         10
   114         48
   115          5