##TITLE=Library Entry 7680
##JCAMP-DX=Revision 4.10 
##DATA TYPE=MASS SPECTRUM
##SAMPLE DESCRIPTION=NIST Mass Spectrometry Data Center
##NAMES=HP
##CAS NAME=Heptane, 3-methyl-
##MOLFORM=C8H18
##CAS REGISTRY NO=589-81-1
##MP= -300
##BP= -300
##MW= 114
##$RETENTION INDEX=773
##$CONDENSED SPECTRUM=NO
##NPOINTS= 38
##XYDATA=(XY..XY) 1 
    15         16
    17          2
    26         15
    27        258
    29        344
    30          8
    31          7
    37          2
    39        171
    40         27
    41        584
    42         95
    43        999
    44         34
    50          5
    51         12
    52          4
    53         31
    54         11
    55        120
    56        474
    57        718
    58         30
    63          2
    65          3
    67          7
    68          2
    69         51
    70         37
    71         37
    77          2
    84        437
    85        567
    86         38
    98          9
    99          9
   114        104
   115          8