##TITLE=Library Entry 30079
##JCAMP-DX=Revision 4.10 
##DATA TYPE=MASS SPECTRUM
##SAMPLE DESCRIPTION=Japan AIST/NIMC Database- Spectrum MS-NW-3155
##NAMES=HP
##CAS NAME=3-Heptanol
##MOLFORM=C7H16O
##CAS REGISTRY NO=589-82-2
##MP= -300
##BP= -300
##MW= 116
##$RETENTION INDEX=877
##$CONDENSED SPECTRUM=NO
##NPOINTS= 53
##XYDATA=(XY..XY) 1 
    14          1
    15          8
    17          2
    18          8
    19          3
    26          8
    27         97
    28         20
    29        110
    30         10
    31        220
    32          5
    38          3
    39         52
    40          9
    41        348
    42         28
    43        113
    44         28
    45         80
    46          1
    50          2
    51          4
    52          1
    53         10
    54          5
    55         79
    56         57
    57         80
    58         79
    59        999
    60         32
    61          2
    65          1
    67          6
    68          3
    69        701
    70         53
    71          5
    72          4
    73          9
    83          4
    84          1
    85          4
    86         26
    87        312
    88         17
    89          1
    97          1
    98         28
    99          2
   101          2
   115          5