##TITLE=Library Entry 7646
##JCAMP-DX=Revision 4.10 
##DATA TYPE=MASS SPECTRUM
##SAMPLE DESCRIPTION=NIST Mass Spectrometry Data Center, 1990.
##NAMES=HP
##CAS NAME=Hexane, 2,4-dimethyl-
##MOLFORM=C8H18
##CAS REGISTRY NO=589-43-5
##MP= -300
##BP= -300
##MW= 114
##$RETENTION INDEX=732
##$CONDENSED SPECTRUM=NO
##NPOINTS= 55
##XYDATA=(XY..XY) 1 
    13          1
    14          0
    15         23
    16          0
    25          1
    26         20
    27        233
    28         42
    29        262
    30          6
    32          3
    37          2
    38         16
    39        202
    40         45
    41        567
    42        152
    43        999
    44         37
    45          0
    50          7
    51         13
    52          6
    53         37
    54         12
    55        137
    56        350
    57        827
    58         39
    62          1
    63          3
    64          0
    65          6
    66          2
    67         12
    68          0
    69         61
    70        148
    71        173
    72          9
    73          0
    77          2
    78          1
    79          2
    81          1
    84        131
    85        533
    86         34
    87          0
    97          0
    98          2
    99          8
   100          1
   114         24
   115          1