##TITLE=Library Entry 22448
##JCAMP-DX=Revision 4.10 
##DATA TYPE=MASS SPECTRUM
##SAMPLE DESCRIPTION=V.G.Zaikin, Petrochem. Synth. Inst., Moscow
##NAMES=HP
##CAS NAME=Butyl caprylate
##MOLFORM=C12H24O2
##CAS REGISTRY NO=589-75-3
##MP= -300
##BP= -300
##MW= 200
##$RETENTION INDEX=1389
##$CONDENSED SPECTRUM=NO
##NPOINTS= 72
##XYDATA=(XY..XY) 1 
    26         15
    27        119
    28         54
    29        255
    30         11
    31         15
    38          5
    39        137
    40         32
    41        488
    42        141
    43        404
    44         53
    45         31
    51          9
    53         29
    54         27
    55        375
    56        999
    57        879
    58         48
    59         25
    60        404
    61        151
    67         38
    68         15
    69         81
    70         48
    71         72
    72          9
    73        305
    74         35
    75          7
    79         10
    80          5
    81         18
    82         31
    83         85
    84         73
    85         78
    86         12
    87         88
    88         12
    89         39
    96          8
    97         42
    98         45
    99         15
   101        125
   102         12
   103         21
   109         19
   111         12
   112          6
   115         39
   116         85
   117         12
   125         12
   126         11
   127        599
   128         49
   129         41
   143          8
   144         65
   145        649
   146         61
   147          6
   157         10
   158          1
   171          6
   200          8
   201          1