##TITLE=Library Entry 83934
##JCAMP-DX=Revision 4.10 
##DATA TYPE=MASS SPECTRUM
##SAMPLE DESCRIPTION=Japan AIST/NIMC Database- Spectrum MS-NW-6047
##NAMES=HP
##CAS NAME=Pyridine, 2,5-dimethyl-
##MOLFORM=C7H9N
##CAS REGISTRY NO=589-93-5
##MP= -300
##BP= -300
##MW= 107
##$RETENTION INDEX=922
##$CONDENSED SPECTRUM=NO
##NPOINTS= 55
##XYDATA=(XY..XY) 1 
    14          1
    15          7
    26         11
    27         53
    28         22
    29          2
    30          2
    36          1
    37         14
    38         31
    39        142
    40         36
    41         34
    42         28
    43          2
    44          1
    46          3
    49          6
    50         45
    51         71
    52         50
    53         48
    54         14
    55          4
    56          1
    59          1
    60          1
    61          6
    62         10
    63         29
    64         14
    65         92
    66         97
    67         19
    68          6
    73          2
    74          8
    75          7
    76          7
    77        116
    78         40
    79        256
    80         57
    81          8
    89          2
    90          3
    91          8
    92        115
    93          9
   104          9
   105          9
   106        606
   107        999
   108         81
   109          3