##TITLE=Library Entry 20417
##JCAMP-DX=Revision 4.10 
##DATA TYPE=MASS SPECTRUM
##SAMPLE DESCRIPTION=Japan AIST/NIMC Database- Spectrum MS-NW-3468
##NAMES=HP
##CAS NAME=4-Heptanol
##MOLFORM=C7H16O
##CAS REGISTRY NO=589-55-9
##MP= -300
##BP= -300
##MW= 116
##$RETENTION INDEX=872
##$CONDENSED SPECTRUM=NO
##NPOINTS= 52
##XYDATA=(XY..XY) 1 
    14          1
    15          8
    17          2
    18         10
    19         10
    26          7
    27         97
    28         10
    29         68
    30          4
    31        110
    32          2
    37          2
    38          4
    39         53
    40          9
    41        130
    42         24
    43        333
    44         53
    45         45
    46          1
    50          2
    51          4
    52          1
    53         11
    54          8
    55        999
    56         91
    57         43
    58          9
    59          8
    63          1
    65          1
    67          5
    68          3
    69         39
    70         12
    71         31
    72         62
    73        713
    74         33
    75          2
    77          1
    79          1
    81          2
    83          3
    86          6
    98         19
    99          2
   114          5
   115          5