##TITLE=Library Entry 15267
##JCAMP-DX=Revision 4.10 
##DATA TYPE=MASS SPECTRUM
##SAMPLE DESCRIPTION=NIST Mass Spectrometry Data Center, 1990.
##NAMES=HP
##CAS NAME=Benzeneethanamine, N-methyl-
##MOLFORM=C9H13N
##CAS REGISTRY NO=589-08-2
##MP= -300
##BP= -300
##MW= 135
##$RETENTION INDEX=1154
##$CONDENSED SPECTRUM=NO
##NPOINTS= 51
##XYDATA=(XY..XY) 1 
    14          3
    15         14
    16          2
    17          0
    26          1
    27         11
    28         32
    29          6
    30          9
    38          5
    39         33
    40          4
    41         16
    42         55
    43          1
    44        999
    45         29
    50         15
    51         33
    52         13
    53          2
    56          4
    57          2
    61          2
    62          7
    63         16
    64          7
    65         41
    66          4
    74          4
    75          3
    76          4
    77         25
    78         10
    79          7
    80          1
    89          8
    91         48
    92          6
   102          3
   103         10
   104         10
   105         14
   106          2
   117          4
   118          6
   119          6
   132          6
   133          4
   134          4
   135          8