##TITLE=Library Entry 16680
##JCAMP-DX=Revision 4.10 
##DATA TYPE=MASS SPECTRUM
##SAMPLE DESCRIPTION=Exported from NIST MS Search
##NAMES=HP
##CAS NAME=Formic acid, 1-methylpropyl ester
##MOLFORM=C5H10O2
##CAS REGISTRY NO=589-40-2
##MP= -300
##BP= -300
##MW= 102
##$RETENTION INDEX=633
##$CONDENSED SPECTRUM=NO
##NPOINTS= 60
##XYDATA=(XY..XY) 1 
     2          5
    12          5
    13         10
    14         26
    15        111
    16          6
    17          3
    18          6
    19         31
    24          1
    25          5
    26         66
    27        319
    28         94
    29        495
    30         15
    31        172
    32          2
    33          1
    36          1
    37          9
    38         17
    39        121
    40         17
    41        313
    42         31
    43        118
    44         33
    45        999
    46         25
    47          8
    48          1
    49          3
    50         12
    51         12
    52          3
    53         13
    54          6
    55         48
    56        299
    57        159
    58          9
    59        160
    60          5
    61          1
    69          1
    70          1
    71          1
    72         13
    73        156
    74          6
    75          1
    83          1
    86          1
    87         27
    88          1
    89          1
   101          1
   102          2
   103          1