##TITLE=Library Entry 41167
##JCAMP-DX=Revision 4.10 
##DATA TYPE=MASS SPECTRUM
##SAMPLE DESCRIPTION=C.VOIGT, HEINRICH-HEINE-STRASSE, RODENBACH, WEST GER
##NAMES=HP
##CAS NAME=Carbamic acid, hydroxy-, ethyl ester
##MOLFORM=C3H7NO3
##CAS REGISTRY NO=589-41-3
##MP= -300
##BP= -300
##MW= 105
##$RETENTION INDEX=0
##$CONDENSED SPECTRUM=NO
##NPOINTS= 13
##XYDATA=(XY..XY) 1 
    56        600
    57        130
    58        600
    59        400
    60        410
    61        900
    62        180
    71        100
    72        480
    73        999
    74        710
    89        220
   105         90