##TITLE=Library Entry 29939
##JCAMP-DX=Revision 4.10 
##DATA TYPE=MASS SPECTRUM
##SAMPLE DESCRIPTION=NIST Mass Spectrometry Data Center, 1990.
##NAMES=HP
##CAS NAME=3-Octanol
##MOLFORM=C8H18O
##CAS REGISTRY NO=589-98-0
##MP= -300
##BP= -300
##MW= 130
##$RETENTION INDEX=994
##$CONDENSED SPECTRUM=NO
##NPOINTS= 37
##XYDATA=(XY..XY) 1 
    14         25
    15         18
    16         13
    18         10
    26         26
    27        222
    28         27
    29        275
    30         10
    31        239
    32          6
    39        138
    41        422
    42         80
    43        194
    44         92
    45         38
    51         10
    53         28
    55        686
    56         96
    57        162
    58        136
    59        999
    60         35
    67         20
    69         53
    70         55
    71         32
    72         21
    81          8
    83        622
    84         54
    99         13
   101        243
   102         16
   112         65