##TITLE=Library Entry 71687
##JCAMP-DX=Revision 4.10 
##DATA TYPE=MASS SPECTRUM
##SAMPLE DESCRIPTION=Japan AIST/NIMC Database- Spectrum MS-IW-4153
##NAMES=HP
##CAS NAME=Tetradecanoic acid, 2,3-dihydroxypropyl ester
##MOLFORM=C17H34O4
##CAS REGISTRY NO=589-68-4
##MP= -300
##BP= -300
##MW= 302
##$RETENTION INDEX=0
##$CONDENSED SPECTRUM=NO
##NPOINTS= 198
##XYDATA=(XY..XY) 1 
    14          2
    15         22
    16          1
    17          8
    18         32
    26          8
    27         88
    28         55
    29        280
    30         13
    31         72
    32          4
    33          1
    38          1
    39         46
    40         10
    41        465
    42        132
    43        872
    44        116
    45        106
    46          9
    47          4
    51          1
    52          1
    53         23
    54         49
    55        591
    56        260
    57        901
    58         52
    59         33
    60        195
    61        148
    62          6
    63          2
    65          4
    66          5
    67        104
    68         66
    69        373
    70        111
    71        420
    72         31
    73        288
    74        857
    75        241
    76         10
    77          6
    78          2
    79         25
    80         14
    81        115
    82         60
    83        257
    84        638
    85        274
    86         25
    87        196
    88         21
    89         14
    90          1
    91         10
    92          1
    93         59
    94         17
    95        143
    96         54
    97        231
    98        999
    99        111
   100         15
   101         59
   102         15
   103         14
   104          2
   105          1
   107         17
   108         10
   109         85
   110         35
   111        152
   112        330
   113         53
   114          9
   115         55
   116        189
   117         26
   118          3
   119          1
   121         30
   122          9
   123         43
   124         18
   125         54
   126         75
   127         21
   128          5
   129        198
   130         22
   131          5
   133          1
   134        673
   135         62
   136         11
   137         22
   138         12
   139         25
   140         53
   141         10
   142          3
   143         81
   144          9
   145          3
   147         95
   148          8
   149         10
   150          3
   151          7
   152          3
   153         15
   154        229
   155         28
   156          2
   157         23
   158          5
   159          2
   161          2
   163          6
   164          3
   166         18
   167         18
   168         55
   169         12
   170          1
   171         33
   172          6
   173          2
   175          2
   176         47
   177          7
   178          1
   179          1
   180          1
   181         11
   182          9
   183          3
   184          1
   185         90
   186         12
   187          2
   189          2
   190         12
   191          8
   192         10
   193          9
   194          1
   195          4
   196          1
   199         51
   200          8
   201          1
   203          2
   204          3
   208          6
   209         12
   210        159
   211        908
   212        139
   213         19
   214          2
   226          6
   227          7
   228        249
   229        310
   230         46
   231          5
   241         14
   242        156
   243         27
   244          3
   254          1
   255          4
   256          1
   259          2
   269          1
   271        281
   272         50
   273          6
   274          1
   283          3
   284         12
   285         14
   286          2
   301          2
   302          9
   303         28
   304          5