##TITLE=Library Entry 34980
##JCAMP-DX=Revision 4.10 
##DATA TYPE=MASS SPECTRUM
##SAMPLE DESCRIPTION=Japan AIST/NIMC Database- Spectrum MS-NW-1346
##NAMES=HP
##CAS NAME=4-Octanol
##MOLFORM=C8H18O
##CAS REGISTRY NO=589-62-8
##MP= -300
##BP= -300
##MW= 130
##$RETENTION INDEX=978
##$CONDENSED SPECTRUM=NO
##NPOINTS= 58
##XYDATA=(XY..XY) 1 
    14          1
    15         12
    17          1
    18          3
    26          7
    27        165
    28         19
    29        154
    30          7
    31        135
    32          4
    37          1
    38          4
    39         77
    40         10
    41        417
    42         47
    43        371
    44         96
    45        121
    46          3
    50          2
    51          4
    52          2
    53         14
    54          7
    55        957
    56         73
    57         92
    58         25
    59          9
    65          2
    67          9
    68          6
    69        999
    70         87
    71         15
    72         66
    73        786
    74         36
    75          3
    77          1
    79          1
    81          1
    82          2
    83         14
    84          8
    85          4
    86         36
    87        503
    88         27
    89          2
    97          2
    99          2
   112         36
   113          4
   129          7
   130          1