##TITLE=Library Entry 9427
##JCAMP-DX=Revision 4.10 
##DATA TYPE=MASS SPECTRUM
##SAMPLE DESCRIPTION=Exported from NIST MS Search
##NAMES=HP
##CAS NAME=1-Propanol, 2,3-dichloro-, acetate
##MOLFORM=C5H8Cl2O2
##CAS REGISTRY NO=589-96-8
##MP= -300
##BP= -300
##MW= 170
##$RETENTION INDEX=1043
##$CONDENSED SPECTRUM=NO
##NPOINTS= 101
##XYDATA=(XY..XY) 1 
    12          1
    13          4
    14         15
    15        123
    16          8
    17         13
    18         45
    19          1
    20          2
    25          2
    26          9
    27         36
    28         23
    29         50
    30          2
    31         28
    32          4
    35          4
    36         24
    37          7
    38         13
    39         30
    40          4
    41         15
    42         40
    43        999
    44         50
    45         81
    46          1
    47          6
    48          8
    49         79
    50         14
    51         28
    52          3
    53          1
    55          3
    56          2
    57         16
    58          1
    59          1
    60         70
    61         83
    62         33
    63         12
    64         16
    65          5
    66          2
    71          1
    73         70
    74         41
    75         49
    76          5
    77         20
    78         16
    79        855
    80         25
    81        275
    82          8
    83          4
    85          3
    86         35
    87          6
    88          2
    89          5
    91          6
    92          8
    93          3
    94          2
    99         10
   100          2
   101          2
   103         38
   104          2
   105          2
   108          1
   109          2
   110         18
   111          3
   112         12
   113          2
   114          2
   115          2
   116         10
   117          1
   120          3
   121        116
   122          5
   123         38
   124          2
   126          2
   127          5
   128          2
   134          2
   135          3
   136          1
   137          1
   140          2
   142          1
   144          1
   145          3