##TITLE=Library Entry 49183
##JCAMP-DX=Revision 4.10 
##DATA TYPE=MASS SPECTRUM
##SAMPLE DESCRIPTION=Japan AIST/NIMC Database- Spectrum MS-NW-4695
##NAMES=HP
##CAS NAME=1,4-Benzenedimethanol
##MOLFORM=C8H10O2
##CAS REGISTRY NO=589-29-7
##MP= -300
##BP= -300
##MW= 138
##$RETENTION INDEX=0
##$CONDENSED SPECTRUM=NO
##NPOINTS= 101
##XYDATA=(XY..XY) 1 
    14          4
    15          2
    16          1
    18          1
    26          7
    27         51
    28         20
    29         58
    30          5
    31        123
    32          3
    36          2
    37         10
    38         21
    39        108
    40         12
    41         35
    42          2
    43         11
    44          5
    45          5
    46          2
    47         13
    48          1
    49          7
    50         64
    51        136
    52         42
    53         55
    54          4
    55         17
    56          1
    57          2
    58          1
    59          5
    60         18
    61          9
    62         23
    63         60
    64         14
    65         83
    66         12
    67          8
    68         11
    69          2
    70          1
    71          1
    72          1
    73          5
    74         22
    75         15
    76         16
    77        445
    78         98
    79        999
    80         70
    81         16
    82          2
    83          2
    84          1
    85          4
    86          6
    87          5
    88          1
    89         81
    90         31
    91        459
    92        315
    93         44
    94          6
    95          3
    97          1
    98          1
    99          1
   101          1
   102          8
   103         42
   104         70
   105         27
   106          8
   107        922
   108         89
   109          9
   110          1
   114          1
   115          1
   117          1
   118          4
   119         65
   120         64
   121         28
   122          5
   123          1
   133          7
   134          8
   135         19
   136         15
   137         73
   138        472
   139         43
   140          4