##TITLE=Library Entry 82918
##JCAMP-DX=Revision 4.10 
##DATA TYPE=MASS SPECTRUM
##SAMPLE DESCRIPTION=Japan AIST/NIMC Database- Spectrum MS-NW- 449
##NAMES=HP
##CAS NAME=Benzenamine, 4-ethyl-
##MOLFORM=C8H11N
##CAS REGISTRY NO=589-16-2
##MP= -300
##BP= -300
##MW= 121
##$RETENTION INDEX=1221
##$CONDENSED SPECTRUM=NO
##NPOINTS= 63
##XYDATA=(XY..XY) 1 
    15          2
    26          3
    27         11
    28         15
    29          3
    30          4
    37          2
    38          7
    39         31
    40          5
    41         13
    42          7
    43          2
    44          1
    45          2
    46          3
    50          9
    51         22
    52         20
    53         29
    54         10
    55          2
    56          1
    57          1
    58          9
    59          7
    60          6
    61          3
    62          7
    63         15
    64          6
    65         30
    66         13
    67          5
    74          3
    75          4
    76          3
    77         75
    78         25
    79         29
    80         12
    81          1
    89          9
    90          3
    91         26
    92         10
    93         24
    94          8
   102          2
   103         11
   104         14
   105          6
   106        999
   107         82
   108          3
   116          2
   117          8
   118         18
   119         19
   120         55
   121        377
   122         32
   123          1