##TITLE=Library Entry 21147
##JCAMP-DX=Revision 4.10 
##DATA TYPE=MASS SPECTRUM
##SAMPLE DESCRIPTION=Japan AIST/NIMC Database- Spectrum MS-NW-1092
##NAMES=HP
##CAS NAME=Cyclohexane, 1,4-dimethyl-
##MOLFORM=C8H16
##CAS REGISTRY NO=589-90-2
##MP= -300
##BP= -300
##MW= 112
##$RETENTION INDEX=805
##$CONDENSED SPECTRUM=NO
##NPOINTS= 54
##XYDATA=(XY..XY) 1 
    14          3
    15          9
    26          8
    27        130
    28          4
    29        126
    30          3
    37          1
    38          6
    39        144
    40         26
    41        351
    42        148
    43         89
    44          5
    46          1
    50          7
    51         16
    52          7
    53         49
    54         31
    55        999
    56        244
    57         71
    58          3
    62          1
    63          4
    65          9
    66          4
    67         41
    68         21
    69        172
    70        121
    71         14
    77          9
    78          3
    79          8
    80          2
    81         21
    82         23
    83        114
    84         74
    85          5
    91          3
    93          1
    95          6
    96         88
    97        977
    98         76
    99          2
   111         11
   112        352
   113         30
   114          1