##TITLE=Library Entry 84117
##JCAMP-DX=Revision 4.10 
##DATA TYPE=MASS SPECTRUM
##SAMPLE DESCRIPTION=Japan AIST/NIMC Database- Spectrum MS-NW-3353
##NAMES=HP
##CAS NAME=Benzenemethanol, 4-methyl-
##MOLFORM=C8H10O
##CAS REGISTRY NO=589-18-4
##MP= -300
##BP= -300
##MW= 122
##$RETENTION INDEX=1106
##$CONDENSED SPECTRUM=NO
##NPOINTS= 82
##XYDATA=(XY..XY) 1 
    14          1
    15          5
    18          2
    26          9
    27         61
    28         21
    29         33
    30          2
    31         29
    32          6
    37         11
    38         28
    39        165
    40         20
    41         48
    42          2
    43          9
    44          3
    45          9
    46          4
    47          2
    49          7
    50         61
    51        136
    52         37
    53         46
    54          3
    55          9
    58          1
    59          7
    60         55
    61         15
    62         36
    63         91
    64         22
    65        180
    66         21
    67          6
    68          2
    71          1
    72          1
    73          4
    74         17
    75         14
    76         11
    77        513
    78        110
    79        586
    80         41
    81          4
    82          1
    84          2
    85          5
    86          9
    87          8
    88          2
    89         47
    90         19
    91        526
    92         58
    93        486
    94         44
    95          3
    96          1
    97          1
    98          2
   101          2
   102         11
   103         72
   104        126
   105        184
   106         27
   107        999
   108         78
   109          5
   118          1
   119         55
   120         31
   121        202
   122        869
   123         80
   124          6