##TITLE=Library Entry 24980
##JCAMP-DX=Revision 4.10 
##DATA TYPE=MASS SPECTRUM
##SAMPLE DESCRIPTION=Japan AIST/NIMC Database- Spectrum MS-NW- 654
##NAMES=HP
##CAS NAME=Cyclohexanol, 4-methyl-
##MOLFORM=C7H14O
##CAS REGISTRY NO=589-91-3
##MP= -300
##BP= -300
##MW= 114
##$RETENTION INDEX=928
##$CONDENSED SPECTRUM=NO
##NPOINTS= 69
##XYDATA=(XY..XY) 1 
    14          1
    15         14
    17          1
    18          4
    19          2
    26         10
    27        134
    28         36
    29        197
    30         16
    31         56
    32          3
    37          2
    38          7
    39        126
    40         25
    41        347
    42         98
    43         77
    44        169
    45         32
    46          1
    47          1
    50          7
    51         14
    52          6
    53         54
    54         76
    55        310
    56        119
    57        999
    58        527
    59         26
    60          2
    62          1
    63          3
    65          9
    66          9
    67        106
    68        117
    69         30
    70        340
    71        125
    72          7
    73         16
    74          1
    77          9
    78          2
    79         19
    80          6
    81        471
    82         36
    83         21
    84          7
    85         37
    86         30
    87          2
    91          3
    93          4
    94          2
    95         59
    96        349
    97         30
    98          1
    99          2
   112          6
   113         13
   114         27
   115          2