##TITLE=Library Entry 22337
##JCAMP-DX=Revision 4.10 
##DATA TYPE=MASS SPECTRUM
##SAMPLE DESCRIPTION=Japan AIST/NIMC Database- Spectrum MS-NW-3063
##NAMES=HP
##CAS NAME=1-Pentanol, 3-methyl-
##MOLFORM=C6H14O
##CAS REGISTRY NO=589-35-5
##MP= -300
##BP= -300
##MW= 102
##$RETENTION INDEX=838
##$CONDENSED SPECTRUM=NO
##NPOINTS= 61
##XYDATA=(XY..XY) 1 
    14          1
    15         11
    17          3
    18         10
    19          1
    26         10
    27        157
    28         43
    29        278
    30          6
    31        237
    32          3
    33          1
    36          1
    37          3
    38          8
    39        110
    40         17
    41        526
    42        159
    43        551
    44         23
    45        118
    46         31
    47          3
    49          1
    50          7
    51          9
    52          4
    53         29
    54         19
    55        669
    56        999
    57        261
    58         10
    59         19
    60          1
    62          1
    63          1
    65          2
    66          1
    67         12
    68          6
    69        616
    70         48
    71         43
    72          7
    73         11
    74          3
    77          1
    79          1
    81          2
    82          1
    83         22
    84        165
    85         15
    86          1
    87          2
    97          1
    98          1
    99          1