##TITLE=Library Entry 67353
##JCAMP-DX=Revision 4.10 
##DATA TYPE=MASS SPECTRUM
##SAMPLE DESCRIPTION=Japan AIST/NIMC Database- Spectrum MS-NW-3602
##NAMES=HP
##CAS NAME=Benzene, (2-bromoethoxy)-
##MOLFORM=C8H9BrO
##CAS REGISTRY NO=589-10-6
##MP= -300
##BP= -300
##MW= 200
##$RETENTION INDEX=0
##$CONDENSED SPECTRUM=NO
##NPOINTS= 87
##XYDATA=(XY..XY) 1 
    13          1
    14          4
    15          8
    18          2
    25          5
    26         43
    27        487
    28         32
    29          9
    30          1
    31          3
    32          1
    36          1
    37         19
    38         76
    39        368
    40         48
    41          7
    42          5
    43         14
    44          2
    45          6
    46          1
    49          5
    50         67
    51        163
    52         13
    53         12
    54          3
    55         35
    56          1
    60          3
    61         11
    62         31
    63         94
    64         54
    65        461
    66        223
    67         12
    68          5
    73          3
    74         15
    75         11
    76         14
    77        385
    78         32
    79         69
    80          6
    81          6
    82          7
    87          2
    89          2
    90          1
    91         44
    92         16
    93        107
    94        999
    95         70
    96          5
   103          9
   104          1
   105          2
   106          2
   107        886
   108         21
   109        893
   110         19
   119          7
   120         41
   121         98
   122          9
   138         11
   139          1
   143          1
   144          9
   145          2
   146          9
   155          1
   156          1
   172          8
   173          1
   174          9
   200        496
   201         45
   202        477
   203         45
   204          3