##TITLE=Library Entry 23316
##JCAMP-DX=Revision 4.10 
##DATA TYPE=MASS SPECTRUM
##SAMPLE DESCRIPTION=A.Pleshkova, Nesmeyanov Inst.Org.Elem.Cpds, Moscow
##NAMES=HP
##CAS NAME=Pent-4-yn-3-one, 2,2-dimethyl-
##MOLFORM=C7H10O
##CAS REGISTRY NO=5891-25-8
##MP= -300
##BP= -300
##MW= 110
##$RETENTION INDEX=0
##$CONDENSED SPECTRUM=NO
##NPOINTS= 17
##XYDATA=(XY..XY) 1 
    27         70
    29        320
    30          7
    39        110
    40         20
    41        470
    42         20
    53        150
    54         20
    55         50
    56         40
    57        999
    58         40
    67         60
    68          2
    95         60
    96          2