##TITLE=Library Entry 15730
##JCAMP-DX=Revision 4.10 
##DATA TYPE=MASS SPECTRUM
##SAMPLE DESCRIPTION=Japan AIST/NIMC Database- Spectrum MS-NW-5323
##NAMES=HP
##CAS NAME=N-Formyl-dl-alanine
##MOLFORM=C4H7NO3
##CAS REGISTRY NO=5893-10-7
##MP= -300
##BP= -300
##MW= 117
##$RETENTION INDEX=0
##$CONDENSED SPECTRUM=NO
##NPOINTS= 62
##XYDATA=(XY..XY) 1 
    12          9
    13          7
    14         18
    15        104
    16          6
    17          9
    18         31
    24          4
    25         15
    26         92
    27        173
    28        445
    29        149
    30         14
    31          5
    36          2
    37          4
    38         13
    39         19
    40         49
    41         68
    42        299
    43         86
    44        999
    45        104
    46         59
    47          4
    50          5
    51         19
    52         32
    53         25
    54         29
    55         44
    56         16
    57          3
    58         26
    60          1
    67          1
    68          1
    69          2
    70         10
    71         37
    72        608
    73         78
    74         24
    75          1
    77          1
    80          1
    81          9
    82          2
    83          2
    85          1
    88          2
    89          5
    95          2
    97          1
    99          8
   102          9
   103          1
   115          1
   117         30
   118          2