##TITLE=Library Entry 68072
##JCAMP-DX=Revision 4.10 
##DATA TYPE=MASS SPECTRUM
##SAMPLE DESCRIPTION=A.A.Kutin, Moscow, Russia
##NAMES=HP
##CAS NAME=Thiourea, 1-(4-bromophenyl)-3-(2-pyrimidyl)-
##MOLFORM=C11H9BrN4S
##CAS REGISTRY NO=58930-40-8
##MP= -300
##BP= -300
##MW= 308
##$RETENTION INDEX=0
##$CONDENSED SPECTRUM=NO
##NPOINTS= 94
##XYDATA=(XY..XY) 1 
    33         53
    38         31
    39         51
    40        105
    41         63
    42         38
    43         35
    44         17
    45         11
    49          0
    50         67
    51         39
    52         87
    53        122
    54         14
    58          4
    59          5
    60          4
    61         10
    62         24
    63         68
    64         45
    65         44
    66         22
    68        345
    69         24
    70          4
    73          1
    75        118
    76         52
    77         19
    79        314
    80         33
    81          8
    82          5
    84          3
    85         16
    90         55
    91         33
    92         43
    95        999
   102          4
   106          8
   107          7
   108         36
   109         21
   115         64
   117          3
   118          3
   119          4
   121        302
   123         11
   124          5
   133          2
   134         45
   135          8
   136          4
   138        102
   139          5
   140          0
   143          9
   145          4
   148          2
   150         33
   155         29
   157         32
   169          3
   170         14
   171        111
   173        104
   174          4
   175          5
   187         14
   188          8
   190          8
   195         18
   196         26
   197          2
   202          3
   213         37
   214          4
   215         36
   216          2
   228          5
   229          3
   275         23
   276          4
   277         22
   307         38
   308        161
   309         45
   310        148
   311         17
   312          1