##TITLE=Library Entry 78808
##JCAMP-DX=Revision 4.10 
##DATA TYPE=MASS SPECTRUM
##SAMPLE DESCRIPTION=NIST Mass Spectrometry Data Center, 1994
##NAMES=HP
##CAS NAME=Benzamide, N-(1,1-dimethylethyl)-
##MOLFORM=C11H15NO
##CAS REGISTRY NO=5894-65-5
##MP= -300
##BP= -300
##MW= 177
##$RETENTION INDEX=0
##$CONDENSED SPECTRUM=NO
##NPOINTS= 64
##XYDATA=(XY..XY) 1 
     7          1
    14          2
    15         38
    16          0
    17          1
    18          2
    26          3
    27         33
    28         29
    29         32
    30          5
    37          2
    38          6
    39         51
    40          8
    41         72
    42         82
    43          1
    44         23
    50         54
    51        171
    52         15
    53          5
    54          3
    55          6
    56         27
    57         26
    58          4
    60          0
    62          1
    63          4
    64          1
    65          5
    66          2
    70          0
    74         29
    75         13
    76         33
    77        412
    78         35
    79         55
    80          6
    81          6
    91          2
    92          3
   102          1
   105        999
   106         76
   107          4
   120          2
   122        114
   123         10
   124          1
   134         14
   135          8
   136          1
   146          1
   160          1
   162        123
   163         16
   164          1
   177        108
   178         13
   179          0