##TITLE=Library Entry 6938
##JCAMP-DX=Revision 4.10 
##DATA TYPE=MASS SPECTRUM
##SAMPLE DESCRIPTION=A.A.Kutin, Moscow, Russia
##NAMES=HP
##CAS NAME=1,2,4-Triazol-5(4H)-one, 4-(2-hydroxy-3-nitroxypropyl)-1-methyl-3
-nitro-
##MOLFORM=C6H9N5O7
##CAS REGISTRY NO=58954-11-3
##MP= -300
##BP= -300
##MW= 263
##$RETENTION INDEX=0
##$CONDENSED SPECTRUM=NO
##NPOINTS= 137
##XYDATA=(XY..XY) 1 
    37          2
    38          9
    39         31
    40         54
    41         89
    43        999
    44        227
    46        674
    48          4
    50          3
    51          5
    53         66
    54         75
    55        215
    56        192
    57         85
    58        217
    59         11
    60          7
    61          5
    62          1
    63          2
    64          1
    65          2
    66          2
    67          6
    69         78
    70         42
    71         23
    72         14
    73         21
    74          6
    76         18
    77          3
    78          1
    79          2
    80          1
    81          2
    82         14
    83         27
    84         25
    85         18
    86          6
    87          6
    88          0
    89          1
    91          3
    92          0
    93          1
    94          0
    95          1
    96          3
    97         37
    98         82
    99         81
   100         18
   101          1
   102          0
   103          0
   104          0
   105          1
   106          1
   107          0
   108          0
   109          0
   110          1
   111          3
   112         52
   113         81
   114         19
   115         22
   116          1
   117          0
   118          0
   119          1
   120          0
   121          0
   122          0
   123          0
   124          1
   125          2
   126          3
   127          8
   128         87
   129         56
   130         15
   131          1
   132          0
   133          0
   134          0
   135          0
   136          0
   137          0
   138          0
   139          1
   140          4
   141          4
   142          3
   143          4
   144         32
   145        113
   146          5
   147          0
   149          0
   150          0
   151          0
   152          1
   153          0
   154          1
   155          0
   156          1
   157          9
   158          6
   159          0
   160          0
   169          1
   170          3
   171         48
   172          4
   173          0
   174          0
   175          0
   176          0
   186          2
   187        154
   188         11
   189          1
   190          1
   199          1
   200          0
   201          1
   216         12
   217          1
   218          0
   233          0
   263          5
   264          0