##TITLE=Library Entry 23495
##JCAMP-DX=Revision 4.10 
##DATA TYPE=MASS SPECTRUM
##SAMPLE DESCRIPTION=Asinex Ltd, Moscow, Russia
##NAMES=HP
##CAS NAME=N-(2,2-Dichloro-1-hydroxy-ethyl)-2,2-dimethyl-propionamide
##MOLFORM=C7H13Cl2NO2
##CAS REGISTRY NO=58956-78-8
##MP= -300
##BP= -300
##MW= 213
##$RETENTION INDEX=0
##$CONDENSED SPECTRUM=NO
##NPOINTS= 133
##XYDATA=(XY..XY) 1 
    33          0
    35         41
    36         11
    37         19
    38         19
    39        168
    40         43
    41        586
    42         78
    43         34
    44        184
    45         20
    46        160
    47         64
    48        235
    49        346
    50         86
    51        113
    52          6
    53         13
    54          6
    55         40
    56         83
    57        999
    58        106
    59         34
    60          6
    61          3
    62          2
    63          2
    64          1
    65          1
    66          1
    67          3
    68          8
    69         42
    70         13
    71          3
    72          2
    73          4
    74          1
    75          2
    76         31
    77         29
    78         23
    79          9
    80          4
    81          2
    82         14
    83         64
    84        177
    85        143
    86        174
    87         10
    88         16
    89          0
    91          1
    92          1
    93          2
    94          1
    95          1
    96          1
    97          0
    98          1
    99          0
   100          6
   101         99
   102         15
   103          1
   104          0
   105          1
   106          1
   107          0
   108          0
   109          0
   110          2
   111          6
   112         43
   113         21
   114         26
   115         11
   116          5
   117          3
   118          1
   119          1
   120          1
   121          0
   122          0
   124          0
   126          1
   127          0
   128          1
   129          1
   130         58
   131          4
   132          0
   135          0
   140          5
   141          1
   142         11
   143          1
   144          1
   148          0
   149          3
   150          0
   151          0
   155          0
   156          1
   158          2
   159          0
   160          3
   161          1
   162          1
   163          0
   168          0
   170          4
   171          0
   172          2
   174          0
   176          0
   177          1
   178          1
   179          0
   180          1
   182          0
   185          0
   194          0
   195          4
   196          1
   197          3
   198          1
   199          0
   200          0