##TITLE=Library Entry 59883
##JCAMP-DX=Revision 4.10 
##DATA TYPE=MASS SPECTRUM
##SAMPLE DESCRIPTION=Japan AIST/NIMC Database- Spectrum MS-IW-3098
##NAMES=HP
##CAS NAME=Benzaldehyde, 2-(phenylmethoxy)-
##MOLFORM=C14H12O2
##CAS REGISTRY NO=5896-17-3
##MP= -300
##BP= -300
##MW= 212
##$RETENTION INDEX=0
##$CONDENSED SPECTRUM=NO
##NPOINTS= 47
##XYDATA=(XY..XY) 1 
    27          3
    28          4
    29          1
    37          1
    38          6
    39         49
    40          3
    41          9
    50          8
    51         22
    52          4
    53          3
    61          1
    62          4
    63         23
    64          9
    65        122
    66          7
    74          2
    75          2
    76          3
    77          9
    78          1
    79          1
    89         17
    90          9
    91        999
    92         86
    93         12
    94          1
   105          3
   106          7
   120         10
   121        100
   122          8
   152          2
   153          1
   165          2
   181          2
   183         54
   184         32
   185          4
   194          1
   195          1
   212        116
   213         17
   214          1