##TITLE=Library Entry 17191
##JCAMP-DX=Revision 4.10 
##DATA TYPE=MASS SPECTRUM
##SAMPLE DESCRIPTION=A.A.Kutin, Moscow, Russia
##NAMES=HP
##CAS NAME=Sulfonium, dimethyl-, cyanonitromethylide
##MOLFORM=C4H6N2O2S
##CAS REGISTRY NO=58992-18-0
##MP= -300
##BP= -300
##MW= 146
##$RETENTION INDEX=0
##$CONDENSED SPECTRUM=NO
##NPOINTS= 93
##XYDATA=(XY..XY) 1 
    33         24
    37          7
    38        118
    39         52
    40         51
    41         43
    42         49
    44        133
    45        999
    46        557
    47        643
    48         48
    49         46
    50          8
    52        128
    54        161
    55         19
    56         45
    57        105
    58        205
    59         99
    61        192
    62        633
    64         56
    66         27
    68         41
    70        961
    72         96
    73         87
    74         11
    75          8
    76          2
    77          3
    78          1
    79          2
    80          1
    82         11
    83         14
    84         28
    85        226
    86         43
    87         11
    88         65
    89          5
    90          3
    91          1
    92          1
    93          1
    94          1
    95          1
    96          0
    97          1
    98          1
   100         58
   101          3
   102          4
   104         11
   105          1
   106          1
   107          0
   109          0
   110          0
   111          1
   112          1
   113          1
   114          0
   116         13
   117          0
   119          1
   120          0
   121          0
   122          0
   123          0
   124          0
   126          1
   127          3
   128          0
   129          0
   131         42
   132          3
   133          2
   134          0
   135          0
   137          0
   139          0
   140          0
   142          2
   144          0
   146        215
   147         11
   148         10
   149          2
   150          0