##TITLE=Library Entry 54376
##JCAMP-DX=Revision 4.10 
##DATA TYPE=MASS SPECTRUM
##SAMPLE DESCRIPTION=OGDEN BioServices Corp., NCI, Rockville, MD 20852
##NAMES=HP
##CAS NAME=Methotrexate
##MOLFORM=C20H22N8O5
##CAS REGISTRY NO=59-05-2
##MP= -300
##BP= -300
##MW= 454
##$RETENTION INDEX=0
##$CONDENSED SPECTRUM=NO
##NPOINTS= 222
##XYDATA=(XY..XY) 1 
    41        210
    42         87
    43         99
    44        146
    45        156
    46          7
    47          1
    49          3
    50         31
    51         43
    52         46
    53         48
    54         52
    55         55
    56        141
    57         11
    58          1
    59          0
    60          2
    62         25
    63         28
    64         28
    65         76
    66         56
    67         23
    68         30
    69         12
    70          3
    71          3
    72          2
    73         17
    74         20
    75         17
    76         24
    77        105
    78         39
    79         59
    80         26
    81         13
    82         13
    83         26
    84        999
    85         53
    86          4
    87          1
    88          3
    89          2
    90          9
    91         18
    92         19
    93          9
    94          5
    95          7
    96          5
    97          3
    98          1
    99          1
   100          0
   101          8
   102          4
   103          5
   104         34
   105         29
   106        155
   107        113
   108         39
   109          6
   110          1
   111          2
   112          0
   113          1
   114          0
   115          1
   116          0
   117          2
   118          7
   119          4
   120         33
   121         17
   122         15
   123          4
   124          2
   125          1
   126          0
   127          0
   128          2
   129        104
   130         29
   131          9
   132         33
   133         45
   134        624
   135        100
   136          9
   137         22
   138          2
   139          1
   140          1
   141          2
   142          1
   143          1
   144          2
   145          1
   146          3
   147          2
   148         54
   149         34
   150        388
   151        705
   152         65
   153          7
   154          1
   155          0
   156          0
   157          1
   158          3
   159         17
   160         10
   161          5
   162          6
   163          6
   164         17
   165          3
   166          0
   167          0
   168          0
   169          1
   170          2
   171          0
   172          1
   173          2
   174          1
   175        207
   176        768
   177         98
   178          8
   179          1
   183          1
   184          0
   186          0
   187          5
   188          3
   189          5
   190          5
   191          3
   192          4
   193          1
   194          1
   195          0
   197          0
   199          0
   200          1
   201          3
   202          5
   203         10
   204          2
   205          1
   206          4
   207          1
   208          0
   211          1
   213          2
   214          2
   215          2
   216          4
   217          2
   218          2
   219          1
   221          0
   222          2
   225          1
   226          2
   227          0
   228          0
   234          5
   235          2
   236         11
   237          2
   238          0
   239          1
   240          2
   241          0
   242          2
   243          1
   244          2
   247          0
   248          2
   253          0
   254          1
   256          0
   260          0
   261         19
   262         42
   263          8
   264          1
   270          0
   272          1
   275          0
   276          1
   277          1
   278          1
   279          0
   280          4
   281         10
   282          2
   284          1
   287          0
   290          0
   294          1
   307          0
   308          2
   309          1
   310          0
   322          1
   323          0
   324          0
   325          8
   326          3
   335          1
   350          2
   351          0
   436          0