##TITLE=Library Entry 82617
##JCAMP-DX=Revision 4.10 
##DATA TYPE=MASS SPECTRUM
##SAMPLE DESCRIPTION=NIST Mass Spectrometry Data Center, 1998.
##NAMES=HP
##CAS NAME=Nikethamide
##MOLFORM=C10H14N2O
##CAS REGISTRY NO=59-26-7
##MP= -300
##BP= -300
##MW= 178
##$RETENTION INDEX=1470
##$CONDENSED SPECTRUM=NO
##NPOINTS= 80
##XYDATA=(XY..XY) 1 
    15          2
    26          4
    27         25
    28         10
    29         33
    30          4
    37          1
    38          3
    39          6
    40          2
    41          7
    42         30
    43          3
    44         22
    45          1
    49          3
    50         41
    51        163
    52         30
    53         14
    54          4
    55          2
    56         23
    57          2
    58          3
    62          1
    63          2
    64          2
    65          3
    66          2
    67          1
    68          1
    70          5
    71          2
    72         31
    73          1
    74          2
    75          3
    76          8
    77         16
    78        404
    79         35
    80          3
    81          2
    91          1
    92          2
    93          7
    94          2
   100          3
   103          1
   104          3
   106        999
   107         84
   108          8
   109          1
   118          1
   119          1
   120          1
   121          1
   122          2
   123          1
   131          1
   132          1
   133          2
   134          2
   135         14
   136          3
   147          1
   149         54
   150         10
   151          1
   161          1
   162          1
   163         36
   164          4
   175          1
   177        376
   178        134
   179         15
   180          1