##TITLE=Library Entry 41133
##JCAMP-DX=Revision 4.10 
##DATA TYPE=MASS SPECTRUM
##SAMPLE DESCRIPTION=RADIAN CORP
##NAMES=HP
##CAS NAME=D-Galactose
##MOLFORM=C6H12O6
##CAS REGISTRY NO=59-23-4
##MP= -300
##BP= -300
##MW= 180
##$RETENTION INDEX=0
##$CONDENSED SPECTRUM=NO
##NPOINTS= 94
##XYDATA=(XY..XY) 1 
    15          4
    17          2
    18          8
    19         12
    26          4
    27         23
    28         41
    29        114
    30         22
    31        111
    32         14
    36         16
    38          7
    39         19
    40          6
    41         45
    42         93
    43        232
    44        167
    45        106
    46          8
    47         31
    49          3
    51          3
    53          8
    54         15
    55         84
    56         92
    57        194
    58         41
    59         18
    60        608
    61        289
    62         17
    63          2
    67          7
    68         11
    69         63
    70         35
    71        308
    72         72
    73        999
    74         78
    75         12
    76          2
    77         12
    79          3
    81          9
    82          6
    83         25
    84         13
    85         64
    86         27
    87         26
    88          4
    89         25
    90         11
    91         55
    92          2
    93          1
    95          7
    96          7
    97         41
    98         26
    99         10
   100          2
   101         88
   102         70
   103         44
   104          3
   109          3
   110          1
   111          6
   112          1
   113          8
   115         11
   116         11
   117          1
   119         38
   120          7
   121          3
   125          2
   127          4
   128          1
   129          7
   131         48
   132          5
   133         20
   139          2
   141          3
   144          7
   147          3
   149         14
   168          2