##TITLE=Library Entry 70783
##JCAMP-DX=Revision 4.10 
##DATA TYPE=MASS SPECTRUM
##SAMPLE DESCRIPTION=Tox21 Consortium/NIST Mass Spectrometry Data Center, 20
12
##NAMES=HP
##CAS NAME=Piperoxan
##MOLFORM=C14H19NO2
##CAS REGISTRY NO=59-39-2
##MP= -300
##BP= -300
##MW= 233
##$RETENTION INDEX=1840
##$CONDENSED SPECTRUM=NO
##NPOINTS= 80
##XYDATA=(XY..XY) 1 
    15          1
    26          2
    27          7
    28         10
    29          7
    30          6
    38          2
    39         18
    40          3
    41         77
    42         52
    43         16
    44         19
    45          1
    50          6
    51         10
    52         25
    53          9
    54         10
    55         51
    56         11
    57          3
    58          1
    62          1
    63          4
    64          3
    65          8
    66          1
    67          5
    68         11
    69         18
    70         24
    71          1
    74          1
    75          1
    76          1
    77         12
    78          3
    79          5
    80         13
    81         18
    82          8
    83          4
    84          6
    85          1
    89          1
    91          5
    92          2
    93          1
    94          3
    95          1
    96         23
    98        999
    99         71
   100          2
   103          1
   105          1
   106          1
   107          4
   108          1
   109          8
   110          5
   116          1
   119          1
   120          1
   121          8
   122          2
   123          1
   124         22
   125          2
   134          2
   135          7
   136          1
   147          6
   148          3
   149          1
   231          1
   232          1
   233         26
   234          4