##TITLE=Library Entry 28997
##JCAMP-DX=Revision 4.10 
##DATA TYPE=MASS SPECTRUM
##SAMPLE DESCRIPTION=NIST Mass Spectrometry Data Center, 2010
##NAMES=HP
##CAS NAME=Chloropyramine
##MOLFORM=C16H20ClN3
##CAS REGISTRY NO=59-32-5
##MP= -300
##BP= -300
##MW= 289
##$RETENTION INDEX=2190
##$CONDENSED SPECTRUM=NO
##NPOINTS= 127
##XYDATA=(XY..XY) 1 
    15          2
    26          1
    27          3
    28          5
    29          4
    30         17
    38          1
    39          8
    40          2
    41          4
    42         43
    43         13
    44          9
    45          6
    50          4
    51         21
    52         19
    53          4
    54          2
    55          2
    56         18
    57         19
    58        999
    59         38
    60          1
    62          2
    63         12
    64          3
    65          5
    66          2
    67          2
    69          1
    70          6
    71        155
    72        138
    73         11
    74          1
    75          4
    76          2
    77          4
    78         41
    79         57
    80          5
    83          1
    85          1
    87          1
    89         46
    90         17
    91          5
    92          2
    93          5
    94          1
    95          1
    99         14
   100          1
   101          5
   102          1
   103          1
   104          1
   105          4
   106          6
   107          9
   108          1
   111          1
   114          1
   115          1
   116          1
   117          2
   118          3
   119         22
   120          4
   121          3
   123          1
   125        285
   126         22
   127         93
   128          8
   129          1
   131          1
   132          1
   133          1
   134          1
   138          1
   139          2
   140          7
   141          1
   142          2
   148          1
   151          1
   152          3
   153          1
   154          2
   155          1
   162          3
   163          2
   166          1
   167          2
   168          1
   181          1
   182          1
   183          3
   184          1
   193          1
   194          1
   195          2
   196          1
   202          1
   214          1
   215          2
   217         15
   218         20
   219         41
   220         11
   221         11
   222          2
   229          1
   231         28
   232          4
   233          9
   234          1
   243          1
   245          3
   246          1
   247          1
   289          7
   290          1
   291          2