##TITLE=Library Entry 85116
##JCAMP-DX=Revision 4.10 
##DATA TYPE=MASS SPECTRUM
##SAMPLE DESCRIPTION=NIST Mass Spectrometry Data Center
##NAMES=HP
##CAS NAME=Mephenesin
##MOLFORM=C10H14O3
##CAS REGISTRY NO=59-47-2
##MP= -300
##BP= -300
##MW= 182
##$RETENTION INDEX=1586
##$CONDENSED SPECTRUM=NO
##NPOINTS= 86
##XYDATA=(XY..XY) 1 
    15          3
    19          5
    26          2
    27         17
    28          4
    29         31
    30          2
    31         42
    32          1
    37          1
    38          4
    39         40
    40          4
    41         10
    42          5
    43         33
    44          7
    45         21
    46          1
    47          1
    49          1
    50         16
    51         45
    52         27
    53         26
    54          2
    55          7
    56          3
    57         41
    58          2
    60          1
    61         16
    62          7
    63         27
    64          8
    65         86
    66          8
    67          1
    68          1
    73          1
    74          9
    75          8
    76          4
    77        130
    78         47
    79         90
    80         60
    81          6
    82          1
    86          1
    87          1
    89         31
    90         71
    91        208
    92         29
    93         15
    94          4
    95          1
   103          2
   104          2
   105         31
   106          7
   107        298
   108        999
   109        125
   110          9
   115          1
   118          1
   119          2
   120          1
   121         40
   122         22
   123          3
   131          1
   133         62
   134          6
   135          3
   145          1
   148          1
   150          4
   151          9
   152          1
   180          1
   182        190
   183         21
   184          2