##TITLE=Library Entry 56495
##JCAMP-DX=Revision 4.10 
##DATA TYPE=MASS SPECTRUM
##SAMPLE DESCRIPTION=Japan AIST/NIMC Database- Spectrum MS-NW-7849
##NAMES=HP
##CAS NAME=Procaine
##MOLFORM=C13H20N2O2
##CAS REGISTRY NO=59-46-1
##MP= -300
##BP= -300
##MW= 236
##$RETENTION INDEX=2021
##$CONDENSED SPECTRUM=NO
##NPOINTS= 69
##XYDATA=(XY..XY) 1 
    15          1
    18          1
    27          7
    28         13
    29         27
    30         38
    38          1
    39          8
    40          1
    41          5
    42         28
    43          6
    44         13
    51          1
    52          3
    53          1
    54          4
    55          3
    56         39
    57          9
    58         53
    59          2
    63          3
    64          6
    65         51
    66          5
    68          1
    69          2
    70         20
    71         39
    72         10
    77          1
    80          1
    82          1
    84         38
    85          5
    86        999
    87         56
    88          3
    90          2
    91         10
    92         71
    93          8
    96          1
    97          1
    98          3
    99        369
   100         31
   101          1
   106          2
   110         10
   111          1
   116          2
   118          2
   119         10
   120        310
   121         23
   122          1
   136          1
   137         25
   138          2
   163          6
   164         90
   165         10
   207          2
   221          7
   222          1
   235          3
   237          1