##TITLE=Library Entry 89655
##JCAMP-DX=Revision 4.10 
##DATA TYPE=MASS SPECTRUM
##SAMPLE DESCRIPTION=Japan AIST/NIMC Database- Spectrum MS-IW-3292
##NAMES=HP
##CAS NAME=Thiamine
##MOLFORM=C12H17ClN4OS
##CAS REGISTRY NO=59-43-8
##MP= -300
##BP= -300
##MW= 300
##$RETENTION INDEX=0
##$CONDENSED SPECTRUM=NO
##NPOINTS= 224
##XYDATA=(XY..XY) 1 
    15          5
    17          3
    18         10
    26         11
    27         43
    28         49
    29         14
    30          7
    31         45
    32          4
    33          1
    34          1
    35         11
    36         59
    37          4
    38         19
    39         97
    40         15
    41         55
    42        148
    43         36
    44          8
    45        167
    46          7
    47         13
    49          2
    50         11
    51         34
    52         67
    53        111
    54         59
    55         44
    56          5
    57          8
    58         32
    59         67
    60          7
    61          6
    62          4
    63          5
    64         10
    65         16
    66         15
    67         11
    68         24
    69         27
    70         14
    71         60
    72         40
    73         21
    74          7
    75          2
    76          2
    77          4
    78         12
    79         29
    80         56
    81        106
    82         11
    83         14
    84         12
    85        259
    86         43
    87         23
    88         52
    89          5
    90          4
    91          3
    92          6
    93          9
    94          9
    95          8
    96          5
    97         11
    98         18
    99         14
   100         22
   101          5
   102          5
   103          1
   104          2
   105         10
   106         22
   107         42
   108          7
   109          5
   110         12
   111         10
   112        999
   113        366
   114         70
   115         21
   116         23
   117         15
   118          4
   119          4
   120          6
   121         22
   122        499
   123        104
   124         17
   125         14
   126         17
   127          8
   128          3
   129          1
   131          3
   132          5
   133         12
   134         34
   135          5
   136          3
   137          5
   138          9
   139          3
   140          2
   141          2
   142         16
   143        383
   144         50
   145         20
   146         13
   147        104
   148         55
   149         67
   150          8
   151          3
   152          3
   153          1
   154          1
   155          8
   156          4
   157         46
   158          7
   159         18
   160          5
   161          6
   162          3
   163          4
   164          4
   165          5
   166          2
   167          1
   171          1
   172          4
   173          7
   174          4
   175         16
   176          3
   177          2
   178          3
   179          3
   180          6
   181          2
   182          1
   183          2
   184          2
   185          3
   186          2
   187          6
   188          1
   189          2
   190          4
   191          3
   192         11
   193          3
   194          1
   195          1
   196          1
   197          1
   198          1
   199         15
   200         24
   201         12
   202          2
   203          2
   204          5
   205          3
   206          6
   207          9
   208          1
   212          1
   213          6
   214          2
   215          1
   216         14
   217          6
   218          6
   219         31
   220          8
   221          3
   222          3
   223          2
   224          1
   227          2
   229          2
   230          2
   231         38
   232         12
   233        323
   234         58
   235         23
   236          4
   237          2
   238          1
   241          3
   242         10
   243          3
   244          2
   245          4
   246          4
   247         23
   248          8
   249         19
   250          3
   251          1
   253          3
   261          3
   262          9
   263        134
   264        402
   265         67
   266         13
   267          2