##TITLE=Library Entry 77589
##JCAMP-DX=Revision 4.10 
##DATA TYPE=MASS SPECTRUM
##SAMPLE DESCRIPTION=MASS SPECTROMETRY CENTER, UNIV. OF UTAH. ALDRICH O00980
-8
##NAMES=HP
##CAS NAME=2H-Indol-2-one, 1,3-dihydro-
##MOLFORM=C8H7NO
##CAS REGISTRY NO=59-48-3
##MP= -300
##BP= -300
##MW= 133
##$RETENTION INDEX=0
##$CONDENSED SPECTRUM=NO
##NPOINTS= 40
##XYDATA=(XY..XY) 1 
    26         47
    27         80
    37         62
    38        105
    39        151
    40         29
    42          8
    49         28
    50        197
    51        331
    52        291
    53         89
    54         14
    61         30
    62         52
    63        102
    64         38
    65         26
    66          0
    67         38
    73         13
    74         49
    75         50
    76         80
    77        233
    78        626
    79         50
    86          0
    87          1
    89         56
    90         24
   102         18
   103         58
   104        999
   105        527
   106         44
   132         50
   133        930
   134         89
   135          0