##TITLE=Library Entry 31228
##JCAMP-DX=Revision 4.10 
##DATA TYPE=MASS SPECTRUM
##SAMPLE DESCRIPTION=Japan AIST/NIMC Database- Spectrum MS-NW-1941
##NAMES=HP
##CAS NAME=DL-Methionine
##MOLFORM=C5H11NO2S
##CAS REGISTRY NO=59-51-8
##MP= -300
##BP= -300
##MW= 149
##$RETENTION INDEX=0
##$CONDENSED SPECTRUM=NO
##NPOINTS= 89
##XYDATA=(XY..XY) 1 
    12          1
    14          5
    15         31
    16          2
    17         11
    18         39
    19          2
    25          2
    26         24
    27        126
    28        378
    29         90
    30        107
    31          3
    32          4
    33          4
    34          6
    35         87
    36          1
    37          5
    38          6
    39         34
    40          7
    41        130
    42        101
    43         56
    44         50
    45        142
    46         56
    47        187
    48         84
    49         47
    50          5
    51          8
    52         22
    53         12
    54         68
    55        264
    56        599
    57        119
    58         17
    59         44
    60         18
    61        999
    62         43
    63         44
    64          2
    67          1
    68          4
    69          3
    70         18
    71          7
    72          3
    73         12
    74        252
    75        355
    76         18
    77         15
    82          1
    83        218
    84         22
    85         14
    86         21
    87         95
    88         88
    89          9
    90          5
    99         11
   100          6
   101        222
   102         25
   103          7
   104        154
   105          9
   106          7
   113          1
   114         65
   115          5
   116        131
   117         12
   118          6
   127          1
   131        414
   132         61
   133         22
   134          8
   149        136
   150         10
   151          7