##TITLE=Library Entry 84260
##JCAMP-DX=Revision 4.10 
##DATA TYPE=MASS SPECTRUM
##SAMPLE DESCRIPTION=TNO Volatile Compounds in Food - Chemical Concepts
##NAMES=HP
##CAS NAME=Phenol, 4-chloro-3-methyl-
##MOLFORM=C7H7ClO
##CAS REGISTRY NO=59-50-7
##MP= -300
##BP= -300
##MW= 142
##$RETENTION INDEX=1294
##$CONDENSED SPECTRUM=NO
##NPOINTS= 85
##XYDATA=(XY..XY) 1 
    26         18
    27         80
    29          5
    31          8
    34          0
    36          2
    37         29
    38         90
    39        193
    41         10
    42          2
    43         24
    47          5
    49         13
    50        111
    51        277
    52         90
    53        124
    54          7
    55         20
    56          4
    57          0
    59          4
    60          2
    61         27
    62         47
    63         92
    64         12
    65          9
    66          8
    67         24
    68          2
    69         31
    71         28
    72         16
    73         29
    74         27
    75         41
    76         15
    77        475
    78        125
    79        121
    80          9
    81          8
    82          2
    83         41
    86          5
    87          9
    88          0
    89         23
    90          4
    91          0
    92          0
    97          2
    98          7
    99          6
   100          3
   101          1
   105         45
   106         35
   107        999
   108         79
   109          7
   111          3
   112          4
   113         24
   114          1
   115          8
   116          0
   118          7
   119          0
   121          1
   125          3
   126          4
   127          1
   133          0
   135          1
   136          3
   137          1
   141         77
   142        814
   143         86
   144        256
   145         22
   146          0