##TITLE=Library Entry 30300
##JCAMP-DX=Revision 4.10 
##DATA TYPE=MASS SPECTRUM
##SAMPLE DESCRIPTION=NIST Mass Spectrometry Data Center, 1998.
##NAMES=HP
##CAS NAME=2,3-Dimercaptopropan-1-ol
##MOLFORM=C3H8OS2
##CAS REGISTRY NO=59-52-9
##MP= -300
##BP= -300
##MW= 124
##$RETENTION INDEX=0
##$CONDENSED SPECTRUM=NO
##NPOINTS= 77
##XYDATA=(XY..XY) 1 
    15          4
    25          2
    26         14
    27         68
    28          2
    29        107
    30          8
    31        131
    32         15
    33         30
    34         23
    35         32
    36          2
    37          7
    38         12
    39         54
    40          5
    41         55
    42          9
    43         30
    44         19
    45        320
    46         76
    47        316
    48         49
    49         20
    50          2
    53          5
    54          3
    55         27
    56          9
    57        417
    58        179
    59        999
    60        340
    61        142
    62         34
    63          9
    64         47
    65          8
    66         10
    67          3
    68          3
    69         12
    70          2
    71         41
    72         74
    73        109
    74         11
    75          6
    76         32
    77        139
    78         25
    79         28
    80          3
    81          2
    82          1
    85          1
    87          3
    88          3
    89          7
    90        497
    91         34
    92         47
    93        143
    94          8
    95         13
   103          1
   105          4
   106        363
   107         19
   108         33
   109          1
   110          1
   124         22
   125          1
   126          2