##TITLE=Library Entry 61920
##JCAMP-DX=Revision 4.10 
##DATA TYPE=MASS SPECTRUM
##SAMPLE DESCRIPTION=Virginia Division of Forensic Science
##NAMES=HP
##CAS NAME=Isocarboxazid
##MOLFORM=C12H13N3O2
##CAS REGISTRY NO=59-63-2
##MP= -300
##BP= -300
##MW= 231
##$RETENTION INDEX=1955
##$CONDENSED SPECTRUM=NO
##NPOINTS= 95
##XYDATA=(XY..XY) 1 
    15         10
    16          1
    18          6
    20          2
    25          1
    26          5
    27         14
    28         21
    29          9
    30         10
    31          3
    32          1
    37          3
    38          8
    39         45
    40         17
    41         25
    42         28
    43        167
    44         19
    45          2
    49          2
    50         23
    51         49
    52         18
    53          8
    54          7
    55          3
    61          1
    62          6
    63         25
    64          9
    65        116
    66         12
    67          8
    68         56
    69          5
    70         21
    71          6
    73          1
    74          5
    75          4
    76          7
    77         71
    78         27
    79         24
    80          2
    82          2
    83          9
    84         26
    85         10
    86          1
    89         25
    91        999
    92         91
    93          7
    94          1
    95          2
   102          2
   103         10
   104         72
   105         42
   106        265
   107         26
   108          1
   109         11
   110        234
   111         17
   112         39
   113         26
   114          1
   115          1
   116          1
   118          3
   119         10
   120         27
   121         15
   122          8
   125          1
   127        362
   128         27
   129          2
   130          3
   132          2
   133          1
   147          6
   148          4
   149          2
   160          2
   171          2
   172          2
   188         15
   189          6
   231         17
   232          2