##TITLE=Library Entry 13236
##JCAMP-DX=Revision 4.10 
##DATA TYPE=MASS SPECTRUM
##SAMPLE DESCRIPTION=Japan AIST/NIMC Database- Spectrum MS-NW-9996
##NAMES=HP
##CAS NAME=5-Acetamido-1,3,4-thiadiazole-2-sulfonamide
##MOLFORM=C4H6N4O3S2
##CAS REGISTRY NO=59-66-5
##MP= -300
##BP= -300
##MW= 222
##$RETENTION INDEX=0
##$CONDENSED SPECTRUM=NO
##NPOINTS= 135
##XYDATA=(XY..XY) 1 
    13          2
    14          8
    15         53
    16          8
    17         12
    18         66
    20          1
    26          2
    27         12
    28         21
    29          9
    30         12
    31          1
    32         11
    33          3
    34          3
    35          1
    36         10
    38          4
    39          5
    40          6
    41         29
    42         53
    43        999
    44         38
    45         46
    46         16
    47          7
    48         28
    49          1
    50          2
    51          1
    53          2
    54          4
    55         27
    56         14
    57         40
    58         14
    59         55
    60         20
    61          4
    62          1
    63          7
    64         59
    65          6
    66          4
    67          7
    68          7
    69         22
    70         15
    71         20
    72         12
    73         18
    74         27
    75          2
    76          4
    77          1
    79          1
    80         40
    81          4
    82          9
    83         20
    84          9
    85         11
    86          1
    87          1
    88         18
    89          2
    90          1
    91          7
    92          1
    93          2
    94          1
    95          2
    96          4
    97         16
    98          6
    99         35
   100         73
   101         11
   102          4
   105          2
   107          1
   109          1
   110          2
   111          9
   112          3
   113          2
   114         11
   115          4
   116         39
   117          5
   118          2
   119          1
   121          4
   123          1
   124          2
   125          3
   126          2
   127          1
   128          1
   129          1
   130          2
   133          1
   135          1
   138          1
   139          2
   140          1
   141          2
   142          1
   143          1
   147          1
   148          2
   149          1
   153          1
   154          1
   155          1
   157          1
   158          1
   159          1
   164          5
   167          1
   180        553
   181         42
   182         53
   183          4
   184          2
   194         98
   195          7
   196          9
   207          8
   222        121
   223         10
   224         12
   225          2