##TITLE=Library Entry 63421
##JCAMP-DX=Revision 4.10 
##DATA TYPE=MASS SPECTRUM
##SAMPLE DESCRIPTION=NIST Mass Spectrometry Data Center, 1998.
##NAMES=HP
##CAS NAME=Phenoxybenzamine
##MOLFORM=C18H22ClNO
##CAS REGISTRY NO=59-96-1
##MP= -300
##BP= -300
##MW= 303
##$RETENTION INDEX=2219
##$CONDENSED SPECTRUM=NO
##NPOINTS= 104
##XYDATA=(XY..XY) 1 
    26          1
    27          9
    29          3
    30          2
    38          3
    39         30
    40          3
    41         27
    42         25
    43          2
    44          1
    49          1
    50          7
    51         33
    52          5
    53          2
    54          7
    55          7
    56         66
    57          4
    58          1
    61          1
    62          2
    63         28
    64          6
    65        100
    66         10
    67          1
    68          4
    69          4
    70         17
    71          1
    72          3
    74          2
    75          2
    76          4
    77         95
    78         13
    79         13
    80          1
    82          1
    84          2
    88          1
    89         15
    90         16
    91        999
    92        101
    93          6
    94         11
    95          3
   102          1
   103          5
   104         16
   105         15
   106          6
   107         20
   108          3
   115          3
   116          1
   117          7
   118          7
   119          5
   120          2
   121          1
   127          1
   128          1
   129          1
   130          3
   131          2
   132         10
   133          8
   134          5
   135          4
   144          1
   145          1
   146          6
   147          1
   148          1
   152          1
   158          1
   160         10
   161          2
   162          2
   163          2
   165          1
   168          1
   170          1
   174          1
   180          1
   182          1
   183          1
   194          4
   196        606
   197         82
   198        208
   199         26
   200          1
   210          1
   226          1
   240          1
   254          7
   255          1
   268          6
   269          1