##TITLE=Library Entry 62723
##JCAMP-DX=Revision 4.10 
##DATA TYPE=MASS SPECTRUM
##SAMPLE DESCRIPTION=Tox21 Consortium/NIST Mass Spectrometry Data Center, 20
12
##NAMES=HP
##CAS NAME=1H-Imidazole, 4,5-dihydro-2-(phenylmethyl)-
##MOLFORM=C10H12N2
##CAS REGISTRY NO=59-98-3
##MP= -300
##BP= -300
##MW= 160
##$RETENTION INDEX=1477
##$CONDENSED SPECTRUM=NO
##NPOINTS= 78
##XYDATA=(XY..XY) 1 
    15          7
    27          8
    28         49
    29          5
    30          7
    37          3
    38          5
    39         41
    40         11
    41         18
    42         32
    43          9
    50         21
    51         58
    52         13
    54          8
    55          5
    56          4
    57          2
    62         19
    63         36
    64         12
    65        110
    66         17
    67          6
    69          4
    71          2
    72          2
    73          4
    74         17
    75         12
    76         15
    77         67
    78         22
    79         14
    81         90
    82         13
    85          2
    86          3
    88          7
    89         68
    90         38
    91        999
    92         95
    93          6
    98          2
   101          4
   102         21
   103         66
   104         32
   106         14
   107          3
   112          2
   114          2
   116         27
   117         33
   118         16
   120          3
   127          2
   128          7
   129          9
   130         61
   131        167
   132         38
   133          7
   134          2
   141          2
   142          3
   143          4
   145          2
   146          2
   156          8
   157         35
   158         24
   159        947
   160        237
   161         17
   162          3