##TITLE=Library Entry 29893
##JCAMP-DX=Revision 4.10 
##DATA TYPE=MASS SPECTRUM
##SAMPLE DESCRIPTION=Japan AIST/NIMC Database- Spectrum MS-IW-3853
##NAMES=HP
##CAS NAME=2-Pentanol, 2-methyl-
##MOLFORM=C6H14O
##CAS REGISTRY NO=590-36-3
##MP= -300
##BP= -300
##MW= 102
##$RETENTION INDEX=694
##$CONDENSED SPECTRUM=NO
##NPOINTS= 57
##XYDATA=(XY..XY) 1 
    14          1
    15         17
    18          2
    26          5
    27         74
    28         12
    29         59
    30          2
    31        175
    32          2
    33          1
    37          1
    38          6
    39         68
    40          9
    41        220
    42         21
    43        221
    44          8
    45        484
    46         10
    47          2
    50          3
    51          5
    52          4
    53         10
    54          2
    55         31
    56         26
    57         32
    58         36
    59        999
    60         53
    61          4
    62          1
    63          1
    65          2
    67          6
    68          1
    69        119
    70          7
    71         10
    72          1
    73          6
    74          1
    75          2
    78          1
    79          3
    83          3
    84         11
    85         27
    86          2
    87        375
    88         20
    89          1
    98          1
   103          1