##TITLE=Library Entry 69863
##JCAMP-DX=Revision 4.10 
##DATA TYPE=MASS SPECTRUM
##SAMPLE DESCRIPTION=Japan AIST/NIMC Database- Spectrum MS-NW-5331
##NAMES=HP
##CAS NAME=Cyclohexane, 1,1-dimethyl-
##MOLFORM=C8H16
##CAS REGISTRY NO=590-66-9
##MP= -300
##BP= -300
##MW= 112
##$RETENTION INDEX=791
##$CONDENSED SPECTRUM=NO
##NPOINTS= 54
##XYDATA=(XY..XY) 1 
    15          7
    26          4
    27         89
    28         15
    29         82
    30          2
    37          1
    38          6
    39        111
    40         21
    41        350
    42         52
    43        120
    44          4
    45          1
    46          2
    50          5
    51         13
    52          6
    53         42
    54         14
    55        719
    56        408
    57        131
    58          5
    62          1
    63          4
    65          9
    66          4
    67         37
    68         54
    69        492
    70        114
    71          8
    77          8
    78          2
    79          8
    80          2
    81         13
    82          3
    83         32
    84         53
    85          3
    91          4
    92          1
    93          1
    95          4
    96         47
    97        999
    98         79
    99          3
   111          1
   112         41
   113          4