##TITLE=Library Entry 8629
##JCAMP-DX=Revision 4.10 
##DATA TYPE=MASS SPECTRUM
##SAMPLE DESCRIPTION=NIST Mass Spectrometry Data Center
##NAMES=HP
##CAS NAME=CH3C(O)CH2CH2OH
##MOLFORM=C4H8O2
##CAS REGISTRY NO=590-90-9
##MP= -300
##BP= -300
##MW= 88
##$RETENTION INDEX=798
##$CONDENSED SPECTRUM=NO
##NPOINTS= 45
##XYDATA=(XY..XY) 1 
    13          4
    14         19
    15         90
    16          2
    18          3
    19         29
    25          5
    26         29
    27         91
    28         42
    29        106
    30          7
    31        165
    33          1
    36          2
    37          7
    38         10
    39         31
    40          8
    41         33
    42        137
    43        999
    44         41
    45        115
    46          3
    47          1
    50          4
    51          3
    53          4
    55         68
    56          2
    57         15
    58         45
    59          4
    60          5
    61        136
    62          2
    69         11
    70        210
    71         13
    73         78
    74          1
    87          5
    88        114
    89          6