##TITLE=Library Entry 32991
##JCAMP-DX=Revision 4.10 
##DATA TYPE=MASS SPECTRUM
##SAMPLE DESCRIPTION=Chemical Concepts
##NAMES=HP
##CAS NAME=2-Butynoic acid
##MOLFORM=C4H4O2
##CAS REGISTRY NO=590-93-2
##MP= -300
##BP= -300
##MW= 84
##$RETENTION INDEX=0
##$CONDENSED SPECTRUM=NO
##NPOINTS= 46
##XYDATA=(XY..XY) 1 
    23         13
    25         24
    26         41
    27         91
    28         17
    29         32
    30          3
    31          0
    33          1
    36         42
    37        166
    38        230
    39        602
    40         18
    41          7
    42          2
    43          8
    44         65
    45        107
    46          1
    47          0
    48          3
    49          7
    50          5
    51          3
    52          7
    53         40
    54          7
    55        103
    56        156
    57          6
    58          0
    59          0
    60          3
    62          0
    63          1
    64          2
    65          6
    66         64
    67        999
    68         44
    69          7
    83          1
    84        999
    85         66
    86          7