##TITLE=Library Entry 40504
##JCAMP-DX=Revision 4.10 
##DATA TYPE=MASS SPECTRUM
##SAMPLE DESCRIPTION=Japan AIST/NIMC Database- Spectrum MS-NW-4958
##NAMES=HP
##CAS NAME=Propanoic acid, 3-bromo-
##MOLFORM=C3H5BrO2
##CAS REGISTRY NO=590-92-1
##MP= -300
##BP= -300
##MW= 152
##$RETENTION INDEX=1024
##$CONDENSED SPECTRUM=NO
##NPOINTS= 76
##XYDATA=(XY..XY) 1 
    12          4
    13          7
    14         24
    15         21
    16          2
    17          7
    18         20
    19          5
    24          5
    25         22
    26        163
    27        588
    28        352
    29        234
    30          6
    31         26
    32          1
    35          1
    36         12
    37          3
    38          4
    39          1
    40          1
    41          6
    42         84
    43         64
    44         26
    45        305
    46         14
    47          6
    52          2
    53          9
    54          4
    55        165
    56          9
    57          1
    60          1
    67          2
    68          1
    71          6
    72         52
    73        999
    74         36
    75          5
    79         28
    80         72
    81         29
    82         69
    83          1
    91          2
    92          2
    93         14
    94          2
    95         12
   104          1
   105          5
   106         20
   107         81
   108         20
   109         78
   110          5
   117          1
   119          1
   126          1
   127          1
   128          1
   133          4
   134          1
   135         11
   136          2
   137          8
   151          2
   152         69
   153          5
   154         66
   155          3