##TITLE=Library Entry 23751
##JCAMP-DX=Revision 4.10 
##DATA TYPE=MASS SPECTRUM
##SAMPLE DESCRIPTION=Japan AIST/NIMC Database- Spectrum MS-NW-5849
##NAMES=HP
##CAS NAME=Propane, 2-isothiocyanato-2-methyl-
##MOLFORM=C5H9NS
##CAS REGISTRY NO=590-42-1
##MP= -300
##BP= -300
##MW= 115
##$RETENTION INDEX=0
##$CONDENSED SPECTRUM=NO
##NPOINTS= 66
##XYDATA=(XY..XY) 1 
    14          3
    15         26
    16          1
    18          3
    25          1
    26         11
    27         91
    28         20
    29        492
    30         10
    31          5
    32         11
    33          2
    34          2
    36          1
    37          8
    38         17
    39        175
    40         29
    41        771
    42         44
    43          4
    44         13
    45         12
    46          2
    47          1
    49          3
    50          9
    51          9
    52          9
    53         13
    54          5
    55         64
    56         72
    57        999
    58         49
    59         33
    60         25
    61          2
    62          2
    63          1
    64          1
    66          1
    68          4
    69          2
    70          9
    71          3
    72         74
    73          4
    74          5
    76          4
    82          1
    83          3
    84         14
    85          4
    86          4
    91          2
    98          2
    99          1
   100        153
   101          9
   102          7
   115        582
   116         41
   117         27
   118          2