##TITLE=Library Entry 22384
##JCAMP-DX=Revision 4.10 
##DATA TYPE=MASS SPECTRUM
##SAMPLE DESCRIPTION=Japan AIST/NIMC Database- Spectrum MS-NW-2174
##NAMES=HP
##CAS NAME=Acetic acid, chloro-, butyl ester
##MOLFORM=C6H11ClO2
##CAS REGISTRY NO=590-02-3
##MP= -300
##BP= -300
##MW= 150
##$RETENTION INDEX=1032
##$CONDENSED SPECTRUM=NO
##NPOINTS= 66
##XYDATA=(XY..XY) 1 
    13          3
    14         17
    15         21
    17          2
    18          7
    25          1
    26         19
    27        165
    28         91
    29        552
    30         11
    31         38
    32          2
    33          1
    35          2
    36          7
    37          3
    38          7
    39         90
    40         19
    41        682
    42        102
    43        108
    44         13
    45          8
    47          3
    48          9
    49        154
    50          9
    51         51
    52          2
    53          8
    54          8
    55        130
    56        999
    57        859
    58         37
    59          5
    60         16
    61          3
    69          7
    71         36
    72          7
    73         14
    74          1
    76         15
    77        428
    78         14
    79        131
    80          3
    83          2
    91          1
    94          6
    95         58
    96          3
    97         17
   101          4
   107         63
   108          5
   109         20
   110          1
   115          3
   120          1
   121          9
   122          1
   123          3