##TITLE=Library Entry 51994
##JCAMP-DX=Revision 4.10 
##DATA TYPE=MASS SPECTRUM
##SAMPLE DESCRIPTION=NIST Mass Spectrometry Data Center, 1990.
##NAMES=HP
##CAS NAME=2-Methyl-3-pentyn-2-ol
##MOLFORM=C6H10O
##CAS REGISTRY NO=590-38-5
##MP= -300
##BP= -300
##MW= 98
##$RETENTION INDEX=0
##$CONDENSED SPECTRUM=NO
##NPOINTS= 38
##XYDATA=(XY..XY) 1 
    15         14
    26         11
    27         44
    29         25
    31         10
    37         22
    38         44
    39        172
    40         39
    41         51
    42         10
    43        608
    44         17
    49          9
    50         48
    51         65
    52         30
    53         69
    54         13
    55         44
    58          9
    59         13
    61         18
    62         28
    63         50
    64         12
    65         52
    66         20
    67         39
    74         12
    77         79
    78         15
    79         93
    80        100
    81         39
    82         12
    83        999
    84         49