##TITLE=Library Entry 7774
##JCAMP-DX=Revision 4.10 
##DATA TYPE=MASS SPECTRUM
##SAMPLE DESCRIPTION=KONINKLIJKE SHELL LABORATORIUM AMSTERDAM
##NAMES=HP
##CAS NAME=2-Pentanone, 4,4-dimethyl-
##MOLFORM=C7H14O
##CAS REGISTRY NO=590-50-1
##MP= -300
##BP= -300
##MW= 114
##$RETENTION INDEX=758
##$CONDENSED SPECTRUM=NO
##NPOINTS= 81
##XYDATA=(XY..XY) 1 
    12          1
    13          3
    14         21
    15        136
    16          4
    17          5
    18         18
    19          0
    20          0
    25          0
    26         13
    27        125
    28         59
    29        142
    30          4
    31          3
    32          6
    33          0
    34          0
    36          0
    37          3
    38         10
    39        113
    40         18
    41        195
    42         28
    43        999
    44         24
    45          3
    46          0
    47          0
    48          0
    49          0
    50          6
    51          9
    52          3
    53         15
    54          3
    55         30
    56         40
    57        407
    58        320
    59         58
    60          2
    61          0
    62          0
    63          1
    64          0
    65          1
    66          0
    67          1
    68          0
    69          1
    70          2
    71         20
    72          1
    73          0
    74          0
    75          0
    76          0
    77          0
    78          0
    79          0
    80          0
    81          0
    82          0
    83          3
    84          0
    85          2
    86          5
    87          0
    95          0
    96          0
    97          0
    98          0
    99         36
   100          2
   101          0
   114         78
   115          6
   116          0