##TITLE=Library Entry 38455
##JCAMP-DX=Revision 4.10 
##DATA TYPE=MASS SPECTRUM
##SAMPLE DESCRIPTION=Chuck Anderson, Aldrich Chemical Co.
##NAMES=HP
##CAS NAME=Cyclohexanol, 1-methyl-
##MOLFORM=C7H14O
##CAS REGISTRY NO=590-67-0
##MP= -300
##BP= -300
##MW= 114
##$RETENTION INDEX=900
##$CONDENSED SPECTRUM=NO
##NPOINTS= 72
##XYDATA=(XY..XY) 1 
    14          0
    15         14
    17          0
    18          0
    19          1
    26          7
    27         79
    28         20
    29         65
    30          2
    31         19
    32          0
    36          1
    37          1
    38          5
    39         74
    40         13
    41         95
    42         29
    43        344
    44          9
    45         25
    46          0
    47          2
    48          1
    49          0
    50          3
    51          8
    52          3
    53         28
    54          9
    55         83
    56          8
    57         39
    58        255
    59         69
    60          2
    61          0
    62          1
    63          2
    65          6
    66          2
    67         18
    68          6
    69         13
    70          8
    71        999
    72        109
    73          6
    74          0
    77          6
    78          1
    79         23
    80          2
    81        147
    82         10
    83          3
    84          0
    85         65
    86          8
    87          0
    91          1
    93          0
    95          4
    96          9
    97         15
    98          1
    99        149
   100          8
   101          0
   114         37
   115          2