##TITLE=Library Entry 100245
##JCAMP-DX=Revision 4.10 
##DATA TYPE=MASS SPECTRUM
##SAMPLE DESCRIPTION=Japan AIST/NIMC Database- Spectrum MS-IW-4256
##NAMES=HP
##CAS NAME=Acetonitrile, bromo-
##MOLFORM=C2H2BrN
##CAS REGISTRY NO=590-17-0
##MP= -300
##BP= -300
##MW= 119
##$RETENTION INDEX=725
##$CONDENSED SPECTRUM=NO
##NPOINTS= 60
##XYDATA=(XY..XY) 1 
    12         10
    13         10
    14          9
    15          5
    24          3
    25          9
    26         19
    27         22
    28         31
    29         14
    30          1
    31          3
    36          1
    38         56
    39         73
    40        967
    41         66
    42         11
    43          9
    44          3
    45          7
    47          1
    48         10
    49          1
    50          4
    52          1
    57          2
    58          2
    59          9
    60          1
    70         19
    71          1
    72          4
    74          2
    75         15
    76          1
    77          5
    79        112
    80         40
    81        112
    82         41
    84          1
    91         62
    92         94
    93         75
    94         92
    95         14
    96          1
   103          1
   104          2
   105          2
   106          2
   107          1
   108          2
   117          9
   118         24
   119        999
   120         55
   121        975
   122         30