##TITLE=Library Entry 23984
##JCAMP-DX=Revision 4.10 
##DATA TYPE=MASS SPECTRUM
##SAMPLE DESCRIPTION=Exported from NIST MS Search
##NAMES=HP
##CAS NAME=Pentane, 2,2-dimethyl-
##MOLFORM=C7H16
##CAS REGISTRY NO=590-35-2
##MP= -300
##BP= -300
##MW= 100
##$RETENTION INDEX=626
##$CONDENSED SPECTRUM=NO
##NPOINTS= 57
##XYDATA=(XY..XY) 1 
     1          4
     2          1
    12          1
    13          1
    14          2
    15         43
    16          2
    25          1
    26          8
    27        191
    28         31
    29        279
    30          6
    33          1
    37          2
    38          5
    39        126
    40         21
    41        421
    42         25
    43        712
    44         24
    45          1
    46          1
    50          2
    51          6
    52          3
    53         19
    54          4
    55         48
    56        407
    57        999
    58         43
    59          1
    62          1
    63          1
    64          1
    65          2
    66          1
    67          4
    68          1
    69         15
    70          2
    71          6
    72          1
    77          1
    78          1
    79          1
    80          1
    81          1
    82          1
    83          1
    84          8
    85        333
    86         22
    87          1
   100          1