##TITLE=Library Entry 2199
##JCAMP-DX=Revision 4.10 
##DATA TYPE=MASS SPECTRUM
##SAMPLE DESCRIPTION=Japan AIST/NIMC Database- Spectrum MS-NW-2848
##NAMES=HP
##CAS NAME=1-Propene, 1-chloro-
##MOLFORM=C3H5Cl
##CAS REGISTRY NO=590-21-6
##MP= -300
##BP= -300
##MW= 76
##$RETENTION INDEX=490
##$CONDENSED SPECTRUM=NO
##NPOINTS= 39
##XYDATA=(XY..XY) 1 
    12          2
    13          2
    14          4
    15         14
    24          2
    25          8
    26         33
    27         51
    28         13
    29          2
    35          8
    36         19
    37         66
    38         91
    39        610
    40        136
    41        999
    42         32
    43          9
    44          3
    47         12
    48         12
    49         54
    50          5
    51         15
    58          2
    60          8
    61         21
    62          4
    63          7
    71          2
    72          5
    73         17
    74          5
    75         66
    76        424
    77         33
    78        137
    79          5