##TITLE=Library Entry 24857
##JCAMP-DX=Revision 4.10 
##DATA TYPE=MASS SPECTRUM
##SAMPLE DESCRIPTION=Chuck Anderson, Aldrich Chemical Co.
##NAMES=HP
##CAS NAME=Hexane, 2,2-dimethyl-
##MOLFORM=C8H18
##CAS REGISTRY NO=590-73-8
##MP= -300
##BP= -300
##MW= 114
##$RETENTION INDEX=720
##$CONDENSED SPECTRUM=NO
##NPOINTS= 62
##XYDATA=(XY..XY) 1 
    14          0
    15          5
    16          0
    25          0
    26          4
    27        102
    28         19
    29        192
    30          4
    36          0
    37          1
    38          4
    39        127
    40         21
    41        484
    42         27
    43        257
    44          8
    45          0
    46          0
    47          0
    48          0
    49          0
    50          4
    51         12
    52          4
    53         33
    54          7
    55        106
    56        634
    57        999
    58         41
    59          0
    62          0
    63          1
    64          0
    65          2
    66          0
    67          5
    68          1
    69         13
    70          6
    71         16
    72          0
    74          0
    75          0
    77          2
    78          0
    79          2
    80          0
    81          1
    82          0
    83          2
    84          0
    85          0
    91          0
    97          0
    98          5
    99        138
   100          9
   101          0
   114          1