##TITLE=Library Entry 27801
##JCAMP-DX=Revision 4.10 
##DATA TYPE=MASS SPECTRUM
##SAMPLE DESCRIPTION=H. Fales, LC, NHLBI, NIH, Bethesda, MD 20892
##NAMES=HP
##CAS NAME=Betaine Hydrochloride
##MOLFORM=C5H12ClNO2
##CAS REGISTRY NO=590-46-5
##MP= -300
##BP= -300
##MW= 153
##$RETENTION INDEX=0
##$CONDENSED SPECTRUM=NO
##NPOINTS= 61
##XYDATA=(XY..XY) 1 
    42        437
    44        271
    45         65
    46          1
    47          6
    50         82
    52         25
    53          2
    54          5
    55         13
    56         34
    58        999
    59        145
    60         11
    61          0
    67          2
    68          3
    69          5
    70          5
    71          1
    72         23
    73         49
    74         11
    76          1
    77          0
    81          1
    82          2
    84         10
    85          4
    86          3
    87          1
    88          6
    93          0
    95          1
    96          2
    97          2
    98          3
   100         10
   101          2
   103         40
   104          4
   110          0
   111          0
   113          1
   114          1
   116         18
   117         65
   118          6
   119          0
   124          1
   128          0
   129          2
   130          1
   132          0
   138          7
   140          4
   141          0
   152          1
   153         10
   155          3
   156          1