##TITLE=Library Entry 57024
##JCAMP-DX=Revision 4.10 
##DATA TYPE=MASS SPECTRUM
##SAMPLE DESCRIPTION=F.J. WINKLER, LEHRSTUHL ALLG. CHEM. BIOCHEM., FREISING,
 W. G
##NAMES=HP
##CAS NAME=3-cis-Methoxy-5-cis-methyl-1R-cyclohexanol
##MOLFORM=C8H16O2
##CAS REGISTRY NO=59013-92-2
##MP= -300
##BP= -300
##MW= 144
##$RETENTION INDEX=0
##$CONDENSED SPECTRUM=NO
##NPOINTS= 48
##XYDATA=(XY..XY) 1 
    39        320
    41        950
    42        220
    43        700
    44        470
    45        420
    53         60
    55        400
    56         50
    57        260
    58        760
    59        670
    61        180
    67        150
    68        430
    69        190
    70        130
    71        180
    72         40
    73        170
    79        100
    81         90
    83        110
    84        130
    85        650
    86         70
    87        999
    88         70
    89         60
    93         50
    94        260
    95        100
    96         90
    97        140
    98         40
    99         20
   101         60
   111        170
   112        180
   113         20
   114          5
   115         20
   125         60
   126        290
   127         20
   128         15
   129         40
   144         40