##TITLE=Library Entry 33697
##JCAMP-DX=Revision 4.10 
##DATA TYPE=MASS SPECTRUM
##SAMPLE DESCRIPTION=F.J. WINKLER, LEHRSTUHL ALLG. CHEM. BIOCHEM., FREISING,
 W. G
##NAMES=HP
##CAS NAME=3-trans-Methoxy-2-cis-methyl-1R-cyclohexanol
##MOLFORM=C8H16O2
##CAS REGISTRY NO=59013-88-6
##MP= -300
##BP= -300
##MW= 144
##$RETENTION INDEX=0
##$CONDENSED SPECTRUM=NO
##NPOINTS= 51
##XYDATA=(XY..XY) 1 
    39        100
    41        290
    42         50
    43        280
    44         80
    45        160
    53         50
    54         30
    55        220
    56        140
    57        140
    58        220
    59        100
    61        110
    67        100
    68        999
    69        140
    70         50
    71        200
    72         90
    73         60
    74         40
    79         40
    81         30
    83         60
    84         80
    85         30
    87        100
    93          5
    94        430
    95         60
    96         10
    97        140
    98         14
    99          9
   101        100
   102          8
   103          8
   110          6
   111         23
   112        270
   113         30
   114          4
   115          8
   125          3
   126         19
   127          4
   142          6
   143          1
   144         14
   145          4