##TITLE=Library Entry 40081
##JCAMP-DX=Revision 4.10 
##DATA TYPE=MASS SPECTRUM
##SAMPLE DESCRIPTION=F.J. WINKLER, LEHRSTUHL ALLG. CHEM. BIOCHEM., FREISING,
 W. G+
##NAMES=HP
##CAS NAME=1R,3-cis-Diethoxy-5-trans-methylcyclohexane
##MOLFORM=C11H22O2
##CAS REGISTRY NO=59013-90-0
##MP= -300
##BP= -300
##MW= 186
##$RETENTION INDEX=0
##$CONDENSED SPECTRUM=NO
##NPOINTS= 59
##XYDATA=(XY..XY) 1 
    39        120
    41        550
    42        100
    43        500
    44        460
    45        290
    47         50
    53         70
    54         60
    55        210
    56         50
    57        180
    58         70
    59         90
    67        160
    68        150
    69        160
    70         60
    71        340
    72        999
    73        200
    75         30
    77         20
    79         70
    81        480
    82         40
    83         40
    84         20
    85        120
    86         80
    87         50
    94        120
    95        390
    96        880
    97        190
    98         70
    99        370
   100         30
   101         60
   103         20
   111         80
   112        140
   113         70
   121         50
   125        180
   126         20
   127         10
   129        330
   130         30
   139         40
   140        120
   141         12
   142         70
   143         15
   149          2
   157          5
   171          3
   185          2
   186          5