##TITLE=Library Entry 28504
##JCAMP-DX=Revision 4.10 
##DATA TYPE=MASS SPECTRUM
##SAMPLE DESCRIPTION=F.J. WINKLER, LEHRSTUHL ALLG. CHEM. BIOCHEM., FREISING,
 W. G
##NAMES=HP
##CAS NAME=1R-Ethoxy-3-cis-methoxy-5-cis-methylcyclohexane
##MOLFORM=C10H20O2
##CAS REGISTRY NO=59013-94-4
##MP= -300
##BP= -300
##MW= 172
##$RETENTION INDEX=0
##$CONDENSED SPECTRUM=NO
##NPOINTS= 59
##XYDATA=(XY..XY) 1 
    39        220
    41        650
    42        160
    43        440
    45        390
    53        110
    54         40
    55        230
    56         30
    57        140
    58        999
    59        300
    61        100
    65         40
    67        140
    68        190
    69        170
    70         80
    71        610
    72        950
    73        150
    75         10
    77         40
    79         50
    81        200
    83         40
    84        210
    85        450
    86         70
    87        170
    88         10
    89         60
    91         20
    93         40
    94        210
    95        430
    96        700
    97        140
    98        100
    99        430
   100         50
   101         20
   111        230
   112        120
   113         50
   114         10
   115        550
   116         60
   125        200
   126        190
   127         26
   128         28
   129         10
   139         20
   140        430
   141         60
   142         35
   143         20
   172          2