##TITLE=Library Entry 33785
##JCAMP-DX=Revision 4.10 
##DATA TYPE=MASS SPECTRUM
##SAMPLE DESCRIPTION=F.J. WINKLER, LEHRSTUHL ALLG. CHEM. BIOCHEM., FREISING,
 W. G
##NAMES=HP
##CAS NAME=1R,3-trans-Dimethoxy-2-methylcyclohexane
##MOLFORM=C9H18O2
##CAS REGISTRY NO=59013-86-4
##MP= -300
##BP= -300
##MW= 158
##$RETENTION INDEX=0
##$CONDENSED SPECTRUM=NO
##NPOINTS= 51
##XYDATA=(XY..XY) 1 
    39        160
    41        520
    42        110
    43        340
    44         90
    45        340
    47         50
    53        100
    54         20
    55        220
    56         50
    57        110
    58        740
    59        250
    65         20
    67        140
    68        999
    69        120
    71        710
    72        300
    73         90
    75        430
    77         40
    79         70
    81         30
    83         40
    84         40
    85         80
    86         50
    87         50
    88         20
    91         20
    93         30
    94        540
    95        170
    96         20
    97        300
    98        100
    99         50
   101        160
   111        280
   112         40
   115        120
   116         10
   125         40
   126        940
   127        110
   128          7
   129         10
   143          5
   158         30