##TITLE=Library Entry 23121
##JCAMP-DX=Revision 4.10 
##DATA TYPE=MASS SPECTRUM
##SAMPLE DESCRIPTION=W.E. GORE, LEDERLE LAB., PEARL RIVER, NEW YORK,
##NAMES=HP
##CAS NAME=.alpha.-Multistriatin
##MOLFORM=C10H18O2
##CAS REGISTRY NO=59014-03-8
##MP= -300
##BP= -300
##MW= 170
##$RETENTION INDEX=0
##$CONDENSED SPECTRUM=NO
##NPOINTS= 16
##XYDATA=(XY..XY) 1 
    27        110
    29        280
    39         90
    41        130
    43         60
    55        210
    57        999
    71        130
    72         40
    81        100
    86         50
    96        150
    99         30
   128         90
   140         40
   170         40