##TITLE=Library Entry 33397
##JCAMP-DX=Revision 4.10 
##DATA TYPE=MASS SPECTRUM
##SAMPLE DESCRIPTION=F.J. WINKLER, LEHRSTUHL ALLG. CHEM. BIOCHEM., FREISING,
 W. G+
##NAMES=HP
##CAS NAME=1R,3-cis-Dimethoxy-2-trans-methylcyclohexane
##MOLFORM=C9H18O2
##CAS REGISTRY NO=59013-95-5
##MP= -300
##BP= -300
##MW= 158
##$RETENTION INDEX=0
##$CONDENSED SPECTRUM=NO
##NPOINTS= 53
##XYDATA=(XY..XY) 1 
    39        160
    41        510
    42        100
    43        320
    44         40
    45        360
    47         40
    53         90
    54         30
    55        190
    56         60
    57        140
    58        930
    59        330
    61         20
    65         20
    67        140
    68        999
    69        110
    71        890
    72        390
    73        100
    75        430
    77         30
    79         80
    81         40
    83         30
    84         40
    85         90
    86         80
    87        100
    88         20
    91         30
    93         30
    94        880
    95        190
    96        110
    97        360
    98         80
    99         70
   100         20
   101        240
   103         20
   111        120
   112         10
   115        110
   125         40
   126        640
   127         60
   128         70
   129         20
   143         20
   158         40