##TITLE=Library Entry 33784
##JCAMP-DX=Revision 4.10 
##DATA TYPE=MASS SPECTRUM
##SAMPLE DESCRIPTION=F.J. WINKLER, LEHRSTUHL ALLG. CHEM. BIOCHEM., FREISING,
 W. G+
##NAMES=HP
##CAS NAME=1R-Ethoxy-3-trans-methoxy-2-cis-methylcyclohexane
##MOLFORM=C10H20O2
##CAS REGISTRY NO=59013-89-7
##MP= -300
##BP= -300
##MW= 172
##$RETENTION INDEX=0
##$CONDENSED SPECTRUM=NO
##NPOINTS= 53
##XYDATA=(XY..XY) 1 
    39        200
    41        740
    42        100
    43        380
    44        240
    45        300
    53        120
    54         40
    55        380
    56         60
    57        500
    58        640
    59        230
    61        400
    67        190
    68        999
    69        170
    70         40
    71        600
    72        650
    73        140
    77         40
    79         90
    81         60
    83        160
    84         60
    85        320
    86        140
    87         70
    89        190
    93         30
    94        580
    95        250
    96         70
    97        360
    98        130
    99         70
   100         20
   111        540
   112         90
   113         20
   115         80
   125        120
   126        870
   127        100
   128         11
   129         80
   140        250
   141         21
   142          4
   143         30
   157          3
   172         10