##TITLE=Library Entry 23900
##JCAMP-DX=Revision 4.10 
##DATA TYPE=MASS SPECTRUM
##SAMPLE DESCRIPTION=A.A.Kutin, Moscow, Russia
##NAMES=HP
##CAS NAME=Azacyclohexan-3-one, 1-methyl-5-tert-butyl-
##MOLFORM=C10H19NO
##CAS REGISTRY NO=59024-83-8
##MP= -300
##BP= -300
##MW= 169
##$RETENTION INDEX=0
##$CONDENSED SPECTRUM=NO
##NPOINTS= 116
##XYDATA=(XY..XY) 1 
    34          0
    35          1
    36          6
    37          1
    38          7
    39        119
    40         41
    41        368
    42        422
    43         84
    44        264
    45          7
    46          0
    47          0
    48          1
    49          4
    50          3
    51         10
    52          5
    53         29
    54         10
    55         69
    57        999
    58         79
    59          2
    60          0
    62          1
    63          3
    64          1
    65          8
    66          5
    67         23
    68         16
    69         32
    70         18
    71          5
    72          2
    73          0
    74          0
    75          0
    76          0
    77          6
    78          2
    79         49
    80        110
    81         51
    82        141
    83         39
    84        329
    85         97
    86          7
    87          0
    88          0
    89          0
    90          0
    91          1
    92          2
    93          2
    94          7
    95          3
    96          7
    97          2
    98          6
    99          0
   100          1
   101          0
   102          0
   103          0
   104          0
   105          0
   106          1
   107          2
   108          2
   109          2
   110          5
   111          3
   112         20
   114          4
   115          1
   118          0
   119          0
   120          0
   121          0
   122          2
   124          4
   125          1
   126         54
   127          5
   128          0
   129          0
   130          0
   131          0
   133          0
   134          0
   135          1
   136          0
   137          0
   138          2
   139          2
   140        295
   141        149
   142         11
   143          1
   144          0
   151          1
   152          1
   153          1
   154         45
   155          4
   156          1
   167          1
   168          6
   169        204
   170         23
   171          3
   172          0