##TITLE=Library Entry 50050
##JCAMP-DX=Revision 4.10 
##DATA TYPE=MASS SPECTRUM
##SAMPLE DESCRIPTION=Chuck Anderson, Aldrich Chemical Co.
##NAMES=HP
##CAS NAME=Propanethioic acid, S-(2-furanylmethyl) ester
##MOLFORM=C8H10O2S
##CAS REGISTRY NO=59020-85-8
##MP= -300
##BP= -300
##MW= 170
##$RETENTION INDEX=0
##$CONDENSED SPECTRUM=NO
##NPOINTS= 58
##XYDATA=(XY..XY) 1 
    14          0
    15          0
    18          0
    26         11
    27         75
    28          9
    29        152
    30          3
    31          0
    32          1
    36          1
    37          2
    38          8
    39         23
    40          2
    41         10
    42          5
    43          1
    45         61
    46          4
    47          4
    49          1
    50         15
    51         32
    52         21
    53        136
    54          7
    55          4
    56          2
    57        261
    58         18
    59         12
    60          3
    61          3
    68          4
    69         15
    70          1
    71          2
    72          1
    73          3
    79          3
    80          1
    81        999
    82         52
    83          6
    84          5
    85         27
    86          1
    87          1
   111          4
   112         15
   113         56
   114         39
   115          4
   116          1
   170        127
   171         12
   172          7