##TITLE=Library Entry 20009
##JCAMP-DX=Revision 4.10 
##DATA TYPE=MASS SPECTRUM
##SAMPLE DESCRIPTION=D.HENNEBERG, MAX-PLANCK INSTITUTE, MULHEIM, WEST GERMAN
Y
##NAMES=HP
##CAS NAME=1,1'-Bicyclopropyl, 1,1'-dimethyl-
##MOLFORM=C8H14
##CAS REGISTRY NO=59020-33-6
##MP= -300
##BP= -300
##MW= 110
##$RETENTION INDEX=0
##$CONDENSED SPECTRUM=NO
##NPOINTS= 59
##XYDATA=(XY..XY) 1 
    22          1
    23          0
    24          0
    25          3
    26         23
    27        300
    28         37
    29        279
    30          6
    33          0
    37          9
    38         21
    39        381
    40         63
    41        599
    42         54
    43         18
    45          1
    46          0
    47          0
    48          0
    49          2
    50         23
    51         49
    52         25
    53        174
    54        217
    55        999
    56         93
    57          3
    61          1
    62          3
    63         12
    64          2
    65         42
    66         32
    67        848
    68        351
    69        146
    70          7
    73          0
    74          0
    75          2
    76          1
    77         30
    78          6
    79         46
    80         16
    81        303
    82        303
    83         19
    91          8
    92          0
    93          5
    94          0
    95        122
    96          8
   109          2
   110          0