##TITLE=Library Entry 2838
##JCAMP-DX=Revision 4.10 
##DATA TYPE=MASS SPECTRUM
##SAMPLE DESCRIPTION=NIST Mass Spectrometry Data Center, 1994
##NAMES=HP
##CAS NAME=Cyclododecyl isothiocyanate
##MOLFORM=C13H23NS
##CAS REGISTRY NO=59037-64-8
##MP= -300
##BP= -300
##MW= 225
##$RETENTION INDEX=0
##$CONDENSED SPECTRUM=NO
##NPOINTS= 102
##XYDATA=(XY..XY) 1 
    15         13
    27        243
    28         46
    29        373
    30         18
    39        303
    41        999
    42        124
    43        361
    44         23
    45         14
    50          3
    51         17
    52         13
    53        125
    54        138
    55        942
    56         92
    57        241
    58         55
    59         32
    60         32
    62          4
    63          4
    64          3
    65         28
    66          3
    67        271
    68         86
    69        614
    70         58
    71        122
    72        102
    73          8
    74          3
    75          4
    77         22
    78         15
    79         48
    80         25
    81        151
    82        116
    83        506
    84         50
    85        167
    86         47
    87         15
    88          4
    91         10
    93         14
    94         14
    95         83
    96         97
    97        537
    98         92
    99         21
   100         13
   101         10
   105          3
   107          4
   108         12
   109         50
   110         35
   111        271
   112         37
   113          7
   114         11
   115         19
   116          3
   121          4
   122         13
   123         18
   124         16
   125         46
   126         10
   127          6
   128         13
   129          6
   135          3
   136         15
   137          6
   138         12
   139          3
   140          6
   142          5
   150         24
   151          5
   154          3
   155          4
   164         13
   165          8
   166         29
   167         16
   168          5
   178         10
   182          3
   183          3
   192        233
   193         37
   224          4
   225         21
   226          4