##TITLE=Library Entry 42235
##JCAMP-DX=Revision 4.10 
##DATA TYPE=MASS SPECTRUM
##SAMPLE DESCRIPTION=H.NISHIMURA HOKKAIDO UNIV., SAPPORO, JAPAN
##NAMES=HP
##CAS NAME=Disulfide, methyl 1-propenyl
##MOLFORM=C4H8S2
##CAS REGISTRY NO=5905-47-5
##MP= -300
##BP= -300
##MW= 120
##$RETENTION INDEX=924
##$CONDENSED SPECTRUM=NO
##NPOINTS= 27
##XYDATA=(XY..XY) 1 
    39        428
    40         15
    41        635
    42         15
    43         83
    44        327
    45        665
    46         65
    47        120
    48         15
    49         15
    71        126
    72        318
    73        999
    74        120
    75        132
    79         85
    80        200
    87        225
    88         52
    89         43
   105        100
   106         15
   107         10
   120        775
   121         70
   122         73