##TITLE=Library Entry 64335
##JCAMP-DX=Revision 4.10 
##DATA TYPE=MASS SPECTRUM
##SAMPLE DESCRIPTION=Japan AIST/NIMC Database- Spectrum MS-IW-6548
##NAMES=HP
##CAS NAME=2-(p-(Benzyloxy)phenoxy)propionic acid
##MOLFORM=C16H16O4
##CAS REGISTRY NO=59058-37-6
##MP= -300
##BP= -300
##MW= 272
##$RETENTION INDEX=0
##$CONDENSED SPECTRUM=NO
##NPOINTS= 83
##XYDATA=(XY..XY) 1 
    17          2
    18          2
    26          5
    27          9
    28          4
    29          3
    38          2
    39         12
    40          1
    41          4
    43          4
    44          7
    45          6
    50          3
    51          7
    52          4
    53          7
    54          8
    55         15
    56          5
    62          2
    63         10
    64          9
    65         58
    66          4
    72          3
    73         12
    74          2
    75          1
    76          2
    77          4
    78          4
    79          2
    80          3
    81         12
    82          6
    89          9
    90          6
    91        999
    92         87
    93          3
    94          3
   105          1
   106          1
   107          3
   108         11
   109         84
   110         24
   111          1
   115          2
   116          1
   120          1
   121          2
   122          4
   128          1
   134          1
   135          1
   136          9
   137          1
   141          1
   148          1
   152          1
   153          2
   162          1
   164          2
   165          1
   169          1
   171          1
   181         32
   182          6
   183          1
   197          2
   198          2
   199          5
   200         10
   201          1
   226          6
   227          6
   228          1
   254          1
   272        281
   273         49
   274          6