##TITLE=Library Entry 6504
##JCAMP-DX=Revision 4.10 
##DATA TYPE=MASS SPECTRUM
##SAMPLE DESCRIPTION=JACSAT;99(1)223(1977); D.H. AUE, UNIV. OF CALIFORNIA, U
SA
##NAMES=HP
##CAS NAME=Tricyclo[3.2.1.0(2,4)]oct-6-ene, 3-(2-methyl-1-propenylidene)-
##MOLFORM=C12H14
##CAS REGISTRY NO=59055-14-0
##MP= -300
##BP= -300
##MW= 158
##$RETENTION INDEX=0
##$CONDENSED SPECTRUM=NO
##NPOINTS= 22
##XYDATA=(XY..XY) 1 
    27        270
    28         80
    29        210
    39        210
    41        410
    42        560
    43        999
    51         60
    55         60
    56         80
    57        200
    71         70
    72         70
    77         70
    79         80
    80         70
    91         80
   115         90
   128        160
   143        110
   158         70
   159         10