##TITLE=Library Entry 71498
##JCAMP-DX=Revision 4.10 
##DATA TYPE=MASS SPECTRUM
##SAMPLE DESCRIPTION=ATLAS OF MASS SPECTRA OF ORGANIC COMPOUNDS, V. A. KOPTY
UG, ED.
##NAMES=HP
##CAS NAME=1H-Azepin-1-amine, hexahydro-
##MOLFORM=C6H14N2
##CAS REGISTRY NO=5906-35-4
##MP= -300
##BP= -300
##MW= 114
##$RETENTION INDEX=0
##$CONDENSED SPECTRUM=NO
##NPOINTS= 40
##XYDATA=(XY..XY) 1 
    27        161
    29        100
    30        122
    31         29
    39        139
    40         28
    41        389
    42        561
    43        228
    44        550
    45        300
    46         54
    53         25
    54         27
    55        111
    56         71
    57         89
    58        289
    59        228
    60         22
    67         22
    68         44
    69        106
    70         38
    71        189
    72        283
    73         64
    82         16
    84         14
    85        500
    86        106
    87         11
    96         20
    97         14
    98        999
    99        644
   100          9
   113        233
   114        721
   115        111