##TITLE=Library Entry 43524
##JCAMP-DX=Revision 4.10 
##DATA TYPE=MASS SPECTRUM
##SAMPLE DESCRIPTION=Drug Lab
##NAMES=HP
##CAS NAME=Phenacetin, TMS Derivative
##MOLFORM=C13H21NO2Si
##CAS REGISTRY NO=59079-36-6
##MP= -300
##BP= -300
##MW= 251
##$RETENTION INDEX=0
##$CONDENSED SPECTRUM=NO
##NPOINTS= 146
##XYDATA=(XY..XY) 1 
    14          1
    15          5
    18          1
    26         12
    27         96
    28         34
    29        231
    30          6
    31          3
    32          1
    38          8
    39         43
    40          1
    41          2
    42         14
    43        188
    44         33
    45        215
    46         15
    47         48
    48          1
    50         19
    51         19
    52         23
    53         30
    54          8
    55         18
    56          3
    57         13
    58         17
    59         46
    60          8
    61         26
    62         12
    63         74
    64         89
    65        169
    66         13
    67          2
    68          1
    69          6
    70         10
    71          5
    72         21
    73        999
    74         99
    75        245
    76         54
    77         98
    78         38
    79         24
    80         19
    81         34
    82          4
    83         10
    84         16
    85          6
    86          9
    87          3
    89         13
    90         16
    91         39
    92         31
    93         60
    94         12
    95          7
    96          3
    97          1
    98          1
   100          5
   102          5
   103          5
   104         37
   105        109
   106         25
   107         46
   108         59
   109         38
   110          6
   111         10
   114         48
   115         32
   116        203
   117         38
   118         24
   119         10
   120         12
   121         12
   122          7
   123          6
   131          1
   132         22
   133        130
   134        173
   135         36
   136         58
   137         54
   138          6
   146          9
   147          3
   148         10
   149         12
   150         20
   151         12
   152         14
   153         58
   154          6
   160         12
   162        724
   163         86
   164         78
   165         38
   166         17
   167          6
   176          3
   178         11
   179         28
   180        128
   181         62
   182         17
   183          1
   190          2
   191          3
   192         26
   193         34
   194         14
   195          4
   206         26
   207         62
   208         56
   209          9
   210         19
   221          5
   222        269
   223         49
   224         13
   234          1
   236        907
   237        181
   238         52
   239          6
   250         36
   251        625
   252        125
   253         34
   254          3