##TITLE=Library Entry 44915
##JCAMP-DX=Revision 4.10 
##DATA TYPE=MASS SPECTRUM
##SAMPLE DESCRIPTION=J.E. WILKINSON S-CUBED, SAN DIEGO, CA.
##NAMES=HP
##CAS NAME=Biphenyl, 2,2',4,5',6-pentabromo-
##MOLFORM=C12H5Br5
##CAS REGISTRY NO=59080-39-6
##MP= -300
##BP= -300
##MW= 544
##$RETENTION INDEX=0
##$CONDENSED SPECTRUM=NO
##NPOINTS= 117
##XYDATA=(XY..XY) 1 
    49         19
    50        208
    51         33
    61        259
    62        189
    63         19
    72          0
    73        264
    74        999
    75        372
    76          2
    79         12
    81         12
    82          0
    84          4
    85        100
    86        137
    87         27
    97         40
    98        583
    99        409
   100         18
   101          3
   102          0
   104          6
   106          5
   109         50
   110        116
   111         63
   112          0
   113          0
   114        349
   115        298
   116         11
   117         11
   118          2
   119          7
   120          5
   121         19
   122        267
   123        283
   124         50
   128          8
   129          0
   130          9
   135          0
   141          1
   145          0
   146         72
   147         45
   148        283
   149        660
   150         45
   152          9
   153         58
   154        256
   155         50
   156          0
   178         15
   179          1
   180          8
   181          0
   191          0
   193         79
   194        327
   195        338
   196         71
   202          5
   204          4
   227          9
   228        947
   229        101
   230        905
   231         65
   232         12
   233        111
   234        199
   235        111
   236         14
   259          1
   260          0
   273          0
   274          6
   275          5
   276          0
   306          2
   307         19
   308         18
   309         57
   310          9
   311         17
   386        162
   387          6
   388        588
   389         34
   390        565
   391         34
   392        145
   393          2
   465         30
   467        251
   468         10
   469        401
   470         21
   471        240
   472          9
   473         29
   544          7
   546        118
   547          1
   548        274
   549         11
   550        259
   551         10
   552         97
   553          1
   554          5