##TITLE=Library Entry 46186
##JCAMP-DX=Revision 4.10 
##DATA TYPE=MASS SPECTRUM
##SAMPLE DESCRIPTION=J.E. WILKINSON S-CUBED, SAN DIEGO, CA.
##NAMES=HP
##CAS NAME=2,4',5-Tribromobiphenyl
##MOLFORM=C12H7Br3
##CAS REGISTRY NO=59080-36-3
##MP= -300
##BP= -300
##MW= 388
##$RETENTION INDEX=0
##$CONDENSED SPECTRUM=NO
##NPOINTS= 113
##XYDATA=(XY..XY) 1 
    47          0
    49         32
    50        385
    51        244
    52          5
    53          0
    55          1
    56          0
    60          0
    61        102
    62        257
    63        163
    64          3
    69          0
    72          0
    73         48
    74        487
    75        999
    76         22
    77         55
    78          0
    79          9
    80          2
    81          8
    82          2
    84          4
    85         34
    86        117
    87         97
    88          9
    89          1
    93          0
    95          0
    97         10
    98        193
    99        170
   100         66
   101        101
   102         15
   103          5
   104          2
   105          0
   106          2
   107          0
   109          6
   110         32
   111         55
   112          6
   113         14
   114          0
   115        258
   116        257
   117          4
   118          0
   119          5
   120          0
   121          2
   122         37
   123         32
   124         32
   125        116
   126         12
   127          0
   128          2
   129          1
   130          2
   131          0
   135          0
   141          0
   143          0
   146          1
   148          0
   149         59
   150        786
   151        797
   152         83
   153          2
   154         32
   155         64
   156         26
   179          2
   180          8
   181          2
   182          7
   186          0
   191          0
   194          1
   195          9
   196         10
   197          1
   204          5
   205          0
   206          5
   228          0
   229          0
   230        781
   231         90
   232        748
   233         77
   234          0
   260          0
   308          0
   310          2
   312          0
   346          0
   388        280
   389         22
   390        847
   391         95
   392        824
   393         91
   394        263
   395         18