##TITLE=Library Entry 83373
##JCAMP-DX=Revision 4.10 
##DATA TYPE=MASS SPECTRUM
##SAMPLE DESCRIPTION=LAC, NIDDK, NIH, Bethesda, MD 20892
##NAMES=HP
##CAS NAME=13,14-Dihydroabietic acid
##MOLFORM=C20H32O2
##CAS REGISTRY NO=59086-78-1
##MP= -300
##BP= -300
##MW= 304
##$RETENTION INDEX=0
##$CONDENSED SPECTRUM=NO
##NPOINTS= 169
##XYDATA=(XY..XY) 1 
    41        604
    43        963
    45         95
    47          7
    49         28
    51         32
    52          7
    53        141
    55        288
    57         62
    59         36
    60          1
    61          4
    63          3
    65         44
    67        281
    68         11
    69        239
    71         41
    73          7
    74          4
    77        249
    78         48
    79        460
    81        834
    82         93
    83         43
    84         19
    85          3
    86         19
    87         65
    88          2
    89          6
    91        321
    92         18
    93        330
    94        142
    95        509
    96         49
    97         64
    98          5
    99          7
   100          5
   101          7
   103         29
   105        259
   107        999
   108         67
   109        179
   110         15
   111         27
   113          9
   115         54
   116         18
   117         66
   118          4
   119         80
   121        474
   122         51
   123        231
   124         23
   125         40
   126          3
   127         10
   128         16
   129         27
   130          9
   131         68
   133        112
   135        166
   136        172
   137         49
   139        193
   140         19
   141         16
   142         11
   143         22
   145         56
   146          3
   147         53
   149        109
   150        218
   151         48
   152          4
   153         18
   155          8
   157         13
   159         80
   160         10
   161         40
   162         43
   163        206
   164         26
   166         46
   167        385
   168         41
   169         10
   171          8
   173         21
   174          2
   175         23
   177         22
   179         39
   180         22
   181         22
   182          4
   183          3
   185         10
   187        113
   188          6
   189         47
   190          8
   191         31
   193         29
   195         20
   197          6
   199          7
   201         23
   203         28
   205         25
   206          1
   207          5
   208          1
   213         15
   214          3
   215        382
   216         55
   217          7
   219          8
   220         11
   221          5
   222          7
   225         18
   229          2
   231          6
   233         13
   235          7
   239          6
   241          5
   243        175
   244         22
   245          8
   247          4
   253          6
   257          8
   258         29
   259        144
   260        125
   261        580
   262         62
   263         15
   264          2
   271         32
   272          7
   275          5
   276          1
   277          3
   287          9
   288          1
   289        273
   290         47
   291          5
   292          2
   302          7
   303         13
   304        355
   305         83
   306         32
   307          4