##TITLE=Library Entry 45801
##JCAMP-DX=Revision 4.10 
##DATA TYPE=MASS SPECTRUM
##SAMPLE DESCRIPTION=J.E. WILKINSON S-CUBED, SAN DIEGO, CA.
##NAMES=HP
##CAS NAME=2,4,6-Tribromobiphenyl
##MOLFORM=C12H7Br3
##CAS REGISTRY NO=59080-33-0
##MP= -300
##BP= -300
##MW= 388
##$RETENTION INDEX=0
##$CONDENSED SPECTRUM=NO
##NPOINTS= 107
##XYDATA=(XY..XY) 1 
    47          0
    49         28
    50        267
    51        356
    52         27
    53          0
    55          3
    57          0
    61        115
    62        227
    63        129
    64          3
    67          0
    69          2
    73         62
    74        441
    75        999
    77        146
    78          2
    79          6
    80          1
    81          7
    82          1
    84          5
    85         48
    86        121
    87         94
    88          8
    89          1
    93          0
    97         18
    98        256
    99        167
   100         44
   101         47
   102         20
   103          4
   104          2
   106          2
   109         12
   110         62
   111         81
   112          6
   113          5
   114         11
   115        189
   116        171
   117          0
   118          0
   119          1
   120          0
   121          5
   122         66
   123         50
   124         35
   125         98
   126         22
   127          0
   128          2
   130          2
   131          0
   135          0
   141          1
   142          1
   143          1
   146          1
   147          0
   148          0
   149         75
   150        993
   151        864
   152         97
   153          4
   154         72
   155        152
   156         46
   178          2
   180          4
   182          0
   191          1
   193          1
   194          0
   195          6
   196          6
   197          1
   202          0
   204          4
   206          1
   229          0
   230        905
   231        107
   232        878
   233         88
   234          0
   308          1
   309          0
   310          7
   311          1
   312          3
   388        308
   389         22
   390        930
   391        102
   392        911
   393         97
   394        290
   395         18