##TITLE=Library Entry 22437
##JCAMP-DX=Revision 4.10 
##DATA TYPE=MASS SPECTRUM
##SAMPLE DESCRIPTION=MUS122 A. Mujsce, AT&T Bell Labs., Murray Hill, N.J., U
SA
##NAMES=HP
##CAS NAME=Piperidine, 4-(4-methylphenyl)-
##MOLFORM=C12H17N
##CAS REGISTRY NO=59083-39-5
##MP= -300
##BP= -300
##MW= 175
##$RETENTION INDEX=0
##$CONDENSED SPECTRUM=NO
##NPOINTS= 100
##XYDATA=(XY..XY) 1 
    14         22
    15         12
    16         16
    26          1
    27         45
    29        161
    30        268
    31          3
    39        105
    40         19
    41         49
    42        148
    43        420
    44        222
    45          8
    46          1
    48          2
    50         25
    51         73
    52         26
    53         46
    54         25
    56        999
    57        776
    58         33
    61          4
    62         18
    63         63
    64         18
    65         96
    66         12
    67          7
    68        126
    69         60
    70         25
    71          4
    74          8
    75         15
    76         13
    77        104
    78         38
    79         33
    80         17
    82        117
    83        472
    84         38
    85          2
    86         22
    87         17
    89         39
    91        194
    92         29
    93          8
    96          1
    97          1
    98          1
    99          1
   101          6
   102         25
   103         48
   104         15
   105        106
   106         13
   107          3
   109          1
   113          3
   114          1
   115        169
   116         50
   117        226
   118        109
   119         53
   120         23
   121          3
   125          1
   126          4
   127         19
   128         54
   129         44
   130         28
   131         71
   132         83
   133         26
   134         11
   141          7
   142          7
   143         41
   144         19
   145         18
   146         32
   147          6
   157          6
   158          6
   160         15
   172          4
   173          3
   174        134
   175        431
   176         58
   177          4