##TITLE=Library Entry 98847
##JCAMP-DX=Revision 4.10 
##DATA TYPE=MASS SPECTRUM
##SAMPLE DESCRIPTION=A.A.Kutin, Moscow, Russia
##NAMES=HP
##CAS NAME=1-(2-Nitrophenyl)piperazine
##MOLFORM=C10H13N3O2
##CAS REGISTRY NO=59084-06-9
##MP= -300
##BP= -300
##MW= 207
##$RETENTION INDEX=0
##$CONDENSED SPECTRUM=NO
##NPOINTS= 158
##XYDATA=(XY..XY) 1 
    33          2
    34          2
    35          3
    36          9
    37         17
    38         48
    39        162
    40         71
    41        171
    42        708
    43        217
    44        387
    45         22
    46          5
    47          4
    48          3
    50        166
    51        346
    52        113
    53         37
    54         93
    55        119
    56        753
    57        334
    58         60
    59         13
    60          8
    61          9
    62         27
    63         97
    64         85
    65        237
    66         55
    67         24
    68         23
    69         26
    70         16
    71         28
    72         78
    73         27
    74         33
    75         43
    76        115
    77        582
    78        246
    79        110
    80         79
    81         33
    82         10
    83         24
    84          9
    85         21
    86         18
    87         23
    88          6
    89         41
    90         67
    91        340
    92        242
    93        108
    94         67
    95         15
    96          6
    97          9
    98          6
    99          5
   100          3
   101          4
   102         24
   103         66
   104        323
   105        372
   106        203
   107        133
   108         28
   109         15
   110          4
   111          5
   112          3
   113          3
   114          3
   115         10
   116         33
   117         83
   118        318
   119        999
   120        140
   121         99
   122         35
   123          9
   124          3
   125          3
   126          1
   127          3
   128          8
   129         13
   130         69
   131        351
   132        231
   133        181
   134        102
   135        407
   136         48
   137          6
   138          1
   141          3
   142          6
   143         23
   144         27
   145        103
   146         48
   147        101
   148         57
   149         26
   150          6
   151          7
   152          4
   153          1
   154          1
   155          5
   156          4
   157         16
   158         38
   159         60
   160        304
   161        119
   162         80
   163         15
   165        441
   166         37
   167          5
   169          7
   170          9
   171          9
   172         66
   173         26
   174         13
   176         54
   177        163
   178         26
   179          2
   182          2
   183          0
   184          1
   185          2
   187          6
   188         24
   189          8
   190          8
   191          6
   193          1
   195          1
   197          1
   198          1
   200          0
   207        140
   208         17
   209          2