##TITLE=Library Entry 57958
##JCAMP-DX=Revision 4.10 
##DATA TYPE=MASS SPECTRUM
##SAMPLE DESCRIPTION=NIST Mass Spectrometry Data Center
##NAMES=HP
##CAS NAME=Docosanoic acid, ethyl ester
##MOLFORM=C24H48O2
##CAS REGISTRY NO=5908-87-2
##MP= -300
##BP= -300
##MW= 368
##$RETENTION INDEX=2594
##$CONDENSED SPECTRUM=NO
##NPOINTS= 151
##XYDATA=(XY..XY) 1 
    26          1
    27          9
    28          5
    29         53
    30          2
    38          1
    39         11
    40          3
    41        172
    42         43
    43        359
    44         11
    45         33
    46          1
    50          1
    53         10
    54         20
    55        280
    56         58
    57        278
    58         21
    59         12
    60         71
    61         84
    62          2
    65          3
    66          1
    67         52
    68         24
    69        208
    70        161
    71        158
    72          9
    73        139
    74         18
    75          7
    78          1
    79         10
    80          8
    81         48
    82         19
    83        145
    84         51
    85         77
    86          6
    87         22
    88        999
    89        246
    90         13
    91          6
    93          7
    94          6
    95         38
    96         15
    97        120
    99         17
   100          1
   101        707
   102         60
   103          6
   104          1
   105          4
   107         13
   108          7
   109         33
   110         12
   111         64
   113         11
   114          2
   115         85
   116         11
   117          2
   118          1
   119          6
   121         23
   122          4
   123         17
   124          6
   125         34
   126         10
   127          7
   128          5
   129         45
   130         19
   131          2
   133          5
   134          2
   135         23
   136          6
   137          6
   138          7
   139         19
   141          4
   142          2
   143         83
   144         23
   145          4
   147          5
   149         16
   151          7
   153          7
   155         13
   156          2
   157        236
   158         26
   159          5
   163          8
   164          6
   167          6
   169          2
   171         28
   172          7
   185         14
   186          4
   187          4
   199         34
   200          7
   213         52
   214          9
   227         19
   228          5
   241          6
   255         19
   256          5
   269         51
   270         11
   271          4
   272          1
   283         54
   284         35
   285          5
   297         15
   298          6
   299          2
   311         19
   312          7
   321          8
   322          3
   323         67
   324         15
   325        146
   326         37
   327          3
   328          1
   339         23
   340          6
   367          1
   368        298
   369         81
   370         12
   371          1