##TITLE=Library Entry 100796
##JCAMP-DX=Revision 4.10 
##DATA TYPE=MASS SPECTRUM
##SAMPLE DESCRIPTION=Chemical Concepts
##NAMES=HP
##CAS NAME=1,3-Dithiane, 2-heptyl-
##MOLFORM=C11H22S2
##CAS REGISTRY NO=59092-72-7
##MP= -300
##BP= -300
##MW= 218
##$RETENTION INDEX=0
##$CONDENSED SPECTRUM=NO
##NPOINTS= 119
##XYDATA=(XY..XY) 1 
    26          1
    27         32
    28          2
    29         40
    30          0
    35          0
    38          0
    39         29
    40          3
    41        122
    42          9
    43         37
    44          1
    45         61
    46         22
    47         31
    48          1
    49          1
    51          1
    52          0
    53          9
    54          6
    55         59
    56          5
    57          7
    58          6
    59         22
    60         48
    61         24
    62          2
    63          1
    64          4
    65          4
    66          3
    67         30
    68         10
    69         53
    70          3
    71         10
    72          5
    73         61
    74         65
    75         32
    76          4
    77          4
    78          3
    79          7
    80          1
    81         18
    82          6
    83          5
    84          1
    85         12
    86          2
    87         49
    88          4
    89          4
    90          0
    91         13
    92          2
    93          2
    95          6
    96          0
    97          2
    98          0
    99          3
   100          2
   101         23
   102          2
   103          3
   104          0
   105         21
   106         52
   107         29
   108         13
   109          9
   110         15
   111         12
   112          0
   113          1
   115          3
   116          0
   117          0
   119        999
   120         59
   121         89
   122          4
   123          2
   129          0
   132          0
   133         22
   134         18
   135          3
   136          1
   141          0
   143        111
   144         21
   145          8
   146          1
   147          7
   148          0
   149          1
   157          1
   161          0
   163          1
   171         10
   172          1
   173          0
   175          1
   176          0
   183          0
   185          3
   189          1
   217          3
   218        306
   219         42
   220         29
   221          3
   222          0