##TITLE=Library Entry 63751
##JCAMP-DX=Revision 4.10 
##DATA TYPE=MASS SPECTRUM
##SAMPLE DESCRIPTION=A.A.Kutin, Moscow, Russia
##NAMES=HP
##CAS NAME=Barbituric acid, 5-benzyl-
##MOLFORM=C11H10N2O3
##CAS REGISTRY NO=5909-45-5
##MP= -300
##BP= -300
##MW= 218
##$RETENTION INDEX=0
##$CONDENSED SPECTRUM=NO
##NPOINTS= 88
##XYDATA=(XY..XY) 1 
    41          7
    43         26
    44         29
    45          1
    50         15
    51         88
    52         42
    53          2
    54          1
    55         13
    57          9
    59         15
    60          4
    61          4
    62          1
    63         21
    64          8
    65         69
    66         11
    67          2
    68          5
    69          2
    70          9
    71          1
    72          8
    73          2
    76          0
    77          3
    78         89
    83          9
    85         11
    86         13
    87          3
    88          4
    89         15
    91        999
    92         72
    95         15
    97          7
   101          4
   102         16
   103         79
   104         13
   107         42
   110         17
   113          1
   114          4
   118         14
   119         16
   120          3
   122          0
   125          0
   126          5
   127          4
   128         53
   129          2
   130         11
   131         92
   132         14
   133          2
   145         17
   146        129
   147         14
   148          5
   150          2
   151          2
   156         19
   158          8
   162         21
   164         10
   165          3
   172          9
   174          3
   177          0
   180         12
   181          2
   184          6
   189          9
   190         25
   191          5
   197          0
   199          0
   207         10
   213         12
   217          4
   218        401
   219         47
   220         14