##TITLE=Library Entry 18998
##JCAMP-DX=Revision 4.10 
##DATA TYPE=MASS SPECTRUM
##SAMPLE DESCRIPTION=Japan AIST/NIMC Database- Spectrum MS-NW-5391
##NAMES=HP
##CAS NAME=4-Pentenoic acid
##MOLFORM=C5H8O2
##CAS REGISTRY NO=591-80-0
##MP= -300
##BP= -300
##MW= 100
##$RETENTION INDEX=0
##$CONDENSED SPECTRUM=NO
##NPOINTS= 62
##XYDATA=(XY..XY) 1 
    14          9
    15         21
    17          3
    18         11
    25          4
    26         79
    27        385
    28        169
    29        365
    30         17
    31         25
    32          1
    37         20
    38         41
    39        433
    40         47
    41        519
    42         89
    43        294
    44         41
    45        122
    46          9
    47          6
    49         14
    50         50
    51         58
    52         24
    53        158
    54        406
    55        999
    56        200
    57        128
    58        246
    59         12
    60        101
    61          4
    67         16
    68          9
    69          8
    70          8
    71         23
    72         19
    73         56
    74          1
    77          7
    79         12
    80         12
    81         33
    82        125
    83         48
    84          4
    85         24
    86          1
    93          4
    94          9
    95         25
    96          2
    97         11
    98          9
    99         46
   100        217
   101         15