##TITLE=Library Entry 50155
##JCAMP-DX=Revision 4.10 
##DATA TYPE=MASS SPECTRUM
##SAMPLE DESCRIPTION=Japan AIST/NIMC Database- Spectrum MS-NW-9258
##NAMES=HP
##CAS NAME=Cyclohexene, 1-methyl-
##MOLFORM=C7H12
##CAS REGISTRY NO=591-49-1
##MP= -300
##BP= -300
##MW= 96
##$RETENTION INDEX=766
##$CONDENSED SPECTRUM=NO
##NPOINTS= 55
##XYDATA=(XY..XY) 1 
    15          2
    26          4
    27         63
    28         10
    29         39
    30          1
    37          2
    38          8
    39        124
    40         35
    41        106
    42         18
    43          7
    44          1
    45          6
    46          8
    47          1
    50         12
    51         32
    52         17
    53        125
    54        156
    55        283
    56         17
    57          1
    58          1
    61          1
    62          5
    63         10
    64          2
    65         36
    66         28
    67        415
    68        359
    69         23
    70          1
    71          1
    74          1
    75          1
    77         52
    78         10
    79        113
    80         17
    81        999
    82         68
    83          4
    89          2
    91         23
    92          4
    93         12
    94          5
    95         80
    96        413
    97         39
    98          2