##TITLE=Library Entry 24932
##JCAMP-DX=Revision 4.10 
##DATA TYPE=MASS SPECTRUM
##SAMPLE DESCRIPTION=V.Zaikin,Topchiev Inst.Petrochem.Synth.,Moscow
##NAMES=HP
##CAS NAME=Pentanoic acid, butyl ester
##MOLFORM=C9H18O2
##CAS REGISTRY NO=591-68-4
##MP= -300
##BP= -300
##MW= 158
##$RETENTION INDEX=1098
##$CONDENSED SPECTRUM=NO
##NPOINTS= 59
##XYDATA=(XY..XY) 1 
    27        150
    28         65
    29        538
    30         18
    31         31
    34          3
    36          3
    37          5
    38         13
    39        242
    40         46
    41        735
    42        151
    43        149
    44         49
    45         60
    46          4
    47          3
    50         10
    51         21
    52         10
    53         37
    54         14
    55        231
    56        835
    57        999
    58         36
    59         20
    60        234
    61         68
    68          2
    69          7
    70          3
    71         11
    73        148
    74         20
    75         33
    76          3
    77          3
    83         10
    84         14
    85        809
    86         52
    87         20
    89          3
    95          2
    98          4
   100          2
   101         22
   102         29
   103        476
   104         35
   105          5
   115         19
   116         18
   128          3
   129          8
   130          2
   158          1