##TITLE=Library Entry 23129
##JCAMP-DX=Revision 4.10 
##DATA TYPE=MASS SPECTRUM
##SAMPLE DESCRIPTION=Exported from NIST MS Search
##NAMES=HP
##CAS NAME=Propanoic acid, 1-methylpropyl ester
##MOLFORM=C7H14O2
##CAS REGISTRY NO=591-34-4
##MP= -300
##BP= -300
##MW= 130
##$RETENTION INDEX=869
##$CONDENSED SPECTRUM=NO
##NPOINTS= 38
##XYDATA=(XY..XY) 1 
    15          6
    18          1
    19          4
    26          6
    27         57
    28         20
    29        321
    30         10
    31          9
    39         23
    40          4
    41        159
    42         13
    43         27
    44          5
    45         27
    46          2
    53          4
    54          2
    55         31
    56        190
    57        999
    58         39
    59          6
    72          1
    73         39
    74         26
    75        109
    76          5
    86         14
    87         11
   101        103
   102          6
   115         18
   116          2
   129          1
   130          3
   131          1