##TITLE=Library Entry 69818
##JCAMP-DX=Revision 4.10 
##DATA TYPE=MASS SPECTRUM
##SAMPLE DESCRIPTION=NIST Mass Spectrometry Data Center, 1990.
##NAMES=HP
##CAS NAME=Cyclohexane, 1,3-dimethyl-
##MOLFORM=C8H16
##CAS REGISTRY NO=591-21-9
##MP= -300
##BP= -300
##MW= 112
##$RETENTION INDEX=796
##$CONDENSED SPECTRUM=NO
##NPOINTS= 40
##XYDATA=(XY..XY) 1 
    14          1
    15         21
    18          8
    26         14
    27        180
    28         68
    29        111
    32         11
    39        243
    40         39
    41        380
    42        163
    43         94
    44          5
    50         12
    51         23
    52         12
    53         66
    54          5
    55        916
    56        176
    57         35
    63          8
    65         19
    67         52
    68         26
    69        212
    70         80
    71         18
    77         14
    79         15
    81         24
    82         13
    83         44
    84         24
    95         10
    97        999
    98         73
   112        293
   113         28