##TITLE=Library Entry 11486
##JCAMP-DX=Revision 4.10 
##DATA TYPE=MASS SPECTRUM
##SAMPLE DESCRIPTION=Japan AIST/NIMC Database- Spectrum MS-NW-5012
##NAMES=HP
##CAS NAME=Acetamide, N-(aminothioxomethyl)-
##MOLFORM=C3H6N2OS
##CAS REGISTRY NO=591-08-2
##MP= -300
##BP= -300
##MW= 118
##$RETENTION INDEX=0
##$CONDENSED SPECTRUM=NO
##NPOINTS= 73
##XYDATA=(XY..XY) 1 
    12          6
    13         11
    14         45
    15        118
    16         25
    17         30
    18          4
    24          1
    25          3
    26         11
    27         48
    28         58
    29         11
    30          6
    31          3
    32         72
    33         28
    34         58
    35          2
    36          6
    38          9
    39         17
    40         43
    41         92
    42        159
    43        999
    44         87
    45         10
    46          7
    47          9
    48         14
    49          2
    50          1
    51          1
    52          1
    53          2
    54          2
    55          1
    56          1
    57          1
    58         25
    59        142
    60         98
    61          9
    62          5
    64          2
    66          3
    67          1
    69          8
    70          3
    71          1
    72          4
    74          2
    75         15
    76        342
    77         12
    78         15
    80          2
    82          1
    85          2
    86          7
    90         16
    91          2
    92          1
    97          1
   101          8
   102          1
   103          1
   117          1
   118        531
   119         27
   120         27
   121          1