##TITLE=Library Entry 21185
##JCAMP-DX=Revision 4.10 
##DATA TYPE=MASS SPECTRUM
##SAMPLE DESCRIPTION=Exported from NIST MS Search
##NAMES=HP
##CAS NAME=2(5H)-Furanone, 5-methyl-
##MOLFORM=C5H6O2
##CAS REGISTRY NO=591-11-7
##MP= -300
##BP= -300
##MW= 98
##$RETENTION INDEX=942
##$CONDENSED SPECTRUM=NO
##NPOINTS= 65
##XYDATA=(XY..XY) 1 
    12          1
    13          5
    14         13
    15         46
    16          2
    17          1
    18          7
    24          2
    25         20
    26        194
    27        331
    28         98
    29        123
    30          2
    31          3
    32         15
    36          4
    37         25
    38         33
    39        139
    40         12
    41         76
    42         46
    43        660
    44         30
    45         24
    48          3
    49         18
    50         51
    51         36
    52         15
    53         74
    54        276
    55        999
    56         56
    57         12
    58          8
    59          1
    60          5
    61          1
    68          4
    69        152
    70         36
    71          5
    72          2
    73          3
    77          1
    78          1
    79          1
    81          1
    82         11
    83        592
    84         28
    85          4
    86          1
    87          7
    88          3
    91          3
    97         23
    98        704
    99         56
   100          5
   101          1
   102          7
   103          2