##TITLE=Library Entry 3966
##JCAMP-DX=Revision 4.10 
##DATA TYPE=MASS SPECTRUM
##SAMPLE DESCRIPTION=NIST Mass Spectrometry Data Center
##NAMES=HP
##CAS NAME=Isobutyl isothiocyanate
##MOLFORM=C5H9NS
##CAS REGISTRY NO=591-82-2
##MP= -300
##BP= -300
##MW= 115
##$RETENTION INDEX=926
##$CONDENSED SPECTRUM=NO
##NPOINTS= 78
##XYDATA=(XY..XY) 1 
    12          3
    13          5
    14         18
    15         91
    16          3
    17          1
    18          4
    25          4
    26         49
    27        380
    28        119
    29        343
    30         12
    32         50
    33          6
    34          6
    35          1
    36          4
    37         31
    38         77
    39        490
    40         91
    41        999
    42         60
    43        448
    44         79
    45        192
    46         71
    47         13
    48          4
    49          6
    50         20
    51         21
    52         14
    53         22
    54         10
    55         72
    56        173
    57        452
    58         58
    59         13
    60         24
    61          2
    62          2
    63          2
    64          4
    65          1
    66          1
    67          2
    68          3
    69          7
    70         41
    71         46
    72        421
    73        375
    74         20
    75         17
    76          2
    78          1
    80          1
    81          1
    82          3
    83          3
    84          7
    85          9
    86         23
    87          5
    88          1
    96          1
    98          6
    99          4
   100         18
   101          1
   102          1
   115        906
   116         55
   117         40
   118          2