##TITLE=Library Entry 49988
##JCAMP-DX=Revision 4.10 
##DATA TYPE=MASS SPECTRUM
##SAMPLE DESCRIPTION=Japan AIST/NIMC Database- Spectrum MS-NW-4941
##NAMES=HP
##CAS NAME=Cyclohexene, 4-methyl-
##MOLFORM=C7H12
##CAS REGISTRY NO=591-47-9
##MP= -300
##BP= -300
##MW= 96
##$RETENTION INDEX=740
##$CONDENSED SPECTRUM=NO
##NPOINTS= 58
##XYDATA=(XY..XY) 1 
    15         13
    26         15
    27        140
    28         21
    29         72
    30          2
    36         12
    37          7
    38         18
    39        259
    40         39
    41        167
    42         38
    43          6
    44          1
    45          3
    46          3
    49          2
    50         21
    51         46
    52         23
    53        144
    54        638
    55        391
    56         25
    57          2
    58          1
    61          3
    62          6
    63         12
    64          3
    65         37
    66         29
    67        334
    68        309
    69         20
    70          5
    71          1
    73          1
    74          3
    75          1
    76          1
    77         49
    78         12
    79        101
    80         16
    81        999
    82         69
    83          3
    89          1
    91         14
    92          5
    93          8
    94          4
    95         67
    96        407
    97         34
    98          3