##TITLE=Library Entry 50116
##JCAMP-DX=Revision 4.10 
##DATA TYPE=MASS SPECTRUM
##SAMPLE DESCRIPTION=B. Derendyaev, Novosibirsk Institute of Organic Chemist
ry
##NAMES=HP
##CAS NAME=Cyclohexene, 3-methyl-
##MOLFORM=C7H12
##CAS REGISTRY NO=591-48-0
##MP= -300
##BP= -300
##MW= 96
##$RETENTION INDEX=739
##$CONDENSED SPECTRUM=NO
##NPOINTS= 55
##XYDATA=(XY..XY) 1 
    14          1
    15          6
    25          1
    26          9
    27        160
    28         11
    29         63
    30          1
    37          3
    38         10
    39        261
    40         49
    41        168
    42         20
    43          4
    45          3
    46          3
    49          1
    50         15
    51         52
    52         28
    53        177
    54        185
    55        278
    56         12
    57          1
    61          1
    62          4
    63         10
    64          3
    65         40
    66         37
    67        346
    68        312
    69         14
    70          1
    74          1
    75          2
    76          1
    77         63
    78         13
    79        134
    80         19
    81        999
    82         54
    83          2
    89          1
    91         14
    92          2
    93          7
    94          2
    95         54
    96        287
    97         18
    98          1