##TITLE=Library Entry 85836
##JCAMP-DX=Revision 4.10 
##DATA TYPE=MASS SPECTRUM
##SAMPLE DESCRIPTION=Japan AIST/NIMC Database- Spectrum MS-IW-4311
##NAMES=HP
##CAS NAME=Phenol, 3-amino-
##MOLFORM=C6H7NO
##CAS REGISTRY NO=591-27-5
##MP= -300
##BP= -300
##MW= 109
##$RETENTION INDEX=1335
##$CONDENSED SPECTRUM=NO
##NPOINTS= 60
##XYDATA=(XY..XY) 1 
    14          1
    15          1
    17          1
    18          4
    26          3
    27         16
    28          5
    29          4
    30          3
    31          1
    37          6
    38         13
    39         37
    40         19
    41         25
    42         16
    43          5
    44          5
    45          1
    49          2
    50          9
    51         16
    52         27
    53         66
    54         42
    55         13
    56          2
    60          1
    61          4
    62          8
    63         23
    64         31
    65         22
    66         14
    67          6
    68         30
    69         11
    70          7
    74          1
    75          2
    76          2
    77          2
    78          5
    79          6
    80        244
    81        142
    82         47
    83          5
    89          1
    90          2
    91         18
    92          9
    93          1
    94          5
   106          8
   107          7
   108         48
   109        999
   110         75
   111          4