##TITLE=Library Entry 47652
##JCAMP-DX=Revision 4.10 
##DATA TYPE=MASS SPECTRUM
##SAMPLE DESCRIPTION=Chuck Anderson, Aldrich Chemical Co.
##NAMES=HP
##CAS NAME=Benzene, iodo-
##MOLFORM=C6H5I
##CAS REGISTRY NO=591-50-4
##MP= -300
##BP= -300
##MW= 204
##$RETENTION INDEX=1080
##$CONDENSED SPECTRUM=NO
##NPOINTS= 39
##XYDATA=(XY..XY) 1 
    25          1
    26          6
    27         27
    28          0
    36          4
    37         30
    38         34
    39         29
    40          0
    48          1
    49         21
    50        178
    51        275
    52         11
    60          1
    61          4
    62          5
    63          1
    72          1
    73         20
    74         83
    75         43
    76         51
    77        999
    78         69
    79          1
   127         73
   128          3
   139          0
   152          3
   153          0
   164          0
   165          0
   176          1
   177          0
   203          1
   204        745
   205         44
   206          0