##TITLE=Library Entry 62931
##JCAMP-DX=Revision 4.10 
##DATA TYPE=MASS SPECTRUM
##SAMPLE DESCRIPTION=NIST Mass Spectrometry Data Center
##NAMES=HP
##CAS NAME=Benzene, 1-bromo-3-methyl-
##MOLFORM=C7H7Br
##CAS REGISTRY NO=591-17-3
##MP= -300
##BP= -300
##MW= 170
##$RETENTION INDEX=1095
##$CONDENSED SPECTRUM=NO
##NPOINTS= 65
##XYDATA=(XY..XY) 1 
    26          5
    27         10
    36          1
    37         12
    38         28
    39         88
    40          6
    41         12
    43         11
    44          7
    45         16
    48          1
    49         11
    50         72
    51         58
    52         14
    53          3
    60          3
    61         29
    62         69
    63        167
    64         37
    65        227
    66         12
    73          5
    74         25
    75         20
    76         10
    77          1
    79          7
    80          2
    81          9
    82          3
    83          2
    84          4
    85         22
    86         28
    87         14
    88          5
    89        152
    90         78
    91        999
    92         77
    93          3
    95          1
   104          1
   105          1
   106          1
   116          1
   117          7
   118          1
   119          7
   128          1
   129          1
   130          1
   131          1
   141          1
   143          6
   145          4
   169         40
   170        512
   171         77
   172        494
   173         37
   174          1