##TITLE=Library Entry 39180
##JCAMP-DX=Revision 4.10 
##DATA TYPE=MASS SPECTRUM
##SAMPLE DESCRIPTION=Japan AIST/NIMC Database- Spectrum MS-NW- 706
##NAMES=HP
##CAS NAME=Cyclohexanol, 3-methyl-
##MOLFORM=C7H14O
##CAS REGISTRY NO=591-23-1
##MP= -300
##BP= -300
##MW= 114
##$RETENTION INDEX=947
##$CONDENSED SPECTRUM=NO
##NPOINTS= 76
##XYDATA=(XY..XY) 1 
    14          5
    15         18
    16          3
    17         29
    18        107
    19          1
    26         11
    27        168
    28        155
    29        131
    30          7
    31         55
    32         16
    37          4
    38         13
    39        191
    40         33
    41        341
    42        198
    43        188
    44        224
    45         38
    46          2
    47          1
    48          1
    49          1
    50         11
    51         24
    52          9
    53         77
    54        127
    55        382
    56         90
    57        423
    58         58
    59         12
    61          1
    62          3
    63          6
    64          2
    65         15
    66         18
    67        152
    68        166
    69         71
    70        111
    71        999
    72         60
    73          6
    74          2
    75          1
    77         16
    78          4
    79         31
    80          8
    81        652
    82         54
    83         12
    84          4
    85          9
    86         17
    87          1
    91          7
    92          3
    93          5
    94          4
    95         72
    96        706
    97         60
    98          3
    99         27
   100          3
   112          2
   113         19
   114         13
   115          1