##TITLE=Library Entry 6734
##JCAMP-DX=Revision 4.10 
##DATA TYPE=MASS SPECTRUM
##SAMPLE DESCRIPTION=Japan AIST/NIMC Database- Spectrum MS-NW-5013
##NAMES=HP
##CAS NAME=Acetamide, N-(aminocarbonyl)-
##MOLFORM=C3H6N2O2
##CAS REGISTRY NO=591-07-1
##MP= -300
##BP= -300
##MW= 102
##$RETENTION INDEX=0
##$CONDENSED SPECTRUM=NO
##NPOINTS= 37
##XYDATA=(XY..XY) 1 
    12         13
    13         13
    14         58
    15        201
    16         90
    17        115
    18          6
    24          3
    25          5
    26         18
    27         31
    28        101
    29         93
    30         10
    31         19
    32         11
    34          1
    38         29
    39         47
    40        122
    41        227
    42        263
    43        999
    44        385
    45          8
    46          1
    54          4
    56          3
    59        367
    60         12
    61          5
    70        112
    71          3
    74          7
    85         30
    86          1
   102         13