##TITLE=Library Entry 20971
##JCAMP-DX=Revision 4.10 
##DATA TYPE=MASS SPECTRUM
##SAMPLE DESCRIPTION=Japan AIST/NIMC Database- Spectrum MS-NW-4373
##NAMES=HP
##CAS NAME=2-Butene, 1-chloro-
##MOLFORM=C4H7Cl
##CAS REGISTRY NO=591-97-9
##MP= -300
##BP= -300
##MW= 90
##$RETENTION INDEX=0
##$CONDENSED SPECTRUM=NO
##NPOINTS= 50
##XYDATA=(XY..XY) 1 
    14          1
    15          4
    24          1
    25          6
    26         48
    27        179
    28         28
    29        201
    30          4
    35          7
    36         12
    37         17
    38         24
    39        226
    40         17
    41         75
    42          2
    43          2
    44          3
    45          1
    47          2
    48          3
    49         27
    50         55
    51         54
    52         22
    53        164
    54        125
    55        999
    56         45
    57          1
    60          3
    61          8
    62         58
    63          9
    64         18
    65          2
    73          5
    74          1
    75         99
    76          4
    77         30
    78          1
    87          1
    88          1
    89          8
    90        249
    91         13
    92         80
    93          4