##TITLE=Library Entry 13149
##JCAMP-DX=Revision 4.10 
##DATA TYPE=MASS SPECTRUM
##SAMPLE DESCRIPTION=Exported from NIST MS Search
##NAMES=HP
##CAS NAME=2,4-Pentanedione, 3-phenyl-
##MOLFORM=C11H12O2
##CAS REGISTRY NO=5910-25-8
##MP= -300
##BP= -300
##MW= 176
##$RETENTION INDEX=1633
##$CONDENSED SPECTRUM=NO
##NPOINTS= 105
##XYDATA=(XY..XY) 1 
    37          1
    38         20
    39        110
    40         10
    41         20
    42         20
    43        999
    44         30
    45          5
    46          1
    48          5
    49          1
    50         30
    51        110
    52         20
    53         30
    54          1
    61          5
    62         30
    63         90
    64         20
    65         60
    66         20
    67          1
    68          1
    69          5
    70          1
    71          1
    72          1
    73          1
    74         10
    75         20
    76         10
    77        150
    78         30
    79         60
    80          5
    81          1
    82          1
    83          5
    84          1
    85         50
    86         10
    87         10
    88         10
    89         90
    90         50
    91        170
    92         20
    93          1
    94          1
    95          1
    98          1
    99          1
   100          1
   101          5
   102         20
   103         60
   104         20
   105        100
   106         10
   107          1
   109          1
   110         10
   111          1
   112          1
   113          5
   114         10
   115        230
   116        100
   117         20
   118         30
   119         30
   126          1
   127         10
   128         20
   129         30
   130          5
   131         20
   132         10
   133        280
   134        150
   135         20
   136          1
   141          1
   142          1
   143          1
   145          1
   147         10
   148          5
   149          1
   150          1
   157          1
   158         20
   159          5
   160          5
   161        630
   162         80
   163         10
   174          1
   175         30
   176        810
   177        210
   178         30
   179          1