##TITLE=Library Entry 52300
##JCAMP-DX=Revision 4.10 
##DATA TYPE=MASS SPECTRUM
##SAMPLE DESCRIPTION=MUS352 A. Mujsce, AT&T Bell Labs., Murray Hill, N.J., U
SA
##NAMES=HP
##CAS NAME=1-Octadecanol, 18-bromo-
##MOLFORM=C18H37BrO
##CAS REGISTRY NO=59101-17-6
##MP= -300
##BP= -300
##MW= 348
##$RETENTION INDEX=0
##$CONDENSED SPECTRUM=NO
##NPOINTS= 200
##XYDATA=(XY..XY) 1 
    41        670
    42        224
    43        564
    44         47
    45         25
    51          4
    53         57
    54        120
    55        996
    56        275
    57        379
    58         31
    59          1
    60          1
    61          5
    64          1
    65         19
    66         18
    67        194
    68        435
    69        990
    70        306
    71        217
    72         23
    73         34
    75          1
    76          2
    77         15
    78          1
    79         36
    80         19
    81        149
    82        542
    83        999
    84        207
    85        137
    86         16
    87          5
    90          1
    91          5
    93         15
    94         10
    95        105
    96        147
    97        694
    98        128
    99         32
   101         11
   103          6
   106          1
   107         42
   108          4
   109         79
   110         51
   111        248
   112         66
   113         15
   114          1
   115          1
   117          1
   119          8
   120          9
   121         26
   122         74
   123         55
   124         41
   125        131
   126         41
   127         16
   129          4
   133         10
   134         19
   135         86
   136         23
   137        101
   138         27
   139         46
   140         25
   141          8
   147          8
   148        203
   149         56
   150        203
   151         53
   152         19
   153         28
   154         18
   155          7
   161         17
   162        113
   163         37
   164        108
   165         32
   166         16
   167         22
   168         13
   169          6
   171          1
   174          3
   175         25
   176         29
   177         34
   178         29
   179         18
   180         13
   181         16
   182          9
   183          1
   184          2
   185          1
   187          1
   188          9
   189         24
   190         30
   191         30
   192         25
   193         14
   194          6
   195          8
   196          1
   197          1
   199          1
   201          5
   202         11
   203         28
   204         24
   205         30
   206         18
   207          8
   208          4
   209         11
   210          1
   211          1
   215          1
   216         10
   217         22
   218         21
   219         22
   220         17
   221          6
   222          5
   223          1
   225          3
   226          1
   228          1
   230         11
   231         18
   232         21
   233         19
   234         18
   235          3
   236          1
   237          1
   244          3
   245         15
   246         18
   247         15
   248         15
   249          6
   250         11
   251          2
   252          4
   255          1
   258          2
   259         11
   260         16
   261         14
   262         15
   263          4
   269          7
   270          2
   271          1
   272          4
   273          8
   274         18
   275          7
   276         16
   277          2
   278          1
   286          2
   287          3
   288         14
   289          8
   290          9
   291          1
   300          1
   301          1
   302         56
   303         14
   304         56
   305         13
   306          2
   307          2
   318          1
   330         26
   331          3
   332         20
   333         10
   334          3
   347          1