##TITLE=Library Entry 33080
##JCAMP-DX=Revision 4.10 
##DATA TYPE=MASS SPECTRUM
##SAMPLE DESCRIPTION=NIST Mass Spectrometry Data Center, 1990.
##NAMES=HP
##CAS NAME=Pyrazine, 2,3-dimethyl-
##MOLFORM=C6H8N2
##CAS REGISTRY NO=5910-89-4
##MP= -300
##BP= -300
##MW= 108
##$RETENTION INDEX=925
##$CONDENSED SPECTRUM=NO
##NPOINTS= 48
##XYDATA=(XY..XY) 1 
    12          3
    13          2
    14         11
    15         44
    16          0
    18          2
    26        179
    27        131
    28         79
    29          2
    32          0
    36          3
    37         36
    38         68
    39        172
    40        310
    41        176
    42        233
    43          7
    48          4
    49         12
    50         56
    51         86
    52        102
    53         62
    54         30
    55          3
    63          8
    64         23
    65         16
    66         91
    67        999
    68         53
    76          3
    77          2
    78          3
    79          5
    80         13
    81         13
    82          2
    92          4
    93         33
    94          4
    96          2
   106          5
   108        907
   109         72
   110          2