##TITLE=Library Entry 78762
##JCAMP-DX=Revision 4.10 
##DATA TYPE=MASS SPECTRUM
##SAMPLE DESCRIPTION=LAC, NIDDK, NIH, Bethesda, MD 20892
##NAMES=HP
##CAS NAME=2-Furancarboxamide, N-benzoyloxy-
##MOLFORM=C12H9NO4
##CAS REGISTRY NO=59101-38-1
##MP= -300
##BP= -300
##MW= 231
##$RETENTION INDEX=0
##$CONDENSED SPECTRUM=NO
##NPOINTS= 70
##XYDATA=(XY..XY) 1 
    41          8
    42          4
    43          4
    44          6
    45         10
    47          5
    49         26
    50         57
    51        148
    52         33
    53         25
    54         16
    55         16
    56          0
    57          1
    60          0
    61          1
    62          1
    63          4
    64          3
    65          8
    66          5
    67         10
    68          0
    69          1
    70          3
    71          1
    73          4
    74         13
    75          8
    77        340
    78         21
    79          2
    80          6
    81          4
    82          3
    84         19
    86         13
    88          2
    91          0
    92          1
    93          4
    95        107
    96          4
    97          1
   105        999
   106         71
   107          4
   109         37
   111         20
   112          3
   115          6
   116          0
   121          0
   122        125
   123         19
   124          1
   127          0
   130          1
   131          0
   139          2
   141          1
   143          1
   150          1
   155          1
   158          3
   214          2
   216          0
   231          5
   232          0