##TITLE=Library Entry 49780
##JCAMP-DX=Revision 4.10 
##DATA TYPE=MASS SPECTRUM
##SAMPLE DESCRIPTION=RADIAN CORP
##NAMES=HP
##CAS NAME=2,4-Nonadienal, (E,E)-
##MOLFORM=C9H14O
##CAS REGISTRY NO=5910-87-2
##MP= -300
##BP= -300
##MW= 138
##$RETENTION INDEX=1216
##$CONDENSED SPECTRUM=NO
##NPOINTS= 62
##XYDATA=(XY..XY) 1 
    15          4
    26          5
    27         47
    29         35
    31          3
    37          2
    38          8
    39        149
    40         28
    41        201
    42         14
    43         38
    44          5
    45          2
    50         19
    51         40
    52         21
    53        105
    54         91
    55         72
    56         25
    57          4
    61          1
    62          4
    63         16
    64          4
    65         79
    66         56
    67        164
    68         52
    69         14
    70          7
    71          2
    74          3
    75          4
    76          1
    77         56
    78         15
    79         76
    80          9
    81        999
    82         86
    83         51
    84          6
    89          1
    91         16
    92          4
    93          5
    94          7
    95         70
    96         13
    97          3
   103          2
   105          5
   107          6
   109         15
   110          2
   123          3
   136          1
   137         10
   138         77
   139         10