##TITLE=Library Entry 114983
##JCAMP-DX=Revision 4.10 
##DATA TYPE=MASS SPECTRUM
##SAMPLE DESCRIPTION=NIST Mass Spectrometry Data Center, 1990.
##NAMES=HP
##CAS NAME=1,4,5,8,9,10-Hexahydroanthracene
##MOLFORM=C14H16
##CAS REGISTRY NO=5910-28-1
##MP= -300
##BP= -300
##MW= 184
##$RETENTION INDEX=0
##$CONDENSED SPECTRUM=NO
##NPOINTS= 79
##XYDATA=(XY..XY) 1 
    27         63
    28         58
    29         22
    32         19
    39        136
    40         24
    41         51
    50         45
    51        132
    52         55
    53         50
    55         27
    62         34
    63        124
    64         40
    65        186
    66         25
    67         31
    70         16
    71         11
    74         39
    75         64
    76        148
    77        319
    78        194
    79        108
    80         29
    82         56
    83         69
    86         17
    87         36
    88         43
    89        139
    91        861
    92        236
    93        224
   101         23
   102         69
   103         65
   104         55
   105         88
   106         52
   115        562
   116         92
   117         84
   118         21
   126         48
   127        170
   128        570
   129        870
   130        999
   131        112
   139         62
   141        376
   142        155
   143        110
   150         28
   151         55
   152        164
   153        131
   154         88
   155        110
   156         36
   163         13
   165        171
   166         61
   167         74
   168         31
   169        112
   170         17
   176         43
   177         22
   178        116
   179         62
   180         38
   181         22
   182         52
   184        800
   185        115