##TITLE=Library Entry 4946
##JCAMP-DX=Revision 4.10 
##DATA TYPE=MASS SPECTRUM
##SAMPLE DESCRIPTION=A.Pleshkova, Nesmeyanov Inst.Org.Elem.Cpds, Moscow
##NAMES=HP
##CAS NAME=Aziridine, 2,2,3,3-tetramethyl-
##MOLFORM=C6H13N
##CAS REGISTRY NO=5910-14-5
##MP= -300
##BP= -300
##MW= 99
##$RETENTION INDEX=0
##$CONDENSED SPECTRUM=NO
##NPOINTS= 28
##XYDATA=(XY..XY) 1 
    27         25
    28         92
    29         38
    39         66
    40         20
    41         23
    42        999
    43         69
    44         36
    55         17
    56         25
    57        215
    58        443
    59         65
    60          9
    67         29
    68         16
    69         26
    70         49
    71         78
    72          9
    83        105
    84        495
    85         49
    98         99
    99         66
   100         30
   101          2