##TITLE=Library Entry 10052
##JCAMP-DX=Revision 4.10 
##DATA TYPE=MASS SPECTRUM
##SAMPLE DESCRIPTION=R.D. PLATTNER, US DEP. AGRIC., PEORIA, ILL.,
##NAMES=HP
##CAS NAME=3,4,5-Tri-O-acetyl-2,6-di-O-methyl-D-mannonitrile
##MOLFORM=C14H21NO8
##CAS REGISTRY NO=59103-69-4
##MP= -300
##BP= -300
##MW= 331
##$RETENTION INDEX=0
##$CONDENSED SPECTRUM=NO
##NPOINTS= 110
##XYDATA=(XY..XY) 1 
    39          2
    40          3
    41          7
    42         13
    43        999
    44         30
    45        197
    46          3
    47          1
    52          1
    53          1
    55          5
    56          1
    57          7
    58          1
    59          9
    60          5
    61          5
    68          4
    69         13
    70         16
    71         23
    73         16
    74         20
    75         33
    76          2
    79          2
    81          5
    82          1
    83         13
    84          8
    85         39
    86          8
    87        206
    88         12
    89          2
    96          2
    99         90
   100         12
   101          7
   102          3
   103         27
   104          1
   105         18
   106          4
   109          4
   110          3
   111          5
   112          9
   113         17
   114          1
   115        120
   116         21
   117         94
   118          8
   124          4
   125          6
   126          2
   127         44
   128          1
   129        117
   130          8
   131          3
   136          8
   137          1
   138         31
   139         28
   140          2
   142          2
   145         29
   147         20
   151          5
   152         10
   153          1
   154         10
   155          5
   156          5
   157         37
   158          2
   159        149
   160         10
   168          7
   169        134
   170          9
   171          1
   172          4
   173          1
   175          2
   184         87
   185          9
   186          2
   187          8
   189          5
   197          4
   198          1
   199         17
   200          2
   201         16
   202          9
   207          1
   211         28
   212          2
   216          3
   217          5
   244         14
   261          3
   262          1
   272          1
   286         10
   288          1