##TITLE=Library Entry 21554
##JCAMP-DX=Revision 4.10 
##DATA TYPE=MASS SPECTRUM
##SAMPLE DESCRIPTION=Japan AIST/NIMC Database- Spectrum MS-IW-1732
##NAMES=HP
##CAS NAME=N-(2-Hydroxy-3-(p-nitrophenoxy)propyl)succinimide
##MOLFORM=C13H14N2O6
##CAS REGISTRY NO=59117-66-7
##MP= -300
##BP= -300
##MW= 294
##$RETENTION INDEX=0
##$CONDENSED SPECTRUM=NO
##NPOINTS= 183
##XYDATA=(XY..XY) 1 
    12          1
    14          4
    15         35
    16          2
    17          1
    25          2
    26         52
    27        209
    28        361
    29        120
    30        259
    31         50
    32          1
    37         10
    38         66
    39        121
    40         17
    41        140
    42        124
    43        177
    44        158
    45          9
    46          3
    49          2
    50        143
    51         66
    52         39
    53         49
    54         62
    55        999
    56        422
    57        168
    58         50
    59          5
    60         37
    61         10
    62         44
    63        201
    64        166
    65        187
    66         27
    67         21
    68         71
    69         11
    70         23
    71         19
    72        124
    73         10
    74        126
    75        132
    76        178
    77         89
    78         69
    79         32
    80         21
    81         62
    82         96
    83         15
    84        343
    85        105
    86         33
    87          2
    88          1
    89          5
    90          7
    91         15
    92         79
    93         92
    94         29
    95         12
    96        160
    97         14
    98         25
    99          8
   100        440
   101         23
   102          3
   103          4
   104          4
   105          7
   106         41
   107         59
   108         43
   109        175
   110        121
   111         25
   112        185
   113        150
   114         86
   115          5
   116          1
   117          2
   118         18
   119         19
   120          9
   121          6
   122         57
   123        140
   124        110
   125          9
   126         31
   127         10
   128         32
   129          3
   130         46
   131         16
   132          6
   133          2
   134          2
   135         10
   136         67
   137         14
   138        258
   139         80
   140         13
   141          2
   142        959
   143         71
   144          9
   145          3
   146          3
   147          8
   148          6
   149          7
   150          2
   151          2
   152         76
   153         92
   154         20
   155         28
   156        757
   157         62
   158          8
   159          1
   160        178
   161         19
   162          2
   164          5
   165         43
   166          8
   167          1
   172          1
   173          1
   174          1
   176          4
   177         33
   178          9
   179          1
   181          8
   182         16
   183          1
   189          1
   191          2
   192          1
   193          2
   194          2
   200          2
   201          4
   202          1
   203          1
   219          2
   229         17
   230         20
   231         12
   232          2
   243          3
   247          5
   248          3
   259        584
   260         89
   261         11
   262          2
   264          6
   265          1
   274          1
   276        418
   277         65
   278         11
   279          1
   292          2
   294         27
   295         18
   296          3