##TITLE=Library Entry 17767
##JCAMP-DX=Revision 4.10 
##DATA TYPE=MASS SPECTRUM
##SAMPLE DESCRIPTION=V.A.Korolev, Moscow, Russia
##NAMES=HP
##CAS NAME=2-(6,8-Dichloroimidazo[1,2-a]pyridin-2-yl)acetic acid
##MOLFORM=C9H6Cl2N2O2
##CAS REGISTRY NO=59128-14-2
##MP= -300
##BP= -300
##MW= 244
##$RETENTION INDEX=0
##$CONDENSED SPECTRUM=NO
##NPOINTS= 95
##XYDATA=(XY..XY) 1 
    35          9
    36          4
    37          7
    38         32
    39        259
    40         45
    41         31
    42         33
    43         53
    44         35
    45        999
    46         11
    47         27
    49         27
    50         55
    51         60
    52         98
    53         21
    54         45
    55         27
    56          4
    57          6
    60         39
    61         35
    62         59
    63         32
    64         31
    65         20
    66          8
    69          5
    71          5
    72         13
    73         30
    74         24
    75         81
    76         89
    77         16
    78          5
    82          6
    83          9
    84         16
    85         26
    86         28
    87         23
    88         11
    89          6
    96          5
    97         26
    98         31
    99         19
   100         42
   101         13
   102         34
   103          8
   107          6
   109         10
   110         60
   111         20
   112         44
   113         12
   114          5
   124          8
   125          5
   127          7
   129         31
   130         11
   136         10
   137         38
   138         13
   139         15
   146         25
   147         31
   148         17
   149         16
   150          4
   163          5
   164          6
   165         22
   167          7
   172          5
   173         64
   174         10
   175         37
   177          4
   195          3
   199         89
   200        319
   201         89
   202        210
   203         22
   204         26
   244         45
   245          2
   246         30
   248          4