##TITLE=Library Entry 38457
##JCAMP-DX=Revision 4.10 
##DATA TYPE=MASS SPECTRUM
##SAMPLE DESCRIPTION=NIST Mass Spectrometry Data Center, 1994
##NAMES=HP
##CAS NAME=1-Methylcyclooctanol
##MOLFORM=C9H18O
##CAS REGISTRY NO=59123-41-0
##MP= -300
##BP= -300
##MW= 142
##$RETENTION INDEX=1121
##$CONDENSED SPECTRUM=NO
##NPOINTS= 70
##XYDATA=(XY..XY) 1 
    14          1
    15         27
    18          3
    19          3
    27        122
    28         36
    29        100
    30          3
    31         25
    37          1
    39        134
    40         32
    41        207
    42         71
    43        469
    44         14
    45         47
    46          1
    49          1
    50          5
    51         13
    52          6
    53         43
    54         21
    55        121
    56         26
    57         84
    58        415
    59         97
    60          3
    63          3
    65         11
    67        113
    68         36
    69         35
    70          3
    71        999
    72         63
    73          4
    77         11
    78          2
    79         16
    80          2
    81         53
    82        114
    83         32
    84         21
    85         53
    86         26
    87          1
    91          4
    93          1
    95         31
    96         12
    97          3
    98          1
    99         74
   100         30
   101          1
   107          2
   109         52
   110          4
   113         35
   114          3
   124          9
   125          3
   127        145
   128         12
   142         11
   143          1