##TITLE=Library Entry 61992
##JCAMP-DX=Revision 4.10 
##DATA TYPE=MASS SPECTRUM
##SAMPLE DESCRIPTION=J.L.DEROCQUE SAARLANDES UNIV., SAARBRUCKEN, GERMANY, F.
R.G.
##NAMES=HP
##CAS NAME=Benzene, (1-bromo-2-methyl-1-propenyl)-
##MOLFORM=C10H11Br
##CAS REGISTRY NO=5912-93-6
##MP= -300
##BP= -300
##MW= 210
##$RETENTION INDEX=0
##$CONDENSED SPECTRUM=NO
##NPOINTS= 23
##XYDATA=(XY..XY) 1 
    39        190
    43        110
    50         80
    51        180
    53        130
    58         60
    62         60
    63        130
    64        140
    65        180
    77        100
    89        100
    91        999
    92        440
   104         60
   115        300
   116        240
   128         80
   129        160
   131        660
   132        120
   210        260
   212        260