##TITLE=Library Entry 15317
##JCAMP-DX=Revision 4.10 
##DATA TYPE=MASS SPECTRUM
##SAMPLE DESCRIPTION=Chuck Anderson, Aldrich Chemical Co.
##NAMES=HP
##CAS NAME=R-(-)-Cyclohexylethylamine
##MOLFORM=C8H17N
##CAS REGISTRY NO=5913-13-3
##MP= -300
##BP= -300
##MW= 127
##$RETENTION INDEX=0
##$CONDENSED SPECTRUM=NO
##NPOINTS= 35
##XYDATA=(XY..XY) 1 
    15          4
    17          2
    18         24
    27         18
    28         17
    29         12
    30         27
    32          0
    39         29
    40          6
    41         52
    42         31
    43         72
    44        999
    45         22
    51          4
    53         11
    54         11
    55         25
    56         10
    57          1
    65          4
    66          0
    67         30
    68          6
    69          6
    70         10
    77          5
    79          5
    80          2
    81          8
    82          6
    83          1
    95          8
   112          3