##TITLE=Library Entry 3610
##JCAMP-DX=Revision 4.10 
##DATA TYPE=MASS SPECTRUM
##SAMPLE DESCRIPTION=D.HENNEBERG, MAX-PLANCK INSTITUTE, MULHEIM, WEST GERMAN
Y
##NAMES=HP
##CAS NAME=1,5-Hexadiene, 2,5-dimethyl-3-methylene-
##MOLFORM=C9H14
##CAS REGISTRY NO=59131-13-4
##MP= -300
##BP= -300
##MW= 122
##$RETENTION INDEX=0
##$CONDENSED SPECTRUM=NO
##NPOINTS= 94
##XYDATA=(XY..XY) 1 
    22          0
    23          1
    24          1
    25          5
    26         25
    27        436
    28         46
    29        372
    30          8
    31          0
    32          1
    33          3
    34          3
    35          6
    36          2
    37         31
    38         62
    39        884
    40        162
    41        999
    42         53
    43         37
    44          1
    45          3
    46          3
    47          2
    48          2
    49          6
    50         61
    51        172
    52         83
    53        244
    54         44
    55        126
    56         26
    57          5
    58         16
    59         14
    60          5
    61          8
    62         19
    63         57
    64         19
    65        254
    66         77
    67        309
    68         47
    69         12
    70          1
    71          6
    72          2
    73          2
    74          9
    75         39
    76          8
    77        422
    78         79
    79        992
    80        131
    81         92
    82         11
    83          0
    84          0
    85          0
    86          1
    88          3
    89         21
    90         13
    91        837
    92        148
    93        704
    94        162
    95         20
    96          0
    98          0
    99          0
   100          0
   101          2
   102          2
   103         24
   104          6
   105        191
   106         33
   107        861
   108         80
   109          3
   115          1
   117          1
   119          6
   120          2
   121         26
   122        159
   123         14
   124          0