##TITLE=Library Entry 48650
##JCAMP-DX=Revision 4.10 
##DATA TYPE=MASS SPECTRUM
##SAMPLE DESCRIPTION=J.R. VICKERY, CSIRO DIV. FOOD RES., NORTH RYDE, AUST.
##NAMES=HP
##CAS NAME=Methyl (Z)-5,11,14,17-eicosatetraenoate
##MOLFORM=C21H34O2
##CAS REGISTRY NO=59149-01-8
##MP= -300
##BP= -300
##MW= 318
##$RETENTION INDEX=0
##$CONDENSED SPECTRUM=NO
##NPOINTS= 105
##XYDATA=(XY..XY) 1 
    36         20
    38         20
    39        190
    41        780
    42         80
    43        270
    45         30
    50         20
    51         40
    52         30
    53        160
    54        120
    55        540
    56         60
    57        100
    59        120
    63         20
    65        100
    66        110
    67        830
    68        130
    69        200
    70         30
    71         60
    73         30
    74        160
    75         30
    77        220
    78        150
    79        999
    80        480
    81        490
    82        110
    83         90
    84         40
    85         80
    87         60
    91        360
    92        110
    93        470
    94        240
    95        520
    96        100
    97         70
    98         20
    99         30
   101         40
   103         30
   104         30
   105        180
   106         90
   107        220
   108        450
   109        160
   110         40
   111         40
   115         40
   117         50
   118         30
   119        140
   120         80
   121        270
   122        140
   123         60
   129         30
   131         60
   132         20
   133        140
   134         90
   135        150
   136         70
   137         20
   141         20
   143         20
   145         40
   146         20
   147        110
   148         50
   149         80
   150         50
   151         20
   157         20
   159         30
   161         70
   162         30
   163         40
   164         40
   165         20
   173         30
   175         60
   177         30
   187         20
   189         30
   203         60
   215         10
   217         30
   221         20
   222         10
   235         20
   236         20
   249         30
   250         10
   262         10
   275         10
   318         20