##TITLE=Library Entry 64083
##JCAMP-DX=Revision 4.10 
##DATA TYPE=MASS SPECTRUM
##SAMPLE DESCRIPTION=Div. of Experiment Therapeutics WRAIR, WRAMC, Washingto
n DC 20307
##NAMES=HP
##CAS NAME=3-Benzylthio-5-hydroxy-6,6-dimethyl-1,6-dihydro-1,2,4-triazine
##MOLFORM=C12H15N3OS
##CAS REGISTRY NO=59153-10-5
##MP= -300
##BP= -300
##MW= 249
##$RETENTION INDEX=0
##$CONDENSED SPECTRUM=NO
##NPOINTS= 125
##XYDATA=(XY..XY) 1 
    41        158
    42        260
    43         55
    44          2
    45         61
    46          4
    47          9
    49         20
    50          9
    51         33
    52          9
    53          5
    54          6
    55          7
    56         42
    57         44
    58        122
    60         41
    61          0
    62         11
    63         30
    65        149
    66          7
    67          3
    69         26
    70         23
    71         12
    72          2
    73          3
    74         15
    75          5
    76          3
    77         24
    78         10
    79          7
    81          2
    82          2
    84         29
    85          3
    86          9
    87          1
    89         31
    91        999
    92         75
    93          2
    94          0
    95          2
    96          1
    97          3
    98         15
    99          5
   100          2
   101          0
   102          0
   103          0
   104          3
   105          2
   106          7
   107          1
   108          0
   109          2
   111          1
   112          2
   115         35
   116          3
   117          2
   118          1
   119          1
   121         29
   122         21
   123         39
   124          4
   125          2
   126          2
   128          0
   129          2
   130          2
   131          5
   132          6
   133          2
   134          0
   135          1
   136          0
   138          0
   140          0
   142          4
   143          4
   144          2
   145          2
   146          6
   148          8
   149          2
   150          2
   156          4
   158         19
   159          6
   160          1
   161          6
   163          4
   164          5
   165          6
   166          1
   168          0
   172          0
   188         12
   189          1
   192          0
   193          5
   194          0
   201          0
   205          0
   206          2
   216         46
   217          6
   221          3
   222          0
   233          1
   234        274
   235         37
   236         16
   237          1
   249        358
   250         51
   251         20
   252          2