##TITLE=Library Entry 4979
##JCAMP-DX=Revision 4.10 
##DATA TYPE=MASS SPECTRUM
##SAMPLE DESCRIPTION=Div. of Experiment Therapeutics WRAIR, WRAMC, Washingto
n DC 20307
##NAMES=HP
##CAS NAME=5-Amino-6,6-dimethyl-3-methylthio-1,6-dihydro-1,2,4-triazine
##MOLFORM=C6H12N4S
##CAS REGISTRY NO=59153-08-1
##MP= -300
##BP= -300
##MW= 172
##$RETENTION INDEX=0
##$CONDENSED SPECTRUM=NO
##NPOINTS= 80
##XYDATA=(XY..XY) 1 
    42        999
    43        258
    45        152
    46         15
    47        125
    49         27
    51          9
    52         14
    53         21
    54         72
    56        218
    57         45
    58         46
    59         25
    60         26
    62         49
    64          8
    65          4
    66          1
    68         54
    69        104
    70        189
    71         22
    72         28
    74         82
    76          9
    77          3
    78          4
    79          0
    81          8
    82          5
    84         23
    85         18
    86         11
    88         31
    89        442
    91         30
    92          0
    94          0
    95          3
    96         21
    98         87
    99          8
   100          3
   101          2
   103          3
   104          1
   105          0
   106          0
   109          0
   110          7
   111         35
   113         18
   115         23
   116          4
   117          1
   121          0
   123         33
   124         15
   125         10
   126          7
   127          8
   128          6
   130         27
   131          0
   132          3
   140          7
   141          1
   142         15
   143          3
   157        313
   158        363
   159         38
   160         22
   161          0
   163          0
   172        145
   173         56
   174         10
   175          1