##TITLE=Library Entry 5319
##JCAMP-DX=Revision 4.10 
##DATA TYPE=MASS SPECTRUM
##SAMPLE DESCRIPTION=Div. of Experiment Therapeutics WRAIR, WRAMC, Washingto
n DC 20307
##NAMES=HP
##CAS NAME=6,6-Dimethyl-3-methylthio-5-thioxo-1,4,5,6-tetrahydro-1,2,4-triaz
ine
##MOLFORM=C6H11N3S2
##CAS REGISTRY NO=59153-11-6
##MP= -300
##BP= -300
##MW= 189
##$RETENTION INDEX=0
##$CONDENSED SPECTRUM=NO
##NPOINTS= 96
##XYDATA=(XY..XY) 1 
    42        999
    43         63
    45        281
    47        160
    48          5
    49         19
    51         15
    53         72
    54         19
    56        225
    57         83
    58        101
    59         95
    60         60
    61         15
    62         10
    64          6
    65          2
    66          1
    67          4
    68         16
    69         81
    71        174
    73         23
    74        229
    75         11
    76         10
    77          2
    79         11
    80          5
    81          5
    83         19
    85        106
    86         78
    87         70
    88         27
    89         23
    91         32
    93          5
    94          2
    95          3
    96          2
    98         10
    99          3
   100         17
   101         43
   102          8
   104         13
   106         83
   108         15
   109          0
   110          3
   111          2
   112          1
   113         10
   115         37
   116         30
   117          3
   119          5
   121          1
   122          0
   124          1
   126          3
   127          5
   128          8
   129          5
   130          6
   131          5
   133        182
   135         23
   140         22
   141         10
   142         14
   143          1
   144          2
   145          1
   147         10
   148          0
   149          1
   154          1
   156         79
   157         54
   158         10
   159          8
   160          1
   161          1
   172          3
   174        845
   175         70
   176         51
   177          5
   178          2
   189        811
   190        217
   191         68
   192         17