##TITLE=Library Entry 7171
##JCAMP-DX=Revision 4.10 
##DATA TYPE=MASS SPECTRUM
##SAMPLE DESCRIPTION=Div. of Experiment Therapeutics WRAIR, WRAMC, Washingto
n DC 20307
##NAMES=HP
##CAS NAME=3-Ergost-7,9(11),22-trienol, acetate
##MOLFORM=C30H46O2
##CAS REGISTRY NO=59169-00-5
##MP= -300
##BP= -300
##MW= 438
##$RETENTION INDEX=0
##$CONDENSED SPECTRUM=NO
##NPOINTS= 136
##XYDATA=(XY..XY) 1 
    41        226
    43        999
    45        171
    49          2
    51          1
    53         40
    55        333
    56          7
    57        101
    59         74
    60         32
    61          5
    65         16
    67        105
    69        208
    70         30
    71         51
    73         28
    74         75
    77         33
    79         67
    81        149
    82         22
    83         89
    84         11
    85         50
    86          5
    87         13
    91         78
    93         93
    95        121
    97         45
    99         20
   103         11
   105         94
   107         81
   109         59
   111         21
   113         14
   115         32
   117         47
   119         44
   121         45
   122          6
   123         22
   124         17
   125         18
   127         18
   128         26
   129         26
   131         60
   133         48
   135         35
   137         15
   139          5
   141         28
   143         64
   145         83
   147         48
   149         16
   153         17
   154          8
   155         35
   157         70
   159         49
   161         24
   162          4
   163          6
   165         15
   167         20
   169         23
   170         10
   171         13
   172          9
   173         24
   175         16
   179         11
   181         19
   183         23
   184          8
   185         29
   187         16
   189          5
   195         22
   197         32
   198         17
   199         12
   201         12
   209         15
   211         43
   213         29
   215         10
   217          4
   223         13
   224          4
   225         10
   227         22
   229         13
   237         17
   238          5
   239          6
   241         10
   251         23
   253         80
   254          6
   255         33
   257          6
   259          5
   268          4
   269         10
   272          5
   273          8
   285         27
   286         15
   288         16
   297         10
   299          6
   302          5
   311        137
   312          5
   313         63
   314          7
   315          6
   327         17
   328          8
   329          6
   330          4
   339          4
   341          5
   356          4
   363         12
   365          4
   394          5
   438        136
   439         43
   440         14