##TITLE=Library Entry 5379
##JCAMP-DX=Revision 4.10 
##DATA TYPE=MASS SPECTRUM
##SAMPLE DESCRIPTION=L. Cohen, LC, NIDDK, NIH, Bethesda, MD 20892
##NAMES=HP
##CAS NAME=Imidazole, 4-bromo-1-methyl-5-nitro-
##MOLFORM=C4H4BrN3O2
##CAS REGISTRY NO=59177-47-8
##MP= -300
##BP= -300
##MW= 205
##$RETENTION INDEX=0
##$CONDENSED SPECTRUM=NO
##NPOINTS= 100
##XYDATA=(XY..XY) 1 
    41         85
    42        999
    43         27
    44          1
    45          1
    46         38
    47          4
    48          2
    49         20
    50         12
    51         83
    52        166
    53        139
    54         15
    55          6
    56          3
    57          3
    58          3
    64          7
    65         26
    66          5
    67         10
    68          8
    69         19
    70          2
    71          2
    73          0
    74          2
    76          2
    77         11
    78          9
    79         51
    80         36
    81         24
    82          2
    83          3
    84         12
    85          1
    86          9
    88          2
    89          3
    91         43
    92          2
    93         46
    94          5
    95          5
    96          2
    97          2
   102          2
   103          4
   104          1
   105        139
   106         69
   107        133
   108         61
   109          3
   116          3
   117         35
   118         11
   119         34
   120         42
   121          1
   122         34
   123          0
   124          3
   129          6
   130         31
   131         31
   132        259
   133         41
   134        227
   135         12
   143          3
   144          8
   145          6
   146          7
   147          4
   149          1
   158          3
   159         15
   160          5
   161         13
   162          2
   172         15
   174         18
   175         83
   176         68
   177         83
   178         66
   179          3
   188         29
   189         10
   190         29
   191          9
   204          2
   205        517
   206         46
   207        502
   208         39
   209          4