##TITLE=Library Entry 72382
##JCAMP-DX=Revision 4.10 
##DATA TYPE=MASS SPECTRUM
##SAMPLE DESCRIPTION=D.HENNEBERG, MAX-PLANCK INSTITUTE, MULHEIM, WEST GERMAN
Y
##NAMES=HP
##CAS NAME=d-Mannitol, cyclic 1,2:3,4:5,6-tris(ethylboronate)
##MOLFORM=C12H23B3O6
##CAS REGISTRY NO=59184-36-0
##MP= -300
##BP= -300
##MW= 296
##$RETENTION INDEX=0
##$CONDENSED SPECTRUM=NO
##NPOINTS= 163
##XYDATA=(XY..XY) 1 
    26          3
    27          7
    28         32
    29         19
    30          0
    31          1
    32          3
    35          0
    36          2
    38          0
    39          5
    40          3
    41         23
    42         16
    43         63
    44          3
    45          3
    50          0
    51          2
    52          0
    53          3
    54          6
    55         12
    56         10
    57         51
    58          3
    59          6
    63          0
    65          1
    66          2
    67          3
    68          4
    69         39
    70         22
    71         14
    72          0
    73          0
    77          0
    78          0
    79          1
    80          0
    81          5
    82          5
    83         17
    84          6
    85          4
    86          1
    87          3
    91          0
    92          0
    93          0
    94          0
    95          2
    96          6
    97         51
    98        414
    99        999
   100         48
   101          6
   102          0
   103          0
   105          0
   107          0
   108          0
   109          3
   110         15
   111         57
   112         15
   113          9
   114          0
   115          0
   119          5
   121          0
   122          0
   123          9
   124         41
   125         17
   126          2
   127          1
   128          1
   129          1
   131          2
   135          0
   136          1
   137          3
   138          5
   139          7
   140          7
   141         10
   142          2
   143          1
   147          0
   148          0
   149          0
   150          0
   151          1
   152          1
   153          2
   154          2
   155          3
   156          0
   157          0
   163          0
   164          0
   165          2
   166          6
   167          4
   168          4
   169          8
   170          0
   171          0
   178          0
   179          1
   180          2
   181          4
   182          0
   183          1
   184          1
   185          0
   186          0
   189          0
   192          0
   193          1
   194          3
   195         23
   196         75
   197         96
   198         11
   199          3
   200          0
   206          0
   207          1
   208          7
   209         15
   210          3
   211          3
   212          0
   214          0
   219          1
   220          0
   221          2
   222          4
   223          1
   231          1
   239          0
   240          0
   243          0
   248          0
   249          0
   251          0
   252          1
   253          1
   255          0
   265          1
   266          2
   267          3
   268          0
   269          0
   278          0
   281          1
   293          0
   295          0
   297          0