##TITLE=Library Entry 79352
##JCAMP-DX=Revision 4.10 
##DATA TYPE=MASS SPECTRUM
##SAMPLE DESCRIPTION=Chuck Anderson, Aldrich Chemical Co.
##NAMES=HP
##CAS NAME=2,6-Difluorobenzophenone
##MOLFORM=C13H8F2O
##CAS REGISTRY NO=59189-51-4
##MP= -300
##BP= -300
##MW= 218
##$RETENTION INDEX=0
##$CONDENSED SPECTRUM=NO
##NPOINTS= 90
##XYDATA=(XY..XY) 1 
    26          2
    27         19
    28          4
    29          2
    31          7
    32          2
    37          4
    38          6
    39         12
    49          3
    50         62
    51        175
    52          9
    53          3
    56          1
    57          8
    61          6
    62         20
    63        134
    64          8
    68         12
    69          8
    70          2
    71          0
    72          1
    73          5
    74         39
    75         27
    76         34
    77        590
    78         38
    79          0
    80          1
    81         10
    82          5
    84          0
    85         16
    86          6
    87          9
    88          3
    92          5
    93         18
    94         17
    95         30
    96          1
    98          4
    99          7
   101          1
   104          9
   105        999
   106         77
   107          6
   109          0
   110          1
   111          3
   112         11
   113        164
   114         14
   118          0
   122          1
   123          5
   125          1
   131          0
   138          4
   140          1
   141        533
   142         39
   143          5
   144          3
   149          3
   150          3
   151          7
   162          3
   164          0
   168          5
   169          8
   170         12
   171          2
   187          1
   188         13
   189          9
   190         16
   191          1
   198         23
   199          7
   201          2
   217         15
   218        383
   219         54
   220          4