##TITLE=Library Entry 13480
##JCAMP-DX=Revision 4.10 
##DATA TYPE=MASS SPECTRUM
##SAMPLE DESCRIPTION=TNO Volatile Compounds in Food - Chemical Concepts
##NAMES=HP
##CAS NAME=Phenol, 3,4,5-trichloro-, acetate
##MOLFORM=C8H5Cl3O2
##CAS REGISTRY NO=59190-61-3
##MP= -300
##BP= -300
##MW= 238
##$RETENTION INDEX=1543
##$CONDENSED SPECTRUM=NO
##NPOINTS= 117
##XYDATA=(XY..XY) 1 
    35          1
    37          9
    38          5
    39          1
    43        999
    45          2
    46          4
    47          1
    48          8
    49          8
    50          1
    51          4
    52          8
    54          5
    55          1
    60          5
    61         27
    62         49
    63         18
    64         10
    66          3
    67          6
    68          0
    69          6
    70          3
    72          9
    73         20
    74         16
    75          2
    80          0
    81          1
    82          2
    83         13
    84         13
    85          9
    86         14
    87          5
    90          3
    91          2
    95          0
    96         15
    97         78
    98         12
    99         35
   100          3
   101          0
   102          2
   104          1
   106          4
   107         21
   108         11
   109         21
   110          6
   111          7
   117          2
   119          1
   121          1
   123          2
   125          1
   126          1
   127          0
   129          0
   130          6
   132         18
   133         49
   134          9
   135         26
   136          3
   137          0
   138          1
   139          2
   143          7
   144          1
   145          3
   146          2
   147          1
   148          2
   149          2
   150          0
   155          0
   159          2
   160         13
   161          6
   162         11
   163          5
   166          0
   167         29
   168          3
   169         25
   170          3
   171         10
   172          1
   178          1
   179          7
   180          0
   181          7
   183          4
   195         10
   196        602
   197         59
   198        599
   199         31
   200        191
   202         22
   203          2
   204          1
   205          2
   206          0
   208          1
   212          1
   220          1
   237          1
   238        117
   240         85
   241         10
   242         34
   244          2