##TITLE=Library Entry 19010
##JCAMP-DX=Revision 4.10 
##DATA TYPE=MASS SPECTRUM
##SAMPLE DESCRIPTION=Chemical Concepts
##NAMES=HP
##CAS NAME=3-Hexene
##MOLFORM=C6H12
##CAS REGISTRY NO=592-47-2
##MP= -300
##BP= -300
##MW= 84
##$RETENTION INDEX=611
##$CONDENSED SPECTRUM=NO
##NPOINTS= 44
##XYDATA=(XY..XY) 1 
    26         16
    27        167
    28         23
    29        138
    30          2
    37          8
    38         24
    39        278
    40         46
    41        728
    42        600
    43        128
    44          4
    49          3
    50         27
    51         41
    52         15
    53         79
    54         48
    55        999
    56        239
    57         15
    61          1
    62          5
    63         11
    64          1
    65         17
    66          7
    67         48
    68         10
    69        275
    70         16
    71          3
    74          4
    75          2
    76          3
    77          9
    78          3
    79          5
    81          4
    82          1
    83          5
    84        397
    85         27