##TITLE=Library Entry 91280
##JCAMP-DX=Revision 4.10 
##DATA TYPE=MASS SPECTRUM
##SAMPLE DESCRIPTION=Japan AIST/NIMC Database- Spectrum MS-NW-1121
##NAMES=HP
##CAS NAME=Butane, 1-isothiocyanato-
##MOLFORM=C5H9NS
##CAS REGISTRY NO=592-82-5
##MP= -300
##BP= -300
##MW= 115
##$RETENTION INDEX=951
##$CONDENSED SPECTRUM=NO
##NPOINTS= 73
##XYDATA=(XY..XY) 1 
    14          3
    15         14
    17          2
    18          9
    25          1
    26         34
    27        312
    28         52
    29        733
    30         33
    32         12
    33          3
    34          3
    37          7
    38         16
    39        169
    40         30
    41        854
    42         39
    43        101
    44         33
    45         97
    46         21
    47          6
    48          1
    49          2
    50          9
    51         13
    52          7
    53         18
    54         21
    55         97
    56        319
    57        513
    58         26
    59         92
    60         67
    61          5
    62          4
    63          2
    64          2
    67          2
    68          2
    69          2
    70         17
    71         23
    72        427
    73         99
    74         37
    75          5
    76          3
    78          1
    80          1
    81          4
    82         52
    83          3
    84          8
    85          8
    86         54
    87         11
    88          3
    90          1
    97          2
    98          6
   100         56
   101          3
   102          3
   113          3
   114        155
   115        999
   116         74
   117         46
   118          3