##TITLE=Library Entry 4374
##JCAMP-DX=Revision 4.10 
##DATA TYPE=MASS SPECTRUM
##SAMPLE DESCRIPTION=Exported from NIST MS Search
##NAMES=HP
##CAS NAME=Acetaldehyde, ethylidenehydrazone
##MOLFORM=C4H8N2
##CAS REGISTRY NO=592-56-3
##MP= -300
##BP= -300
##MW= 84
##$RETENTION INDEX=0
##$CONDENSED SPECTRUM=NO
##NPOINTS= 46
##XYDATA=(XY..XY) 1 
    12         14
    13         22
    14         59
    15        511
    16         11
    17          5
    18         18
    24          6
    25         34
    26        268
    27        312
    28        498
    29         42
    30         20
    31          2
    37          1
    38         21
    39         39
    40         85
    41        116
    42        999
    43         70
    44         22
    45          1
    49          1
    50          1
    51          3
    52          3
    53          6
    54          7
    55         15
    56         64
    57         18
    58          4
    66          1
    67          1
    68          6
    69        413
    70         16
    71          1
    81          1
    82          1
    83         16
    84        251
    85         13
    86          1