##TITLE=Library Entry 2988
##JCAMP-DX=Revision 4.10 
##DATA TYPE=MASS SPECTRUM
##SAMPLE DESCRIPTION=Japan AIST/NIMC Database- Spectrum MS-NW-3106
##NAMES=HP
##CAS NAME=3-Heptene
##MOLFORM=C7H14
##CAS REGISTRY NO=592-78-9
##MP= -300
##BP= -300
##MW= 98
##$RETENTION INDEX=719
##$CONDENSED SPECTRUM=NO
##NPOINTS= 55
##XYDATA=(XY..XY) 1 
    15          9
    26         13
    27        175
    28         22
    29        144
    30          5
    31          2
    37          4
    38         13
    39        192
    40         35
    41        999
    42        189
    43        146
    44          5
    45          1
    49          1
    50         11
    51         23
    52          9
    53         69
    54         63
    55        551
    56        791
    57         94
    58          5
    59          2
    61          2
    62          3
    63          6
    64          1
    65         11
    66          5
    67         52
    68         33
    69        583
    70        155
    71         16
    72          5
    73          1
    74          1
    77          6
    78          1
    79          8
    80          1
    81         13
    82          2
    83         42
    84          3
    95          1
    96          3
    97          7
    98        360
    99         28
   100          2