##TITLE=Library Entry 22307
##JCAMP-DX=Revision 4.10 
##DATA TYPE=MASS SPECTRUM
##SAMPLE DESCRIPTION=Japan AIST/NIMC Database- Spectrum MS-NW-3061
##NAMES=HP
##CAS NAME=2-Heptene
##MOLFORM=C7H14
##CAS REGISTRY NO=592-77-8
##MP= -300
##BP= -300
##MW= 98
##$RETENTION INDEX=703
##$CONDENSED SPECTRUM=NO
##NPOINTS= 55
##XYDATA=(XY..XY) 1 
    15          9
    26         14
    27        214
    28         31
    29        201
    30          4
    31          1
    36          1
    37          4
    38         14
    39        223
    40         38
    41        801
    42        214
    43        245
    44          9
    45          8
    49          1
    50         12
    51         23
    52         10
    53         75
    54        103
    55        847
    56        999
    57        114
    58          7
    59          1
    61          1
    62          3
    63          6
    64          1
    65         10
    66          5
    67         39
    68         35
    69        527
    70        188
    71         24
    72          3
    74          1
    77          6
    78          1
    79          7
    80          1
    81         13
    82          2
    83         46
    84          4
    95          2
    96          5
    97         10
    98        453
    99         36
   100          1