##TITLE=Library Entry 6940
##JCAMP-DX=Revision 4.10 
##DATA TYPE=MASS SPECTRUM
##SAMPLE DESCRIPTION=NIST Mass Spectrometry Data Center, 1998.
##NAMES=HP
##CAS NAME=Methylazoxymethanol acetate
##MOLFORM=C4H8N2O3
##CAS REGISTRY NO=592-62-1
##MP= -300
##BP= -300
##MW= 132
##$RETENTION INDEX=0
##$CONDENSED SPECTRUM=NO
##NPOINTS= 36
##XYDATA=(XY..XY) 1 
    13          1
    14          6
    15         35
    16          2
    26          1
    27          8
    28         43
    29         33
    30         81
    31          5
    32          1
    40          1
    41          6
    42         74
    43        999
    44         64
    45        210
    46        242
    47          4
    48          1
    55          3
    56          1
    57          3
    58          2
    59          1
    60         23
    61         17
    70          1
    71          1
    73         87
    74          3
    75          3
    88         19
    89          2
    90         31
    91          1