##TITLE=Library Entry 16765
##JCAMP-DX=Revision 4.10 
##DATA TYPE=MASS SPECTRUM
##SAMPLE DESCRIPTION=Japan AIST/NIMC Database- Spectrum MS-NW-3308
##NAMES=HP
##CAS NAME=Diallyl sulfide
##MOLFORM=C6H10S
##CAS REGISTRY NO=592-88-1
##MP= -300
##BP= -300
##MW= 114
##$RETENTION INDEX=861
##$CONDENSED SPECTRUM=NO
##NPOINTS= 85
##XYDATA=(XY..XY) 1 
    14          3
    15         30
    18          3
    25          2
    26         19
    27         84
    28          7
    29         21
    30          1
    32          5
    33          3
    34          4
    35          1
    36          3
    37         26
    38         62
    39        619
    40         49
    41        814
    42         41
    43          6
    44          9
    45        999
    46         76
    47        171
    48          6
    49          8
    50          3
    51          5
    52          3
    53         39
    54         20
    55         32
    56          4
    57          8
    58         31
    59         34
    60         52
    61          5
    62          3
    63          2
    65         19
    66         10
    67        122
    68        110
    69         31
    70          7
    71        218
    72        533
    73        805
    74         71
    75         39
    76          4
    77         13
    78          4
    79         56
    80        174
    81        220
    82         15
    83          1
    84          3
    85        106
    86         72
    87         41
    88          6
    89          2
    91         10
    92          2
    97          4
    98          2
    99        267
   100         16
   101         13
   102          1
   103          1
   105          2
   106          5
   107          1
   111          1
   112          1
   113         33
   114        486
   115         40
   116         28
   117          2