##TITLE=Library Entry 22023
##JCAMP-DX=Revision 4.10 
##DATA TYPE=MASS SPECTRUM
##SAMPLE DESCRIPTION=Japan AIST/NIMC Database- Spectrum MS-NW- 972
##NAMES=HP
##CAS NAME=1-Heptene
##MOLFORM=C7H14
##CAS REGISTRY NO=592-76-7
##MP= -300
##BP= -300
##MW= 98
##$RETENTION INDEX=685
##$CONDENSED SPECTRUM=NO
##NPOINTS= 45
##XYDATA=(XY..XY) 1 
    15         10
    26         19
    27        256
    28         48
    29        558
    30         11
    36          1
    37          5
    38         17
    39        304
    40         48
    41        967
    42        548
    43        158
    44          5
    49          1
    50         14
    51         22
    52          9
    53         64
    54         75
    55        675
    56        999
    57        306
    58         12
    61          1
    62          3
    63          5
    65          8
    66          3
    67         22
    68         35
    69        310
    70        441
    71         24
    77          4
    78          1
    79          3
    81          3
    82          1
    83         41
    84          3
    97          1
    98        137
    99         10