##TITLE=Library Entry 21966
##JCAMP-DX=Revision 4.10 
##DATA TYPE=MASS SPECTRUM
##SAMPLE DESCRIPTION=NIST Mass Spectrometry Data Center, 1990.
##NAMES=HP
##CAS NAME=Formic acid, butyl ester
##MOLFORM=C5H10O2
##CAS REGISTRY NO=592-84-7
##MP= -300
##BP= -300
##MW= 102
##$RETENTION INDEX=724
##$CONDENSED SPECTRUM=NO
##NPOINTS= 46
##XYDATA=(XY..XY) 1 
    12          1
    13          2
    14          5
    15         33
    16          0
    17          1
    18          4
    19         14
    26         52
    27        307
    28        164
    29        391
    30          0
    31        400
    32         15
    33          7
    37          8
    38         24
    39        161
    40         58
    41        621
    42         80
    43        176
    44         32
    45         72
    46          3
    47         33
    49          3
    50         11
    51          9
    52          3
    53         14
    54         14
    55        147
    56        999
    57         77
    58          2
    59          9
    60         23
    61          4
    69          1
    70          0
    71          2
    73         67
    74          6
   102          1