##TITLE=Library Entry 4452
##JCAMP-DX=Revision 4.10 
##DATA TYPE=MASS SPECTRUM
##SAMPLE DESCRIPTION=NIST Mass Spectrometry Data Center, 1990.
##NAMES=HP
##CAS NAME=Oxepane
##MOLFORM=C6H12O
##CAS REGISTRY NO=592-90-5
##MP= -300
##BP= -300
##MW= 100
##$RETENTION INDEX=804
##$CONDENSED SPECTRUM=NO
##NPOINTS= 54
##XYDATA=(XY..XY) 1 
    14          5
    15         33
    16          0
    17          0
    19          1
    26         40
    27        211
    28         84
    29        169
    30         12
    31         46
    32          1
    36          2
    37          9
    38         28
    39        242
    40         73
    41        415
    42        999
    43        127
    44         29
    45         53
    46          1
    50          9
    51         11
    52          5
    53         37
    54        101
    55        369
    56         40
    57         71
    58         40
    59          4
    61          1
    62          2
    63          3
    65          5
    67        246
    68        169
    69         91
    70         87
    71         55
    72         61
    73          2
    77          1
    79          4
    81         35
    82         40
    83          4
    85          4
    99         36
   100        262
   101         17
   102          1