##TITLE=Library Entry 24502
##JCAMP-DX=Revision 4.10 
##DATA TYPE=MASS SPECTRUM
##SAMPLE DESCRIPTION=Chuck Anderson, Aldrich Chemical Co.
##NAMES=HP
##CAS NAME=Hexane, 2,5-dimethyl-
##MOLFORM=C8H18
##CAS REGISTRY NO=592-13-2
##MP= -300
##BP= -300
##MW= 114
##$RETENTION INDEX=729
##$CONDENSED SPECTRUM=NO
##NPOINTS= 63
##XYDATA=(XY..XY) 1 
    15          4
    16          0
    25          0
    30          2
    37          0
    38          4
    39        107
    40         23
    41        343
    42        309
    43        733
    45          0
    46          0
    47          0
    48          0
    49          0
    50          4
    51          9
    52          3
    53         25
    54          8
    55        148
    56         99
    57        999
    58         36
    61          0
    62          0
    63          1
    64          0
    65          3
    66          1
    67          8
    68          2
    69         19
    70        156
    71        269
    72         17
    73          0
    74          0
    75          0
    77          2
    78          0
    79          2
    80          0
    81          0
    82          0
    83          2
    84          0
    85          1
    86          0
    87          0
    91          0
    95          0
    97          0
    98         29
    99        393
   100         26
   101          1
   112        102
   113         10
   114         71
   115          5
   116          0