##TITLE=Library Entry 22051
##JCAMP-DX=Revision 4.10 
##DATA TYPE=MASS SPECTRUM
##SAMPLE DESCRIPTION=Japan AIST/NIMC Database- Spectrum MS-NW-1114
##NAMES=HP
##CAS NAME=Carbonochloridic acid, butyl ester
##MOLFORM=C5H9ClO2
##CAS REGISTRY NO=592-34-7
##MP= -300
##BP= -300
##MW= 136
##$RETENTION INDEX=832
##$CONDENSED SPECTRUM=NO
##NPOINTS= 54
##XYDATA=(XY..XY) 1 
    14          3
    15         11
    16          3
    17          1
    18          3
    26         21
    27        166
    28         49
    29        254
    30          8
    31         17
    32          6
    35          6
    36          9
    37          3
    38          8
    39         80
    40         23
    41        552
    42         44
    43        174
    44         49
    45          4
    49          2
    50          5
    51          4
    52          1
    53          7
    54          7
    55        108
    56        999
    57        330
    58         15
    59          1
    62          1
    63        191
    64          3
    65         64
    69          3
    70          2
    71          3
    72          1
    73          9
    81          5
    83          1
    89          1
    93         32
    94          5
    95         11
    96          1
   107         13
   109          4
   118          2
   119          1