##TITLE=Library Entry 24939
##JCAMP-DX=Revision 4.10 
##DATA TYPE=MASS SPECTRUM
##SAMPLE DESCRIPTION=Japan AIST/NIMC Database- Spectrum MS-NW-3129
##NAMES=HP
##CAS NAME=Propane, 1,1'-thiobis[2-methyl-
##MOLFORM=C8H18S
##CAS REGISTRY NO=592-65-4
##MP= -300
##BP= -300
##MW= 146
##$RETENTION INDEX=994
##$CONDENSED SPECTRUM=NO
##NPOINTS= 70
##XYDATA=(XY..XY) 1 
    15          5
    18          1
    26          3
    27         73
    28          7
    29        191
    30          4
    32          2
    34          1
    35          3
    37          1
    38          3
    39         79
    40          9
    41        275
    42         18
    43         80
    44          3
    45         38
    46         26
    47         79
    48         17
    49          9
    50          2
    51          3
    52          1
    53         12
    54          5
    55        122
    56        464
    57        999
    58         44
    59         12
    60         10
    61        158
    62         11
    63          7
    67          1
    69         44
    70          5
    71          4
    72          1
    73          6
    74          6
    75         40
    76          2
    77          2
    85          1
    87          4
    88         15
    89         44
    90         75
    91         41
    92          5
    93          2
   103        432
   104         32
   105         20
   106          1
   117         52
   118          4
   119          2
   122          1
   131         16
   132          1
   145          4
   146        304
   147         28
   148         13
   149          1