##TITLE=Library Entry 32910
##JCAMP-DX=Revision 4.10 
##DATA TYPE=MASS SPECTRUM
##SAMPLE DESCRIPTION=Japan AIST/NIMC Database- Spectrum MS-IW-3005
##NAMES=HP
##CAS NAME=2,4-Hexadiene
##MOLFORM=C6H10
##CAS REGISTRY NO=592-46-1
##MP= -300
##BP= -300
##MW= 82
##$RETENTION INDEX=663
##$CONDENSED SPECTRUM=NO
##NPOINTS= 44
##XYDATA=(XY..XY) 1 
    15          5
    26         13
    27        104
    28         15
    29         31
    37         11
    38         27
    39        240
    40         52
    41        328
    42         55
    43         26
    44          2
    45          4
    49          6
    50         43
    51         64
    52         32
    53        159
    54        167
    55         65
    56         28
    57          4
    61          4
    62          9
    63         17
    64          3
    65         93
    66         35
    67        999
    68         60
    69          5
    73          3
    74          9
    75          3
    76          1
    77         48
    78          9
    79        115
    80         15
    81        144
    82        524
    83         36
    84          1