##TITLE=Library Entry 31453
##JCAMP-DX=Revision 4.10 
##DATA TYPE=MASS SPECTRUM
##SAMPLE DESCRIPTION=Japan AIST/NIMC Database- Spectrum MS-NW-1424
##NAMES=HP
##CAS NAME=Butyl carbamate
##MOLFORM=C5H11NO2
##CAS REGISTRY NO=592-35-8
##MP= -300
##BP= -300
##MW= 117
##$RETENTION INDEX=0
##$CONDENSED SPECTRUM=NO
##NPOINTS= 50
##XYDATA=(XY..XY) 1 
    14          2
    15         20
    16         21
    17         14
    18          9
    26         20
    27        184
    28         96
    29        200
    30          7
    31        291
    32          5
    33          7
    37          3
    38          8
    39         89
    40         19
    41        392
    42         44
    43        119
    44        728
    45        188
    46         27
    47          1
    50          3
    51          4
    52          2
    53          9
    54          7
    55        217
    56        589
    57         54
    58          2
    59         33
    60          1
    61          4
    62        999
    63         14
    64          4
    71          4
    72          9
    73        108
    74        227
    75         14
    76          2
    87          1
    88         67
    89          7
   117          2
   118          2