##TITLE=Library Entry 5016
##JCAMP-DX=Revision 4.10 
##DATA TYPE=MASS SPECTRUM
##SAMPLE DESCRIPTION=A.Pleshkova, Nesmeyanov Inst.Org.Elem.Cpds, Moscow
##NAMES=HP
##CAS NAME=1,6-Diazabicyclo[4.1.0]heptane
##MOLFORM=C5H10N2
##CAS REGISTRY NO=59204-83-0
##MP= -300
##BP= -300
##MW= 98
##$RETENTION INDEX=0
##$CONDENSED SPECTRUM=NO
##NPOINTS= 30
##XYDATA=(XY..XY) 1 
    14         48
    15        122
    16          6
    26         48
    27        161
    28        267
    29         39
    30        111
    31          6
    37         13
    38         31
    39        175
    40         72
    41        347
    42        999
    43        236
    44         14
    52         13
    53         18
    54         32
    55         58
    56        117
    57         33
    58          6
    68         60
    69         33
    70        107
    97        537
    98        310
    99         22