##TITLE=Library Entry 46270
##JCAMP-DX=Revision 4.10 
##DATA TYPE=MASS SPECTRUM
##SAMPLE DESCRIPTION=A.A.Kutin, Moscow, Russia
##NAMES=HP
##CAS NAME=1H-Isoindole-1,3(2H)-dione, 2-(2-pyridinyl)-
##MOLFORM=C13H8N2O2
##CAS REGISTRY NO=59208-49-0
##MP= -300
##BP= -300
##MW= 224
##$RETENTION INDEX=0
##$CONDENSED SPECTRUM=NO
##NPOINTS= 91
##XYDATA=(XY..XY) 1 
    33          3
    34          4
    36          3
    37        155
    38        375
    39        280
    40         66
    41         51
    42         15
    43         15
    44         26
    45          3
    46          0
    47          0
    48          2
    49         46
    50        757
    51        253
    52        105
    53         66
    55         17
    57         11
    58          1
    60          2
    61         16
    62         30
    63         69
    64        159
    65        156
    66        121
    67         13
    73         49
    74        246
    75        233
    76        999
    77        113
    78        194
    79         22
    80          3
    81          1
    82          1
    90         21
    91         19
    92         70
    93         12
    94         18
    95          2
    96          0
   104        359
   105         40
   106          3
   107          0
   108          0
   114         12
   115          7
   116          2
   119          4
   120         15
   121          2
   130         58
   131          5
   132          2
   133          0
   139          1
   140         21
   141         11
   142          7
   143          1
   144          0
   152          3
   153         12
   154          8
   155          1
   167         13
   168        112
   169         19
   170          3
   171          1
   179         70
   180         36
   181          5
   182          7
   183          1
   195         26
   196        417
   197         58
   198          5
   223         54
   224        152
   225         22
   226          2