##TITLE=Library Entry 10086
##JCAMP-DX=Revision 4.10 
##DATA TYPE=MASS SPECTRUM
##SAMPLE DESCRIPTION=NIST Mass Spectrometry Data Center, 2010
##NAMES=HP
##CAS NAME=2-Heptanol, acetate
##MOLFORM=C9H18O2
##CAS REGISTRY NO=5921-82-4
##MP= -300
##BP= -300
##MW= 158
##$RETENTION INDEX=1045
##$CONDENSED SPECTRUM=NO
##NPOINTS= 67
##XYDATA=(XY..XY) 1 
    14          1
    15         11
    26          4
    27         53
    28         11
    29         68
    30          2
    31          3
    37          1
    39         71
    40         15
    41        187
    42         84
    43        999
    44         33
    45         39
    46          1
    50          2
    51          6
    52          3
    53         22
    54         23
    55        180
    56        267
    57        159
    58        100
    59         50
    60          3
    61         74
    62          2
    65          4
    66          1
    67         15
    68         19
    69        164
    70        164
    71         41
    72         14
    73          2
    77          2
    79          4
    81          8
    82          3
    83         77
    84          5
    85         12
    87        817
    88         37
    89          4
    96          3
    97         18
    98        358
    99         53
   100          4
   101          7
   102         99
   103          8
   104          1
   111          4
   114         21
   115         46
   116          4
   125          1
   130          1
   140          2
   143         23
   144          2