##TITLE=Library Entry 10783
##JCAMP-DX=Revision 4.10 
##DATA TYPE=MASS SPECTRUM
##SAMPLE DESCRIPTION=NIST Mass Spectrometry Data Center, 2010
##NAMES=HP
##CAS NAME=1-Ethylpentyl acetate
##MOLFORM=C9H18O2
##CAS REGISTRY NO=5921-83-5
##MP= -300
##BP= -300
##MW= 158
##$RETENTION INDEX=1040
##$CONDENSED SPECTRUM=NO
##NPOINTS= 62
##XYDATA=(XY..XY) 1 
    14          1
    15          8
    26          4
    27         48
    28         11
    29         70
    30          3
    31          9
    39         50
    40          9
    41        140
    42         47
    43        999
    44         39
    45         12
    50          2
    51          5
    52          2
    53         17
    54         17
    55        103
    56        147
    57        133
    58         46
    59         40
    61         38
    62          1
    63          1
    65          3
    66          1
    67         12
    68         13
    69        146
    70         94
    71         12
    72          8
    73         35
    74          2
    77          2
    79          2
    81          3
    82          1
    83         23
    84          2
    85         21
    86          4
    87          9
    96          1
    97          7
    98        203
    99         18
   100         14
   101        451
   102         25
   114          2
   115         18
   116         30
   117          2
   129        381
   130         30
   131          3
   140          1