##TITLE=Library Entry 20013
##JCAMP-DX=Revision 4.10 
##DATA TYPE=MASS SPECTRUM
##SAMPLE DESCRIPTION=NIST Mass Spectrometry Data Center, 1990.
##NAMES=HP
##CAS NAME=2-Nonyn-1-ol
##MOLFORM=C9H16O
##CAS REGISTRY NO=5921-73-3
##MP= -300
##BP= -300
##MW= 140
##$RETENTION INDEX=0
##$CONDENSED SPECTRUM=NO
##NPOINTS= 55
##XYDATA=(XY..XY) 1 
    14         23
    26         38
    27        324
    28         75
    29        391
    30         23
    31         74
    32          2
    38         54
    39        605
    40        159
    41        899
    42        333
    43        637
    44         40
    50         68
    51        175
    52        223
    53        282
    54        165
    55        999
    56        173
    57        177
    58         14
    62         16
    63         41
    64         14
    65        144
    66        138
    67        941
    68        300
    69        533
    70        684
    71         74
    77        200
    78         50
    79        432
    80        110
    81        298
    82         57
    83        427
    84         68
    85         21
    91        163
    93        495
    94         89
    95         73
    96         47
    97         65
    98         11
   105         18
   107        135
   109        241
   110         28
   111        141