##TITLE=Library Entry 49093
##JCAMP-DX=Revision 4.10 
##DATA TYPE=MASS SPECTRUM
##SAMPLE DESCRIPTION=D.HENNEBERG, MAX-PLANCK INSTITUTE, MULHEIM, WEST GERMAN
Y
##NAMES=HP
##CAS NAME=Cyclopentane, 1,3-bis(methylene)-
##MOLFORM=C7H10
##CAS REGISTRY NO=59219-48-6
##MP= -300
##BP= -300
##MW= 94
##$RETENTION INDEX=0
##$CONDENSED SPECTRUM=NO
##NPOINTS= 45
##XYDATA=(XY..XY) 1 
    26         12
    27        111
    28         35
    29         28
    38          6
    39        210
    40         58
    41         59
    42          9
    43          1
    44          1
    45          0
    46          2
    50         10
    51         50
    52         47
    53        124
    54         47
    55         24
    56          2
    57          2
    62          1
    63         13
    64          6
    65         77
    66         71
    67         22
    68          2
    69          0
    75         12
    76          5
    77        446
    78         89
    79        999
    80         69
    81          3
    89          4
    90          3
    91        189
    92         20
    93        153
    94        588
    95         45
    96          1
    97          2