##TITLE=Library Entry 96921
##JCAMP-DX=Revision 4.10 
##DATA TYPE=MASS SPECTRUM
##SAMPLE DESCRIPTION=Chemical Concepts
##NAMES=HP
##CAS NAME=1H-Pyrrole-2,5-dicarbonitrile
##MOLFORM=C6H3N3
##CAS REGISTRY NO=59215-66-6
##MP= -300
##BP= -300
##MW= 117
##$RETENTION INDEX=0
##$CONDENSED SPECTRUM=NO
##NPOINTS= 32
##XYDATA=(XY..XY) 1 
    25          5
    26         10
    27         15
    28         55
    36         14
    37        123
    38        120
    39         33
    40         13
    41         16
    42          2
    48          2
    49          6
    50          8
    51         18
    52         51
    53        157
    54          5
    62         34
    63        111
    64        137
    65        127
    66         79
    67          6
    88          3
    89         16
    90         85
    91         20
   116          7
   117        999
   118         80
   119          3