##TITLE=Library Entry 13545
##JCAMP-DX=Revision 4.10 
##DATA TYPE=MASS SPECTRUM
##SAMPLE DESCRIPTION=A.A.Kutin, Moscow, Russia
##NAMES=HP
##CAS NAME=Cyclohexane, 1,1-bis(5-methyl-2-furyl)-
##MOLFORM=C16H20O2
##CAS REGISTRY NO=59212-76-9
##MP= -300
##BP= -300
##MW= 244
##$RETENTION INDEX=0
##$CONDENSED SPECTRUM=NO
##NPOINTS= 175
##XYDATA=(XY..XY) 1 
    33         26
    34          2
    37          3
    39        174
    40         67
    41        208
    43        999
    44         39
    45         21
    46          1
    50         42
    51        108
    52         79
    53        154
    55        157
    56         23
    57         20
    58          6
    59          3
    60          3
    61          1
    62          8
    63         35
    64         19
    65         67
    66         24
    67         51
    68         12
    69         36
    70         14
    71         20
    72          4
    73          5
    74          6
    75          9
    77        148
    78         43
    79         94
    80         27
    81         64
    82         25
    83         17
    84          5
    85         13
    86          9
    87          7
    88          4
    89         16
    91        137
    92         24
    93         32
    95        242
    97         48
    98         21
    99         11
   100          4
   101          5
   102         14
   103         28
   104         11
   105         45
   106         19
   107         67
   108         39
   109        103
   110         10
   111         14
   112          3
   113         12
   115         90
   116         26
   117         45
   119         53
   120         22
   121         49
   122         21
   123         16
   124         47
   125         11
   126          5
   127         20
   128         37
   129         36
   130         13
   131         44
   132         13
   133         23
   134         19
   135         21
   136          8
   137         27
   138          5
   139          5
   140          3
   141         15
   142          7
   143         17
   145        159
   146         25
   147         28
   148         17
   149         23
   150          8
   151         15
   152          7
   153          9
   154          5
   155         17
   156          4
   157         20
   158         36
   159        121
   160         28
   161         38
   162         49
   163         56
   164         12
   165         10
   166          6
   167          3
   168          4
   169          7
   171         16
   172          9
   173         56
   175        195
   176         25
   177         12
   178         12
   179         12
   180          2
   181          2
   183         21
   184          6
   185         12
   186         17
   187         70
   188        192
   189         35
   190          3
   191          2
   192          1
   193          5
   194          5
   195          5
   196          2
   197          5
   198          3
   201        824
   202        146
   203         19
   204          3
   205          1
   207          2
   211          2
   213          1
   215         35
   216         13
   217          4
   218          0
   219          0
   221          0
   225          1
   226          0
   227          3
   229         43
   230          6
   231          2
   233          0
   241          2
   242          7
   244        475
   245         75
   246          9
   247          1