##TITLE=Library Entry 24887
##JCAMP-DX=Revision 4.10 
##DATA TYPE=MASS SPECTRUM
##SAMPLE DESCRIPTION=Chemical Concepts
##NAMES=HP
##CAS NAME=Tetradecane, 2,2-dimethyl-
##MOLFORM=C16H34
##CAS REGISTRY NO=59222-86-5
##MP= -300
##BP= -300
##MW= 226
##$RETENTION INDEX=1515
##$CONDENSED SPECTRUM=NO
##NPOINTS= 73
##XYDATA=(XY..XY) 1 
    26          1
    27         23
    28         31
    29         78
    30          1
    31          0
    37          0
    38          0
    39         15
    40          5
    41        164
    42         22
    43        174
    44          5
    50          0
    51          0
    52          0
    53          5
    54          4
    55         61
    56        486
    57        999
    58         46
    59          0
    65          0
    66          0
    67          5
    68          2
    69         26
    70         11
    71        102
    72          5
    77          0
    79          0
    81          1
    82          3
    83         10
    84          5
    85         63
    86          4
    91          0
    93          0
    95          0
    96          3
    97          8
    98          2
    99         23
   100          1
   110          2
   111          6
   112          2
   113         15
   114          1
   115          0
   124          1
   125          4
   126          1
   127         10
   128          0
   138          0
   139          1
   140          1
   141          7
   142          0
   154          0
   155          4
   156          0
   168         28
   169          5
   170          0
   210          0
   211         11
   212          1