##TITLE=Library Entry 802
##JCAMP-DX=Revision 4.10 
##DATA TYPE=MASS SPECTRUM
##SAMPLE DESCRIPTION=A.Pleshkova, Nesmeyanov Inst.Org.Elem.Cpds, Moscow
##NAMES=HP
##CAS NAME=N-Carbethoxy-2,2-difluoro-3-trifluoromethyl-3-carbomethoxyaziridi
ne
##MOLFORM=C8H8F5NO4
##CAS REGISTRY NO=59223-03-9
##MP= -300
##BP= -300
##MW= 277
##$RETENTION INDEX=0
##$CONDENSED SPECTRUM=NO
##NPOINTS= 30
##XYDATA=(XY..XY) 1 
    29        999
    30         23
    45         84
    46          7
    59        382
    60          9
    81        420
    82         23
    96        108
    97          2
   124         86
   125          9
   145        516
   146         12
   157        180
   158          4
   173        816
   174         94
   175          8
   185        218
   186          5
   204        180
   205         74
   206          8
   218        170
   219          4
   232        122
   233          3
   246         94
   247          8