##TITLE=Library Entry 58816
##JCAMP-DX=Revision 4.10 
##DATA TYPE=MASS SPECTRUM
##SAMPLE DESCRIPTION=UNI4 L.O. Hargiss, Unilever Res. Inc., Edgewater, N.J.,
 USA
##NAMES=HP
##CAS NAME=Benzenesulfonic acid, 2-methyl-, ethyl ester
##MOLFORM=C9H12O3S
##CAS REGISTRY NO=59222-96-7
##MP= -300
##BP= -300
##MW= 200
##$RETENTION INDEX=0
##$CONDENSED SPECTRUM=NO
##NPOINTS= 50
##XYDATA=(XY..XY) 1 
    40          8
    41         23
    43          9
    45          5
    50         21
    51         60
    52         18
    53         14
    62         29
    63        111
    64         36
    65        308
    66         19
    69          5
    74          6
    75          8
    76          5
    77        102
    78         27
    79         38
    80          7
    86          5
    89        226
    90        999
    91        648
    92         75
    93          5
   106         53
   107         62
   108         23
   109         21
   111          5
   117         20
   119          8
   121          6
   125         11
   136         38
   137        286
   138         27
   139         17
   154        106
   155         71
   156         14
   171         23
   172        401
   173         38
   174         20
   200        343
   201         37
   202         17