##TITLE=Library Entry 605
##JCAMP-DX=Revision 4.10 
##DATA TYPE=MASS SPECTRUM
##SAMPLE DESCRIPTION=A.Pleshkova, Nesmeyanov Inst.Org.Elem.Cpds, Moscow
##NAMES=HP
##CAS NAME=N-Carbethoxy-2,2-difluoro-3,3-bis(trifluoromethyl)aziridine
##MOLFORM=C7H5F8NO2
##CAS REGISTRY NO=59223-02-8
##MP= -300
##BP= -300
##MW= 287
##$RETENTION INDEX=0
##$CONDENSED SPECTRUM=NO
##NPOINTS= 22
##XYDATA=(XY..XY) 1 
    27        146
    28        170
    29        999
    30         23
    43         65
    44          5
    45         74
    46         11
    50         26
    69        317
    70         12
    76         29
    92         50
   126         19
   142         53
   143          4
   195         46
   196          5
   215         26
   242        132
   243          5
   287          9