##TITLE=Library Entry 83395
##JCAMP-DX=Revision 4.10 
##DATA TYPE=MASS SPECTRUM
##SAMPLE DESCRIPTION=Philip Morris R&D
##NAMES=HP
##CAS NAME=Benzenemethanol, 4-(1-methylethyl)-, acetate
##MOLFORM=C12H16O2
##CAS REGISTRY NO=59230-57-8
##MP= -300
##BP= -300
##MW= 192
##$RETENTION INDEX=1432
##$CONDENSED SPECTRUM=NO
##NPOINTS= 87
##XYDATA=(XY..XY) 1 
    36          5
    37          0
    38          2
    39         43
    40          4
    41         59
    42          8
    43        622
    44         19
    45          0
    49          0
    50         12
    51         46
    52          7
    53         12
    54          4
    55          9
    57         11
    58         15
    59          2
    62          5
    63         21
    64          8
    65         37
    66          3
    67          3
    69          1
    71         40
    72          1
    73          0
    74          2
    75          7
    76          5
    77         77
    78         22
    79        100
    80          6
    81          0
    82          1
    84          2
    86          2
    89         24
    90          9
    91        173
    92         21
    93         37
    94          3
   101          2
   102         10
   103         27
   104         19
   105        125
   106         11
   107        999
   108         86
   109          8
   115        110
   116         32
   117        491
   118         94
   119         48
   120          3
   121          3
   127          3
   128          5
   129          6
   130          1
   131         80
   132        121
   133        217
   134         35
   135        148
   136         14
   147          3
   148          4
   149        194
   150        400
   151         42
   152          1
   161          0
   177        406
   178         41
   179          4
   191          4
   192        522
   193         58
   194          4