##TITLE=Library Entry 15240
##JCAMP-DX=Revision 4.10 
##DATA TYPE=MASS SPECTRUM
##SAMPLE DESCRIPTION=Japan AIST/NIMC Database- Spectrum MS-NW-1912
##NAMES=HP
##CAS NAME=dl-Alanyl-l-alanine
##MOLFORM=C6H12N2O3
##CAS REGISTRY NO=59247-16-4
##MP= -300
##BP= -300
##MW= 160
##$RETENTION INDEX=0
##$CONDENSED SPECTRUM=NO
##NPOINTS= 49
##XYDATA=(XY..XY) 1 
    14          1
    15         17
    16          1
    17          2
    18         11
    26          4
    27         22
    28         12
    29          9
    30          5
    31          1
    32          1
    39          2
    40          4
    41         11
    42         41
    43         21
    44        999
    45         30
    53          1
    54          2
    55          7
    56          8
    57          3
    58          2
    69          2
    70          5
    71          8
    72          2
    73          2
    74          2
    81          1
    83          1
    84          2
    85          1
    88          2
    95          1
    96          1
    97          1
    98          1
    99         29
   100          2
   113          1
   114          1
   115          3
   117          2
   127          1
   142          2
   160          1