##TITLE=Library Entry 571
##JCAMP-DX=Revision 4.10 
##DATA TYPE=MASS SPECTRUM
##SAMPLE DESCRIPTION=J. MADSEN,DEP. ORG. CHEM.,TECH. UNIV. DENMARK,LYNGBY,DE
NMARK
##NAMES=HP
##CAS NAME=S-Methyl propanethioate
##MOLFORM=C4H8OS
##CAS REGISTRY NO=5925-75-7
##MP= -300
##BP= -300
##MW= 104
##$RETENTION INDEX=785
##$CONDENSED SPECTRUM=NO
##NPOINTS= 8
##XYDATA=(XY..XY) 1 
    27        160
    29        999
    45         70
    47        100
    48         80
    57        760
    75         80
   104        170