##TITLE=Library Entry 62882
##JCAMP-DX=Revision 4.10 
##DATA TYPE=MASS SPECTRUM
##SAMPLE DESCRIPTION=T. H. KINSTLE
##NAMES=HP
##CAS NAME=Benzeneethanethioic acid, S-methyl ester
##MOLFORM=C9H10OS
##CAS REGISTRY NO=5925-74-6
##MP= -300
##BP= -300
##MW= 166
##$RETENTION INDEX=0
##$CONDENSED SPECTRUM=NO
##NPOINTS= 6
##XYDATA=(XY..XY) 1 
    65        130
    75         40
    91        999
   119        130
   138         10
   166        410