##TITLE=Library Entry 27541
##JCAMP-DX=Revision 4.10 
##DATA TYPE=MASS SPECTRUM
##SAMPLE DESCRIPTION=M. BAUMGARTH, E. MERCK, DARMSTADT, W. GE
##NAMES=HP
##CAS NAME=17.beta.-tert-Butoxy-6.beta.-hydroxy-4-propyl-3,4-seco-5.alpha.-a
ndrostan-3-oic acid methyl ester
##MOLFORM=C27H48O4
##CAS REGISTRY NO=59251-51-3
##MP= -300
##BP= -300
##MW= 436
##$RETENTION INDEX=0
##$CONDENSED SPECTRUM=NO
##NPOINTS= 99
##XYDATA=(XY..XY) 1 
    27         50
    28         40
    29        160
    41        330
    43        160
    55        380
    57        999
    58         50
    59         60
    67        170
    69        200
    77         60
    79        170
    81        280
    83        130
    91        130
    93        250
    94         50
    95        210
    97         90
    99         60
   105        170
   107        200
   109        130
   111         50
   115         80
   119        140
   121        110
   123         80
   125         30
   131         90
   133        140
   135        120
   137         70
   145        140
   147        100
   149         80
   151         60
   153        100
   159         70
   161        120
   163         90
   165         30
   171         60
   173         60
   175         50
   177         50
   185         70
   187         50
   189         50
   191         60
   197         50
   199         60
   201         70
   203         60
   205         30
   213         80
   215         90
   217         90
   219         60
   227         40
   229         70
   231        120
   247        100
   248         30
   249         30
   255        170
   256         30
   257        410
   258         90
   259         20
   269         70
   273         80
   275        370
   276         90
   287         50
   288         30
   291         70
   305        960
   306        250
   307         40
   311        110
   312         30
   313         30
   318        170
   319         70
   329        260
   330         70
   331         50
   343        130
   344        350
   345        140
   349         40
   361        270
   362        560
   363        130
   379         20
   418         80
   419         10