##TITLE=Library Entry 24561
##JCAMP-DX=Revision 4.10 
##DATA TYPE=MASS SPECTRUM
##SAMPLE DESCRIPTION=M. BAUMGARTH, E. MERCK, DARMSTADT, W. GE
##NAMES=HP
##CAS NAME=6.beta.-Acetoxy-17.beta.-tert-butoxy-4,5-secoandrostan-4-oic acid
 methyl ester
##MOLFORM=C26H44O5
##CAS REGISTRY NO=59252-03-8
##MP= -300
##BP= -300
##MW= 436
##$RETENTION INDEX=0
##$CONDENSED SPECTRUM=NO
##NPOINTS= 71
##XYDATA=(XY..XY) 1 
    27         20
    28         30
    29        190
    41        270
    43        480
    55        200
    57        999
    58         70
    59         80
    67        130
    69        120
    71         40
    74         60
    77         20
    79        150
    81        230
    83         70
    91        100
    93        220
    94         80
    95        230
    97         60
   105        220
   106         80
   107        250
   108         60
   109         80
   119        130
   121        100
   123         50
   129         40
   131         90
   133        110
   135        100
   137         70
   145        170
   147        110
   149         50
   151         40
   159        100
   161        120
   163         70
   169         80
   173         70
   175        140
   176         50
   201        400
   202         70
   219        220
   220         40
   235         60
   249         40
   263        230
   264         60
   279        150
   280         30
   281         30
   286        160
   287         70
   297         80
   298         20
   299         50
   301         70
   302        410
   303        130
   304         30
   319        220
   320        260
   321         60
   334         10
   376         40