##TITLE=Library Entry 23525
##JCAMP-DX=Revision 4.10 
##DATA TYPE=MASS SPECTRUM
##SAMPLE DESCRIPTION=M. BAUMGARTH, E. MERCK, DARMSTADT, W. GERMANY
##NAMES=HP
##CAS NAME=17.beta.-tert-Butoxy-6-oxo-4-propyl-3,4-seco-5.beta.-androstan-3-
oic acid methyl ester
##MOLFORM=C27H46O4
##CAS REGISTRY NO=59251-34-2
##MP= -300
##BP= -300
##MW= 434
##$RETENTION INDEX=0
##$CONDENSED SPECTRUM=NO
##NPOINTS= 82
##XYDATA=(XY..XY) 1 
    27         40
    28        100
    29        180
    41        430
    42         30
    43        150
    55        400
    56         50
    57        999
    58         40
    67        200
    68         50
    69        180
    71        100
    73         40
    74         30
    77         60
    79        170
    81        270
    83        100
    85         50
    91        150
    93        230
    94         60
    95        170
    97         80
    99        130
   105        150
   107        170
   109        110
   110         40
   111         40
   115         60
   119         90
   121        130
   123         80
   131         60
   133         90
   135         60
   137         50
   145         50
   147        110
   149         70
   151         40
   159         50
   161         50
   173         40
   175        100
   177        110
   179         40
   189         60
   191         30
   207        240
   208         50
   215         80
   217         90
   235        210
   236         60
   245         40
   246         30
   247         40
   263        150
   264         40
   273         90
   274         20
   291        240
   292         60
   294        190
   295         30
   335         80
   336         10
   350        110
   351         30
   360        130
   361         40
   363         20
   377         30
   378        270
   379         70
   380         10
   434         30
   435         10