##TITLE=Library Entry 27582
##JCAMP-DX=Revision 4.10 
##DATA TYPE=MASS SPECTRUM
##SAMPLE DESCRIPTION=M. BAUMGARTH, E. MERCK, DARMSTADT, W. GE
##NAMES=HP
##CAS NAME=3,17.beta.-Di-tert-butoxy-4-propyl-3,4-seco-5.alpha.-androstan-6.
alpha.-ol
##MOLFORM=C30H56O3
##CAS REGISTRY NO=59251-49-9
##MP= -300
##BP= -300
##MW= 464
##$RETENTION INDEX=0
##$CONDENSED SPECTRUM=NO
##NPOINTS= 83
##XYDATA=(XY..XY) 1 
    27         20
    28         30
    29         90
    41        210
    43        130
    55        210
    56         40
    57        999
    58         60
    67         90
    69        160
    71         80
    79         70
    81        140
    83        110
    85        220
    91         50
    93        120
    95        160
    97         80
   105         80
   107        110
   109         80
   119         60
   121         60
   123         50
   131         40
   133         90
   135         70
   137         60
   145         60
   147         60
   149         60
   151         50
   157         40
   159         40
   161         60
   163         50
   173         40
   175         40
   177         40
   187         30
   189         30
   191         40
   199         30
   201         50
   203         40
   205         30
   213         20
   215         20
   217         40
   219         60
   221         30
   229         40
   231         40
   237         40
   241         40
   247         50
   257        170
   258         40
   259        110
   260         30
   275        200
   276         60
   277        320
   278         70
   289         40
   290         40
   291         30
   297         90
   298         40
   299         40
   303         40
   315        320
   316        160
   317         90
   333        350
   334        200
   335         50
   389         50
   390         40
   446        120
   447         40