##TITLE=Library Entry 14136
##JCAMP-DX=Revision 4.10 
##DATA TYPE=MASS SPECTRUM
##SAMPLE DESCRIPTION=M. BAUMGARTH, E. MERCK, DARMSTADT, W. GE
##NAMES=HP
##CAS NAME=17.beta.-Acetoxy-4-hydroxy-4-propyl-5,6-epoxy-androstan-3-one
##MOLFORM=C24H36O5
##CAS REGISTRY NO=59251-17-1
##MP= -300
##BP= -300
##MW= 404
##$RETENTION INDEX=0
##$CONDENSED SPECTRUM=NO
##NPOINTS= 109
##XYDATA=(XY..XY) 1 
    27         50
    28         20
    29         40
    41        160
    42         20
    43        999
    44         30
    45         20
    53         40
    55        150
    57         40
    67         90
    69         50
    71        280
    72         20
    77         70
    78         20
    79        130
    80         20
    81        160
    82         20
    83         40
    91        140
    92         20
    93        180
    94         50
    95        110
    96         20
    97         80
    99         70
   105        150
   106         30
   107        140
   108         40
   109        100
   110         30
   111         30
   119        120
   120         30
   121        110
   122         50
   123        200
   124         50
   125        110
   131        110
   133        230
   134         60
   135         60
   139         80
   143         60
   145        120
   146         60
   147        140
   148         30
   149         60
   157         50
   159        100
   160         30
   161         80
   171         50
   173         60
   175         50
   183         40
   185         60
   187         40
   189         40
   195         30
   197         60
   199         80
   200         40
   201         50
   211         60
   213        120
   214         30
   215         40
   217         50
   218         40
   227         70
   229         50
   237        110
   238         20
   239         10
   241         50
   245         30
   255        510
   256        120
   257         30
   259         40
   263         30
   271         30
   272         20
   273        340
   274         90
   277        110
   278         80
   289         40
   290         40
   291         30
   301         40
   315         60
   316         50
   317         30
   333        340
   334         80
   362         70
   371         10
   386         10
   404         50
   405         20