##TITLE=Library Entry 27527
##JCAMP-DX=Revision 4.10 
##DATA TYPE=MASS SPECTRUM
##SAMPLE DESCRIPTION=M. BAUMGARTH, E. MERCK, DARMSTADT, W. GE
##NAMES=HP
##CAS NAME=3,17.beta.-Di-tert-butoxy-4-propyl-3,4-seco-5.alpha.-adrrostan-6-
one
##MOLFORM=C30H54O3
##CAS REGISTRY NO=59251-36-4
##MP= -300
##BP= -300
##MW= 462
##$RETENTION INDEX=0
##$CONDENSED SPECTRUM=NO
##NPOINTS= 94
##XYDATA=(XY..XY) 1 
    29         90
    41        200
    43         90
    55        210
    57        999
    58         40
    67         80
    69        150
    71         60
    77         20
    79         70
    81        150
    83        100
    85        200
    91         60
    93        130
    95        130
    97         70
    99         40
   105         90
   107        100
   109         70
   111         40
   119         60
   121         80
   123         40
   131         30
   133         70
   135         50
   137         40
   145         40
   147         80
   149         60
   151         30
   159         40
   161         50
   163         30
   165         40
   173         50
   175         50
   177         80
   179         40
   191         30
   193         40
   201         40
   207        100
   208         40
   209         30
   217         70
   218         40
   219         50
   235        220
   236         70
   237         40
   245         50
   263        370
   264         70
   266         90
   267         20
   273        100
   274         20
   275         40
   276         50
   277         20
   278         30
   279         30
   291        520
   292        110
   293         70
   307        180
   308         30
   313         30
   314         20
   315         30
   322        110
   323         20
   331         90
   332        140
   333         90
   334         30
   335         30
   347        230
   348         60
   349        320
   350        520
   351        110
   352         10
   389         60
   390         10
   405         40
   406        110
   407         30
   462         50
   463         10