##TITLE=Library Entry 26945
##JCAMP-DX=Revision 4.10 
##DATA TYPE=MASS SPECTRUM
##SAMPLE DESCRIPTION=Chemical Concepts
##NAMES=HP
##CAS NAME=1,3-Benzenebis(N-carbamic acid), di-t-butyl ester
##MOLFORM=C16H24N2O4
##CAS REGISTRY NO=59255-77-5
##MP= -300
##BP= -300
##MW= 308
##$RETENTION INDEX=0
##$CONDENSED SPECTRUM=NO
##NPOINTS= 128
##XYDATA=(XY..XY) 1 
    26          6
    27         38
    28         17
    29        137
    30          4
    31         45
    37          4
    38          8
    39         57
    40         13
    41        249
    42         26
    43         53
    44         57
    45          9
    49          1
    50          6
    51         12
    52         13
    53         16
    54          7
    55         48
    56         71
    57        999
    58         51
    59        163
    60         10
    61          2
    62          2
    63          6
    64          8
    65         10
    66          3
    67          8
    68          3
    69         17
    70          6
    71         20
    72          3
    73          8
    74          4
    75          1
    76          2
    77          9
    78          7
    79         10
    80         27
    81         21
    82          5
    83         11
    84          5
    85         11
    86          5
    87          1
    89          1
    90          5
    91          8
    92          7
    93          3
    94          2
    95          6
    96          4
    97         10
    98          3
    99          4
   104          6
   105          7
   106         10
   107          8
   108        127
   109         14
   110          2
   111          6
   112          2
   113          3
   118          2
   121          1
   122          1
   123          3
   124          1
   125          4
   126          1
   127          3
   129          1
   132          3
   133          9
   134         65
   135         21
   136          6
   137          2
   139          1
   140          1
   141          2
   151         10
   152        359
   153         36
   154          4
   155          1
   160         23
   161         12
   162          1
   163          1
   175          2
   177          5
   178         38
   179         73
   180          7
   181          1
   193         22
   194          3
   195          8
   196        177
   197         22
   198          3
   207          1
   208         28
   209          4
   213          0
   234          8
   235          2
   252         35
   253          5
   254          0
   256          0
   264          0
   308         42
   309          8
   310          1