##TITLE=Library Entry 27442
##JCAMP-DX=Revision 4.10 
##DATA TYPE=MASS SPECTRUM
##SAMPLE DESCRIPTION=M. BAUMGARTH, E. MERCK, DARMSTADT, W. GE
##NAMES=HP
##CAS NAME=17.beta.-tert-Butoxy-4-propyl-3,4-seco-5-androsten-3-oic acid ter
t-butyl ester
##MOLFORM=C30H52O3
##CAS REGISTRY NO=59251-40-0
##MP= -300
##BP= -300
##MW= 460
##$RETENTION INDEX=0
##$CONDENSED SPECTRUM=NO
##NPOINTS= 100
##XYDATA=(XY..XY) 1 
    27         30
    28         20
    29        160
    39         40
    41        320
    42         10
    43         80
    55        170
    56         30
    57        999
    58         50
    59         30
    67         80
    69         70
    71         30
    77         30
    79         90
    80         10
    81        140
    82         10
    83         40
    85         20
    91         90
    92         10
    93        150
    94         20
    95        110
    97         30
    99         20
   101         20
   105        120
   106         20
   107        110
   108         20
   109         80
   110         10
   111         20
   117         30
   119        110
   120         30
   121         80
   122         10
   123         40
   131         50
   132         10
   133         80
   134         20
   135         60
   137         40
   139         40
   145         80
   147         80
   148         30
   149         40
   151         30
   155         30
   157         40
   159         50
   161         90
   162         20
   163         40
   173         70
   175         40
   187         40
   189         30
   191         30
   199         20
   201         50
   203         30
   213         50
   215         40
   227         10
   229         40
   231         30
   233         20
   255         90
   256         20
   257        360
   258         80
   269         60
   270         10
   271         10
   273         40
   274         10
   275        190
   276         40
   311         80
   312         20
   313         30
   329        230
   330        190
   331        150
   332         40
   347        230
   348        190
   349         40
   403         20
   404         80
   405         10
   460         10