##TITLE=Library Entry 79914
##JCAMP-DX=Revision 4.10 
##DATA TYPE=MASS SPECTRUM
##SAMPLE DESCRIPTION=A.A.Kutin, Moscow, Russia
##NAMES=HP
##CAS NAME=Oxazol-5(4H)-one, 2-phenyl-4-(phenylamino)methylene-
##MOLFORM=C16H12N2O2
##CAS REGISTRY NO=59262-06-5
##MP= -300
##BP= -300
##MW= 264
##$RETENTION INDEX=0
##$CONDENSED SPECTRUM=NO
##NPOINTS= 97
##XYDATA=(XY..XY) 1 
    33          0
    37          0
    38         18
    40         16
    41          1
    42          0
    44          2
    45          0
    51        202
    52         14
    53          4
    54          1
    55          0
    57          0
    58          0
    63         26
    64          8
    65         10
    66          2
    67          0
    69          0
    74          7
    77        630
    78         33
    79          0
    82          0
    86          0
    87          1
    89         30
    90         19
    91          5
    92          3
    93          2
    95          0
    99          0
   105        999
   106         46
   107          2
   108          0
   109          1
   111          0
   114          1
   116         44
   118          2
   121          0
   128          2
   129          5
   131         55
   132         16
   133          0
   139          0
   141          0
   142          1
   143          2
   144          0
   151          0
   152          0
   153          0
   159          0
   161          0
   163          0
   165          2
   166          0
   178          0
   180          8
   181          1
   187          0
   190          1
   191          0
   192          1
   193          4
   194          0
   204          0
   205          0
   206          0
   207          0
   208          0
   216          0
   217          1
   218          2
   219         79
   220         23
   221          3
   222          0
   234          0
   235          0
   236          0
   245         18
   246          3
   247          0
   258          0
   259          0
   260          1
   264        492
   265         78
   266          8
   267          0