##TITLE=Library Entry 100464
##JCAMP-DX=Revision 4.10 
##DATA TYPE=MASS SPECTRUM
##SAMPLE DESCRIPTION=Chemical Concepts
##NAMES=HP
##CAS NAME=Formamide, N,N'-[1,3-phenylenebis(methylene)]bis-
##MOLFORM=C10H12N2O2
##CAS REGISTRY NO=59276-03-8
##MP= -300
##BP= -300
##MW= 192
##$RETENTION INDEX=0
##$CONDENSED SPECTRUM=NO
##NPOINTS= 78
##XYDATA=(XY..XY) 1 
    27         27
    28        257
    29         98
    30        183
    38         15
    39         69
    40         12
    41         26
    42          9
    43         15
    44          7
    46         26
    50         37
    51         72
    52         32
    53         19
    54         12
    55          9
    56          9
    57         11
    58         25
    59         18
    62         22
    63         59
    64         19
    65         63
    66         13
    67         27
    71          9
    74         15
    75         17
    76         24
    77        139
    78         62
    79         83
    80         17
    81          8
    87          8
    88          8
    89         90
    90        101
    91        391
    92        228
    93         29
   102         22
   103         53
   104        120
   105        116
   106         83
   107         17
   116         35
   117         78
   118        421
   119        999
   120        127
   121         15
   129         12
   130         13
   131         13
   132          8
   133         42
   134         67
   135         15
   141         10
   145          8
   146         20
   147        962
   148        107
   149         24
   162          5
   163         30
   164          8
   174         60
   175         10
   191         20
   192        222
   193         30
   194          8