##TITLE=Library Entry 22186
##JCAMP-DX=Revision 4.10 
##DATA TYPE=MASS SPECTRUM
##SAMPLE DESCRIPTION=V.G.Zaikin,TIPS,Russian Acad.Sci.Moscow
##NAMES=HP
##CAS NAME=Chloroacetic acid, hexyl ester
##MOLFORM=C8H15ClO2
##CAS REGISTRY NO=5927-57-1
##MP= -300
##BP= -300
##MW= 178
##$RETENTION INDEX=1196
##$CONDENSED SPECTRUM=NO
##NPOINTS= 62
##XYDATA=(XY..XY) 1 
    27          7
    28          4
    29         17
    31          8
    36          7
    38          7
    39         55
    40         11
    41        239
    42        258
    43        586
    44         73
    45         18
    47          5
    48          5
    49        105
    50         29
    51         56
    52         19
    53         19
    54         39
    55        398
    56        999
    57        137
    58          9
    59         13
    60          3
    61          3
    65          3
    66          7
    67         15
    68         13
    69        315
    70         91
    71         47
    72          8
    73          8
    76         11
    77        364
    78         27
    79        133
    80          9
    81          3
    82          8
    83         68
    84        377
    85        161
    91          7
    94          9
    95        126
    96          6
    97         39
    99          3
   101          9
   105         11
   107         28
   108          3
   109         11
   110          2
   121         29
   123         10
   129          9