##TITLE=Library Entry 107969
##JCAMP-DX=Revision 4.10 
##DATA TYPE=MASS SPECTRUM
##SAMPLE DESCRIPTION=D. Rasala, Inst. Chem., Pedagogical Univ., Kielce, Pola
nd
##NAMES=HP
##CAS NAME=2-Pyridinecarboxamide, 3-nitro-
##MOLFORM=C6H5N3O3
##CAS REGISTRY NO=59290-92-5
##MP= -300
##BP= -300
##MW= 167
##$RETENTION INDEX=0
##$CONDENSED SPECTRUM=NO
##NPOINTS= 22
##XYDATA=(XY..XY) 1 
    50        260
    51        340
    52        210
    53        110
    65         50
    66        210
    67         50
    75         60
    76        130
    77        110
    78        750
    79         60
    93         40
    94        100
   120          1
   121         30
   124        999
   125         60
   137         20
   151         20
   167        180
   168         14