##TITLE=Library Entry 12554
##JCAMP-DX=Revision 4.10 
##DATA TYPE=MASS SPECTRUM
##SAMPLE DESCRIPTION=NIST Mass Spectrometry Data Center, 1994
##NAMES=HP
##CAS NAME=2,7-Dimethyloctadiyne-3,5-diol-2,7
##MOLFORM=C10H14O2
##CAS REGISTRY NO=5929-72-6
##MP= -300
##BP= -300
##MW= 166
##$RETENTION INDEX=0
##$CONDENSED SPECTRUM=NO
##NPOINTS= 72
##XYDATA=(XY..XY) 1 
    15         62
    17          3
    19          1
    26          1
    27         12
    37          7
    38         13
    39         74
    40         11
    41         63
    42          1
    43        999
    44         28
    49         10
    50         28
    51         48
    52         13
    53         37
    54          5
    55         45
    58          7
    60          4
    61         13
    62         30
    63         60
    64         11
    65         45
    66          9
    67         34
    68         14
    69         58
    73          6
    74         20
    75         26
    76          8
    77         83
    78         14
    79         54
    80          8
    81         21
    85          4
    86          9
    87          9
    89         13
    90          8
    91         55
    92          8
    93         89
    94          7
    95         12
    96          4
    98          3
   103         13
   105         90
   106         21
   107         22
   108         21
   109         37
   110          3
   115          7
   117          5
   119          8
   121          6
   123         57
   133        103
   134         15
   135          9
   147          4
   149          9
   151        118
   152         12
   166          7