##TITLE=Library Entry 31446
##JCAMP-DX=Revision 4.10 
##DATA TYPE=MASS SPECTRUM
##SAMPLE DESCRIPTION=R.W. KISER KANSAS STATE UNIV., MANHATTAN, KANSAS, USA
##NAMES=HP
##CAS NAME=Phosphine, ethyl-
##MOLFORM=C2H7P
##CAS REGISTRY NO=593-68-0
##MP= -300
##BP= -300
##MW= 62
##$RETENTION INDEX=0
##$CONDENSED SPECTRUM=NO
##NPOINTS= 12
##XYDATA=(XY..XY) 1 
    34        532
    43        253
    44        144
    45        352
    46        109
    47        197
    57        507
    58        352
    59        194
    60        187
    61        132
    62        999