##TITLE=Library Entry 24293
##JCAMP-DX=Revision 4.10 
##DATA TYPE=MASS SPECTRUM
##SAMPLE DESCRIPTION=Japan AIST/NIMC Database- Spectrum MS-NW-5892
##NAMES=HP
##CAS NAME=Heptacosane
##MOLFORM=C27H56
##CAS REGISTRY NO=593-49-7
##MP= -300
##BP= -300
##MW= 380
##$RETENTION INDEX=2700
##$CONDENSED SPECTRUM=NO
##NPOINTS= 146
##XYDATA=(XY..XY) 1 
    15          1
    26          2
    27         57
    28          8
    29        189
    30          4
    38          1
    39         34
    40          9
    41        389
    42         99
    43        909
    44         27
    45          1
    51          2
    52          1
    53         17
    54         29
    55        305
    56        144
    57        999
    58         45
    63          1
    65          3
    66          3
    67         33
    68         33
    69        167
    70        103
    71        608
    72         35
    73          1
    74          1
    75          1
    77          2
    79          5
    80          2
    81         14
    82         32
    83        128
    84         65
    85        415
    86         27
    87          2
    91          1
    93          1
    94          1
    95          6
    96         20
    97        101
    98         56
    99        174
   100         12
   109          3
   110         10
   111         49
   112         54
   113        110
   114         10
   115          1
   123          2
   124          7
   125         26
   126         44
   127         91
   128          9
   129          1
   137          1
   138          6
   139         13
   140         39
   141         76
   142          9
   152          4
   153          7
   154         33
   155         66
   156          7
   157          1
   161          1
   166          3
   167          5
   168         31
   169         56
   170          7
   180          2
   181          4
   182         26
   183         49
   184          8
   186          1
   194          1
   195          2
   196         23
   197         45
   198          9
   208          1
   209          2
   210         21
   211         38
   212          7
   222          1
   223          1
   224         16
   225         35
   226          5
   227          1
   236          1
   237          1
   238         14
   239         29
   240          7
   241          1
   250          1
   252         13
   253         28
   254          8
   255          1
   266         11
   267         29
   268          7
   280         10
   281         26
   282          7
   283          1
   294          9
   295         23
   296          6
   297          1
   308          7
   309         22
   310          7
   322          6
   323         21
   324          5
   336          3
   337         10
   338          4
   350          1
   351          8
   352          2
   378          1
   379          1
   380         82
   381         26
   382          4