##TITLE=Library Entry 27962
##JCAMP-DX=Revision 4.10 
##DATA TYPE=MASS SPECTRUM
##SAMPLE DESCRIPTION=NIST Mass Spectrometry Data Center, 1998.
##NAMES=HP
##CAS NAME=2-Tridecanone
##MOLFORM=C13H26O
##CAS REGISTRY NO=593-08-8
##MP= -300
##BP= -300
##MW= 198
##$RETENTION INDEX=1497
##$CONDENSED SPECTRUM=NO
##NPOINTS= 95
##XYDATA=(XY..XY) 1 
    15          4
    26          2
    27         39
    28          4
    29         71
    30          2
    31          1
    38          1
    39         53
    40         11
    41        227
    42         58
    43        701
    44         18
    45          9
    50          1
    51          3
    52          2
    53         23
    54         22
    55        166
    56         53
    57        163
    58        999
    59        401
    60         14
    61          1
    63          1
    65          4
    66          3
    67         36
    68         22
    69         55
    70         38
    71        385
    72         26
    73          2
    77          3
    78          1
    79          7
    80          3
    81         34
    82         61
    83         41
    84         27
    85        119
    86         12
    87          1
    91          1
    93          2
    94          1
    95         40
    96         68
    97         48
    98         20
    99         16
   100         20
   101          2
   107          1
   108          1
   109         23
   110         31
   111         33
   112         17
   113         24
   114         12
   115          1
   123          7
   124         11
   125          2
   127         27
   128          5
   137          3
   138         45
   139          5
   140         57
   141         12
   142          7
   143          1
   151          3
   152          1
   154          1
   155         15
   156          7
   157          1
   165          1
   169          8
   170          3
   180          8
   181          1
   183         25
   184          3
   198         51
   199         11
   200          1