##TITLE=Library Entry 29931
##JCAMP-DX=Revision 4.10 
##DATA TYPE=MASS SPECTRUM
##SAMPLE DESCRIPTION=NIST Mass Spectrometry Data Center, 1990.
##NAMES=HP
##CAS NAME=3-Hexadecanol
##MOLFORM=C16H34O
##CAS REGISTRY NO=593-03-3
##MP= -300
##BP= -300
##MW= 242
##$RETENTION INDEX=0
##$CONDENSED SPECTRUM=NO
##NPOINTS= 69
##XYDATA=(XY..XY) 1 
    14         14
    16          7
    27         60
    28         11
    29        155
    30          7
    31         76
    39         76
    41        481
    42         97
    43        394
    44         35
    45         16
    51          5
    53         50
    54         79
    55        552
    56        179
    57        483
    58        190
    59        999
    60         36
    65         12
    66         12
    67        125
    68         85
    69        495
    70        161
    71        195
    72         61
    73         24
    77          8
    78          3
    79         17
    80          3
    81         77
    82         84
    83        423
    84        101
    85        109
    86          8
    91          3
    93          4
    95         40
    96         55
    97        377
    98         63
    99         21
   109         13
   110         23
   111        200
   112         37
   113         12
   123          5
   124         10
   125         87
   126         19
   127          4
   138          6
   139         28
   140         10
   153          9
   154          4
   196          6
   211          9
   213        143
   214         22
   224         34
   225          6