##TITLE=Library Entry 19096
##JCAMP-DX=Revision 4.10 
##DATA TYPE=MASS SPECTRUM
##SAMPLE DESCRIPTION=Japan AIST/NIMC Database- Spectrum MS-NW-5978
##NAMES=HP
##CAS NAME=6-Octadecenoic acid, (Z)-
##MOLFORM=C18H34O2
##CAS REGISTRY NO=593-39-5
##MP= -300
##BP= -300
##MW= 282
##$RETENTION INDEX=0
##$CONDENSED SPECTRUM=NO
##NPOINTS= 230
##XYDATA=(XY..XY) 1 
    15          5
    17          2
    18          7
    26          5
    27        189
    28         39
    29        412
    30         10
    31         12
    36          1
    37          1
    38          2
    39        153
    40         31
    41        981
    42        159
    43        833
    44         27
    45         57
    46          2
    47          2
    50          2
    51          9
    52          9
    53        109
    54        297
    55        999
    56        378
    57        566
    58         26
    59         27
    60        124
    61         21
    62          2
    63          2
    64          2
    65         28
    66         28
    67        404
    68        328
    69        676
    70        348
    71        236
    72         14
    73        152
    74         17
    75          2
    76          1
    77         33
    78         13
    79        112
    80         96
    81        421
    82        334
    83        607
    84        406
    85        137
    86         11
    87         77
    88         10
    89          2
    90          1
    91         25
    92          9
    93         47
    94         72
    95        262
    96        296
    97        509
    98        336
    99         62
   100         71
   101         93
   102         13
   103          2
   104          2
   105         12
   106          9
   107         24
   108         40
   109        114
   110        179
   111        252
   112        131
   113         49
   114        134
   115         58
   116         15
   117          3
   118          4
   119         28
   120         11
   121         27
   122         23
   123        124
   124        107
   125        127
   126         74
   127         89
   128         31
   129         47
   130          9
   131          2
   132          2
   133         29
   134         37
   135         25
   136         16
   137         90
   138         82
   139         68
   140         52
   141         24
   142         11
   143         21
   144          5
   145          1
   146          1
   147         23
   148         29
   149         16
   150         12
   151         66
   152         63
   153         41
   154         30
   155         19
   156          9
   157         15
   158          5
   159          1
   161         16
   162         10
   163          9
   164         11
   165         46
   166         48
   167         29
   168         19
   169         24
   170          9
   171         12
   172          6
   173          2
   175         10
   176          5
   177          6
   178          7
   179         31
   180         68
   181         25
   182         12
   183         12
   184          6
   185         13
   186         12
   187          2
   189          7
   190          3
   191          4
   192          4
   193         24
   194         24
   195         12
   196          7
   197          7
   198          4
   199         12
   200          8
   201          1
   203          4
   204          2
   205          2
   206          2
   207         21
   208         19
   209          8
   210          7
   211          5
   212          4
   213          9
   214          5
   215          1
   217          2
   218          2
   219          1
   220         66
   221         35
   222         80
   223         19
   224          4
   225          4
   226          2
   227          3
   228          1
   229          1
   233          1
   235         20
   236         17
   237          3
   238          1
   239          8
   240          3
   241          3
   242          1
   245          1
   246         24
   247          9
   248          2
   249          3
   250          1
   252          1
   253          3
   254          4
   255          1
   256         11
   257          3
   258          1
   262          1
   263          3
   264        307
   265         71
   266          9
   267          1
   280          6
   281          2
   282        103
   283         22
   284         12
   285          2