##TITLE=Library Entry 33576
##JCAMP-DX=Revision 4.10 
##DATA TYPE=MASS SPECTRUM
##SAMPLE DESCRIPTION=Exported from NIST MS Search
##NAMES=HP
##CAS NAME=Methane, chlorofluoro-
##MOLFORM=CH2ClF
##CAS REGISTRY NO=593-70-4
##MP= -300
##BP= -300
##MW= 68
##$RETENTION INDEX=324
##$CONDENSED SPECTRUM=NO
##NPOINTS= 33
##XYDATA=(XY..XY) 1 
    12          3
    13          6
    14          7
    15          6
    26          3
    27          9
    28         51
    29         10
    30          3
    31         21
    32         24
    33        233
    34          3
    35         21
    36          5
    37          7
    38          2
    39          2
    41          6
    42          5
    43         14
    47        173
    48         41
    49        180
    50         34
    51         45
    52          7
    66          3
    67         25
    68        999
    69         21
    70        325
    71          4