##TITLE=Library Entry 1617
##JCAMP-DX=Revision 4.10 
##DATA TYPE=MASS SPECTRUM
##SAMPLE DESCRIPTION=Exported from NIST MS Search
##NAMES=HP
##CAS NAME=Methyl fluoride
##MOLFORM=CH3F
##CAS REGISTRY NO=593-53-3
##MP= -300
##BP= -300
##MW= 34
##$RETENTION INDEX=173
##$CONDENSED SPECTRUM=NO
##NPOINTS= 9
##XYDATA=(XY..XY) 1 
    12          5
    13         12
    14         31
    15        116
    31         77
    32         44
    33        888
    34        999
    35         12