##TITLE=Library Entry 6101
##JCAMP-DX=Revision 4.10 
##DATA TYPE=MASS SPECTRUM
##SAMPLE DESCRIPTION=NIST Mass Spectrometry Data Center
##NAMES=HP
##CAS NAME=Tetradecane, 1-fluoro-
##MOLFORM=C14H29F
##CAS REGISTRY NO=593-33-9
##MP= -300
##BP= -300
##MW= 216
##$RETENTION INDEX=0
##$CONDENSED SPECTRUM=NO
##NPOINTS= 96
##XYDATA=(XY..XY) 1 
    15          7
    17          1
    20          2
    27        273
    28         88
    29        531
    30         12
    33         27
    36          1
    37          2
    39        177
    41        866
    42        223
    43        999
    44         31
    47         80
    48          2
    50          1
    51          7
    53         50
    55        495
    56        199
    57        735
    58         37
    59         19
    61         68
    62          2
    65          5
    67         41
    69        241
    70        129
    71        321
    72         20
    73          7
    74          5
    75         28
    76          1
    77          3
    79          5
    80          2
    81         19
    82         32
    83        116
    84         61
    85        158
    86         11
    87          3
    88         15
    89         48
    90          2
    91          1
    95          5
    96         20
    97        100
    98         43
    99         23
   100          2
   101          2
   102         10
   103         36
   104          2
   109          2
   110         10
   111         42
   112         23
   113          8
   114          1
   116          7
   117         22
   118          1
   123          1
   124          4
   125         17
   126         13
   127          4
   128          1
   129          1
   130          5
   131         13
   138          2
   139          4
   140          7
   141          3
   144          4
   145          5
   153          2
   154          3
   158          3
   159          3
   168          5
   172          2
   173          2
   186          1
   187          2
   196          1
   216          3