##TITLE=Library Entry 33
##JCAMP-DX=Revision 4.10 
##DATA TYPE=MASS SPECTRUM
##SAMPLE DESCRIPTION=NATIONAL BUREAU OF STANDARDS, WASHINGTON D.C., USA
##NAMES=HP
##CAS NAME=Mercury, dimethyl-
##MOLFORM=C2H6Hg
##CAS REGISTRY NO=593-74-8
##MP= -300
##BP= -300
##MW= 232
##$RETENTION INDEX=0
##$CONDENSED SPECTRUM=NO
##NPOINTS= 40
##XYDATA=(XY..XY) 1 
    13         46
    14        208
    15        999
    99          0
   100          1
   101          2
   102          0
   196          2
   197          0
   198        126
   199        228
   200        315
   201        199
   202        395
   203         43
   204         86
   205          9
   210          8
   211         36
   212         90
   213        426
   214        654
   215        805
   216        528
   217        908
   218         31
   219        207
   220          0
   223          0
   224          0
   225          0
   226          4
   227          6
   228        130
   229        215
   230        291
   231        168
   232        366
   233          2
   234         83