##TITLE=Library Entry 32693
##JCAMP-DX=Revision 4.10 
##DATA TYPE=MASS SPECTRUM
##SAMPLE DESCRIPTION=Exported from NIST MS Search
##NAMES=HP
##CAS NAME=Methane, bromochlorofluoro-
##MOLFORM=CHBrClF
##CAS REGISTRY NO=593-98-6
##MP= -300
##BP= -300
##MW= 146
##$RETENTION INDEX=0
##$CONDENSED SPECTRUM=NO
##NPOINTS= 48
##XYDATA=(XY..XY) 1 
    12         34
    13         59
    19          4
    20          1
    31        115
    32         94
    35         55
    36          6
    37         17
    38          2
    47         77
    48         78
    49         24
    50         24
    63          1
    64          1
    65          1
    66         16
    67        999
    68          5
    69        320
    79         79
    80          6
    81         76
    82          6
    91         19
    92         10
    93         19
    94         10
   110          6
   111         92
   112          6
   113         89
   114          3
   116          3
   118          1
   126          3
   127         12
   128          3
   129         15
   130          1
   131          4
   145          4
   146         36
   147          5
   148         47
   149          1
   150         11