##TITLE=Library Entry 30943
##JCAMP-DX=Revision 4.10 
##DATA TYPE=MASS SPECTRUM
##SAMPLE DESCRIPTION=Exported from NIST MS Search
##NAMES=HP
##CAS NAME=Ethyne, chloro-
##MOLFORM=C2HCl
##CAS REGISTRY NO=593-63-5
##MP= -300
##BP= -300
##MW= 60
##$RETENTION INDEX=320
##$CONDENSED SPECTRUM=NO
##NPOINTS= 19
##XYDATA=(XY..XY) 1 
    24         85
    25        226
    26         47
    27          7
    35         80
    36         19
    37         22
    38          7
    39          2
    41          1
    47         81
    48          4
    49         25
    50          6
    59        128
    60        999
    61         60
    62        317
    63          5