##TITLE=Library Entry 2274
##JCAMP-DX=Revision 4.10 
##DATA TYPE=MASS SPECTRUM
##SAMPLE DESCRIPTION=CCC 0004
##NAMES=HP
##CAS NAME=Borane, trimethyl-
##MOLFORM=C3H9B
##CAS REGISTRY NO=593-90-8
##MP= -300
##BP= -300
##MW= 56
##$RETENTION INDEX=0
##$CONDENSED SPECTRUM=NO
##NPOINTS= 38
##XYDATA=(XY..XY) 1 
    10          8
    11         35
    12          8
    13         24
    14          8
    15         30
    22          1
    23          1
    24          5
    25         17
    26         49
    27         74
    28          3
    29          1
    30          1
    31          1
    32          1
    34          1
    35          4
    36         31
    37         85
    38         39
    39        107
    40        255
    41        999
    42         22
    43          4
    47          1
    48          6
    49         16
    50         17
    51          9
    52          2
    53          8
    54          1
    55          4
    56         14
    57          2