##TITLE=Library Entry 87801
##JCAMP-DX=Revision 4.10 
##DATA TYPE=MASS SPECTRUM
##SAMPLE DESCRIPTION=V.G.Zaikin,TIPS,Russian Acad.Sci.Moscow
##NAMES=HP
##CAS NAME=2-Thiophenecarboxylic acid, propyl ester
##MOLFORM=C8H10O2S
##CAS REGISTRY NO=59303-19-4
##MP= -300
##BP= -300
##MW= 170
##$RETENTION INDEX=0
##$CONDENSED SPECTRUM=NO
##NPOINTS= 47
##XYDATA=(XY..XY) 1 
    26         49
    27        298
    28         18
    29        116
    30         11
    31         13
    36          6
    37         35
    38         79
    39        765
    40         42
    41        157
    42         39
    43         95
    44         21
    45         99
    49          6
    50         19
    51          7
    53         29
    55          6
    56          6
    57        125
    58         39
    59         48
    69         13
    77          7
    81         31
    82         41
    83        139
    84         49
    85         29
    96          8
   110         11
   111        999
   112        123
   113         71
   126          6
   127          7
   128        699
   129         99
   130         39
   131          6
   141          7
   170         79
   171          7
   172          6