##TITLE=Library Entry 67813
##JCAMP-DX=Revision 4.10 
##DATA TYPE=MASS SPECTRUM
##SAMPLE DESCRIPTION=TNO Volatile Compounds in Food - Chemical Concepts
##NAMES=HP
##CAS NAME=2-Furanmethanethiol, 5-methyl-
##MOLFORM=C6H8OS
##CAS REGISTRY NO=59303-05-8
##MP= -300
##BP= -300
##MW= 128
##$RETENTION INDEX=995
##$CONDENSED SPECTRUM=NO
##NPOINTS= 54
##XYDATA=(XY..XY) 1 
    26          3
    27         41
    34          5
    36          6
    37          4
    38          8
    39         57
    40         28
    41        105
    42         14
    43        325
    45         34
    46          4
    47          7
    49          3
    50         25
    51         49
    52         35
    53         44
    54          4
    55         22
    58          3
    59          5
    63          7
    64          4
    65         51
    66         24
    67         34
    68          3
    76          4
    77         12
    78          3
    79         11
    80          8
    81         20
    82          6
    83         26
    84          3
    91          9
    94         77
    95        999
    96        146
    97         12
   103          4
   105         14
   107          3
   108         22
   109          5
   111          4
   125          5
   126         13
   127         73
   128          9
   129          7