##TITLE=Library Entry 88243
##JCAMP-DX=Revision 4.10 
##DATA TYPE=MASS SPECTRUM
##SAMPLE DESCRIPTION=Japan AIST/NIMC Database- Spectrum MS-NW-8076
##NAMES=HP
##CAS NAME=6-Hydroxytropinone
##MOLFORM=C8H13NO2
##CAS REGISTRY NO=5932-53-6
##MP= -300
##BP= -300
##MW= 155
##$RETENTION INDEX=1325
##$CONDENSED SPECTRUM=NO
##NPOINTS= 84
##XYDATA=(XY..XY) 1 
    14          4
    15         73
    16          1
    17          1
    18          3
    26         10
    27         74
    28        107
    29         51
    30         37
    31         19
    32          3
    37          2
    38          5
    39         59
    40         14
    41        158
    42        769
    43         73
    44         58
    45          4
    50          4
    51          8
    52          8
    53         24
    54         54
    55        126
    56         89
    57        163
    58         96
    59          4
    60          1
    62          1
    63          1
    65          6
    66          4
    67         22
    68         49
    69         54
    70         64
    71         19
    72         31
    73          3
    77          3
    78          3
    79          6
    80         16
    81         26
    82        398
    83        852
    84         95
    85          6
    86         12
    92          1
    93          3
    94         71
    95         14
    96        126
    97        216
    98        172
    99         11
   100          3
   107          2
   108          3
   109          3
   110        118
   111        999
   112        182
   113         19
   114          1
   120          1
   124          2
   125          2
   126         36
   127          6
   136          2
   137          4
   138         32
   139          3
   140          2
   154          4
   155        452
   156         57
   157          5