##TITLE=Library Entry 83701
##JCAMP-DX=Revision 4.10 
##DATA TYPE=MASS SPECTRUM
##SAMPLE DESCRIPTION=ASES Database, Dalian Institute, P.R. China
##NAMES=HP
##CAS NAME=trans-2-(2-Hydroxybenzyl)-cyclohexanol
##MOLFORM=C13H18O2
##CAS REGISTRY NO=5932-70-7
##MP= -300
##BP= -300
##MW= 206
##$RETENTION INDEX=0
##$CONDENSED SPECTRUM=NO
##NPOINTS= 12
##XYDATA=(XY..XY) 1 
    79        120
    80        201
    81        348
    91         81
   107        999
   108        249
   120        128
   131         70
   145         89
   159         39
   188        299
   206        319