##TITLE=Library Entry 58288
##JCAMP-DX=Revision 4.10 
##DATA TYPE=MASS SPECTRUM
##SAMPLE DESCRIPTION=Chemical Concepts
##NAMES=HP
##CAS NAME=5-Methyl[1,5]thiazocane
##MOLFORM=C7H15NS
##CAS REGISTRY NO=5932-57-0
##MP= -300
##BP= -300
##MW= 145
##$RETENTION INDEX=0
##$CONDENSED SPECTRUM=NO
##NPOINTS= 76
##XYDATA=(XY..XY) 1 
    26         18
    27        131
    28         75
    29         31
    30         37
    33          2
    34          2
    35          7
    37          3
    38         14
    39        188
    40         27
    41        381
    42        818
    43        219
    44        467
    45        184
    46        102
    47         60
    48          6
    49          2
    51          2
    52          4
    53          7
    54         33
    55         30
    56         52
    57        478
    58        120
    59         43
    60         29
    61         32
    62          3
    65          3
    66          3
    67         13
    68         29
    69         10
    70        613
    71        146
    72         14
    73         61
    74         20
    75         15
    76          2
    80          2
    81          4
    82         31
    83         10
    84        544
    85         34
    86         27
    87          6
    88         11
    89        999
    90         40
    91         40
    96          8
    98          8
   101          8
   102         17
   103          7
   104          6
   110          3
   112         22
   113          2
   115          3
   116        123
   117        180
   118         18
   119          8
   143          2
   144          7
   145        494
   146         47
   147         22