##TITLE=Library Entry 28672
##JCAMP-DX=Revision 4.10 
##DATA TYPE=MASS SPECTRUM
##SAMPLE DESCRIPTION=Div. of Experiment Therapeutics WRAIR, WRAMC, Washingto
n DC 20307
##NAMES=HP
##CAS NAME=4-Bis[3-dimethylaminopropyl]amino-2-[4-chlorophenyl]-6-methoxyben
zothiazole
##MOLFORM=C24H33ClN4OS
##CAS REGISTRY NO=59334-02-0
##MP= -300
##BP= -300
##MW= 460
##$RETENTION INDEX=0
##$CONDENSED SPECTRUM=NO
##NPOINTS= 232
##XYDATA=(XY..XY) 1 
    42        124
    43         48
    44         63
    45         14
    46          1
    47          4
    49         21
    50          8
    51          7
    52          3
    53          1
    54          1
    56         36
    58        999
    59         31
    60          1
    63          5
    65          2
    66          0
    68          4
    69          3
    70        152
    71         52
    72         60
    73          3
    75          1
    77          3
    78          1
    79          2
    80          0
    82         10
    84         34
    85        733
    86         77
    87          5
    88          1
    89          0
    90          0
    91          1
    94         14
    95          7
    96          4
    97          2
    99         13
   101          5
   102          0
   103          2
   104          1
   106          3
   107          0
   108          1
   109          8
   110          1
   111          1
   113          3
   115         13
   117          2
   119          0
   120          1
   121          2
   122          2
   123          3
   124          0
   125          2
   127         26
   129          5
   131          0
   132          0
   133          1
   134          1
   135          2
   136          0
   137          3
   138          2
   139          1
   140          1
   142          0
   145          0
   146          0
   147          1
   148          2
   149          1
   150          1
   151          1
   152          1
   153          0
   155         11
   157          5
   158          0
   159          1
   161          1
   164          1
   165          0
   166          1
   172          1
   173          0
   178          1
   180          0
   184          0
   186          0
   192          1
   194          0
   196          1
   197          1
   205          0
   207          0
   209          1
   210          0
   211          0
   221          0
   223          1
   224          1
   225          2
   226          0
   231          1
   232          2
   233          1
   234          0
   239          0
   240          1
   241          2
   242          0
   244          0
   245          3
   246          3
   247          2
   248          1
   249          0
   251          0
   258          2
   260         18
   261          4
   262          4
   263          1
   266          0
   267          0
   268          0
   269          1
   270          0
   271          0
   273          2
   275         40
   276          8
   277         13
   278          2
   279          0
   280          1
   282          1
   283          0
   285          2
   286          2
   288         13
   289         14
   290         13
   291          7
   292          5
   293          1
   294          0
   295          0
   296          1
   297          1
   298          0
   299          1
   300          0
   301         10
   302          4
   303         47
   304         38
   305         18
   306         11
   307          1
   308          0
   311          0
   313          6
   314          3
   315         64
   316          6
   317         66
   318         14
   319         18
   320          4
   321          1
   327          3
   329         19
   330         19
   331         63
   332         23
   333         19
   334          5
   335          1
   340          0
   341          3
   343         10
   344         12
   345         19
   346         10
   347          7
   348          2
   349          0
   355          1
   357         29
   358         13
   359         12
   360          4
   361          1
   370         13
   371          3
   372          8
   373          2
   375         35
   376         11
   377         13
   378          3
   379          0
   386          0
   388          0
   389          0
   390          0
   402          0
   414          2
   415         30
   416          9
   417         18
   418          5
   419          3
   420          0
   459          4
   460         40
   461          6
   462         13
   463          3
   464          0