##TITLE=Library Entry 37251
##JCAMP-DX=Revision 4.10 
##DATA TYPE=MASS SPECTRUM
##SAMPLE DESCRIPTION=Japan AIST/NIMC Database- Spectrum MS-NW-5243
##NAMES=HP
##CAS NAME=Decanoic acid, pentyl ester
##MOLFORM=C15H30O2
##CAS REGISTRY NO=5933-87-9
##MP= -300
##BP= -300
##MW= 242
##$RETENTION INDEX=1685
##$CONDENSED SPECTRUM=NO
##NPOINTS= 125
##XYDATA=(XY..XY) 1 
    15          4
    17          2
    18          7
    26          4
    27         97
    28         22
    29        190
    30          4
    31          9
    32          2
    38          1
    39         56
    40         12
    41        290
    42        187
    43        641
    44         21
    45         12
    50          1
    51          3
    52          1
    53         16
    54         19
    55        249
    56         49
    57        201
    58         10
    59          9
    60        180
    61        151
    62          5
    63          1
    65          2
    66          2
    67         27
    68         22
    69        130
    70        999
    71        329
    72         17
    73        175
    74         20
    75          6
    76          1
    77          1
    78          1
    79          5
    80          2
    81         33
    82         10
    83         47
    84         42
    85         71
    86          9
    87         56
    88          6
    89         25
    90          1
    91          1
    93          4
    94          2
    95         29
    96          6
    97         31
    98         37
    99          7
   100          4
   101         27
   102         27
   103         21
   104          2
   107          3
   108          2
   109          5
   110         16
   111         17
   112         13
   113          6
   114          2
   115         57
   116          6
   117          7
   121          1
   123          2
   124          1
   125          5
   126          3
   127         18
   128          2
   129         93
   130         54
   131         12
   132          1
   135          8
   136          3
   137          6
   139          3
   141          1
   143         39
   144          7
   145         19
   146          2
   149          1
   152          2
   153         10
   154          2
   155        307
   156         34
   157          6
   159          1
   170          2
   171          4
   172         61
   173        480
   174         57
   175          5
   183          2
   185          3
   199         10
   200          3
   201          3
   213          4
   214          1
   242          9
   243          2