##TITLE=Library Entry 98125
##JCAMP-DX=Revision 4.10 
##DATA TYPE=MASS SPECTRUM
##SAMPLE DESCRIPTION=Chemical Concepts
##NAMES=HP
##CAS NAME=(3H)Indazole, 3,3-dimethyl-
##MOLFORM=C9H10N2
##CAS REGISTRY NO=59341-22-9
##MP= -300
##BP= -300
##MW= 146
##$RETENTION INDEX=0
##$CONDENSED SPECTRUM=NO
##NPOINTS= 94
##XYDATA=(XY..XY) 1 
    24          1
    25          4
    26         40
    27        172
    28         15
    29         18
    30          2
    31         16
    36          5
    37         29
    38         74
    39        390
    40         68
    41         76
    42         11
    43          8
    44         21
    45         10
    46          1
    47          2
    48          1
    49          9
    50        221
    51        431
    52        120
    53         54
    54          7
    55         11
    56         12
    57         38
    58        119
    59          7
    60          2
    61         19
    62         81
    63        201
    64         54
    65        130
    66         19
    67          4
    68          1
    69          5
    71          1
    73          8
    74         88
    75         97
    76        107
    77        476
    78        649
    79         76
    80         21
    81          1
    83          5
    84          1
    85          6
    86         15
    87         23
    88         15
    89         78
    90         37
    91        416
    92         51
    93          5
    95          1
    96          5
    97          2
    98          8
    99          3
   100          1
   101         19
   102        120
   103        945
   104         85
   105          7
   110          2
   113         39
   114         13
   115        321
   116         95
   117        916
   118        999
   119         97
   120          3
   127          2
   128          2
   129          4
   130         13
   131         13
   132          5
   133          2
   139          1
   145          5
   146         52
   147          5