##TITLE=Library Entry 97618
##JCAMP-DX=Revision 4.10 
##DATA TYPE=MASS SPECTRUM
##SAMPLE DESCRIPTION=Div. of Experiment Therapeutics WRAIR, WRAMC, Washingto
n DC 20307
##NAMES=HP
##CAS NAME=6-Methoxy-1-methyl-8-nitro-1,2-dihydroquinoline
##MOLFORM=C11H12N2O3
##CAS REGISTRY NO=59353-32-1
##MP= -300
##BP= -300
##MW= 220
##$RETENTION INDEX=0
##$CONDENSED SPECTRUM=NO
##NPOINTS= 149
##XYDATA=(XY..XY) 1 
    41         41
    42         64
    43         26
    44         76
    45          8
    46         24
    49          1
    50        162
    51        233
    52         85
    53         70
    54         15
    55         19
    56          3
    57          9
    58         28
    59         22
    61         38
    62        123
    63        189
    64         89
    65         92
    66        137
    67         27
    68         14
    69         17
    70          2
    71          7
    72          3
    73         17
    74         51
    75        115
    76        197
    77        183
    78         80
    79         86
    80         23
    81         10
    82          4
    85          9
    86         35
    87         71
    88         77
    89        338
    90        282
    91         84
    92         37
    93         17
    94          5
    95          7
    98         15
    99         12
   100         11
   101         41
   102        143
   103        148
   104         77
   105         37
   106         23
   107         10
   108          7
   109          1
   110          1
   111          1
   112          3
   113          4
   114         45
   115         78
   116        344
   117        999
   118        172
   119         51
   120         20
   121         14
   122          5
   123          2
   126          1
   127         31
   128        103
   129         85
   130        211
   131        163
   132         96
   133         88
   134         43
   135         12
   136          9
   140          2
   141          8
   142         23
   143         60
   144        136
   145        347
   146        361
   147         90
   148         24
   149         10
   150          9
   151          2
   156          9
   157         32
   158        985
   159        398
   160        214
   161         85
   162         45
   163         10
   164          5
   165          3
   166          1
   171          7
   172         35
   173        371
   174        657
   175        413
   176         65
   177         23
   178          6
   179          1
   180          2
   185         10
   186         15
   187         38
   188         76
   189        206
   190         43
   191         19
   192          8
   193          8
   199          2
   200          8
   201         16
   202         12
   203         44
   204        332
   205        162
   206         24
   207          9
   208          1
   210          0
   215          0
   216          0
   217          1
   218         19
   219        200
   220        281
   221         43
   222         19
   223          0