##TITLE=Library Entry 31572
##JCAMP-DX=Revision 4.10 
##DATA TYPE=MASS SPECTRUM
##SAMPLE DESCRIPTION=ORMSBG,10(6)485(1975); W. J. STEC
##NAMES=HP
##CAS NAME=Thiohypophosphoric acid ((HO)2P(O)P(S)(OH)2), tetraethyl ester
##MOLFORM=C8H20O5P2S
##CAS REGISTRY NO=5935-34-2
##MP= -300
##BP= -300
##MW= 290
##$RETENTION INDEX=0
##$CONDENSED SPECTRUM=NO
##NPOINTS= 65
##XYDATA=(XY..XY) 1 
    41         33
    43         89
    44         37
    45        178
    46        133
    47         23
    48         22
    55         25
    57         22
    61         23
    62        109
    63        999
    65        999
    76         22
    79         22
    80         69
    81        310
    82        155
    83        106
    91         89
    93        667
    94         37
    97        600
    98         20
    99         90
   108        144
   109         91
   110         90
   111        263
   114         61
   115         46
   121        680
   122         39
   125        167
   126         66
   127         46
   137         28
   138        300
   139         42
   142         75
   143         60
   144         20
   145         79
   155         43
   161        140
   170        323
   171         66
   172         50
   173         28
   177         74
   182         14
   186         64
   200         67
   206         22
   217        479
   218         64
   219         30
   234         39
   245         26
   246        132
   248         81
   262        122
   290        167
   291         20
   292         11