##TITLE=Library Entry 6899
##JCAMP-DX=Revision 4.10 
##DATA TYPE=MASS SPECTRUM
##SAMPLE DESCRIPTION=Chemical Concepts
##NAMES=HP
##CAS NAME=3-Hexanone, 5-hydroxy-2-methyl-
##MOLFORM=C7H14O2
##CAS REGISTRY NO=59357-07-2
##MP= -300
##BP= -300
##MW= 130
##$RETENTION INDEX=0
##$CONDENSED SPECTRUM=NO
##NPOINTS= 75
##XYDATA=(XY..XY) 1 
    27        185
    28         19
    29         52
    30          2
    31         44
    33          0
    36          0
    37          4
    38         11
    39        102
    40         18
    41        162
    42         97
    43        999
    44         44
    45        649
    46         13
    47          1
    49          0
    50          3
    51          3
    52          1
    53         16
    54          2
    55         21
    56          8
    57          8
    58          8
    59         13
    60          0
    61          1
    62          0
    63          1
    64          0
    65          1
    66          1
    67          8
    68          5
    69         48
    70         27
    71        231
    72         13
    73          4
    74          0
    77          0
    78          0
    79          1
    80          0
    81          1
    83          1
    84          1
    85          2
    86         29
    87        349
    88         15
    89         51
    90          2
    91          0
    95          4
    96          1
    97          4
    98          0
    99          0
   101          0
   103          0
   111          1
   112         23
   113          7
   114          0
   115          6
   116          0
   125          2
   129          1
   130         11
   131          1