##TITLE=Library Entry 62412
##JCAMP-DX=Revision 4.10 
##DATA TYPE=MASS SPECTRUM
##SAMPLE DESCRIPTION=Japan AIST/NIMC Database- Spectrum MS-NW-2037
##NAMES=HP
##CAS NAME=N-Formyl-D-phenylalanine
##MOLFORM=C10H11NO3
##CAS REGISTRY NO=59366-89-1
##MP= -300
##BP= -300
##MW= 193
##$RETENTION INDEX=0
##$CONDENSED SPECTRUM=NO
##NPOINTS= 97
##XYDATA=(XY..XY) 1 
    12          1
    15          4
    16          3
    17          9
    18         31
    26          6
    27         36
    28        100
    29         18
    30          6
    37          4
    38          9
    39         58
    40          7
    41         16
    42         12
    43          9
    44         61
    45          6
    46         19
    47          1
    49          2
    50         27
    51         63
    52         18
    53          6
    54          1
    55          1
    56          2
    57          1
    58          5
    59          8
    60          9
    61          4
    62         10
    63         33
    64          9
    65        113
    66          7
    67          1
    71          2
    73          2
    74         29
    75         10
    76         14
    77         62
    78         37
    79          9
    80          2
    85          1
    86          2
    87          2
    88          1
    89         25
    90         19
    91        999
    92        109
    93         12
    94          2
    98          1
   101          5
   102         55
   103         74
   104         66
   105         10
   106          1
   107          4
   115          1
   116          7
   117         22
   118         44
   119         36
   120         65
   121          6
   127          1
   128         13
   129         63
   130         32
   131         57
   132          9
   133          1
   145          2
   146          5
   147        191
   148        586
   149         61
   150          5
   156          1
   157          6
   158          1
   159          1
   163          1
   173          1
   175         12
   176          1
   193         19
   194          2