##TITLE=Library Entry 28193
##JCAMP-DX=Revision 4.10 
##DATA TYPE=MASS SPECTRUM
##SAMPLE DESCRIPTION=Chemical Concepts
##NAMES=HP
##CAS NAME=2,7-Dimethyloctan-4-one
##MOLFORM=C10H20O
##CAS REGISTRY NO=59387-92-7
##MP= -300
##BP= -300
##MW= 156
##$RETENTION INDEX=0
##$CONDENSED SPECTRUM=NO
##NPOINTS= 71
##XYDATA=(XY..XY) 1 
    14          3
    15         38
    16          2
    17          4
    18         11
    26          9
    27        208
    28         72
    29        240
    30          5
    31          6
    37          1
    38          6
    39        166
    40         30
    41        483
    42         96
    43        750
    44         27
    45          6
    48          1
    50          2
    51          6
    52          3
    53         31
    54         10
    55        113
    56         57
    57        904
    58        999
    59        104
    60          5
    65          3
    66          1
    67         12
    68          2
    69         40
    70         12
    71        172
    72         84
    73          4
    77          3
    79          9
    80          1
    81        381
    82         28
    83          9
    84          7
    85        736
    86         44
    87          2
    91          1
    95          6
    96          1
    97          4
    98          6
    99        202
   100        232
   101         42
   102          2
   112          1
   113         25
   114          3
   123          2
   127          1
   141         17
   142          1
   155          1
   156        107
   157         16
   158          1