##TITLE=Library Entry 6284
##JCAMP-DX=Revision 4.10 
##DATA TYPE=MASS SPECTRUM
##SAMPLE DESCRIPTION=Exported from NIST MS Search
##NAMES=HP
##CAS NAME=Butane, 2-iodo-2,3-dimethyl-
##MOLFORM=C6H13I
##CAS REGISTRY NO=594-59-2
##MP= -300
##BP= -300
##MW= 212
##$RETENTION INDEX=0
##$CONDENSED SPECTRUM=NO
##NPOINTS= 51
##XYDATA=(XY..XY) 1 
    26         14
    27        205
    29        152
    30          6
    37         10
    38         27
    39        230
    40         48
    41        986
    42         90
    43        999
    44         32
    48          2
    49          3
    50         17
    51         27
    52         10
    53         70
    54         14
    55        164
    56         58
    57        200
    58         10
    63          7
    64          5
    65         12
    66          5
    67         46
    68         10
    69        575
    70        140
    71         15
    72          2
    80          1
    81          6
    82          4
    83         12
    84        152
    85        904
    86         62
    87          3
   127         35
   128         43
   129          4
   141          2
   142          2
   155         10
   169          1
   197         34
   198          2
   212          1