##TITLE=Library Entry 46466
##JCAMP-DX=Revision 4.10 
##DATA TYPE=MASS SPECTRUM
##SAMPLE DESCRIPTION=Japan AIST/NIMC Database- Spectrum MS-NW-4425
##NAMES=HP
##CAS NAME=Propane, 2,2-dichloro-
##MOLFORM=C3H6Cl2
##CAS REGISTRY NO=594-20-7
##MP= -300
##BP= -300
##MW= 112
##$RETENTION INDEX=608
##$CONDENSED SPECTRUM=NO
##NPOINTS= 51
##XYDATA=(XY..XY) 1 
    12          1
    13          2
    14          6
    15         19
    24          1
    25          6
    26         30
    27         59
    29          1
    35         20
    36         22
    37         35
    38         51
    39        200
    40         26
    41        593
    42         26
    43          9
    44          1
    47          6
    48          3
    49         53
    50          1
    51         17
    59          1
    60         11
    61        149
    62         30
    63         66
    64         10
    65          8
    72          2
    73          5
    75         11
    76         27
    77        999
    78         43
    79        324
    80         11
    82          1
    83          2
    85          1
    95          1
    96          9
    97        204
    98          9
    99        128
   100          4
   101         20
   112          2
   114          1