##TITLE=Library Entry 46769
##JCAMP-DX=Revision 4.10 
##DATA TYPE=MASS SPECTRUM
##SAMPLE DESCRIPTION=Japan AIST/NIMC Database- Spectrum MS-NW-4936
##NAMES=HP
##CAS NAME=Butane, 2-chloro-2-methyl-
##MOLFORM=C5H11Cl
##CAS REGISTRY NO=594-36-5
##MP= -300
##BP= -300
##MW= 106
##$RETENTION INDEX=644
##$CONDENSED SPECTRUM=NO
##NPOINTS= 58
##XYDATA=(XY..XY) 1 
    14          5
    15         38
    25          2
    26         34
    27        277
    28         10
    29        323
    30          8
    31          5
    32          1
    35          9
    36         78
    37         13
    38         27
    39        281
    40         41
    41        848
    42        180
    43        843
    44         32
    45          2
    48          1
    49         22
    50         18
    51         26
    52          9
    53         74
    54         17
    55        894
    56         56
    57          5
    59          6
    60          1
    61          9
    62          5
    63         70
    64          3
    65         23
    66          2
    67          9
    68          3
    69         29
    70        204
    71        951
    72         53
    73          4
    75          7
    76        601
    77        999
    78        228
    79        337
    80         11
    89          2
    90         15
    91        184
    92         12
    93         56
    94          3