##TITLE=Library Entry 31242
##JCAMP-DX=Revision 4.10 
##DATA TYPE=MASS SPECTRUM
##SAMPLE DESCRIPTION=D.HENNEBERG, MAX-PLANCK INSTITUTE, MULHEIM, WEST GERMAN
Y
##NAMES=HP
##CAS NAME=Trimethylphosphine
##MOLFORM=C3H9P
##CAS REGISTRY NO=594-09-2
##MP= -300
##BP= -300
##MW= 76
##$RETENTION INDEX=0
##$CONDENSED SPECTRUM=NO
##NPOINTS= 44
##XYDATA=(XY..XY) 1 
    27         72
    28         10
    29         17
    31          3
    32          4
    33         11
    34          7
    35          7
    39         11
    40          4
    41         93
    42          7
    43          2
    44         43
    45        376
    46         71
    47        107
    48         12
    49          6
    50          1
    53          1
    54          1
    55          3
    56         17
    57        268
    58        105
    59        700
    60         65
    61        999
    62         21
    64          1
    65          1
    67          4
    68          2
    69          2
    70          2
    71          8
    72          1
    73         44
    74          5
    75        164
    76        672
    77         27
    78          0