##TITLE=Library Entry 28469
##JCAMP-DX=Revision 4.10 
##DATA TYPE=MASS SPECTRUM
##SAMPLE DESCRIPTION=Japan AIST/NIMC Database- Spectrum MS-NW-5727
##NAMES=HP
##CAS NAME=2-Butanamine, 2-methyl-
##MOLFORM=C5H13N
##CAS REGISTRY NO=594-39-8
##MP= -300
##BP= -300
##MW= 87
##$RETENTION INDEX=0
##$CONDENSED SPECTRUM=NO
##NPOINTS= 45
##XYDATA=(XY..XY) 1 
    14          2
    15         31
    16          1
    17          1
    18          3
    26          9
    27         50
    28         30
    29         33
    30         75
    31         29
    32          2
    37          2
    38          6
    39         37
    40          9
    41         98
    42        100
    43         51
    44         15
    45         11
    46          4
    50          2
    51          6
    52          4
    53          9
    54          9
    55        175
    56         25
    57         47
    58        999
    59         40
    60          1
    62          1
    63          1
    65          2
    67          1
    68          2
    69          4
    70         25
    71         14
    72        285
    73         16
    74          2
    86          1