##TITLE=Library Entry 6241
##JCAMP-DX=Revision 4.10 
##DATA TYPE=MASS SPECTRUM
##SAMPLE DESCRIPTION=Japan AIST/NIMC Database- Spectrum MS-IW-5277
##NAMES=HP
##CAS NAME=Butane, 2-chloro-2,3-dimethyl-
##MOLFORM=C6H13Cl
##CAS REGISTRY NO=594-57-0
##MP= -300
##BP= -300
##MW= 120
##$RETENTION INDEX=831
##$CONDENSED SPECTRUM=NO
##NPOINTS= 57
##XYDATA=(XY..XY) 1 
    14          3
    15         13
    26          9
    27        174
    28         11
    29         64
    31          5
    35          8
    36         23
    37          7
    38         19
    39        190
    40         38
    41        790
    42        328
    43        999
    44         33
    47         14
    49         20
    50         11
    51         24
    52          7
    53         56
    54          9
    55         69
    56         25
    57         74
    58          4
    59         15
    61          7
    62          4
    63         33
    65         13
    67         20
    68          4
    69        362
    70         26
    75          4
    76        736
    77        688
    78        258
    79        222
    80          7
    83          9
    84         69
    85        267
    86         43
    87          3
    88          7
    89          4
   105         48
   106          3
   107         15
   108          1
   119          3
   120          1
   121          1