##TITLE=Library Entry 355
##JCAMP-DX=Revision 4.10 
##DATA TYPE=MASS SPECTRUM
##SAMPLE DESCRIPTION=Japan AIST/NIMC Database- Spectrum MS-NW-4925
##NAMES=HP
##CAS NAME=Ethanesulfonyl chloride
##MOLFORM=C2H5ClO2S
##CAS REGISTRY NO=594-44-5
##MP= -300
##BP= -300
##MW= 128
##$RETENTION INDEX=0
##$CONDENSED SPECTRUM=NO
##NPOINTS= 47
##XYDATA=(XY..XY) 1 
    14          3
    15          7
    16          1
    17          1
    18          3
    25          2
    26         38
    27        264
    28         81
    29        999
    30         23
    31          3
    32          4
    33          1
    34          1
    35          4
    36         19
    37          1
    38          6
    43          3
    44          5
    45          4
    46          2
    47          1
    48         26
    49          3
    50          3
    57          1
    58          2
    59          2
    60          2
    62          1
    63          4
    64         29
    65          9
    66          3
    67          1
    76          1
    77          1
    78          2
    79          2
    83          4
    85          1
    93         80
    94          4
    95          5
    99          2