##TITLE=Library Entry 53296
##JCAMP-DX=Revision 4.10 
##DATA TYPE=MASS SPECTRUM
##SAMPLE DESCRIPTION=Japan AIST/NIMC Database- Spectrum MS-NW-9129
##NAMES=HP
##CAS NAME=1,1,1,2,2,3,3-Heptachloropropane
##MOLFORM=C3HCl7
##CAS REGISTRY NO=594-89-8
##MP= -300
##BP= -300
##MW= 282
##$RETENTION INDEX=0
##$CONDENSED SPECTRUM=NO
##NPOINTS= 109
##XYDATA=(XY..XY) 1 
    12          1
    24          1
    25          1
    35         18
    36         48
    37         40
    38         11
    47         36
    48          8
    49         11
    50          3
    53         14
    54          9
    55          1
    59          5
    60         19
    61          2
    62          6
    70          1
    71         42
    72         60
    73         14
    74         17
    82         27
    83        999
    84         28
    85        632
    86          9
    87        100
    88          9
    89         12
    90          6
    91          1
    94         23
    95         16
    96         15
    97         10
    98          2
    99          2
   105          1
   106         27
   107         74
   108         20
   109         46
   110          4
   111          7
   117        524
   118          5
   119        499
   120          5
   121        160
   122          1
   123         17
   129         17
   130         63
   131         18
   132         59
   133          7
   134         18
   135          1
   136          2
   141         18
   142          1
   143         18
   144          1
   145          6
   147          1
   164        529
   165        115
   166        675
   167        146
   168        324
   169         69
   170         69
   171         14
   172          6
   173          1
   177        113
   178          4
   179        144
   180          5
   181         71
   182          2
   183         14
   185          1
   199         78
   200          1
   201        126
   202          3
   203         80
   204          1
   205         25
   207          4
   211         23
   212          7
   213         38
   214         10
   215         24
   216          7
   217          8
   218          2
   219          1
   247         18
   249         34
   250          1
   251         28
   252          1
   253         11
   255          3