##TITLE=Library Entry 21518
##JCAMP-DX=Revision 4.10 
##DATA TYPE=MASS SPECTRUM
##SAMPLE DESCRIPTION=RADIAN CORP
##NAMES=HP
##CAS NAME=Propane, 1,2-dibromo-2-methyl-
##MOLFORM=C4H8Br2
##CAS REGISTRY NO=594-34-3
##MP= -300
##BP= -300
##MW= 214
##$RETENTION INDEX=879
##$CONDENSED SPECTRUM=NO
##NPOINTS= 54
##XYDATA=(XY..XY) 1 
    13          6
    14          6
    15         65
    25         10
    26         20
    27        330
    29        319
    30          3
    36          6
    37         58
    38        116
    39        580
    40         55
    41        262
    42         15
    50         61
    51         36
    52         20
    53        124
    54         18
    55        999
    56         97
    79         82
    80         57
    81        106
    82         55
    83          2
    92          4
    93         35
    94         10
    95         50
   104          2
   105          7
   106          4
   107         66
   108          1
   109         63
   117          4
   119         36
   120          5
   121         46
   122          4
   123         14
   135        824
   136          9
   137        805
   138         15
   158          3
   160          7
   162          3
   173          2
   199          3
   201          5
   203          2