##TITLE=Library Entry 97492
##JCAMP-DX=Revision 4.10 
##DATA TYPE=MASS SPECTRUM
##SAMPLE DESCRIPTION=Japan AIST/NIMC Database- Spectrum MS-NW-9126
##NAMES=HP
##CAS NAME=Octachloropropane
##MOLFORM=C3Cl8
##CAS REGISTRY NO=594-90-1
##MP= -300
##BP= -300
##MW= 316
##$RETENTION INDEX=1580
##$CONDENSED SPECTRUM=NO
##NPOINTS= 102
##XYDATA=(XY..XY) 1 
    12          1
    24          1
    35         18
    36          2
    37          6
    47         29
    49          9
    59          9
    61          2
    71         60
    72          4
    73         19
    74          1
    82         30
    83         19
    84         19
    85         11
    86          3
    87          2
    88          5
    89          6
    90          3
    94         30
    95          1
    96         19
    98          3
   105          9
   106         66
   107         10
   108         43
   109          2
   110          7
   117        999
   118         10
   119        955
   120          9
   121        302
   122          3
   123         38
   124         12
   125          9
   126          4
   127          1
   129         15
   130          1
   131         15
   132          1
   133          5
   141         88
   142          3
   143         85
   144          3
   145         27
   147          3
   153          1
   155          1
   164         64
   165          3
   166         81
   167          4
   168         39
   169          2
   170          9
   176          6
   177          4
   178          8
   179          5
   180          4
   181          2
   182          1
   199         38
   201         60
   202          1
   203         39
   205         11
   207          2
   211        170
   212          6
   213        273
   214          9
   215        176
   216          6
   217         55
   218          2
   219          9
   221          1
   223          1
   225          1
   227          1
   246          8
   248         15
   249          1
   250         11
   251          1
   252          5
   254          1
   281          1
   283          2
   284          1
   285          2
   286          1
   287          1