##TITLE=Library Entry 46805
##JCAMP-DX=Revision 4.10 
##DATA TYPE=MASS SPECTRUM
##SAMPLE DESCRIPTION=J.E. WILKINSON S-CUBED, SAN DIEGO, CA.
##NAMES=HP
##CAS NAME=Propane, 2-chloro-2-nitro-
##MOLFORM=C3H6ClNO2
##CAS REGISTRY NO=594-71-8
##MP= -300
##BP= -300
##MW= 123
##$RETENTION INDEX=0
##$CONDENSED SPECTRUM=NO
##NPOINTS= 26
##XYDATA=(XY..XY) 1 
    46         50
    47          2
    49        104
    50          1
    51         38
    52          2
    53          0
    54          0
    55          0
    57          0
    58          0
    59          0
    61         53
    62         13
    63         16
    64          2
    72          1
    73          3
    74          0
    75         10
    76         29
    77        999
    78         39
    79        324
    80          8
    84          0