##TITLE=Library Entry 46462
##JCAMP-DX=Revision 4.10 
##DATA TYPE=MASS SPECTRUM
##SAMPLE DESCRIPTION=Chuck Anderson, Aldrich Chemical Co.
##NAMES=HP
##CAS NAME=Propane, 1,2-dichloro-2-methyl-
##MOLFORM=C4H8Cl2
##CAS REGISTRY NO=594-37-6
##MP= -300
##BP= -300
##MW= 126
##$RETENTION INDEX=720
##$CONDENSED SPECTRUM=NO
##NPOINTS= 84
##XYDATA=(XY..XY) 1 
    12          0
    13          0
    14          1
    15          6
    24          0
    25          1
    26         19
    27        127
    28         24
    29        122
    30          2
    31          0
    32          0
    35          4
    36          7
    37         30
    38         52
    39        346
    40         36
    41        570
    42         21
    43          1
    44          0
    46          0
    47          6
    48          6
    49        104
    50         35
    51         64
    52          9
    53         56
    54         21
    55        378
    56         32
    57          1
    59          0
    60          3
    61         24
    62         10
    63         66
    64          4
    65         19
    66          0
    70          0
    71          0
    72          1
    73          7
    74          1
    75        116
    76        111
    77        999
    78         56
    79        307
    80         10
    82          0
    83          9
    84          0
    85          7
    86          0
    87          1
    88          0
    89          2
    90          6
    91        197
    92         10
    93         63
    94          3
    95          0
    96          0
    97          1
    98          0
    99          0
   101          0
   107          0
   109          1
   110          4
   111         50
   112          4
   113         31
   114          1
   115          5
   116          0
   126          0
   128          0