##TITLE=Library Entry 29688
##JCAMP-DX=Revision 4.10 
##DATA TYPE=MASS SPECTRUM
##SAMPLE DESCRIPTION=Japan AIST/NIMC Database- Spectrum MS-NW-1523
##NAMES=HP
##CAS NAME=Propanoic acid, 2-hydroxy-2-methyl-
##MOLFORM=C4H8O3
##CAS REGISTRY NO=594-61-6
##MP= -300
##BP= -300
##MW= 104
##$RETENTION INDEX=1918
##$CONDENSED SPECTRUM=NO
##NPOINTS= 46
##XYDATA=(XY..XY) 1 
    13          2
    14         11
    15         70
    16          1
    17          4
    18         14
    25          2
    26         12
    27         43
    28         24
    29         38
    30          1
    31        353
    32          3
    33          1
    36          1
    37          8
    38         13
    39         74
    40         13
    41        209
    42         30
    43        451
    44         17
    45         46
    46          2
    47         24
    53          4
    55          3
    57          9
    58         12
    59        999
    60         35
    61          9
    68          2
    69          5
    70          3
    71          1
    73          1
    75          5
    77          2
    85          1
    86         11
    87          6
    88          1
    89         23