##TITLE=Library Entry 4149
##JCAMP-DX=Revision 4.10 
##DATA TYPE=MASS SPECTRUM
##SAMPLE DESCRIPTION=Japan AIST/NIMC Database- Spectrum MS-NW-8901
##NAMES=HP
##CAS NAME=2,3-Dibromo-2,3-dimethylbutane
##MOLFORM=C6H12Br2
##CAS REGISTRY NO=594-81-0
##MP= -300
##BP= -300
##MW= 242
##$RETENTION INDEX=1054
##$CONDENSED SPECTRUM=NO
##NPOINTS= 72
##XYDATA=(XY..XY) 1 
    15         10
    26          7
    27        138
    28         17
    29         82
    30          2
    36          1
    37          4
    38         18
    39        352
    40         82
    41        999
    42         82
    43        352
    44         10
    50         14
    51         38
    52         18
    53        103
    54         23
    55        580
    56         55
    57         24
    58          1
    59          1
    62          3
    63          9
    64          2
    65         34
    66         11
    67        131
    68         20
    69        482
    70         26
    74          1
    77          7
    78          1
    79         22
    80         64
    81         22
    82         63
    83        580
    84        280
    85         24
    93          4
    95          4
   100          1
   105          2
   107         10
   109          8
   119          3
   120         51
   121        185
   122         55
   123        178
   124          6
   133          1
   135          1
   147          4
   148         10
   149          5
   150          9
   151          1
   162          2
   163        963
   164         65
   165        941
   166         61
   167          2
   227          1
   229          3
   231          1