##TITLE=Library Entry 70005
##JCAMP-DX=Revision 4.10 
##DATA TYPE=MASS SPECTRUM
##SAMPLE DESCRIPTION=Exported from NIST MS Search
##NAMES=HP
##CAS NAME=Ethane, 1,1-dichloro-1-nitro-
##MOLFORM=C2H3Cl2NO2
##CAS REGISTRY NO=594-72-9
##MP= -300
##BP= -300
##MW= 143
##$RETENTION INDEX=0
##$CONDENSED SPECTRUM=NO
##NPOINTS= 49
##XYDATA=(XY..XY) 1 
    14         17
    15         34
    16          4
    24          4
    25         30
    26        166
    27        291
    28        117
    29          6
    30        282
    31          4
    32          6
    35         53
    36         88
    37         20
    38         45
    39         50
    40         34
    41        148
    42         13
    43         17
    44          4
    46         43
    47         24
    48          4
    49         20
    51          6
    57          9
    59          4
    60         53
    61        646
    62        167
    63        227
    64         39
    65          4
    77         91
    78          4
    79         30
    82         15
    83          6
    84          9
    96         10
    97        999
    98         28
    99        639
   100          8
   101         92
   117         12
   119         11