##TITLE=Library Entry 15836
##JCAMP-DX=Revision 4.10 
##DATA TYPE=MASS SPECTRUM
##SAMPLE DESCRIPTION=Japan AIST/NIMC Database- Spectrum MS-NW-5006
##NAMES=HP
##CAS NAME=Acetamide, 2,2,2-trichloro-
##MOLFORM=C2H2Cl3NO
##CAS REGISTRY NO=594-65-0
##MP= -300
##BP= -300
##MW= 161
##$RETENTION INDEX=0
##$CONDENSED SPECTRUM=NO
##NPOINTS= 51
##XYDATA=(XY..XY) 1 
    12          4
    13          1
    15          1
    16         14
    26          4
    27         19
    28         40
    29          4
    35         28
    36         19
    37          9
    38          6
    39          1
    42          4
    43         19
    44        999
    45         13
    46          2
    47         45
    48          9
    49         14
    50          3
    52          2
    54          5
    61         31
    62         10
    63         16
    64          4
    65          2
    73          1
    74          1
    75          1
    76          1
    82         41
    83         60
    84         25
    85         39
    86          4
    87          6
    98         29
   100         18
   102          3
   110          8
   112          4
   117         15
   119         14
   121          5
   126         17
   127          5
   128         11
   130          2