##TITLE=Library Entry 54672
##JCAMP-DX=Revision 4.10 
##DATA TYPE=MASS SPECTRUM
##SAMPLE DESCRIPTION=Japan AIST/NIMC Database- Spectrum MS-IW-5291
##NAMES=HP
##CAS NAME=Butane, 2-bromo-2,3-dimethyl-
##MOLFORM=C6H13Br
##CAS REGISTRY NO=594-52-5
##MP= -300
##BP= -300
##MW= 164
##$RETENTION INDEX=903
##$CONDENSED SPECTRUM=NO
##NPOINTS= 71
##XYDATA=(XY..XY) 1 
    14          1
    15         13
    26          9
    27        144
    28         11
    29         78
    30          1
    31          1
    37          7
    38         18
    39        197
    40         38
    41        711
    42         94
    43        967
    44         45
    45          1
    49          2
    50         16
    51         25
    52         16
    53         49
    54          8
    55         87
    56         26
    57        176
    58          9
    59          7
    61          1
    62          3
    63          5
    64          1
    65          7
    66          3
    67         25
    68          4
    69        286
    70         24
    71          3
    73          2
    74          3
    75          1
    76          2
    77         10
    78         52
    79          6
    80          9
    81          6
    82          9
    83          9
    84         56
    85        999
    86         72
    87          2
    91          1
    92          1
    93          2
    95          2
   101          1
   105          1
   107          5
   109          4
   120         15
   121         58
   122         16
   123         57
   124          2
   149          8
   151          8
   163          5
   165          4