##TITLE=Library Entry 57301
##JCAMP-DX=Revision 4.10 
##DATA TYPE=MASS SPECTRUM
##SAMPLE DESCRIPTION=V.G.Zaikin, TIPS, Russian Acad. Sci.
##NAMES=HP
##CAS NAME=1,1-diethyl-2-methyl-1-sila-3-thiacyclopentane
##MOLFORM=C8H18SSi
##CAS REGISTRY NO=59405-96-8
##MP= -300
##BP= -300
##MW= 174
##$RETENTION INDEX=0
##$CONDENSED SPECTRUM=NO
##NPOINTS= 79
##XYDATA=(XY..XY) 1 
    41         31
    42        281
    43        177
    44         43
    45        231
    46        142
    47         23
    53          4
    54         15
    55        104
    56         62
    57        270
    58        462
    59        769
    60         81
    61        192
    62         38
    63         85
    64          9
    65          9
    66          8
    67          9
    69          7
    71         18
    72         17
    73         27
    75         40
    76          9
    77         32
    79          7
    81          6
    82         11
    83         29
    84         12
    85        107
    86        615
    87        999
    88        112
    89        420
    90        262
    91        135
    92         28
    93         10
   101         17
   103         33
   104          9
   105         13
   109          9
   110          6
   111         22
   112          7
   113         24
   114        100
   115        177
   116         24
   117        346
   118        477
   119        308
   120         63
   121         25
   131         16
   133         19
   135          9
   143         34
   144          7
   145        400
   146        115
   147         52
   148         12
   159         15
   161         25
   162          4
   163          9
   172         16
   173         11
   174        104
   175         16
   176          9
   177          1