##TITLE=Library Entry 26854
##JCAMP-DX=Revision 4.10 
##DATA TYPE=MASS SPECTRUM
##SAMPLE DESCRIPTION=V.A.Korolev, Moscow, Russia
##NAMES=HP
##CAS NAME=Dihydrazinyl-1,2,4,5-tetrazine
##MOLFORM=C2H6N8
##CAS REGISTRY NO=5940-53-4
##MP= -300
##BP= -300
##MW= 142
##$RETENTION INDEX=0
##$CONDENSED SPECTRUM=NO
##NPOINTS= 30
##XYDATA=(XY..XY) 1 
    38         15
    39         40
    40         52
    41        265
    42        345
    43        105
    44         13
    52          5
    53         24
    54         65
    55          9
    56        147
    57        999
    58        321
    59          5
    67         11
    68         83
    69          6
    82          7
    84          5
    95          8
    96         10
    98          8
    99          5
   112         20
   113          5
   126         13
   127          5
   142        413
   143         25