##TITLE=Library Entry 39195
##JCAMP-DX=Revision 4.10 
##DATA TYPE=MASS SPECTRUM
##SAMPLE DESCRIPTION=Chemical Concepts
##NAMES=HP
##CAS NAME=2-Propenoic acid, 3-ethoxy-, ethyl ester, (E)-
##MOLFORM=C7H12O3
##CAS REGISTRY NO=5941-55-9
##MP= -300
##BP= -300
##MW= 144
##$RETENTION INDEX=0
##$CONDENSED SPECTRUM=NO
##NPOINTS= 61
##XYDATA=(XY..XY) 1 
    25          2
    26         73
    27        316
    28         48
    29        519
    30         15
    31         32
    38          1
    39          7
    40          3
    41         34
    42        118
    43        237
    44         52
    45         84
    46          1
    47         38
    50          0
    53         16
    54         42
    55         31
    56         19
    57          6
    58          3
    59          3
    60         19
    61          1
    68          2
    69        116
    70        260
    71        999
    72         73
    73         61
    74          2
    75          2
    82          4
    83         18
    84          1
    85          2
    86          2
    87         50
    88        126
    89          7
    97          6
    98         19
    99        521
   100         42
   101        121
   102          6
   103          0
   115         26
   116         24
   117          3
   127          0
   129         79
   130          6
   131          0
   143          0
   144         36
   145          5
   146          0