##TITLE=Library Entry 39806
##JCAMP-DX=Revision 4.10 
##DATA TYPE=MASS SPECTRUM
##SAMPLE DESCRIPTION=Div. of Experiment Therapeutics WRAIR, WRAMC, Washingto
n DC 20307
##NAMES=HP
##CAS NAME=4,5-Trimethylene-2H-1,3-oxazine-3H-2,6-dione
##MOLFORM=C7H7NO3
##CAS REGISTRY NO=59416-55-6
##MP= -300
##BP= -300
##MW= 153
##$RETENTION INDEX=0
##$CONDENSED SPECTRUM=NO
##NPOINTS= 79
##XYDATA=(XY..XY) 1 
    41        302
    42        156
    43        124
    44        557
    45         41
    46          4
    47          6
    48          5
    49         50
    50        112
    51        165
    52        325
    53        735
    54        536
    55        910
    56        187
    57         31
    58          3
    59         42
    60         12
    61         12
    62         17
    63         23
    64         13
    65         32
    66         92
    67        105
    68         75
    69         58
    70         22
    71         53
    72        999
    73         46
    74          5
    75          7
    76          8
    77          4
    78          9
    79         11
    80        277
    81        201
    82        115
    83        177
    84         56
    86         64
    87          4
    88          3
    89          0
    91          3
    92          1
    93          1
    94          2
    95          1
    96          3
    98         28
    99         40
   100          3
   105          4
   106          1
   108        197
   109        602
   110        416
   111         41
   112         21
   113          1
   115          1
   124          1
   125          0
   126          6
   127         32
   128          4
   135          3
   136          7
   137          0
   151          2
   152          7
   153        202
   154         16
   155          0