##TITLE=Library Entry 41464
##JCAMP-DX=Revision 4.10 
##DATA TYPE=MASS SPECTRUM
##SAMPLE DESCRIPTION=NIST Mass Spectrometry Data Center, 1994
##NAMES=HP
##CAS NAME=1-Methoxy-3-(trimethylsilyloxy)butadiene
##MOLFORM=C8H16O2Si
##CAS REGISTRY NO=59414-23-2
##MP= -300
##BP= -300
##MW= 172
##$RETENTION INDEX=0
##$CONDENSED SPECTRUM=NO
##NPOINTS= 109
##XYDATA=(XY..XY) 1 
    13          5
    14         20
    15        298
    16          7
    18          4
    26         20
    27        151
    28         66
    29        222
    30         16
    31         23
    32          4
    33          5
    37          8
    38         25
    39        222
    40         53
    41         69
    42         85
    43        299
    44         93
    45        520
    46         35
    47        158
    48          9
    49          8
    50         25
    51         50
    52         18
    53        152
    54         21
    55        137
    56         23
    57         34
    58         43
    59        204
    60         38
    61        100
    62          8
    63          9
    64          2
    65         17
    66         20
    67         38
    68         42
    69         26
    70         17
    71         48
    72          2
    73        999
    74         95
    75        710
    76         49
    77         51
    79         11
    81         12
    82         10
    83        104
    84         14
    85        109
    86          9
    87         13
    88          9
    89        435
    90         37
    91         40
    92          3
    95          5
    97         48
    98         30
    99        155
   100         18
   101         42
   102          3
   103          4
   107          3
   109         23
   110          4
   111         27
   112         27
   113         67
   114         20
   115        140
   116         16
   117          6
   123         19
   124          8
   125         54
   126          4
   127        184
   128         25
   129         19
   130          3
   131          9
   133          7
   139         23
   141        564
   142        602
   143         94
   144         29
   155          6
   157        614
   158         86
   159         32
   160          2
   171         67
   172        187
   173         28
   174          7