##TITLE=Library Entry 28690
##JCAMP-DX=Revision 4.10 
##DATA TYPE=MASS SPECTRUM
##SAMPLE DESCRIPTION=V.G.Zaikin, TIPS, Russian Acad. Sci.
##NAMES=HP
##CAS NAME=1-Methyl-1-ethoxycyclobutane
##MOLFORM=C7H14O
##CAS REGISTRY NO=59416-06-7
##MP= -300
##BP= -300
##MW= 114
##$RETENTION INDEX=0
##$CONDENSED SPECTRUM=NO
##NPOINTS= 14
##XYDATA=(XY..XY) 1 
    51         20
    53         40
    55         20
    57         60
    58        999
    59        100
    67         20
    69        140
    71         60
    86        500
    87         40
    99         10
   100          1
   114          1