##TITLE=Library Entry 4833
##JCAMP-DX=Revision 4.10 
##DATA TYPE=MASS SPECTRUM
##SAMPLE DESCRIPTION=Div. of Experiment Therapeutics WRAIR, WRAMC, Washingto
n DC 20307
##NAMES=HP
##CAS NAME=4,5-Dimethyl-2H-1,3-oxazine-3H-2,6-dione
##MOLFORM=C6H7NO3
##CAS REGISTRY NO=59416-54-5
##MP= -300
##BP= -300
##MW= 141
##$RETENTION INDEX=0
##$CONDENSED SPECTRUM=NO
##NPOINTS= 41
##XYDATA=(XY..XY) 1 
    42        999
    43        119
    44         36
    45         29
    47         11
    48          4
    49         59
    50         40
    51         72
    52        107
    53         74
    54        111
    55         50
    56         71
    57          6
    63          1
    64          3
    66          6
    67         18
    68         82
    69        736
    70         34
    72          9
    73         11
    78          5
    80          5
    82         99
    83          9
    84         38
    86         23
    88          4
    95          6
    96          7
    97        126
    98         11
   106          1
   124         10
   139          3
   141        419
   142         30
   143          0