##TITLE=Library Entry 33349
##JCAMP-DX=Revision 4.10 
##DATA TYPE=MASS SPECTRUM
##SAMPLE DESCRIPTION=Div. of Experiment Therapeutics WRAIR, WRAMC, Washingto
n DC 20307
##NAMES=HP
##CAS NAME=4-Chloromethyl-2H-1,3-oxazine-3H-2,6-dione
##MOLFORM=C5H4ClNO3
##CAS REGISTRY NO=59416-56-7
##MP= -300
##BP= -300
##MW= 161
##$RETENTION INDEX=0
##$CONDENSED SPECTRUM=NO
##NPOINTS= 88
##XYDATA=(XY..XY) 1 
    41        168
    42         81
    43         59
    44        211
    45         21
    47         16
    48         18
    49         94
    50         16
    51         77
    52        116
    53         38
    54         43
    55        110
    56          6
    57          2
    58          1
    59          2
    60          6
    61         27
    62          6
    63         12
    64          2
    65          2
    66          5
    67         37
    68        999
    69         90
    71          5
    72          4
    73          9
    74          5
    75         11
    76         56
    77          6
    78         17
    79          2
    80          2
    81          1
    82          6
    83          3
    84          9
    85          1
    86          8
    87          1
    88          6
    89          5
    90          2
    91          2
    92          2
    93          1
    94          1
    95          1
    96          1
    97         10
    98          4
    99          5
   100          1
   101          1
   104          1
   107          0
   108          0
   109          1
   110          1
   111          5
   112          1
   113          0
   114          1
   115          1
   116          4
   117        113
   118         16
   119         35
   120          4
   123          1
   124          1
   125          1
   126          2
   127          0
   143          2
   144          5
   145          0
   159          1
   160          9
   161         50
   162          6
   163         16
   164          1