##TITLE=Library Entry 2427
##JCAMP-DX=Revision 4.10 
##DATA TYPE=MASS SPECTRUM
##SAMPLE DESCRIPTION=Leung Pu, NIH, Bethesda, Maryland, U.S.
##NAMES=HP
##CAS NAME=2,5-Furandione, 3-dodecyl-
##MOLFORM=C16H26O3
##CAS REGISTRY NO=59426-46-9
##MP= -300
##BP= -300
##MW= 266
##$RETENTION INDEX=0
##$CONDENSED SPECTRUM=NO
##NPOINTS= 192
##XYDATA=(XY..XY) 1 
    41        999
    42        101
    43        911
    44         64
    45         37
    46          2
    47          2
    50          9
    51         37
    52         25
    53        196
    54         55
    55        885
    56        138
    57        622
    58         29
    59          9
    60          6
    61          6
    62          1
    63          9
    64          5
    65         86
    66         35
    67        318
    68         71
    69        828
    70        239
    71        295
    72         25
    73         15
    74          2
    75          1
    77        167
    78         34
    79        242
    80         46
    81        331
    82        165
    83        668
    84        189
    85        182
    86         15
    87          3
    89          2
    91        176
    92         28
    93        203
    94         53
    95        373
    96        238
    97        549
    98        133
    99         74
   100         26
   101          6
   102          4
   103         13
   104          4
   105         69
   106         12
   107        232
   108         69
   109        399
   110        213
   111        311
   112         57
   113         19
   114          5
   115          9
   116          3
   117         12
   118          2
   119         42
   120         12
   121        204
   122         68
   123        322
   124        171
   125        138
   126         34
   127         29
   128          7
   129          4
   130          2
   131         21
   132          5
   133         29
   134         18
   135        252
   136         70
   137        261
   138        127
   139         92
   140         43
   141         30
   142          8
   143          2
   144          1
   145         25
   146          5
   147         20
   149        163
   150         56
   151        151
   152         97
   153         76
   154         68
   155         32
   156         12
   157          3
   158          1
   159         23
   160          4
   161         13
   163        106
   164         66
   165        102
   166        188
   167        140
   168        111
   169         34
   170          9
   171          2
   173         17
   174          3
   175          8
   176          1
   177         76
   178         45
   179         50
   180         49
   181        121
   182        133
   183         34
   184          8
   185          2
   187          7
   188          1
   189          5
   191         59
   192         32
   193         37
   194         22
   195        126
   196        117
   197         28
   198          4
   201          2
   203          4
   204          0
   205         44
   206         15
   207         17
   209        160
   210         87
   211         18
   212          2
   217          2
   219         41
   220         10
   221         22
   222          2
   223        127
   224         36
   225          6
   231          1
   233         18
   234          7
   235         12
   237         91
   238         30
   239          5
   240          0
   246          0
   247          4
   248         14
   249         16
   250          5
   251         32
   252         41
   253          8
   254          0
   256          1
   260          0
   262          1
   263          4
   264          9
   265          7
   266        140
   267         32
   268          4