##TITLE=Library Entry 88862
##JCAMP-DX=Revision 4.10 
##DATA TYPE=MASS SPECTRUM
##SAMPLE DESCRIPTION=ORMSBG,9(4)418(1974); WILLIAMS
##NAMES=HP
##CAS NAME=Benzene, 1-chloro-4-[(chloromethyl)sulfonyl]-
##MOLFORM=C7H6Cl2O2S
##CAS REGISTRY NO=5943-04-4
##MP= -300
##BP= -300
##MW= 224
##$RETENTION INDEX=0
##$CONDENSED SPECTRUM=NO
##NPOINTS= 13
##XYDATA=(XY..XY) 1 
    49        100
    50        210
    51         85
    74        110
    75        390
    76        110
   111        999
   113        320
   159        130
   175        990
   177        230
   224        220
   226        160