##TITLE=Library Entry 26603
##JCAMP-DX=Revision 4.10 
##DATA TYPE=MASS SPECTRUM
##SAMPLE DESCRIPTION=NIST Mass Spectrometry Data Center
##NAMES=HP
##CAS NAME=Disulfide, bis(1-methylpropyl)
##MOLFORM=C8H18S2
##CAS REGISTRY NO=5943-30-6
##MP= -300
##BP= -300
##MW= 178
##$RETENTION INDEX=1212
##$CONDENSED SPECTRUM=NO
##NPOINTS= 65
##XYDATA=(XY..XY) 1 
    15          1
    26          4
    27         56
    28          5
    29        161
    30          3
    35          4
    37          1
    38          2
    39         75
    40          7
    41        295
    42         13
    43          2
    45         32
    46          4
    47         14
    49          2
    50          3
    51          6
    52          1
    53         20
    54          5
    55         68
    56         47
    57        999
    58         57
    59         72
    60         22
    61         38
    62          2
    63          1
    64         15
    65          5
    66         16
    67          1
    68          1
    69          1
    71          5
    72          1
    73         10
    74          2
    75          1
    79          5
    85          1
    87         15
    88         20
    89         13
    90          3
    91          1
    92          2
    93         29
    94          1
    95          2
   107          1
   122        480
   123         30
   124         44
   125          2
   126          1
   149          2
   178        346
   179         36
   180         32
   181          3