##TITLE=Library Entry 52030
##JCAMP-DX=Revision 4.10 
##DATA TYPE=MASS SPECTRUM
##SAMPLE DESCRIPTION=R.A. FRANICH, FOREST RES. INST., ROTORUA, NEW ZEALAND
##NAMES=HP
##CAS NAME=3-Acetamidofuran
##MOLFORM=C6H7NO2
##CAS REGISTRY NO=59445-85-1
##MP= -300
##BP= -300
##MW= 125
##$RETENTION INDEX=1202
##$CONDENSED SPECTRUM=NO
##NPOINTS= 14
##XYDATA=(XY..XY) 1 
    43        600
    54        370
    55        350
    56         40
    68         20
    69         20
    83        999
    84         80
    85         20
    86         40
    96         20
   110         10
   125        470
   126         50