##TITLE=Library Entry 45457
##JCAMP-DX=Revision 4.10 
##DATA TYPE=MASS SPECTRUM
##SAMPLE DESCRIPTION=S.Franke ET AL. J.High Res.Chrom.,21,113(1998)
##NAMES=HP
##CAS NAME=Propane, 1,2-dichloro-3-[2-chloro-1-(chloromethyl)ethoxy]-
##MOLFORM=C6H10Cl4O
##CAS REGISTRY NO=59440-90-3
##MP= -300
##BP= -300
##MW= 238
##$RETENTION INDEX=0
##$CONDENSED SPECTRUM=NO
##NPOINTS= 51
##XYDATA=(XY..XY) 1 
    38         11
    39        156
    41        111
    42          7
    43         26
    49        214
    50         14
    51         68
    55          4
    57         30
    58          4
    61         30
    62         61
    63         16
    64         18
    73          5
    75        999
    76         39
    77        304
    78         18
    79        456
    80          7
    81        144
    83         25
    85         14
    91          4
    92          4
    93          4
    97          5
   105         47
   107         14
   110          5
   111        388
   112         14
   113        244
   114          4
   115         37
   141        221
   142          7
   143        142
   145         21
   153         86
   155         56
   157          5
   167          5
   189        325
   190         16
   191        309
   192         14
   193         98
   195          7