##TITLE=Library Entry 13644
##JCAMP-DX=Revision 4.10 
##DATA TYPE=MASS SPECTRUM
##SAMPLE DESCRIPTION=Div. of Experiment Therapeutics WRAIR, WRAMC, Washingto
n DC 20307
##NAMES=HP
##CAS NAME=2'-Chloro-5'-methoxy-4'-nitroacetanilide
##MOLFORM=C9H9ClN2O4
##CAS REGISTRY NO=59442-40-9
##MP= -300
##BP= -300
##MW= 244
##$RETENTION INDEX=0
##$CONDENSED SPECTRUM=NO
##NPOINTS= 151
##XYDATA=(XY..XY) 1 
    42         77
    43        999
    44          6
    46         14
    47         10
    49         49
    50         52
    51         48
    52         62
    53         37
    54          1
    55          7
    56          1
    57          1
    58          4
    60          8
    61         33
    62         79
    63         75
    64         24
    65         20
    66          6
    68         44
    69          5
    70          3
    71          0
    72         12
    73         32
    74         13
    75         23
    76         80
    77          9
    78        106
    79         12
    80         12
    81          6
    82          1
    84         26
    85         29
    86         28
    87         21
    88         23
    90        168
    91         19
    92         10
    93         38
    94         20
    95          6
    96          2
    97         30
    98          3
    99         57
   100         11
   101         10
   102          3
   103          0
   104          8
   105          1
   106         11
   108         19
   109         53
   111         14
   112         31
   113         62
   114         38
   115         23
   116         14
   117          0
   118          2
   119          2
   120          4
   121          4
   122          1
   124          9
   125         19
   126        123
   127          6
   128         51
   129         28
   130          9
   131         11
   133         18
   134          7
   135          3
   136          2
   137          0
   138          0
   139          4
   140         19
   141         74
   142         42
   144        136
   146         27
   147          2
   148          0
   149          1
   150          2
   151          1
   152          0
   154         11
   155        107
   157         54
   158          6
   159          2
   160          1
   162         28
   164          0
   167          5
   168          5
   169          5
   170          4
   172         83
   174         24
   175          1
   176          0
   178          3
   179          0
   181          1
   182          0
   183          2
   185          5
   186         10
   187          2
   188          4
   193          0
   195          1
   197          4
   198          1
   199          0
   200          0
   202        161
   204         79
   205          3
   206          1
   207          0
   209        391
   210         34
   211          5
   212          0
   213          0
   215          3
   217          1
   228          2
   229          2
   230          1
   231          1
   244        153
   245         16
   246         50
   247          5
   248          0