##TITLE=Library Entry 3671
##JCAMP-DX=Revision 4.10 
##DATA TYPE=MASS SPECTRUM
##SAMPLE DESCRIPTION=Exported from NIST MS Search
##NAMES=HP
##CAS NAME=3,6-Octadien-1-ol, 3,7-dimethyl-, (Z)-
##MOLFORM=C10H18O
##CAS REGISTRY NO=5944-20-7
##MP= -300
##BP= -300
##MW= 154
##$RETENTION INDEX=1240
##$CONDENSED SPECTRUM=NO
##NPOINTS= 81
##XYDATA=(XY..XY) 1 
    15         10
    26         10
    27        264
    29        248
    30         16
    31        184
    37          5
    38         15
    39        358
    40         68
    41        999
    42         65
    43        486
    44         19
    45         19
    50         21
    51         74
    52         38
    53        287
    54         37
    55        468
    56         90
    57         90
    58          7
    59         21
    62          7
    63         23
    64          6
    65        103
    66         45
    67        615
    68        184
    69        678
    70         65
    71         58
    72         15
    73          8
    75         10
    77        232
    78         49
    79        322
    80         94
    81        805
    82        110
    83         94
    84         94
    85         25
    89         10
    91        255
    92         53
    93        420
    94         97
    95        387
    96         52
    97         71
    98         48
    99          9
   103         15
   104          6
   105        145
   106         39
   107        148
   108         58
   109        805
   110        148
   111        129
   112         42
   119         45
   121        580
   122         68
   123        181
   124         20
   125          7
   134          9
   135          9
   136         38
   137         11
   139         55
   152         11
   154        300
   155         34