##TITLE=Library Entry 36740
##JCAMP-DX=Revision 4.10 
##DATA TYPE=MASS SPECTRUM
##SAMPLE DESCRIPTION=A.A.Kutin, Moscow, Russia
##NAMES=HP
##CAS NAME=Pyridine, 3,5-diethoxy-2-nitro-, 1-oxide
##MOLFORM=C9H12N2O5
##CAS REGISTRY NO=59455-38-8
##MP= -300
##BP= -300
##MW= 228
##$RETENTION INDEX=0
##$CONDENSED SPECTRUM=NO
##NPOINTS= 81
##XYDATA=(XY..XY) 1 
    37         33
    38         86
    39        201
    41        110
    42        213
    43        220
    44        101
    45         49
    46         69
    50         59
    52        263
    53        229
    54        142
    55        225
    56         52
    57         25
    58          9
    60          5
    62         21
    64        110
    66        137
    67        100
    69        999
    70        266
    72        395
    73          1
    74          1
    76          7
    77          9
    78          2
    79         14
    80        129
    81         71
    82         46
    83         83
    84         61
    86          6
    87         33
    92         11
    94         21
    96        156
    97         44
    98         90
    99         49
   100         14
   108         35
   109        176
   110         46
   112        376
   114        233
   115          6
   122         19
   123         21
   125         32
   126         69
   127         19
   137        148
   138        168
   139         30
   140         50
   142        314
   144        207
   151          2
   153          1
   154         24
   155         10
   156          2
   167         16
   168         29
   170         53
   172        122
   182          7
   184         22
   198         46
   199        100
   200         91
   201          7
   212         41
   228        841
   229         85
   230          2