##TITLE=Library Entry 49873
##JCAMP-DX=Revision 4.10 
##DATA TYPE=MASS SPECTRUM
##SAMPLE DESCRIPTION=NIST Mass Spectrometry Data Center
##NAMES=HP
##CAS NAME=Neointermedeol
##MOLFORM=C15H26O
##CAS REGISTRY NO=5945-72-2
##MP= -300
##BP= -300
##MW= 222
##$RETENTION INDEX=1660
##$CONDENSED SPECTRUM=NO
##NPOINTS= 124
##XYDATA=(XY..XY) 1 
    27         37
    29         73
    30          2
    31          9
    39        132
    40         36
    41        441
    42         54
    43        981
    44         26
    45         49
    50          5
    51         31
    52         20
    53        215
    54         45
    55        464
    56         42
    57         83
    58        175
    62          4
    63         11
    64          6
    65        110
    66         44
    67        676
    68        261
    69        368
    70         54
    71        822
    72         44
    73          6
    76          7
    77        177
    78         37
    79        374
    80         82
    81        999
    82        217
    83        141
    84         56
    85        145
    86         20
    87          5
    89          9
    91        248
    92         60
    93        460
    94        123
    95        523
    96        200
    97         98
    98         30
    99         11
   100          2
   103         23
   104         12
   105        316
   106         66
   107        375
   108        252
   109        537
   110         68
   111         77
   112          8
   113         33
   114          2
   115         28
   116         13
   117         62
   118         17
   119        161
   120         57
   121        368
   122        177
   123        344
   124         47
   125         81
   126         15
   127          7
   131         38
   132         10
   133        247
   134        195
   135        893
   136        165
   137        438
   138         55
   139         17
   140          5
   144          6
   145         20
   147        225
   148        124
   149        137
   150         18
   151         27
   152         14
   153          4
   159         60
   160         15
   161        354
   162        147
   164        136
   165         24
   175         87
   176         36
   177         46
   179         81
   180         14
   181          2
   189        431
   190         64
   191          9
   192          6
   193          4
   204        630
   205        104
   207         85
   208         12
   221          5
   222         79
   223         12
   224          2