##TITLE=Library Entry 51599
##JCAMP-DX=Revision 4.10 
##DATA TYPE=MASS SPECTRUM
##SAMPLE DESCRIPTION=A.A.Kutin, Moscow, Russia
##NAMES=HP
##CAS NAME=Pyridine, 3-ethoxy-5-fluoro-2,6-dinitro-
##MOLFORM=C7H6FN3O5
##CAS REGISTRY NO=59455-36-6
##MP= -300
##BP= -300
##MW= 231
##$RETENTION INDEX=0
##$CONDENSED SPECTRUM=NO
##NPOINTS= 70
##XYDATA=(XY..XY) 1 
    37         49
    38         24
    39         37
    40         71
    41         66
    43        236
    44        160
    46        918
    47        187
    48          6
    49          5
    51         47
    52        209
    54        178
    56        382
    57         72
    58          6
    62         52
    63        124
    64         38
    65          6
    67         38
    68         44
    69        139
    70        327
    71        447
    72        152
    73         24
    75         88
    76         33
    78         23
    82        999
    83        223
    84         96
    85         15
    86         12
    89          9
    91         23
    93         32
    95        267
    96         41
    98        940
    99        110
   100          7
   106          2
   109          7
   110         32
   111        114
   112         12
   113         32
   114         84
   125          3
   126        283
   127        562
   128         13
   138         70
   139         12
   140         15
   154          3
   155          2
   157        820
   158         27
   171         66
   185          4
   187        103
   188          2
   202        742
   203         34
   231        289
   232         20