##TITLE=Library Entry 18331
##JCAMP-DX=Revision 4.10 
##DATA TYPE=MASS SPECTRUM
##SAMPLE DESCRIPTION=D.HENNEBERG, MAX-PLANCK INSTITUTE, MULHEIM, WEST GERMAN
Y
##NAMES=HP
##CAS NAME=Chromium, [(1,2,3,4,5,6-.eta.)-1,3,5-cycloheptatriene]tris(phosph
orus trifluoride)-
##MOLFORM=C7H8CrF9P3
##CAS REGISTRY NO=59464-87-8
##MP= -300
##BP= -300
##MW= 408
##$RETENTION INDEX=0
##$CONDENSED SPECTRUM=NO
##NPOINTS= 214
##XYDATA=(XY..XY) 1 
    26         24
    27         34
    28        158
    29         56
    30          2
    31         29
    32         12
    36          5
    37          0
    38          3
    39         29
    40          6
    41         66
    42         17
    43         77
    44         26
    45         44
    46          2
    47          1
    50         53
    51         12
    52        999
    53        114
    54         27
    55         53
    56         39
    57         80
    58         30
    59          7
    60          2
    61          0
    62          1
    63         14
    64          7
    65         45
    66        127
    67         19
    68          8
    69         92
    70         29
    71         30
    73         11
    74          2
    75          1
    76          2
    77         14
    78         10
    79          9
    80          2
    81         12
    82          7
    83         19
    84         16
    85         16
    86          1
    87          2
    88        112
    89          6
    90         16
    91        209
    92         62
    93          8
    94         13
    95         13
    96          6
    97         11
    98         11
    99         10
   100          2
   101          2
   102          1
   103          4
   104          2
   105         21
   106          3
   107          2
   108          1
   109          8
   110          5
   111          6
   112          6
   113          4
   114          1
   115          4
   116         13
   117         15
   118         57
   119         12
   120          4
   121          2
   122          2
   123          5
   124          2
   125          4
   126          3
   127          3
   128          3
   129         10
   130          2
   131          2
   132          1
   133          2
   134          2
   135          3
   138          2
   139          2
   140          7
   141          4
   142         47
   143         31
   144        785
   145        141
   146         27
   147          2
   148          0
   149         43
   150          4
   151          1
   152          1
   153          1
   154          0
   155          3
   156          1
   157          1
   158          0
   159          0
   160          1
   161          1
   163          3
   164          1
   165          1
   166          0
   167          2
   169          1
   170          1
   171          0
   172          2
   173          0
   174          0
   177          1
   178          0
   179          1
   180          1
   181          1
   182          0
   184          0
   189          0
   190          0
   191          1
   192          0
   193          1
   194          0
   196          0
   197          0
   199          0
   200          1
   201          0
   202          0
   203          1
   204          0
   205          4
   206          1
   207          2
   208          0
   210          1
   211          3
   212          0
   213         75
   214         13
   215          2
   217          0
   218          0
   220          1
   221          0
   223          3
   224          0
   231          1
   232        154
   233         29
   234          9
   235          1
   237          0
   244          0
   249          0
   250          0
   252          0
   260          2
   264          0
   265          1
   267          2
   268          0
   270          0
   278          0
   281          9
   282          4
   283          1
   284          0
   301          6
   302          1
   307          0
   318          4
   320         95
   321         21
   322          3
   341          0
   343          0
   349          0
   355          2
   357          0
   406          3
   407          0
   408         68
   409         12
   410          2