##TITLE=Library Entry 67333
##JCAMP-DX=Revision 4.10 
##DATA TYPE=MASS SPECTRUM
##SAMPLE DESCRIPTION=A. MCCORMICK GC-MS UNIT, CHEM. DEPT., UNIVERSITY OF GLA
SGOW
##NAMES=HP
##CAS NAME=Kaur-15-ene
##MOLFORM=C20H32
##CAS REGISTRY NO=5947-50-2
##MP= -300
##BP= -300
##MW= 272
##$RETENTION INDEX=1988
##$CONDENSED SPECTRUM=NO
##NPOINTS= 101
##XYDATA=(XY..XY) 1 
    51         18
    53         90
    54         18
    55        240
    56         30
    57         60
    65         40
    66         20
    67        170
    68         40
    69        260
    70         20
    71         10
    77        160
    78         40
    79        190
    80         30
    81        200
    82         60
    83        165
    91        330
    92        130
    93        280
    94        999
    95        240
    96         30
    97         40
   103         20
   104         15
   105        360
   106        645
   107        160
   108         40
   109         90
   110         14
   111         40
   115         20
   116         14
   117         50
   118        125
   119        280
   120        120
   121         60
   122         24
   123        210
   124         40
   125        120
   126         10
   128         10
   129         10
   131         70
   132         20
   133         80
   134        160
   135         60
   136         24
   137         90
   138         15
   143         10
   145         45
   146         15
   147        145
   148         40
   149         20
   150         15
   159         70
   160         20
   161         70
   162         20
   163        210
   164         45
   165         10
   173         35
   174         10
   175         70
   176         15
   177         10
   178         50
   179         21
   187         95
   188         20
   189         10
   190         10
   201         30
   202         10
   203         12
   204          5
   213          3
   214         10
   215         11
   216         11
   229         85
   230         15
   243         10
   244         60
   245         10
   257        180
   258         40
   272        210
   273         40
   274          5