##TITLE=Library Entry 65180
##JCAMP-DX=Revision 4.10 
##DATA TYPE=MASS SPECTRUM
##SAMPLE DESCRIPTION=Japan AIST/NIMC Database- Spectrum MS-IW-3141
##NAMES=HP
##CAS NAME=trans-2-Benzylcyclohexanol
##MOLFORM=C13H18O
##CAS REGISTRY NO=5947-19-3
##MP= -300
##BP= -300
##MW= 190
##$RETENTION INDEX=0
##$CONDENSED SPECTRUM=NO
##NPOINTS= 113
##XYDATA=(XY..XY) 1 
    15          2
    17          1
    18          4
    26          2
    27         48
    28         19
    29         57
    30          2
    31         29
    32          4
    38          4
    39         82
    40          9
    41        117
    42         11
    43         58
    44         17
    45          4
    50         10
    51         44
    52         12
    53         37
    54          9
    55        107
    56          9
    57        108
    58          8
    62          4
    63         24
    64          8
    65        114
    66         17
    67         33
    68         10
    69         26
    70         35
    71          8
    72          1
    74          3
    75          5
    76          6
    77         64
    78         52
    79         81
    80        123
    81        517
    82         35
    83         28
    84         10
    85          4
    86          2
    87          1
    88          1
    89         20
    90          9
    91        736
    92        999
    93         90
    94         38
    95          6
    96          1
    97         39
    98        115
    99        144
   100          9
   101          2
   102          9
   103         32
   104        664
   105        105
   106          9
   107          5
   108          1
   111          6
   112          9
   113          1
   114          1
   115         68
   116         25
   117        112
   118         33
   119          5
   120          1
   121          1
   126          1
   127          9
   128         31
   129        132
   130         97
   131         44
   132          4
   133          6
   134          1
   141          5
   142          4
   143         55
   144         37
   145          7
   146          1
   147          1
   155          1
   157         10
   158          1
   159          2
   170          1
   171         18
   172        650
   173         93
   174          6
   188          4
   189          2
   190         61
   191          8