##TITLE=Library Entry 50485
##JCAMP-DX=Revision 4.10 
##DATA TYPE=MASS SPECTRUM
##SAMPLE DESCRIPTION=Chemical Concepts
##NAMES=HP
##CAS NAME=Bicyclo[6.1.0]nonane, 9-bromo-9-methyl-, (1.alpha.,8.alpha.,9.alp
ha.)-
##MOLFORM=C10H17Br
##CAS REGISTRY NO=59474-03-2
##MP= -300
##BP= -300
##MW= 216
##$RETENTION INDEX=0
##$CONDENSED SPECTRUM=NO
##NPOINTS= 117
##XYDATA=(XY..XY) 1 
    25          0
    26          6
    27         98
    28         22
    29         66
    30          1
    37          1
    38          8
    39        160
    40         34
    41        348
    42         30
    43         38
    44          1
    45          3
    46          1
    48          1
    50         12
    51         42
    52         28
    53        177
    54        102
    55        410
    56         24
    57         27
    58          3
    59          1
    60          1
    61          0
    62          3
    63         14
    64          5
    65         60
    66         53
    67        627
    68        119
    69        200
    70         16
    71         11
    72          1
    73          1
    74          1
    75          4
    76          2
    77        103
    78         28
    79        247
    80        164
    81        999
    82        107
    83         53
    84         10
    85          3
    86          1
    87          1
    88          0
    89          2
    90          1
    91         72
    92         13
    93        129
    94         59
    95        747
    96        238
    97         22
    98          2
    99          0
   101          0
   102          1
   103          3
   104          1
   105         15
   106          3
   107         39
   108         11
   109         58
   110         11
   111          1
   112          0
   113          0
   114          0
   115          2
   116          0
   117          2
   118          1
   119          7
   120          3
   121         22
   122         11
   123         40
   124          4
   125          0
   131          1
   132          5
   133         38
   134          9
   135         37
   136          9
   137        707
   138         80
   139          4
   145          1
   146        100
   147          9
   148         85
   149         10
   150          0
   151          1
   152          0
   159          5
   160          1
   161          4
   162          1
   216         22
   217          2
   218         22
   219          2