##TITLE=Library Entry 37653
##JCAMP-DX=Revision 4.10 
##DATA TYPE=MASS SPECTRUM
##SAMPLE DESCRIPTION=N.W. DAVIES, UNIVERSITY OF TASMANIA, TASMANIA, AUSTRALI
A
##NAMES=HP
##CAS NAME=Bicyclo[3.1.1]heptan-3-ol, 6,6-dimethyl-2-methylene-
##MOLFORM=C10H16O
##CAS REGISTRY NO=5947-36-4
##MP= -300
##BP= -300
##MW= 152
##$RETENTION INDEX=1138
##$CONDENSED SPECTRUM=NO
##NPOINTS= 61
##XYDATA=(XY..XY) 1 
    26         21
    27        356
    29        194
    31         43
    38         27
    39        423
    41        968
    42        144
    43        253
    45         11
    50         19
    51        100
    52         43
    53        278
    54         56
    55        924
    56         75
    57         27
    58         10
    59         47
    63         27
    64         18
    65        122
    66         45
    67        188
    68         37
    69        540
    70        999
    71         42
    74         10
    77        199
    78         57
    79        212
    80         34
    81        346
    82         52
    83        890
    84        107
    90         11
    91        605
    92        981
    93        244
    94         63
    95        154
    96         60
   103         16
   104         11
   105         83
   106         31
   107         34
   108         32
   109        339
   110         46
   111         79
   117         23
   119        230
   120         27
   123         14
   134        300
   135         35
   137         30