##TITLE=Library Entry 33038
##JCAMP-DX=Revision 4.10 
##DATA TYPE=MASS SPECTRUM
##SAMPLE DESCRIPTION=Philip Morris R&D
##NAMES=HP
##CAS NAME=Cyclohexanone, 2-methyl-5-(1-methylethenyl)-, trans-
##MOLFORM=C10H16O
##CAS REGISTRY NO=5948-04-9
##MP= -300
##BP= -300
##MW= 152
##$RETENTION INDEX=1201
##$CONDENSED SPECTRUM=NO
##NPOINTS= 77
##XYDATA=(XY..XY) 1 
    37          0
    38          8
    39        248
    40         67
    41        490
    42         80
    43         92
    44          5
    46          3
    50         11
    51         34
    52         25
    53        161
    54         73
    55        347
    56        127
    57         12
    58          0
    59          1
    60          0
    61          1
    62          2
    63          5
    64          1
    65         50
    66         28
    67        999
    68        581
    69        452
    70         59
    71          6
    72          3
    73          1
    75          0
    77         44
    78          7
    79        119
    80        100
    81        459
    82        513
    83         87
    84         22
    85          0
    87          0
    89          0
    91         25
    92          2
    93         87
    94         28
    95        800
    96        140
    97        114
    98          9
   105          6
   106          3
   107         11
   108        303
   109        465
   110        235
   111         39
   112          2
   117          0
   119         13
   121          6
   122          1
   123         55
   124         31
   125          1
   133          0
   134          1
   135          0
   137        156
   138         13
   151          6
   152        250
   153         31
   154          0