##TITLE=Library Entry 46181
##JCAMP-DX=Revision 4.10 
##DATA TYPE=MASS SPECTRUM
##SAMPLE DESCRIPTION=A.Smith ET AL.Biomed. Mass Spectrom.,3,161(1976)
##NAMES=HP
##CAS NAME=20.beta.-Progerol, TBDMS derivative
##MOLFORM=C27H46O2Si
##CAS REGISTRY NO=59487-28-4
##MP= -300
##BP= -300
##MW= 430
##$RETENTION INDEX=0
##$CONDENSED SPECTRUM=NO
##NPOINTS= 76
##XYDATA=(XY..XY) 1 
    73        308
    74         36
    75        999
    76         67
    77         54
    79         50
    80         15
    81         50
    83         15
    90          4
    91         53
    92         13
    93         52
    94         13
    95         46
    97         10
    99         16
   100          5
   102         14
   103        250
   104         24
   105         62
   106         17
   107         43
   108         17
   109         24
   115         34
   116         14
   117         22
   119         35
   120         15
   121         51
   122         15
   123         25
   124         13
   129         13
   131         20
   133         29
   134         14
   135         16
   145         30
   147         24
   149         24
   157         29
   159         68
   160         10
   161         22
   166         12
   171        118
   172         23
   173         29
   175         23
   183         80
   184         12
   185         14
   195         14
   197         28
   198         16
   211         13
   251         14
   271         42
   272         13
   281         10
   283         10
   297         72
   298         23
   329         88
   330         31
   331         16
   371         35
   372         16
   373        451
   374        152
   375         42
   376         17
   415         15