##TITLE=Library Entry 68081
##JCAMP-DX=Revision 4.10 
##DATA TYPE=MASS SPECTRUM
##SAMPLE DESCRIPTION=NIST Mass Spectrometry Data Center
##NAMES=HP
##CAS NAME=dl-Camphoric anhydride
##MOLFORM=C10H14O3
##CAS REGISTRY NO=595-30-2
##MP= -300
##BP= -300
##MW= 182
##$RETENTION INDEX=0
##$CONDENSED SPECTRUM=NO
##NPOINTS= 74
##XYDATA=(XY..XY) 1 
    15         11
    26          9
    27        122
    29         61
    30          1
    31          1
    37          3
    38         13
    39        226
    40         40
    41        451
    42         28
    43         50
    44          6
    45          8
    46          3
    49          1
    50         18
    51         47
    52         24
    53        108
    54         24
    55        409
    56         20
    57          2
    59          1
    61          1
    62          4
    63         13
    64          2
    65         41
    66         14
    67        185
    68         29
    69        516
    70         29
    71          2
    74          1
    75          1
    76          1
    77         67
    78         16
    79         73
    80         21
    81         33
    82         39
    83        370
    84         26
    85          1
    91         37
    92          5
    93         40
    94         18
    95        999
    96        107
    97         15
    98          1
   105          6
   106          1
   107          6
   108          3
   109         27
   110        134
   111         13
   112          1
   120          2
   121          1
   123        195
   124         17
   125          1
   137          5
   138        303
   139         31
   140          2