##TITLE=Library Entry 41665
##JCAMP-DX=Revision 4.10 
##DATA TYPE=MASS SPECTRUM
##SAMPLE DESCRIPTION=CONTINENTAL OIL COMPANY, PONCA CITY, OKLAHOMA, USA
##NAMES=HP
##CAS NAME=3-Pentanol, 2,3-dimethyl-
##MOLFORM=C7H16O
##CAS REGISTRY NO=595-41-5
##MP= -300
##BP= -300
##MW= 116
##$RETENTION INDEX=824
##$CONDENSED SPECTRUM=NO
##NPOINTS= 78
##XYDATA=(XY..XY) 1 
    12          0
    13          3
    14         10
    15         80
    16          6
    17          7
    18         19
    19         11
    24          0
    25          2
    26         26
    27        275
    28         55
    29        182
    30          7
    31         83
    32          5
    33          2
    36          3
    37          6
    38         14
    39        151
    40         23
    41        319
    42         45
    43        458
    44         24
    45        384
    46         10
    47          3
    48          2
    49          2
    50          9
    51         16
    52          7
    53         41
    54         12
    55        422
    56         39
    57        159
    58         12
    59         90
    60          4
    61          2
    62          3
    63          4
    64          1
    65          6
    66          4
    67         17
    68          7
    69        227
    70         24
    71         36
    72         26
    73        999
    74         47
    75          4
    77          3
    79          3
    81          5
    82          2
    83         81
    84          8
    85          8
    86          5
    87        527
    88         29
    89          2
    91          1
    97          2
    98         20
    99          4
   100          1
   101         65
   102          5
   115          1
   116          0