##TITLE=Library Entry 8806
##JCAMP-DX=Revision 4.10 
##DATA TYPE=MASS SPECTRUM
##SAMPLE DESCRIPTION=D.HENNEBERG, MAX-PLANCK INSTITUTE, MULHEIM, WEST GERMAN
Y
##NAMES=HP
##CAS NAME=Butanoic acid, 2,2-dimethyl-
##MOLFORM=C6H12O2
##CAS REGISTRY NO=595-37-9
##MP= -300
##BP= -300
##MW= 116
##$RETENTION INDEX=0
##$CONDENSED SPECTRUM=NO
##NPOINTS= 63
##XYDATA=(XY..XY) 1 
    26         30
    27        192
    28         48
    29        199
    30          4
    31         21
    32          2
    36          0
    37          3
    38         10
    39        127
    40         17
    41        221
    42         44
    43        999
    44         30
    45         75
    46          2
    47          1
    49          0
    50          6
    51         10
    52          3
    53         21
    54          4
    55        141
    56         11
    57         38
    58          3
    59         40
    60          6
    61          1
    62          0
    63          0
    65          1
    66          0
    67          2
    68          3
    69         16
    70         44
    71        902
    72         50
    73         71
    74          4
    75          0
    77          0
    78          0
    79          0
    81          0
    82          1
    83          9
    84          0
    85          2
    86          5
    87         22
    88        150
    89          6
    90          0
    99          1
   100          1
   101         36
   102          1
   116          0