##TITLE=Library Entry 95521
##JCAMP-DX=Revision 4.10 
##DATA TYPE=MASS SPECTRUM
##SAMPLE DESCRIPTION=NIST Mass Spectrometry Data Center
##NAMES=HP
##CAS NAME=Piperlonguminine
##MOLFORM=C16H19NO3
##CAS REGISTRY NO=5950-12-9
##MP= -300
##BP= -300
##MW= 273
##$RETENTION INDEX=2647
##$CONDENSED SPECTRUM=NO
##NPOINTS= 95
##XYDATA=(XY..XY) 1 
    27         34
    28         27
    29         47
    30         25
    38          6
    39         82
    40         11
    41        124
    43         78
    44         11
    46          6
    50         21
    51         53
    52         16
    53         25
    56         36
    57         98
    62         35
    63        115
    64         22
    65         80
    70         35
    71         52
    72         44
    74         11
    76         19
    77         52
    78         22
    86         18
    87         24
    88         35
    89        114
    90         14
    91         24
    96        176
    97          9
   100        105
   102         21
   103         34
   104          7
   110         18
   112         12
   113        106
   114        118
   115        999
   116        184
   121         12
   122         81
   124         48
   127         26
   135         98
   136         14
   139         26
   140          8
   142         14
   143        265
   144         99
   145         37
   146         13
   148         18
   152        113
   158          8
   159         48
   160         10
   161         23
   162          5
   170         16
   171        170
   172        189
   173        489
   174        166
   175         21
   176         10
   180          4
   186          5
   187          8
   188         12
   189          7
   194          5
   199         16
   200         75
   201        723
   202        124
   204          5
   215          3
   216        183
   217         48
   218          8
   230         20
   244          4
   245          3
   272         16
   273        458
   274         83
   275         11