##TITLE=Library Entry 19369
##JCAMP-DX=Revision 4.10 
##DATA TYPE=MASS SPECTRUM
##SAMPLE DESCRIPTION=M. BAUMGARTH, E. MERCK, DARMSTADT, W. GE
##NAMES=HP
##CAS NAME=17.beta.-Hydroxy-6.alpha.-pentyl-4-oxa-5.beta.-androstan-3-one
##MOLFORM=C23H38O3
##CAS REGISTRY NO=59500-84-4
##MP= -300
##BP= -300
##MW= 362
##$RETENTION INDEX=0
##$CONDENSED SPECTRUM=NO
##NPOINTS= 113
##XYDATA=(XY..XY) 1 
    27        330
    28        230
    29        610
    31         70
    39        160
    41        850
    42        290
    43        700
    44        140
    45         50
    53        170
    54         60
    55        999
    56        130
    57        480
    58         60
    65         90
    66         50
    67        720
    68        250
    69        440
    70         60
    71        230
    77        310
    78         90
    79        720
    80        130
    81        840
    82        140
    83        260
    84         60
    85        130
    91        670
    92        120
    93        750
    94        150
    95        620
    96         80
    97        240
    99         90
   105        720
   106        150
   107        550
   108        140
   109        300
   110         70
   111        120
   115         90
   117        140
   119        390
   120        110
   121        300
   122         90
   123        190
   131        210
   133        310
   134         70
   135        160
   137        100
   145        200
   147        210
   149        100
   151         60
   157         60
   159        140
   161        160
   163         90
   165         50
   171         40
   173        140
   175        320
   177        110
   179         60
   185         50
   187         90
   189        100
   191         90
   199         60
   201        290
   203         70
   205         50
   213         80
   215        100
   217        110
   219         60
   229         90
   231         80
   233         70
   243        110
   245        190
   247         80
   255         60
   259         60
   261         80
   271        580
   272        140
   273        150
   274         80
   289        390
   290        110
   291        190
   292         50
   303        400
   304         90
   305         90
   319        400
   320         90
   329         70
   344        160
   345         50
   347         40
   362        320
   363         70