##TITLE=Library Entry 64807
##JCAMP-DX=Revision 4.10 
##DATA TYPE=MASS SPECTRUM
##SAMPLE DESCRIPTION=A. Brossi, LC, NIDDK, NIH, Bethesda, MD 20892
##NAMES=HP
##CAS NAME=.alpha.-Tetraloxime, 6,7-dibenzyloxy-
##MOLFORM=C24H23NO3
##CAS REGISTRY NO=59516-02-8
##MP= -300
##BP= -300
##MW= 373
##$RETENTION INDEX=0
##$CONDENSED SPECTRUM=NO
##NPOINTS= 111
##XYDATA=(XY..XY) 1 
    41         11
    43          2
    50          4
    51         11
    52          5
    53          3
    55          3
    57          3
    62          3
    63         15
    64          7
    65         85
    66          6
    69          2
    76          4
    77         16
    78         12
    79          8
    81          2
    89         28
    90         14
    91        999
    92         76
    93          4
   100          3
   102          4
   103          6
   104          3
   105          9
   106         10
   107         15
   110          3
   115          5
   116          3
   117          4
   118          4
   119          3
   120          2
   130          6
   131          4
   132          2
   134          2
   135          2
   142          6
   146          4
   147          3
   148          3
   153          3
   159          4
   163          3
   165          6
   166          4
   167          3
   174          3
   176          3
   178          5
   179          4
   180          4
   181         56
   182         10
   191          3
   193         15
   194          4
   204          3
   205          5
   206          6
   208         10
   209         10
   210          5
   219          3
   221          4
   222          4
   223          2
   224          5
   226         18
   227          4
   235          3
   236         20
   237         17
   238         11
   239          2
   248          5
   249          2
   250         17
   251          5
   252          3
   254         67
   255         14
   264         18
   265         25
   266         11
   267         17
   268          5
   280          9
   281         26
   282        140
   283         28
   284          4
   296          4
   297         12
   300          7
   328         16
   329          4
   356        175
   357         54
   358         16
   359          2
   373        670
   374        181
   375         29
   376          3