##TITLE=Library Entry 62553
##JCAMP-DX=Revision 4.10 
##DATA TYPE=MASS SPECTRUM
##SAMPLE DESCRIPTION=A. Brossi, LC, NIDDK, NIH, Bethesda, MD 20892
##NAMES=HP
##CAS NAME=5,6-Dibenzyloxy-.alpha.-tetralonxime, toluensulfonate(ester)
##MOLFORM=C31H29NO5S
##CAS REGISTRY NO=59516-03-9
##MP= -300
##BP= -300
##MW= 527
##$RETENTION INDEX=0
##$CONDENSED SPECTRUM=NO
##NPOINTS= 99
##XYDATA=(XY..XY) 1 
    41         22
    42          1
    43          5
    44          3
    45          6
    48          2
    49          8
    50          9
    51         22
    52         10
    53          9
    55          8
    57          2
    60          1
    62          5
    63         32
    64         12
    65        153
    66          9
    67          3
    69          4
    73          1
    74          1
    75          2
    76          2
    77         37
    78         12
    79         14
    80          3
    84          8
    86          5
    88          1
    89         40
    91        999
    92         79
    93          4
    95          2
   105          6
   106          4
   107         34
   108         12
   111          2
   115          1
   117          6
   118          4
   121          1
   134          1
   135          2
   139         20
   140          2
   141          1
   146          6
   152          1
   155        307
   156         26
   157         15
   162          4
   165          8
   166          1
   167          4
   172          2
   174          2
   181         11
   182          2
   190          1
   192          3
   236          4
   238          4
   252          2
   254          1
   262        149
   263         23
   264         12
   265          5
   266          9
   267          1
   281          3
   282         35
   283          8
   323          1
   326         31
   327          5
   328          3
   344          3
   356         23
   357         15
   358          2
   372         17
   373         47
   374         12
   391          2
   408          6
   414          4
   436         26
   437          8
   438          2
   527         24
   528          7
   529          1