##TITLE=Library Entry 59965
##JCAMP-DX=Revision 4.10 
##DATA TYPE=MASS SPECTRUM
##SAMPLE DESCRIPTION=A. Brossi, LC, NIDDK, NIH, Bethesda, MD 20892
##NAMES=HP
##CAS NAME=.alpha.-Tetralone, 5,6-dibenzyloxy-2-oximino-
##MOLFORM=C24H21NO4
##CAS REGISTRY NO=59515-95-6
##MP= -300
##BP= -300
##MW= 387
##$RETENTION INDEX=0
##$CONDENSED SPECTRUM=NO
##NPOINTS= 67
##XYDATA=(XY..XY) 1 
    41         13
    43          7
    44          3
    45          9
    50         10
    51         23
    52          7
    55          3
    57          6
    62          6
    63         24
    64         12
    65        107
    66          6
    76         14
    77         29
    78         14
    79         18
    89         38
    90         17
    91        999
    92         77
   103          7
   104         21
   105         19
   107          7
   108          8
   117          3
   132          6
   133          6
   146          7
   160         19
   161         19
   162          3
   165          3
   175          3
   178          3
   181         17
   190          2
   203          3
   207          2
   249          8
   250         18
   251          6
   252         59
   253         10
   263          6
   265          3
   267         14
   278         25
   279         13
   280         65
   281         16
   293          6
   294         20
   295          3
   296         17
   340          7
   355          3
   358          9
   368         13
   369         23
   370         39
   371         88
   372         24
   387         44
   388         14