##TITLE=Library Entry 50618
##JCAMP-DX=Revision 4.10 
##DATA TYPE=MASS SPECTRUM
##SAMPLE DESCRIPTION=NIST Mass Spectrometry Data Center
##NAMES=HP
##CAS NAME=Cyclopentaneacetaldehyde, 2-formyl-3-methyl-.alpha.-methylene-
##MOLFORM=C10H14O2
##CAS REGISTRY NO=5951-57-5
##MP= -300
##BP= -300
##MW= 166
##$RETENTION INDEX=1314
##$CONDENSED SPECTRUM=NO
##NPOINTS= 100
##XYDATA=(XY..XY) 1 
    26         23
    27        288
    28         63
    29        339
    30          9
    31         25
    37         10
    38         46
    39        738
    40        119
    41        894
    42         71
    43        320
    44         20
    45         25
    46          4
    47          2
    50         87
    51        242
    52        108
    53        521
    54        107
    55        675
    56        168
    57         79
    58         13
    60         13
    61         14
    62         27
    63         81
    64         18
    65        310
    66        124
    67        875
    68        150
    69        209
    70         53
    71        195
    72          9
    74         19
    75         10
    76          7
    77        426
    78        122
    79        682
    80        324
    81        999
    82        143
    83        228
    84        123
    85         12
    89         10
    90          3
    91        448
    92        119
    93        197
    94        144
    95        588
    96        163
    97         55
   102          4
   103         61
   104         27
   105        597
   106         71
   107        286
   108        352
   109        906
   110        167
   111         84
   112          7
   115         21
   117         60
   118          9
   119        223
   120        274
   121        231
   122         56
   123        466
   124        182
   125         20
   129          7
   130          8
   131         12
   132          5
   133        116
   134         13
   135         27
   136          8
   137         94
   138        133
   139         11
   147         29
   148         75
   149         73
   150          8
   151        113
   152          8
   165         30
   166          4