##TITLE=Library Entry 21368
##JCAMP-DX=Revision 4.10 
##DATA TYPE=MASS SPECTRUM
##SAMPLE DESCRIPTION=NIST Mass Spectrometry Data Center, 2009
##NAMES=HP
##CAS NAME=2-Butenoic acid, 2-methyl-, methyl ester, (Z)-
##MOLFORM=C6H10O2
##CAS REGISTRY NO=5953-76-4
##MP= -300
##BP= -300
##MW= 114
##$RETENTION INDEX=843
##$CONDENSED SPECTRUM=NO
##NPOINTS= 63
##XYDATA=(XY..XY) 1 
    14          1
    15         25
    25          1
    26         17
    27        127
    28         34
    29        141
    30          8
    31          9
    33          1
    37          7
    38         18
    39        187
    40         16
    41         55
    42         11
    43        108
    44          6
    45         24
    46          1
    48          1
    49          7
    50         49
    51         65
    52         30
    53        212
    54        201
    55        999
    56         57
    57         12
    58          4
    59        138
    60          4
    61          2
    62          1
    63          1
    65          1
    66          2
    67          7
    68          2
    69         17
    70          2
    71         40
    72          5
    73          1
    74          3
    81         32
    82        234
    83        515
    84         32
    85          8
    86          2
    87          3
    88          1
    95          1
    97          3
    99        149
   100          8
   101          1
   112          1
   114        611
   115         41
   116          4