##TITLE=Library Entry 82260
##JCAMP-DX=Revision 4.10 
##DATA TYPE=MASS SPECTRUM
##SAMPLE DESCRIPTION=Patti Price, Georgia Bureau of Investigation, Decatur,
 Georgia
##NAMES=HP
##CAS NAME=Androst-5-ene-3,17-diol, 3-acetate 17-benzoate, (3.beta.,17.beta.
)-
##MOLFORM=C28H36O4
##CAS REGISTRY NO=5953-63-9
##MP= -300
##BP= -300
##MW= 436
##$RETENTION INDEX=0
##$CONDENSED SPECTRUM=NO
##NPOINTS= 109
##XYDATA=(XY..XY) 1 
    41         16
    43        125
    44         19
    50          1
    51         15
    52          1
    53         14
    55         60
    57          1
    58          1
    59          1
    61          1
    65         10
    66          1
    67         50
    69          8
    71          2
    76          2
    77        202
    78         16
    79         66
    80         10
    81         72
    82          2
    83          8
    91         89
    92         17
    93         79
    94         25
    95         27
    96          2
    97          1
   103          6
   104         10
   105        999
   106        106
   107         82
   108         26
   109         19
   113          1
   115         13
   117         36
   118         18
   119         41
   120         35
   121        134
   122         16
   123         12
   127          1
   128          2
   129         23
   130         13
   131         42
   132          9
   133        123
   134         19
   135         18
   136          5
   137          1
   141          4
   143         48
   144         14
   145         56
   146        114
   147         60
   148         36
   149         38
   155          3
   156          1
   157         29
   158         16
   159         34
   160         24
   161         16
   162          1
   167          1
   169          2
   170          1
   171          6
   172          7
   173          8
   177          1
   183         23
   184          3
   185          1
   197          9
   198          1
   199          5
   200          4
   201          1
   211          8
   212          6
   213         10
   223          1
   225          8
   226          4
   227          2
   239         52
   240          9
   253          3
   254         23
   255         12
   271          6
   281          1
   361         15
   362          1
   376        249
   377         70
   378          9