##TITLE=Library Entry 72503
##JCAMP-DX=Revision 4.10 
##DATA TYPE=MASS SPECTRUM
##SAMPLE DESCRIPTION=ASES Database, Dalian Institute, P.R. China
##NAMES=HP
##CAS NAME=Phosphoric acid, diethyl 1-methylethenyl ester
##MOLFORM=C7H15O4P
##CAS REGISTRY NO=5954-28-9
##MP= -300
##BP= -300
##MW= 194
##$RETENTION INDEX=0
##$CONDENSED SPECTRUM=NO
##NPOINTS= 21
##XYDATA=(XY..XY) 1 
    31         44
    41        104
    42         52
    43        232
    45         62
    57         51
    58        256
    65         51
    81        274
    82         42
    99        999
   100         16
   109        120
   111         16
   121         33
   125         42
   127        517
   138         26
   155        317
   166         16
   194        155