##TITLE=Library Entry 4623
##JCAMP-DX=Revision 4.10 
##DATA TYPE=MASS SPECTRUM
##SAMPLE DESCRIPTION=Chemical Concepts
##NAMES=HP
##CAS NAME=1,3-Benzodioxol-2-amine, hexahydro-N,N-dimethyl-
##MOLFORM=C9H17NO2
##CAS REGISTRY NO=59556-72-8
##MP= -300
##BP= -300
##MW= 171
##$RETENTION INDEX=0
##$CONDENSED SPECTRUM=NO
##NPOINTS= 82
##XYDATA=(XY..XY) 1 
    25          6
    26         66
    27        352
    28        288
    29        225
    30        190
    31         49
    37         24
    38         71
    39        373
    40        197
    41        563
    42        999
    43        211
    44        816
    45         75
    46         84
    47          7
    48          3
    49          6
    50         34
    51         47
    52         22
    53         88
    54        128
    55        753
    56        112
    57        239
    58         84
    59          7
    60         10
    61          8
    62          9
    63         13
    64          3
    65         20
    66         13
    67         70
    68         33
    69        308
    70        345
    71         56
    72        134
    73        682
    74        197
    75         15
    77         17
    78          6
    79         47
    80         95
    81        443
    82         50
    83        168
    84         15
    85         11
    86         11
    87          6
    90          6
    91          4
    95          4
    96          4
    97         51
    98        397
    99         93
   100         69
   101          7
   113          3
   114         17
   115          9
   116         43
   117          4
   125          3
   126          9
   127        275
   128         35
   129         14
   130          2
   142         10
   143         13
   170          4
   171         32
   172          3