##TITLE=Library Entry 55725
##JCAMP-DX=Revision 4.10 
##DATA TYPE=MASS SPECTRUM
##SAMPLE DESCRIPTION=A.A.Kutin, Moscow, Russia
##NAMES=HP
##CAS NAME=Azacyclohexan-3-one, 1-tert-butyl-
##MOLFORM=C9H17NO
##CAS REGISTRY NO=59554-81-3
##MP= -300
##BP= -300
##MW= 155
##$RETENTION INDEX=0
##$CONDENSED SPECTRUM=NO
##NPOINTS= 78
##XYDATA=(XY..XY) 1 
    33          0
    39        285
    40         47
    41        461
    42        114
    43         32
    44          9
    45          1
    47          0
    49          3
    50          3
    51          8
    52          5
    53         23
    54         18
    55         93
    56         93
    57        378
    58         99
    59          4
    61          0
    62          1
    63          2
    64          0
    65          5
    66          1
    67          6
    68         17
    69         98
    70        114
    71         67
    72          9
    73          0
    75          0
    77          3
    78          0
    79          5
    80         12
    81          9
    82         25
    83         20
    84         20
    86        999
    87         54
    88          2
    91          1
    92          0
    93          1
    94          8
    96          6
    97          0
    98          5
    99          0
   100          1
   105          1
   107          7
   108          1
   109          0
   110          1
   111          0
   112          3
   113          0
   114          1
   118          0
   120          1
   122         31
   123          3
   124          0
   126          0
   138          0
   140        253
   141         25
   142          1
   154          0
   155         49
   156          7
   157          0
   158          1