##TITLE=Library Entry 84742
##JCAMP-DX=Revision 4.10 
##DATA TYPE=MASS SPECTRUM
##SAMPLE DESCRIPTION=Japan AIST/NIMC Database- Spectrum MS-NW-9433
##NAMES=HP
##CAS NAME=para-Tolyl octanoate
##MOLFORM=C15H22O2
##CAS REGISTRY NO=59558-23-5
##MP= -300
##BP= -300
##MW= 234
##$RETENTION INDEX=1755
##$CONDENSED SPECTRUM=NO
##NPOINTS= 65
##XYDATA=(XY..XY) 1 
    15          1
    26          2
    27         38
    28         11
    29         57
    30          1
    38          1
    39         26
    40          4
    41         98
    42         20
    43        114
    44          4
    50          3
    51          9
    52          8
    53         13
    54          3
    55         77
    56          9
    57        305
    58         13
    59          2
    63          4
    64          1
    65         16
    66          2
    67         11
    68          2
    69          9
    70          3
    71          4
    77         43
    78         11
    79         27
    80         15
    81          5
    82          2
    83          9
    84          3
    85          1
    89          3
    90          9
    91         23
    92          3
    93          1
    94          1
    97          3
    98          3
   105          8
   106          5
   107         91
   108        999
   109        104
   110          7
   111          1
   121          1
   125          1
   127         41
   128          3
   149          3
   150          4
   163          1
   234         33
   235          6