##TITLE=Library Entry 67452
##JCAMP-DX=Revision 4.10 
##DATA TYPE=MASS SPECTRUM
##SAMPLE DESCRIPTION=Chemical Concepts
##NAMES=HP
##CAS NAME=DL-Gabaculine
##MOLFORM=C7H9NO2
##CAS REGISTRY NO=59556-18-2
##MP= -300
##BP= -300
##MW= 139
##$RETENTION INDEX=0
##$CONDENSED SPECTRUM=NO
##NPOINTS= 83
##XYDATA=(XY..XY) 1 
    27         41
    28        111
    29         13
    30         59
    31          2
    36          3
    37          8
    38         24
    39        113
    40         26
    41         74
    42         39
    43         17
    44          5
    45         30
    46          9
    47         12
    49          2
    50         37
    51         80
    52         30
    53         24
    54         36
    55          8
    56          7
    57          1
    58          0
    59          0
    60          4
    61          4
    62         10
    63         23
    64         11
    65         92
    66         83
    67        138
    68         31
    69          8
    70          6
    71          0
    72          1
    73          2
    74         10
    75          6
    76          8
    77        309
    78         45
    79         24
    80         12
    81          2
    82          4
    83          2
    84          0
    85          1
    89          0
    90          1
    91          5
    92         47
    93        190
    94        999
    95         68
    96          6
    97          1
   104          2
   105        111
   106         11
   107          0
   108          0
   109          0
   110          4
   111          4
   112          0
   119          1
   120         57
   121         41
   122        103
   123         10
   124          3
   137          7
   138         54
   139        321
   140         27
   141          2