##TITLE=Library Entry 35658
##JCAMP-DX=Revision 4.10 
##DATA TYPE=MASS SPECTRUM
##SAMPLE DESCRIPTION=NIST Mass Spectrometry Data Center
##NAMES=HP
##CAS NAME=Lavandulyl propionate
##MOLFORM=C13H22O2
##CAS REGISTRY NO=59550-34-4
##MP= -300
##BP= -300
##MW= 210
##$RETENTION INDEX=1375
##$CONDENSED SPECTRUM=NO
##NPOINTS= 74
##XYDATA=(XY..XY) 1 
    18          2
    26          2
    27         36
    28         12
    29        107
    30          2
    31          5
    38          2
    39         66
    40         19
    41        334
    42         21
    43         54
    44          2
    45          3
    50          3
    51         18
    52          8
    53         86
    54         10
    55         54
    56         14
    57        562
    58         19
    59         12
    65         33
    66         13
    67        194
    68        462
    69        999
    70         58
    71         19
    72          1
    73          2
    75          8
    77         58
    78         10
    79         97
    80        153
    81         93
    82         39
    83         10
    84         12
    85         40
    86          5
    87         13
    91         78
    92        111
    93        750
    94         97
    95         30
    96          6
   104          3
   105         54
   106         13
   107         95
   108         25
   109         11
   120         12
   121        344
   122         38
   123         52
   124          6
   128         14
   129          1
   135          8
   136        169
   137         22
   141         17
   142          4
   154          4
   155          1
   183          1
   210          2