##TITLE=Library Entry 26005
##JCAMP-DX=Revision 4.10 
##DATA TYPE=MASS SPECTRUM
##SAMPLE DESCRIPTION=NIST Mass Spectrometry Data Center
##NAMES=HP
##CAS NAME=1,2-Butanediol, 3,3-dimethyl-
##MOLFORM=C6H14O2
##CAS REGISTRY NO=59562-82-2
##MP= -300
##BP= -300
##MW= 118
##$RETENTION INDEX=1843
##$CONDENSED SPECTRUM=NO
##NPOINTS= 59
##XYDATA=(XY..XY) 1 
    15         43
    16          1
    19          8
    26          9
    27        140
    29        363
    30         16
    31        165
    32          5
    33          5
    37          4
    38         13
    39        217
    40         27
    41        898
    42         73
    43        482
    44        242
    45        374
    46          8
    47         11
    49          1
    50         10
    51         17
    52          5
    53         50
    54          9
    55        139
    56        275
    57        999
    58         47
    59         91
    60         68
    61        128
    62         30
    63         11
    65          5
    66          1
    67         28
    68          3
    69        424
    70         30
    71         31
    72         27
    73         17
    74          1
    75          1
    79          1
    81          1
    82          2
    83          5
    84          1
    85         46
    87        934
    88         54
    89          3
    90          4
   100         14
   101          2