##TITLE=Library Entry 100197
##JCAMP-DX=Revision 4.10 
##DATA TYPE=MASS SPECTRUM
##SAMPLE DESCRIPTION=Div. of Experiment Therapeutics WRAIR, WRAMC, Washingto
n DC 20307
##NAMES=HP
##CAS NAME=3,4-Dihydro-2-[1H]quinoxalinone
##MOLFORM=C8H8N2O
##CAS REGISTRY NO=59564-59-9
##MP= -300
##BP= -300
##MW= 148
##$RETENTION INDEX=0
##$CONDENSED SPECTRUM=NO
##NPOINTS= 47
##XYDATA=(XY..XY) 1 
    41        100
    42         48
    43         39
    44         50
    45         63
    46         13
    49         29
    50        178
    51        193
    52        287
    53         34
    54         33
    59        145
    60        115
    61         62
    62        126
    63        375
    64        300
    65        213
    66         61
    67          9
    69          9
    74         55
    75         41
    76         87
    77         53
    78         70
    79         51
    86         30
    88          9
    90        195
    91        406
    92        191
    93         31
   104          9
   105         32
   106         71
   117         22
   118        766
   119        999
   120         67
   131         18
   134         55
   146         96
   147        168
   148        668
   149         49