##TITLE=Library Entry 3069
##JCAMP-DX=Revision 4.10 
##DATA TYPE=MASS SPECTRUM
##SAMPLE DESCRIPTION=Exported from NIST MS Search
##NAMES=HP
##CAS NAME=Bicyclo[2.2.1]heptan-2-ol, 3,3-dimethyl-
##MOLFORM=C9H16O
##CAS REGISTRY NO=5957-68-6
##MP= -300
##BP= -300
##MW= 140
##$RETENTION INDEX=0
##$CONDENSED SPECTRUM=NO
##NPOINTS= 24
##XYDATA=(XY..XY) 1 
    27        386
    29        325
    39        530
    41        999
    43        578
    53        214
    55        501
    57        947
    67        465
    69        790
    70        366
    71        169
    72        164
    79        349
    81        214
    83        306
    84        458
    93        169
    96        306
    97        407
   107        431
   109        410
   121        354
   140        236