##TITLE=Library Entry 86941
##JCAMP-DX=Revision 4.10 
##DATA TYPE=MASS SPECTRUM
##SAMPLE DESCRIPTION=J. PALECEK,DEP. ORG. CHEM.,INST. CHEM. TECHNOL.,PRAGUE,
CZECH.
##NAMES=HP
##CAS NAME=4-Chloro-1-azabicyclo[2.2.2]octane
##MOLFORM=C7H12ClN
##CAS REGISTRY NO=5960-95-2
##MP= -300
##BP= -300
##MW= 145
##$RETENTION INDEX=0
##$CONDENSED SPECTRUM=NO
##NPOINTS= 10
##XYDATA=(XY..XY) 1 
    27        200
    28        133
    39        111
    41        167
    42        722
    53         81
    81         52
   110        999
   111         98
   145          8