##TITLE=Library Entry 98334
##JCAMP-DX=Revision 4.10 
##DATA TYPE=MASS SPECTRUM
##SAMPLE DESCRIPTION=Exported from NIST MS Search
##NAMES=HP
##CAS NAME=Azetidine, 3-methyl-3-phenyl-
##MOLFORM=C10H13N
##CAS REGISTRY NO=5961-33-1
##MP= -300
##BP= -300
##MW= 147
##$RETENTION INDEX=0
##$CONDENSED SPECTRUM=NO
##NPOINTS= 14
##XYDATA=(XY..XY) 1 
    77        130
    78        180
    79         20
    91        170
    92         20
   103        300
   104         30
   115        110
   116         10
   117        520
   118        999
   119        120
   120         10
   147         10