##TITLE=Library Entry 2173
##JCAMP-DX=Revision 4.10 
##DATA TYPE=MASS SPECTRUM
##SAMPLE DESCRIPTION=B. Derendyaev, Novosibirsk Institute of Organic Chemist
ry
##NAMES=HP
##CAS NAME=1-Butene, 2-methyl-4-[(3-methyl-2-butenyl)oxy]-
##MOLFORM=C10H18O
##CAS REGISTRY NO=59637-41-1
##MP= -300
##BP= -300
##MW= 154
##$RETENTION INDEX=0
##$CONDENSED SPECTRUM=NO
##NPOINTS= 57
##XYDATA=(XY..XY) 1 
    15         32
    17         61
    18        253
    26         64
    27        311
    28        281
    29        224
    30         84
    31         76
    38        104
    39        739
    40        289
    41        999
    42        154
    43         42
    50        112
    51        126
    52         11
    53        549
    54         43
    55        207
    56        334
    57         41
    59          6
    60          4
    61         17
    62         23
    63         29
    64          5
    65         26
    66         14
    67        719
    68        524
    69        170
    70         25
    71          8
    77         11
    78          3
    79         18
    80         16
    81         42
    82          9
    83         34
    84         50
    85         20
    86          6
    91         12
    92          4
    93         10
    94          3
   108          2
   109         19
   110          4
   111          5
   139         51
   140          5
   154          4