##TITLE=Library Entry 21103
##JCAMP-DX=Revision 4.10 
##DATA TYPE=MASS SPECTRUM
##SAMPLE DESCRIPTION=NIST Mass Spectrometry Data Center, 1990.
##NAMES=HP
##CAS NAME=3,5-Dimethyl-3-heptene
##MOLFORM=C9H18
##CAS REGISTRY NO=59643-68-4
##MP= -300
##BP= -300
##MW= 126
##$RETENTION INDEX=835
##$CONDENSED SPECTRUM=NO
##NPOINTS= 40
##XYDATA=(XY..XY) 1 
    15          8
    27         92
    28         38
    29        101
    39        158
    40         30
    41        301
    42         27
    43         44
    44          6
    50         12
    51         33
    52         15
    53         84
    54          6
    55        999
    56         60
    57         33
    63         10
    65         30
    66         13
    67         92
    68         10
    69        424
    70         48
    71          7
    77         33
    78          7
    79         37
    80          6
    81         42
    82         12
    83          8
    91          8
    95         13
    97        704
    98         56
   111         16
   126        163
   127         16