##TITLE=Library Entry 6179
##JCAMP-DX=Revision 4.10 
##DATA TYPE=MASS SPECTRUM
##SAMPLE DESCRIPTION=Chemical Concepts
##NAMES=HP
##CAS NAME=Ethanone, 1-(1,2,2,3-tetramethylcyclopentyl)-, (1R-cis)-
##MOLFORM=C11H20O
##CAS REGISTRY NO=59642-07-8
##MP= -300
##BP= -300
##MW= 168
##$RETENTION INDEX=0
##$CONDENSED SPECTRUM=NO
##NPOINTS= 80
##XYDATA=(XY..XY) 1 
    26         10
    27        285
    28         56
    29        289
    30          8
    31         14
    37          2
    38         10
    39        348
    40         69
    41        908
    42         98
    43        999
    44         31
    45         12
    50         12
    51         48
    52         21
    53        172
    54         41
    55        511
    56         56
    57        250
    58         14
    59         47
    60          2
    62          2
    63          9
    64          2
    65         48
    66         16
    67        193
    68         43
    69        777
    70         83
    71         17
    72         11
    73          2
    77         49
    78         11
    79         51
    80          8
    81         87
    82         33
    83        230
    84        183
    85        142
    86         10
    91         28
    92          4
    93         17
    94          5
    95         37
    96         68
    97         25
    98         64
    99          7
   103          2
   104          2
   105          5
   106          2
   107         12
   108          8
   109         46
   110         15
   111         13
   112          2
   113          2
   121          3
   122          6
   123         13
   124         20
   125         90
   126          9
   127          2
   135          4
   150          5
   151          2
   168          4
   169          3