##TITLE=Library Entry 82219
##JCAMP-DX=Revision 4.10 
##DATA TYPE=MASS SPECTRUM
##SAMPLE DESCRIPTION=CHBEAM,111(2)673(1978); H. BRUNNER AND J. DOPPELBERGER
##NAMES=HP
##CAS NAME=Molybdenum, carbonyl(.eta.5-2,4-cyclopentadien-1-yl)[N-methyl-P,P
-diphenyl-N-(1-phenylethyl)phosphinous amide-P]nitrosyl-, stereoisomer
##MOLFORM=C27H27MoN2O2P
##CAS REGISTRY NO=59657-12-4
##MP= -300
##BP= -300
##MW= 540
##$RETENTION INDEX=0
##$CONDENSED SPECTRUM=NO
##NPOINTS= 15
##XYDATA=(XY..XY) 1 
   105        999
   109        420
   183        430
   185        280
   214        130
   262        100
   319         30
   348        620
   377        270
   379        230
   435         20
   455         20
   482        150
   512        580
   540        180