##TITLE=Library Entry 40630
##JCAMP-DX=Revision 4.10 
##DATA TYPE=MASS SPECTRUM
##SAMPLE DESCRIPTION=Japan AIST/NIMC Database- Spectrum MS-IW-4088
##NAMES=HP
##CAS NAME=.beta.-D-Glucopyranose, 4-O-.beta.-D-galactopyranosyl-
##MOLFORM=C12H22O11
##CAS REGISTRY NO=5965-66-2
##MP= -300
##BP= -300
##MW= 342
##$RETENTION INDEX=0
##$CONDENSED SPECTRUM=NO
##NPOINTS= 181
##XYDATA=(XY..XY) 1 
    13          3
    14         14
    15        100
    16          3
    17         31
    18        104
    19         10
    25          3
    26         21
    27        103
    28        116
    29        319
    30         58
    31        546
    32         82
    33          7
    36          1
    37          4
    38          9
    39         82
    40         33
    41        173
    42        159
    43        675
    44        231
    45        229
    46         29
    47         38
    49         46
    50          3
    51          8
    52          7
    53         30
    54         27
    55        145
    56        126
    57        480
    58        210
    59         57
    60        606
    61        489
    62         22
    63          3
    65          3
    66          3
    67         14
    68         62
    69        210
    70         65
    71        370
    72        103
    73        999
    74        114
    75         20
    76          4
    77         60
    78          3
    79          6
    80          9
    81         39
    82         11
    83         27
    84         35
    85        418
    86        123
    87         97
    88         10
    89         54
    90         23
    91        216
    92          9
    93          6
    94          4
    95         20
    96         33
    97        188
    98         71
    99         43
   100          9
   101        103
   102         95
   103        236
   104         19
   105          5
   106          1
   107          5
   108          3
   109         18
   110         13
   111         10
   112          6
   113         62
   114         28
   115         61
   116         35
   117          8
   118          1
   119         40
   120          9
   121          7
   122          3
   123          5
   124          3
   125          8
   126         42
   127         73
   128         24
   129          9
   130          2
   131        100
   132         19
   133         46
   134         10
   135          5
   136          3
   137          5
   138          2
   139          4
   140          3
   141          3
   142          2
   143          5
   144         52
   145         99
   146         12
   147          4
   148          1
   149         19
   150          2
   151          2
   152          2
   153          2
   154          1
   155          3
   156          2
   157          4
   158          1
   159          2
   160          2
   161          6
   162          9
   163         71
   164          6
   165          3
   166          1
   167          1
   168          1
   169          2
   170          1
   171          2
   173         20
   174          3
   175          3
   177          2
   179          2
   181          1
   182          1
   183          1
   185          2
   186          1
   187          2
   189          1
   191         30
   192          3
   193          2
   194          1
   196          2
   199          1
   203          2
   204          3
   205          2
   207          1
   209          1
   211          1
   213          1
   215          1
   221          2
   222          1
   233          1
   256          2
   265          1