##TITLE=Library Entry 78691
##JCAMP-DX=Revision 4.10 
##DATA TYPE=MASS SPECTRUM
##SAMPLE DESCRIPTION=Japan AIST/NIMC Database- Spectrum MS-NW-6330
##NAMES=HP
##CAS NAME=N(N'-Methyl-N'-nitroso(aminomethyl))benzamide
##MOLFORM=C9H11N3O2
##CAS REGISTRY NO=59665-02-0
##MP= -300
##BP= -300
##MW= 193
##$RETENTION INDEX=0
##$CONDENSED SPECTRUM=NO
##NPOINTS= 62
##XYDATA=(XY..XY) 1 
    12          4
    13         10
    14         34
    15         22
    16          1
    17          1
    18          3
    25          1
    26          4
    27         21
    28         46
    29         10
    30         19
    31          2
    32          2
    37         10
    38         16
    39         14
    40          6
    41          9
    42        118
    43         18
    44          5
    45          1
    49          9
    50         87
    51        223
    52         14
    53          4
    56          2
    57          1
    58          1
    59          1
    60         20
    61          4
    62          5
    63          6
    64          2
    65          3
    66          1
    73          7
    74         29
    75         20
    76         33
    77        592
    78         43
    79          6
    86          1
    89          1
    91          1
   103         13
   104          9
   105        999
   106         81
   107          5
   117          1
   121         19
   122          3
   133         25
   134        159
   135         15
   193          3