##TITLE=Library Entry 91259
##JCAMP-DX=Revision 4.10 
##DATA TYPE=MASS SPECTRUM
##SAMPLE DESCRIPTION=Patti Price, Georgia Bureau of Investigation, Decatur,
 Georgia
##NAMES=HP
##CAS NAME=Benzenepropanamine, N,N-bis(1-methylethyl)-.gamma.-phenyl-
##MOLFORM=C21H29N
##CAS REGISTRY NO=5966-41-6
##MP= -300
##BP= -300
##MW= 295
##$RETENTION INDEX=0
##$CONDENSED SPECTRUM=NO
##NPOINTS= 93
##XYDATA=(XY..XY) 1 
    41         37
    42         23
    43         68
    44         22
    50          1
    51          6
    52          1
    53          1
    54          2
    55          3
    56         43
    57         19
    58         86
    59          2
    63          2
    64          1
    65          6
    66          1
    67          1
    68          2
    69          2
    70         39
    71         10
    72        142
    73          6
    74          1
    75          1
    76          1
    77         13
    78          4
    84         14
    85          5
    86         11
    87          1
    89          4
    90          1
    91         73
    92          5
    94          1
    98          5
    99          5
   100         82
   101          6
   102          3
   103         10
   104          4
   105          2
   106          1
   109          1
   112          3
   113          1
   114        999
   115        106
   116          8
   117         18
   118          1
   119          1
   126          3
   127          2
   128          6
   129          1
   139          2
   140          1
   141          1
   151          3
   152         30
   153          5
   163          2
   164          3
   165         58
   166         19
   167         45
   168          7
   169          1
   174          2
   175          1
   178          9
   179          5
   180          2
   181          1
   193          2
   194          1
   252          7
   253          1
   278          1
   280        145
   281         31
   282          3
   293          1
   294          2
   295         48
   296         12
   297          1