##TITLE=Library Entry 28646
##JCAMP-DX=Revision 4.10 
##DATA TYPE=MASS SPECTRUM
##SAMPLE DESCRIPTION=Japan AIST/NIMC Database- Spectrum MS-NW-8904
##NAMES=HP
##CAS NAME=2-Propanol, 1,3-bis(dimethylamino)-
##MOLFORM=C7H18N2O
##CAS REGISTRY NO=5966-51-8
##MP= -300
##BP= -300
##MW= 146
##$RETENTION INDEX=0
##$CONDENSED SPECTRUM=NO
##NPOINTS= 49
##XYDATA=(XY..XY) 1 
    15         10
    18          6
    27          3
    28          7
    29         10
    30         43
    31          2
    39          2
    40          1
    41          7
    42         68
    43         21
    44         63
    45         17
    46          3
    52          1
    55          2
    56          8
    57         15
    58        999
    59        100
    60         17
    68          2
    70          9
    71          4
    72          7
    73          6
    74          1
    77          1
    78          6
    82          4
    83         14
    84        284
    85         17
    86          7
    87          7
    88        226
    89         10
    99          1
   100          8
   101          1
   102          3
   103          4
   113         15
   114          1
   127          4
   128         29
   129          4
   147          1