##TITLE=Library Entry 40826
##JCAMP-DX=Revision 4.10 
##DATA TYPE=MASS SPECTRUM
##SAMPLE DESCRIPTION=CONTINENTAL OIL COMPANY, PONCA CITY, OKLAHOMA, USA
##NAMES=HP
##CAS NAME=3-Hexanol, 3-methyl-
##MOLFORM=C7H16O
##CAS REGISTRY NO=597-96-6
##MP= -300
##BP= -300
##MW= 116
##$RETENTION INDEX=827
##$CONDENSED SPECTRUM=NO
##NPOINTS= 69
##XYDATA=(XY..XY) 1 
    12          0
    13          4
    14         10
    15        107
    16          6
    17         17
    18         59
    19          7
    25          1
    26         29
    27        307
    28         59
    29        235
    30          7
    31        118
    32          5
    37          0
    38          4
    39        150
    40         23
    41        298
    42         49
    43        424
    44         19
    45        635
    46         15
    47          3
    50          7
    51         13
    52          5
    53         37
    54         10
    55        380
    56         39
    57        130
    58         28
    59        135
    60          5
    61          1
    62          1
    63          3
    65          5
    66          2
    67         12
    68          6
    69        167
    70         42
    71         30
    72         13
    73        999
    74         46
    75          3
    77          2
    79          2
    81          3
    82          0
    83         28
    84          2
    85          3
    86          2
    87        456
    88         24
    89          1
    98         17
    99          3
   101        101
   102          6
   115          0
   116          0