##TITLE=Library Entry 16700
##JCAMP-DX=Revision 4.10 
##DATA TYPE=MASS SPECTRUM
##SAMPLE DESCRIPTION=Exported from NIST MS Search
##NAMES=HP
##CAS NAME=3-Pentanol, 3-ethyl-2-methyl-
##MOLFORM=C8H18O
##CAS REGISTRY NO=597-05-7
##MP= -300
##BP= -300
##MW= 130
##$RETENTION INDEX=0
##$CONDENSED SPECTRUM=NO
##NPOINTS= 45
##XYDATA=(XY..XY) 1 
    18         38
    19          2
    27        608
    28        149
    29        747
    30         30
    31        308
    32          7
    33          2
    41        460
    42         68
    43        432
    44         22
    45        999
    46         22
    55        206
    56         41
    57        716
    58         60
    59        602
    60         20
    67         18
    68          6
    69        130
    70          4
    71         47
    72          5
    73         19
    74          2
    81          4
    82          2
    83         70
    84         11
    85         20
    86         74
    87        628
    88         33
    97          7
    98          1
    99          8
   100          6
   101        537
   102         39
   115          3
   130          1