##TITLE=Library Entry 67467
##JCAMP-DX=Revision 4.10 
##DATA TYPE=MASS SPECTRUM
##SAMPLE DESCRIPTION=HD Science, UK
##NAMES=HP
##CAS NAME=Triethylphosphine sulfide
##MOLFORM=C6H15PS
##CAS REGISTRY NO=597-51-3
##MP= -300
##BP= -300
##MW= 150
##$RETENTION INDEX=0
##$CONDENSED SPECTRUM=NO
##NPOINTS= 76
##XYDATA=(XY..XY) 1 
    14          4
    15         17
    26         52
    27        281
    28         38
    29        221
    30          5
    32          7
    33          8
    34          8
    35          7
    39         16
    41         35
    42          2
    43         11
    45         78
    46         11
    47         21
    48          2
    49          3
    50          1
    51          1
    53          4
    55         28
    57        149
    58         57
    59        126
    60         34
    61        103
    63        255
    64        104
    65        346
    66        100
    67         17
    68          6
    69          8
    70          1
    71          8
    72          2
    73          9
    75         36
    76          6
    77         13
    78          7
    79         24
    80          2
    81          2
    83          3
    85          6
    87         21
    88          5
    89         20
    90         26
    91         17
    92         56
    93        298
    94        999
    95         46
    96         47
    97          1
   103          3
   106          1
   107          2
   113          1
   117          8
   118         13
   119          2
   121        128
   122        333
   123         22
   124         15
   125          1
   150        430
   151         35
   152         21
   153          2