##TITLE=Library Entry 21246
##JCAMP-DX=Revision 4.10 
##DATA TYPE=MASS SPECTRUM
##SAMPLE DESCRIPTION=NIST Mass Spectrometry Data Center, 1990.
##NAMES=HP
##CAS NAME=4-Ethyl-4-heptanol
##MOLFORM=C9H20O
##CAS REGISTRY NO=597-90-0
##MP= -300
##BP= -300
##MW= 144
##$RETENTION INDEX=0
##$CONDENSED SPECTRUM=NO
##NPOINTS= 41
##XYDATA=(XY..XY) 1 
    15         22
    18         16
    27        268
    28        121
    29        265
    31        115
    39        175
    40         40
    41        405
    42         60
    43        317
    44         26
    45        162
    51         21
    53         71
    55        999
    56         82
    57        163
    59        673
    60         24
    65         21
    67         55
    68         19
    69        155
    70         71
    71         80
    72         21
    73        134
    77         17
    79         20
    81         16
    83        209
    84         57
    85         23
    97        129
    98         26
   101        999
   102         69
   115        335
   116         26
   126         81