##TITLE=Library Entry 22421
##JCAMP-DX=Revision 4.10 
##DATA TYPE=MASS SPECTRUM
##SAMPLE DESCRIPTION=NIST Mass Spectrometry Data Center, 1994
##NAMES=HP
##CAS NAME=2,2-Dimethyl-3-hydroxypropionaldehyde
##MOLFORM=C5H10O2
##CAS REGISTRY NO=597-31-9
##MP= -300
##BP= -300
##MW= 102
##$RETENTION INDEX=0
##$CONDENSED SPECTRUM=NO
##NPOINTS= 33
##XYDATA=(XY..XY) 1 
    14         18
    15         26
    26         30
    27        197
    28         96
    29        347
    30         26
    31        261
    32         18
    37         23
    38         52
    39        343
    40         65
    41        496
    42         74
    43        310
    44         36
    45        200
    50         16
    51         16
    53         63
    55        567
    56        999
    57        594
    58         26
    69         22
    70         11
    71         39
    72        179
    73         91
    83         21
    84         30
    87         14