##TITLE=Library Entry 41139
##JCAMP-DX=Revision 4.10 
##DATA TYPE=MASS SPECTRUM
##SAMPLE DESCRIPTION=RADIAN CORP
##NAMES=HP
##CAS NAME=Melezitose
##MOLFORM=C18H32O16
##CAS REGISTRY NO=597-12-6
##MP= -300
##BP= -300
##MW= 504
##$RETENTION INDEX=0
##$CONDENSED SPECTRUM=NO
##NPOINTS= 165
##XYDATA=(XY..XY) 1 
    12          2
    13          2
    14         11
    15         10
    16          9
    19         14
    24          1
    25          7
    26         34
    27         68
    29        451
    30         49
    31        290
    33          3
    36          5
    37         30
    38         55
    39        177
    40         30
    41        234
    42        301
    43        534
    44        192
    45        221
    46         15
    47         52
    48          5
    49         38
    50         49
    51         67
    52         46
    53        131
    54         72
    55        353
    56        191
    57        587
    58        154
    59         56
    60        705
    61        361
    62         32
    63         11
    64          8
    65         14
    66         19
    67         38
    68         85
    69        383
    70        135
    71        364
    72        143
    73        999
    74        166
    75         28
    76         31
    77         73
    78          6
    79         24
    80         28
    81         82
    82         28
    83         61
    84         68
    85        227
    86        147
    87         82
    88         22
    89         46
    90         25
    91         64
    92          5
    93          7
    94          8
    95        109
    96        113
    97        603
    98        123
    99         53
   100         21
   101         94
   102        104
   103        108
   104         12
   105          6
   106          4
   107          8
   108          8
   109         76
   110         29
   111         22
   112         18
   113        138
   114         39
   115         77
   116         32
   117         15
   118          3
   119         26
   120          5
   121         12
   122          4
   123         17
   124         12
   125         45
   126        216
   127        113
   128         20
   129         10
   130          3
   131         32
   132         13
   133         42
   134          7
   135          5
   136          3
   137          8
   138          7
   139         10
   140          7
   141          5
   142          6
   143          6
   144         36
   145         49
   146          6
   147          4
   148          2
   149         16
   150          3
   151          6
   152          4
   153          4
   154          3
   155          4
   156          3
   157          3
   158          1
   159          2
   160          3
   161          4
   162          3
   163         24
   164          4
   165          3
   166          2
   167          2
   168          3
   169          3
   171          1
   173          4
   174          1
   175          2
   176          1
   177          2
   178          1
   179          2
   180          2
   181          2
   182          1
   187          2
   189          1
   191          3
   192          1
   193          2
   199          1