##TITLE=Library Entry 74608
##JCAMP-DX=Revision 4.10 
##DATA TYPE=MASS SPECTRUM
##SAMPLE DESCRIPTION=Chemical Concepts
##NAMES=HP
##CAS NAME=3-Hexanol, 3-ethyl-
##MOLFORM=C8H18O
##CAS REGISTRY NO=597-76-2
##MP= -300
##BP= -300
##MW= 130
##$RETENTION INDEX=0
##$CONDENSED SPECTRUM=NO
##NPOINTS= 69
##XYDATA=(XY..XY) 1 
    27        134
    28          6
    29        205
    30          5
    31        143
    37          0
    38          1
    39         48
    40         15
    41        245
    42         14
    43        175
    44          6
    45        698
    46         14
    47          1
    50          1
    51          3
    52          1
    53         20
    54          3
    55        329
    56         17
    57        116
    58          8
    59        796
    60         22
    61          1
    62          0
    63          0
    65          2
    66          0
    67          6
    68          0
    69        125
    70         12
    71         37
    72         13
    73         19
    74          0
    77          1
    79          1
    80          0
    81          1
    82          1
    83        173
    84         21
    85          8
    86         14
    87        809
    88         42
    89          2
    91          0
    92          0
    97          1
    98          0
    99          1
   100          7
   101        999
   102         67
   103          3
   105          0
   111          0
   112          2
   113          8
   114          0
   115          1
   116          0
   129          0