##TITLE=Library Entry 19670
##JCAMP-DX=Revision 4.10 
##DATA TYPE=MASS SPECTRUM
##SAMPLE DESCRIPTION=NIST Mass Spectrometry Data Center, 1998.
##NAMES=HP
##CAS NAME=2-Nitro-2-ethyl-1,3-propanediol
##MOLFORM=C5H11NO4
##CAS REGISTRY NO=597-09-1
##MP= -300
##BP= -300
##MW= 149
##$RETENTION INDEX=0
##$CONDENSED SPECTRUM=NO
##NPOINTS= 71
##XYDATA=(XY..XY) 1 
    13          1
    14          2
    15         10
    16          1
    17          1
    18          3
    25          1
    26         20
    27        218
    28         73
    29        588
    30         95
    31        363
    32          5
    33          1
    36          1
    37          6
    38         19
    39        288
    40         35
    41        579
    42         54
    43        754
    44         63
    45         56
    46         21
    47         41
    48          8
    49          5
    50         20
    51         34
    52         16
    53        169
    54        117
    55        999
    56        148
    57        669
    58         30
    59         21
    60          5
    61         63
    62          5
    63          1
    65         15
    66          5
    67        170
    68         12
    69         37
    70          6
    71         60
    72        228
    73        161
    74         11
    81          1
    82          1
    83         65
    84        182
    85        154
    86         11
    87          3
    89          1
    90         42
    91          2
    99          1
   100          3
   101          9
   102         37
   103          9
   104          1
   119         16
   120          1