##TITLE=Library Entry 5480
##JCAMP-DX=Revision 4.10 
##DATA TYPE=MASS SPECTRUM
##SAMPLE DESCRIPTION=NIST Mass Spectrometry Data Center, 1994
##NAMES=HP
##CAS NAME=Pentaerythritol tetraacetate
##MOLFORM=C13H20O8
##CAS REGISTRY NO=597-71-7
##MP= -300
##BP= -300
##MW= 304
##$RETENTION INDEX=0
##$CONDENSED SPECTRUM=NO
##NPOINTS= 83
##XYDATA=(XY..XY) 1 
    12          0
    14          8
    15         83
    16          1
    17          0
    18          0
    26          1
    27          7
    29         12
    30          1
    31          5
    39         11
    40          6
    41         17
    42          1
    43        999
    44         27
    45          4
    51          0
    52          1
    53          4
    54         18
    55          7
    56          1
    57          3
    58          1
    59          0
    61         21
    62          0
    68          4
    69         20
    70         14
    71         18
    72         80
    73          9
    74          1
    82         53
    83         29
    84          4
    85          2
    86          2
    87         17
    88          1
    96         32
    97          2
    99         15
   100         12
   101          1
   102          1
   103         51
   104          2
   105          0
   110          1
   112         80
   113         38
   114         79
   115          6
   116          0
   121          0
   124          8
   125          1
   129         25
   130         12
   131          1
   141          3
   142         20
   143          2
   145          2
   154          0
   156          0
   159         12
   160          1
   172         58
   173          6
   174          2
   175          0
   184          1
   201         20
   202          1
   203          1
   231          1
   245          6
   246          0