##TITLE=Library Entry 23777
##JCAMP-DX=Revision 4.10 
##DATA TYPE=MASS SPECTRUM
##SAMPLE DESCRIPTION=NIST Mass Spectrometry Data Center, 1994
##NAMES=HP
##CAS NAME=Neopentyl isothiocyanate
##MOLFORM=C6H11NS
##CAS REGISTRY NO=597-97-7
##MP= -300
##BP= -300
##MW= 129
##$RETENTION INDEX=0
##$CONDENSED SPECTRUM=NO
##NPOINTS= 67
##XYDATA=(XY..XY) 1 
     4          0
    13          2
    14          6
    15         38
    18          2
    26         17
    27        168
    28         70
    29        374
    30         10
    32         15
    33          1
    36          1
    37          8
    38         29
    39        241
    40         49
    41        650
    42         34
    43         98
    44         26
    45         76
    46         12
    47          4
    48          1
    49          2
    50         14
    51         21
    52         10
    53         39
    54          1
    55        290
    56          1
    57        999
    58         57
    59         14
    60         11
    62          1
    64          3
    65          1
    67          3
    68          1
    69          6
    70         17
    71         32
    72        183
    73         44
    74         13
    75          2
    80          3
    81          8
    82          3
    83          1
    84          3
    85          4
    86         20
    98          5
    99          2
   112          3
   113          6
   114         64
   115          4
   116          2
   129        412
   130         33
   131         19
   132          1