##TITLE=Library Entry 31967
##JCAMP-DX=Revision 4.10 
##DATA TYPE=MASS SPECTRUM
##SAMPLE DESCRIPTION=Japan AIST/NIMC Database- Spectrum MS-IW- 941
##NAMES=HP
##CAS NAME=Diethyl sulfone
##MOLFORM=C4H10O2S
##CAS REGISTRY NO=597-35-3
##MP= -300
##BP= -300
##MW= 122
##$RETENTION INDEX=0
##$CONDENSED SPECTRUM=NO
##NPOINTS= 55
##XYDATA=(XY..XY) 1 
    14          1
    15          4
    18          2
    25          1
    26         33
    27        311
    28        139
    29        914
    30         30
    31          2
    32          4
    33          2
    34          4
    35          2
    39          2
    41         22
    42          4
    43         46
    44          9
    45          6
    46          4
    47          9
    48         31
    49          6
    50          9
    51          1
    55          1
    57          2
    58          3
    59          7
    60          1
    61          3
    62          2
    63          9
    64          4
    65         25
    66        999
    67         12
    68         51
    75          2
    76         29
    77         16
    78          7
    79          1
    90          2
    92          1
    93         64
    94        591
    95         25
    96         28
    97          1
   122        103
   123         46
   124          7
   125          2