##TITLE=Library Entry 84536
##JCAMP-DX=Revision 4.10 
##DATA TYPE=MASS SPECTRUM
##SAMPLE DESCRIPTION=ASES Database, Dalian Institute, P.R. China
##NAMES=HP
##CAS NAME=Diethyl 2-methylphenyl phosphate
##MOLFORM=C11H17O4P
##CAS REGISTRY NO=597-87-5
##MP= -300
##BP= -300
##MW= 244
##$RETENTION INDEX=0
##$CONDENSED SPECTRUM=NO
##NPOINTS= 18
##XYDATA=(XY..XY) 1 
    77        389
    81        239
    91        428
    99         68
   107        999
   108        366
   109         70
   117        157
   118        108
   119        110
   127         49
   187        677
   188        585
   201        130
   215        139
   216        168
   229         39
   244        698