##TITLE=Library Entry 21998
##JCAMP-DX=Revision 4.10 
##DATA TYPE=MASS SPECTRUM
##SAMPLE DESCRIPTION=Exported from NIST MS Search
##NAMES=HP
##CAS NAME=Pentane, 2,4-dimethyl-2-nitro-
##MOLFORM=C7H15NO2
##CAS REGISTRY NO=597-45-5
##MP= -300
##BP= -300
##MW= 145
##$RETENTION INDEX=0
##$CONDENSED SPECTRUM=NO
##NPOINTS= 45
##XYDATA=(XY..XY) 1 
    26         29
    27        274
    28        225
    29        212
    30        761
    31          9
    32        119
    37         19
    38         25
    39        416
    40         90
    41        967
    42         96
    43        954
    44        103
    45          3
    50         19
    51         48
    52         19
    53        109
    54         45
    55        761
    56        999
    57        599
    58         22
    59         35
    63          9
    65         25
    66          9
    67         80
    68         19
    69         54
    70        151
    71          9
    73         19
    76          6
    78          6
    81         32
    82         19
    83        516
    84         38
    97         19
    98        183
    99         67
   100          3