##TITLE=Library Entry 82813
##JCAMP-DX=Revision 4.10 
##DATA TYPE=MASS SPECTRUM
##SAMPLE DESCRIPTION=Chemical Concepts
##NAMES=HP
##CAS NAME=Triethylphosphine oxide
##MOLFORM=C6H15OP
##CAS REGISTRY NO=597-50-2
##MP= -300
##BP= -300
##MW= 134
##$RETENTION INDEX=0
##$CONDENSED SPECTRUM=NO
##NPOINTS= 79
##XYDATA=(XY..XY) 1 
    26         44
    27        326
    28         12
    29        382
    30         10
    31          7
    33          8
    34          2
    37          0
    38          1
    39         22
    40          2
    41         34
    42          4
    43         14
    44          6
    45         30
    46          6
    47        181
    48        179
    49        379
    50         24
    51          3
    52          0
    53          3
    54          1
    55         17
    56          6
    57         42
    58         19
    59         38
    60         10
    61        110
    62         20
    63         39
    64          2
    65          1
    67          2
    68          1
    69          2
    70          0
    71          4
    72          1
    73          6
    74          3
    75         36
    76         76
    77        845
    78        688
    79         16
    80          2
    81          0
    82          1
    83          2
    84          5
    85          1
    86          0
    87          4
    88          0
    89          6
    90          5
    91          5
    92          1
    93          1
    94          0
   103          9
   104          7
   105        922
   106        999
   107         49
   108          2
   117          1
   119          0
   123          4
   131          0
   133         31
   134        171
   135         12
   136          1