##TITLE=Library Entry 31519
##JCAMP-DX=Revision 4.10 
##DATA TYPE=MASS SPECTRUM
##SAMPLE DESCRIPTION=Japan AIST/NIMC Database- Spectrum MS-NW-8436
##NAMES=HP
##CAS NAME=tetra-n-Propoxymethane
##MOLFORM=C13H28O4
##CAS REGISTRY NO=597-72-8
##MP= -300
##BP= -300
##MW= 248
##$RETENTION INDEX=0
##$CONDENSED SPECTRUM=NO
##NPOINTS= 53
##XYDATA=(XY..XY) 1 
    15          4
    18          1
    19          2
    26          4
    27         92
    28         14
    29         27
    30          4
    31         61
    32          2
    33          1
    37          1
    38          2
    39         27
    40          8
    41        178
    42         66
    43        734
    44         26
    45          8
    55          3
    56          2
    57          6
    58          4
    59         60
    60          4
    61         10
    63        999
    64         11
    65          6
    71          6
    73          5
    75          1
    76         13
    77          4
    89          3
   101          4
   102          2
   103          3
   104         11
   105        643
   106         29
   107          4
   115          1
   118          1
   130          1
   146          1
   147        259
   148         20
   149          2
   189        453
   190         50
   191          5