##TITLE=Library Entry 51887
##JCAMP-DX=Revision 4.10 
##DATA TYPE=MASS SPECTRUM
##SAMPLE DESCRIPTION=Patti Price, Georgia Bureau of Investigation, Decatur,
 Georgia
##NAMES=HP
##CAS NAME=Lorcainide
##MOLFORM=C22H27ClN2O
##CAS REGISTRY NO=59729-31-6
##MP= -300
##BP= -300
##MW= 370
##$RETENTION INDEX=2815
##$CONDENSED SPECTRUM=NO
##NPOINTS= 97
##XYDATA=(XY..XY) 1 
    41        118
    42        187
    43        172
    51         24
    53         24
    54         31
    55        204
    56        563
    57         68
    58        141
    63         25
    65        135
    66          9
    67         55
    68         49
    69         42
    70         82
    71         86
    72         64
    75         27
    77         10
    79          5
    80         50
    81         29
    82        999
    83        109
    84        238
    85         32
    86         34
    89         41
    90         28
    91        748
    92         65
    93          6
    94         13
    95          6
    96         36
    98        211
    99         39
   101          4
   110        780
   111        127
   112          8
   113         18
   117         18
   118         18
   119          6
   124        272
   125        180
   126        154
   127         70
   128         13
   129         16
   130         41
   131         17
   138         28
   140         21
   152         34
   153         31
   154         28
   155         10
   164         19
   166         29
   167         23
   168         14
   169         22
   180        125
   181         16
   182         42
   194         12
   223          4
   232         13
   235         30
   236         37
   237        123
   238         32
   239         32
   240          3
   245         13
   246         30
   251        380
   253        117
   254         21
   263          3
   279         68
   281         24
   299          4
   320          9
   355        975
   356        213
   357        355
   358         73
   359          9
   369         10
   370        100
   371         22
   372         36