##TITLE=Library Entry 29351
##JCAMP-DX=Revision 4.10 
##DATA TYPE=MASS SPECTRUM
##SAMPLE DESCRIPTION=Drug Lab
##NAMES=HP
##CAS NAME=Citalopram
##MOLFORM=C20H21FN2O
##CAS REGISTRY NO=59729-33-8
##MP= -300
##BP= -300
##MW= 324
##$RETENTION INDEX=2400
##$CONDENSED SPECTRUM=NO
##NPOINTS= 130
##XYDATA=(XY..XY) 1 
    41          7
    42         55
    43         15
    44         16
    45         24
    46          1
    51          3
    55          1
    56         13
    57         16
    58        999
    59         37
    62          2
    63          5
    68          2
    69          2
    70          9
    71         20
    72          2
    73          8
    74          2
    75         10
    76          2
    77          2
    81          1
    82          1
    83          4
    84         16
    85          2
    86          4
    87          2
    88          4
    89          4
    90          1
    94          1
    95         22
    96          2
    99          1
   100          1
   101          3
   102          2
   103          2
   107          1
   109         13
   110          1
   113          1
   114          7
   115         12
   116          6
   117          1
   120          2
   121          1
   123         11
   125          1
   126          1
   127          3
   128          4
   129          2
   130          1
   131          1
   133          5
   134          1
   135          1
   140          6
   141          1
   142          1
   143          2
   144          2
   146          1
   150          1
   152          2
   153          1
   154          1
   155          1
   156          5
   157          4
   158          2
   163          4
   164          3
   165          1
   166          1
   168          1
   169          1
   170          6
   171          2
   175          1
   176          1
   177          2
   180          1
   181          8
   182          9
   183         27
   184          5
   188          3
   189          2
   190         35
   191          5
   192          1
   193          2
   194          2
   195          7
   196          1
   200          3
   201          2
   202          1
   203          1
   206          3
   207          4
   208         54
   209         14
   210          2
   211          1
   218         18
   219          7
   220         21
   221         21
   222          4
   232          1
   234          2
   235          1
   236          2
   237         17
   238         61
   239         10
   240          1
   245          1
   295          2
   323          1
   324         18
   325          4