##TITLE=Library Entry 20413
##JCAMP-DX=Revision 4.10 
##DATA TYPE=MASS SPECTRUM
##SAMPLE DESCRIPTION=NIST Mass Spectrometry Data Center, 1990.
##NAMES=HP
##CAS NAME=5-Methyl-4-octanol
##MOLFORM=C9H20O
##CAS REGISTRY NO=59734-23-5
##MP= -300
##BP= -300
##MW= 144
##$RETENTION INDEX=0
##$CONDENSED SPECTRUM=NO
##NPOINTS= 48
##XYDATA=(XY..XY) 1 
    14          1
    15         11
    17          3
    18         11
    19          9
    27        185
    28         41
    29        164
    30         10
    31         98
    32          1
    39        105
    40         25
    41        254
    42         67
    43        402
    44         45
    45        117
    50          3
    51         11
    53         34
    55        999
    56         89
    57        118
    58         26
    59         74
    65          5
    67         14
    68          6
    69         48
    70         64
    71         87
    72        159
    73        536
    74         25
    77          3
    79          4
    81          5
    83        177
    84         34
    85          4
    97         18
    98          2
    99          4
   100         15
   101         75
   102          4
   126         19