##TITLE=Library Entry 80414
##JCAMP-DX=Revision 4.10 
##DATA TYPE=MASS SPECTRUM
##SAMPLE DESCRIPTION=J.CASSAN FACULTY OF SCIENCE, UNIV. OF NICE, NICE, FRANC
E
##NAMES=HP
##CAS NAME=1H-Indene, 2,3,3a,4-tetrahydro-3,3a,6-trimethyl-1-(1-methylethyl)
-
##MOLFORM=C15H24
##CAS REGISTRY NO=59742-39-1
##MP= -300
##BP= -300
##MW= 204
##$RETENTION INDEX=1372
##$CONDENSED SPECTRUM=NO
##NPOINTS= 84
##XYDATA=(XY..XY) 1 
    39        185
    40         42
    41        643
    42         57
    43        343
    44         71
    45         28
    51        128
    52         28
    53        114
    55        357
    56         64
    57         57
    64         21
    65        114
    66         35
    69        321
    70         35
    71         85
    73         42
    77        185
    78         85
    79        236
    80         57
    81        207
    82         28
    83         35
    87         42
    91        929
    92        178
    93        400
    94        135
    95        150
    96         28
    97         42
    98         21
   104         57
   105        999
   106        171
   107        207
   108        100
   109         71
   111        121
   115        121
   116         42
   117        193
   118         57
   119        715
   120        143
   121         85
   122         50
   127         28
   128        100
   129         71
   130         35
   131        164
   132         50
   133        536
   134        143
   135         85
   136         57
   137         28
   141         35
   142         21
   143         28
   144         28
   145        286
   146         85
   147        856
   148        257
   149        107
   150         50
   159        114
   160         57
   161        714
   162        107
   163         42
   169         28
   173        135
   175         57
   202         85
   203         35
   204        715
   205        100