##TITLE=Library Entry 16998
##JCAMP-DX=Revision 4.10 
##DATA TYPE=MASS SPECTRUM
##SAMPLE DESCRIPTION=Chemical Concepts
##NAMES=HP
##CAS NAME=8-Dodecenoic acid, 11-hydroxy-, methyl ester, [s-(E)]-
##MOLFORM=C13H24O3
##CAS REGISTRY NO=59752-89-5
##MP= -300
##BP= -300
##MW= 228
##$RETENTION INDEX=0
##$CONDENSED SPECTRUM=NO
##NPOINTS= 155
##XYDATA=(XY..XY) 1 
    25        121
    26         71
    27        158
    29         26
    30         10
    35          2
    37          4
    39        163
    40         30
    41        518
    42         90
    43        351
    44         52
    45        999
    46         20
    47          2
    48          1
    50          5
    51         15
    52         10
    53         87
    54        240
    55        641
    56         72
    57         82
    58         15
    59        169
    60         11
    61          5
    62          1
    63          4
    64          3
    65         27
    66         23
    67        320
    68        269
    69        485
    70         57
    71         47
    72         14
    73         51
    74        619
    75         46
    76          7
    77         32
    78         14
    79         90
    80         44
    81        237
    82        134
    83        142
    84        394
    85         63
    86          5
    87        358
    88         40
    89          6
    91         30
    92         11
    93         52
    94         64
    95        165
    96        246
    97        128
    98         94
    99         19
   100          8
   101         44
   102          9
   103          3
   104          4
   105         22
   106         11
   107         27
   108         71
   109         90
   110        308
   111         84
   112         11
   113         31
   114         30
   115         40
   116          9
   117          5
   118          2
   119         25
   120          5
   121         27
   122         12
   123        141
   124         53
   125         10
   126          2
   127         19
   128         26
   129         23
   130          8
   131          5
   132          2
   133         14
   134         37
   135         37
   136         33
   137         47
   138          7
   139          4
   140          3
   141         32
   142          7
   143          7
   144          2
   145          6
   146          1
   147          2
   148          0
   150          9
   151         14
   152        330
   153         40
   154          5
   155         13
   156          2
   157          1
   159          1
   160          1
   161         30
   162          5
   163          9
   164          1
   165          2
   166          3
   167          5
   168          5
   169          2
   170          1
   171          2
   177          1
   178         34
   179         29
   180          4
   181         26
   182          4
   183          1
   184         84
   185         13
   186          2
   195          5
   196          1
   197          2
   198          1
   199          1
   201          2
   210         27
   211          5
   213          2