##TITLE=Library Entry 26405
##JCAMP-DX=Revision 4.10 
##DATA TYPE=MASS SPECTRUM
##SAMPLE DESCRIPTION=D.HENNEBERG, MAX-PLANCK INSTITUTE, MULHEIM, WEST GERMAN
Y
##NAMES=HP
##CAS NAME=Platinum, bis[bis(1,1-dimethylethyl)phenylphosphine]-
##MOLFORM=C28H46P2Pt
##CAS REGISTRY NO=59765-06-9
##MP= -300
##BP= -300
##MW= 639
##$RETENTION INDEX=0
##$CONDENSED SPECTRUM=NO
##NPOINTS= 272
##XYDATA=(XY..XY) 1 
    26         31
    27         47
    29        175
    39        106
    40         21
    41        363
    42         29
    43         17
    50         15
    51         22
    52         15
    53         11
    55         41
    56         90
    57        999
    58         44
    65         14
    77         16
    78         68
    79         15
    83         17
    91         15
   105          9
   107         20
   108         47
   109        118
   110        417
   111         46
   121         16
   123         22
   151         12
   154         23
   165         10
   166        110
   167         18
   222         96
   223         25
   256         13
   257         20
   258         18
   260          3
   261          1
   269          1
   270          1
   271          3
   272          3
   273          3
   274          1
   275          1
   276          0
   277          1
   278          1
   279          2
   280          3
   281          5
   282          4
   283          3
   284          0
   285          1
   295          0
   297          0
   299          1
   301         24
   302         27
   303         29
   304         11
   305         12
   306          1
   307          2
   309          3
   310          3
   311          3
   312          1
   313          1
   314          0
   315          1
   316          1
   317          2
   318          2
   319          2
   321          0
   322          0
   325          1
   329          1
   330          1
   331          3
   332          5
   333         77
   334         97
   335         98
   336         46
   337         39
   338          6
   339          6
   340          1
   341          1
   342          1
   343          1
   344          1
   345          2
   346          2
   347          4
   348          4
   349          6
   350          4
   351          4
   352          1
   353          2
   354          1
   355          2
   356          2
   357         11
   358         12
   359         23
   360         17
   361         16
   362          5
   363          9
   365         15
   370          1
   371          1
   372          1
   373          2
   374          1
   375          2
   376          1
   377          2
   378          2
   379         12
   380         13
   381         10
   382          2
   383          3
   384          2
   385          3
   386          4
   387          7
   388          7
   389          8
   390          5
   391          7
   392          4
   393          3
   394          2
   395          1
   396          0
   397          0
   399          1
   400          1
   401          1
   402          1
   403          1
   404          1
   405          2
   406          2
   407          7
   408         10
   409         30
   410         43
   411         90
   412        126
   413        247
   414        273
   415        211
   416         82
   417         46
   418         22
   421         24
   423         16
   424         10
   425         10
   426          6
   427         10
   428          8
   429          7
   430          2
   431          2
   434          3
   435          4
   436          4
   437          3
   439          2
   440          1
   443          1
   444          1
   447          2
   449          3
   450          2
   451          3
   452          2
   453          5
   454          4
   455          4
   456          2
   458          1
   460          2
   461          4
   462          3
   463         11
   464         14
   465         25
   466         38
   467         67
   468        128
   469        176
   470        282
   471        240
   472        165
   473         39
   474         39
   475         14
   481          2
   482          1
   485          1
   486          1
   488          1
   491          0
   492          1
   495          0
   496          0
   497          0
   498          1
   501          1
   503          1
   504          1
   505          1
   508          1
   509          1
   511          1
   512          1
   513          1
   515          1
   516          1
   517          1
   518          2
   519          2
   521          8
   523         25
   524         31
   525         36
   526        150
   527        176
   528        137
   529         30
   530         35
   531         12
   532          9
   534          5
   536          2
   537          1
   538          0
   539          0
   541          0
   542          0
   543          0
   549          0
   556          0
   562          0
   565          0
   570          0
   571          0
   573          0
   579          3
   580          4
   581         10
   582         27
   583         28
   584         21
   585          6
   586          4
   587          1
   636          2