##TITLE=Library Entry 41674
##JCAMP-DX=Revision 4.10 
##DATA TYPE=MASS SPECTRUM
##SAMPLE DESCRIPTION=Chemical Concepts
##NAMES=HP
##CAS NAME=3-Hexene, 3-diethylboryl-4-trimethylsilyl-
##MOLFORM=C13H29BSi
##CAS REGISTRY NO=59766-51-7
##MP= -300
##BP= -300
##MW= 224
##$RETENTION INDEX=0
##$CONDENSED SPECTRUM=NO
##NPOINTS= 154
##XYDATA=(XY..XY) 1 
    26          7
    27         33
    28          6
    29         20
    30          0
    31          7
    36          2
    37         12
    38          6
    39         26
    40         46
    41        125
    42          4
    43         30
    44         11
    45         76
    46          4
    47          2
    49          0
    50          6
    51         15
    52          7
    53         20
    54          5
    55         17
    56          3
    57         13
    58         12
    59        114
    60         10
    61          6
    62          0
    63          5
    64          8
    65         25
    66          6
    67         13
    68         20
    69         66
    70          3
    71          7
    72          3
    73        999
    74         76
    75         44
    76          2
    77          5
    78          4
    79         21
    80         33
    81         24
    82          4
    83         33
    84          5
    85         21
    86          2
    87        439
    88         40
    89         20
    90          3
    91          8
    92         20
    93         75
    94         33
    95         21
    96          7
    97         32
    98          5
    99         31
   100          7
   101        121
   102         13
   103         13
   104          1
   105          3
   106          3
   107         15
   108         19
   109         17
   110          8
   111        108
   112         19
   113         20
   114          4
   115          3
   116          1
   117          8
   118          0
   119          1
   120          8
   121         73
   122        188
   123         27
   124          3
   125         45
   126         11
   127          8
   128          3
   129          5
   130          0
   131          3
   132          0
   133          1
   134          0
   135          1
   136          3
   137          7
   138          2
   139         30
   140         17
   141          7
   142          0
   144          1
   145          7
   146          0
   147          5
   148          0
   149         13
   150         49
   151         13
   152          1
   153          8
   154         12
   155          1
   156          0
   158          0
   159          3
   161          0
   164          0
   165          3
   166          7
   167         31
   168          5
   169          0
   178          0
   179          0
   180          0
   181          0
   189          0
   194          9
   195         41
   196         32
   197          5
   198          0
   203          0
   207          0
   208          2
   209         11
   210          1
   211          0
   223          9
   224         43
   225          8
   226          1