##TITLE=Library Entry 87985
##JCAMP-DX=Revision 4.10 
##DATA TYPE=MASS SPECTRUM
##SAMPLE DESCRIPTION=J.G.POMONIS AGRIC. RES. SERVICE, USDA, FARGO, N. DAK.,
 USA
##NAMES=HP
##CAS NAME=Thiophene, 3-methyl-2-pentadecyl-
##MOLFORM=C20H36S
##CAS REGISTRY NO=59782-58-0
##MP= -300
##BP= -300
##MW= 308
##$RETENTION INDEX=0
##$CONDENSED SPECTRUM=NO
##NPOINTS= 115
##XYDATA=(XY..XY) 1 
    26         23
    27         57
    28         72
    29         77
    30          4
    31          5
    38          5
    39         38
    40         62
    41        126
    42         29
    43        144
    44        232
    45         24
    46          4
    50          3
    51          8
    52          4
    53         19
    54         12
    55         90
    56         29
    57         77
    58          9
    59          7
    60         19
    61          6
    63          3
    64          5
    65          7
    66          4
    67         27
    68         17
    69         55
    70         14
    71         23
    72          3
    73         14
    74          4
    75          3
    76          3
    77         12
    78          5
    79          9
    80          4
    81         25
    82         12
    83         22
    84         10
    85         16
    86          4
    87          5
    91         11
    92          4
    93          7
    94          4
    95         16
    96          9
    97         36
    98         26
    99         14
   100          5
   101          5
   103          5
   105          5
   107          4
   108          3
   109         11
   110         12
   111        999
   112         62
   113         32
   114          9
   115          7
   117          4
   118          2
   119          7
   120          2
   121          4
   122          4
   123          9
   125         41
   126         12
   127         16
   128          5
   129          7
   131          5
   135          5
   136          4
   137         25
   138          5
   139          7
   140         18
   141          4
   142          1
   143          2
   147          4
   148          2
   149         11
   150          2
   151          6
   152          4
   153          8
   154          3
   163          3
   165          2
   167          4
   168          2
   169          7
   171          2
   181          4
   187          4
   308         62
   309         15
   310          5