##TITLE=Library Entry 57158
##JCAMP-DX=Revision 4.10 
##DATA TYPE=MASS SPECTRUM
##SAMPLE DESCRIPTION=Japan AIST/NIMC Database- Spectrum MS-NW-8659
##NAMES=HP
##CAS NAME=1,3-Dioxolane, 2-(3-chloropropyl)-2-methyl-
##MOLFORM=C7H13ClO2
##CAS REGISTRY NO=5978-08-5
##MP= -300
##BP= -300
##MW= 164
##$RETENTION INDEX=0
##$CONDENSED SPECTRUM=NO
##NPOINTS= 80
##XYDATA=(XY..XY) 1 
    14          3
    15         30
    26          7
    27         51
    28         20
    29         29
    30          2
    31         17
    32          2
    33          1
    35          1
    36          4
    37          2
    38          6
    39         60
    40         10
    41        132
    42         43
    43        585
    44         20
    45         25
    49         16
    50          2
    51          7
    52          1
    53         10
    54          2
    55         55
    56          5
    57          7
    58         25
    59         17
    60          4
    61          4
    62          2
    63          6
    65          4
    66          1
    67         23
    68          4
    69         18
    70          3
    71         20
    72         34
    73          5
    74          1
    75          6
    76          9
    77         69
    78          5
    79         22
    80          1
    83          2
    84          3
    85         45
    86          9
    87        999
    88         44
    89          5
    91          1
    99        101
   100          8
   101          3
   103          3
   105        121
   106          6
   107         39
   108          2
   113          3
   115          2
   120          2
   121          3
   123          1
   129          1
   134          1
   149        307
   150         20
   151         99
   152          7
   163          1