##TITLE=Library Entry 16979
##JCAMP-DX=Revision 4.10 
##DATA TYPE=MASS SPECTRUM
##SAMPLE DESCRIPTION=Japan AIST/NIMC Database- Spectrum MS-NW-5399
##NAMES=HP
##CAS NAME=2-Octanol, (R)-
##MOLFORM=C8H18O
##CAS REGISTRY NO=5978-70-1
##MP= -300
##BP= -300
##MW= 130
##$RETENTION INDEX=0
##$CONDENSED SPECTRUM=NO
##NPOINTS= 50
##XYDATA=(XY..XY) 1 
    15          8
    17          1
    18          3
    26          4
    27         68
    28          9
    29         69
    30          2
    31         15
    32          1
    38          2
    39         39
    40          8
    41        126
    42         52
    43        120
    44         64
    45        999
    46         21
    47          3
    50          1
    51          3
    52          1
    53          8
    54          5
    55        206
    56         64
    57         56
    58         10
    59          7
    65          1
    67          5
    68          6
    69         52
    70         55
    71         13
    73          1
    81          2
    82          7
    83         26
    84         45
    85          6
    86          3
    97         62
    98          5
   112         21
   113          2
   115         22
   116          2
   129          3