##TITLE=Library Entry 70304
##JCAMP-DX=Revision 4.10 
##DATA TYPE=MASS SPECTRUM
##SAMPLE DESCRIPTION=J.G.POMONIS AGRIC. RES. SERVICE, USDA, FARGO, N. DAK.,
 USA
##NAMES=HP
##CAS NAME=Thiophene, 2-eicosyl-
##MOLFORM=C24H44S
##CAS REGISTRY NO=59782-33-1
##MP= -300
##BP= -300
##MW= 364
##$RETENTION INDEX=0
##$CONDENSED SPECTRUM=NO
##NPOINTS= 48
##XYDATA=(XY..XY) 1 
    40          6
    41        109
    42         17
    43        191
    44         10
    45         15
    53         17
    54          5
    55         81
    56         12
    57         92
    65          5
    66          5
    67         17
    68          3
    69         27
    70          6
    71         24
    79          8
    81          5
    83         13
    84         26
    85         46
    86         10
    87         10
    91         10
    95          6
    97        999
    98        443
    99         78
   100         46
   101          8
   102          6
   110         43
   111        165
   112         22
   113         24
   123         26
   124          5
   125          5
   126         33
   139         22
   140          5
   153         13
   167          8
   364        373
   365        100
   366         27