##TITLE=Library Entry 70256
##JCAMP-DX=Revision 4.10 
##DATA TYPE=MASS SPECTRUM
##SAMPLE DESCRIPTION=J.G.POMONIS AGRIC. RES. SERVICE, USDA, FARGO, N. DAK.,
 USA
##NAMES=HP
##CAS NAME=Thiophene, 2-heptadecyl-
##MOLFORM=C21H38S
##CAS REGISTRY NO=59782-31-9
##MP= -300
##BP= -300
##MW= 322
##$RETENTION INDEX=0
##$CONDENSED SPECTRUM=NO
##NPOINTS= 123
##XYDATA=(XY..XY) 1 
    26          3
    27         55
    28         14
    29        163
    39         51
    40          8
    41        272
    42         47
    43        366
    44         15
    45         60
    46          2
    47          7
    51          4
    52          3
    53         42
    54         16
    55        162
    56         28
    57        132
    58         10
    59          3
    63          3
    64          1
    65         14
    66          3
    67         32
    68          8
    69         58
    70         15
    71         36
    72          2
    73          9
    74          1
    77         14
    78          7
    79         18
    80          6
    81         15
    82          4
    83         19
    84         60
    85         78
    86         14
    87         18
    88          1
    89          1
    91          9
    92          2
    93          6
    94          3
    95          8
    96          3
    97        999
    98        412
    99         83
   100         56
   101          5
   102          1
   104          1
   105          5
   107          2
   108          1
   109          7
   110         57
   111        254
   112         34
   113         30
   114          2
   115          2
   119          5
   121          4
   122          1
   123         26
   124          7
   125         15
   126          5
   127          2
   133          3
   134          1
   135          3
   136          1
   137          4
   138          1
   139         41
   140          6
   141          6
   147          2
   149          1
   151          2
   153         15
   154          4
   155          3
   167          9
   168          3
   169          3
   181          4
   182          2
   183          1
   195          3
   210          4
   224          2
   238          3
   241          1
   242          2
   251          1
   252          2
   266          2
   268          1
   276          3
   280          7
   281          2
   282          2
   288          2
   289          2
   290          1
   293          2
   294          4
   321          3
   322        158
   323         40
   324         12
   325          2