##TITLE=Library Entry 89161
##JCAMP-DX=Revision 4.10 
##DATA TYPE=MASS SPECTRUM
##SAMPLE DESCRIPTION=J.G.POMONIS AGRIC. RES. SERVICE, USDA, FARGO, N. DAK.,
 USA
##NAMES=HP
##CAS NAME=Thiophene, 2-heptadecyl-3-methyl-
##MOLFORM=C22H40S
##CAS REGISTRY NO=59782-59-1
##MP= -300
##BP= -300
##MW= 336
##$RETENTION INDEX=0
##$CONDENSED SPECTRUM=NO
##NPOINTS= 91
##XYDATA=(XY..XY) 1 
    26          3
    27         16
    28         26
    29         38
    30          1
    32          4
    39         11
    40          6
    41        132
    42         12
    43        158
    44          8
    45         11
    46          1
    47          1
    51          3
    52          1
    53         11
    54          4
    55         38
    56          8
    57         30
    58         24
    59          3
    60          1
    63          1
    65          4
    66          2
    67         10
    68          3
    69         15
    70          3
    71          7
    73          1
    77          9
    78          4
    79          5
    80          1
    81          5
    82          2
    83          6
    84          2
    85          7
    87          1
    91          5
    92          1
    93          1
    95          2
    96          1
    97         35
    98         32
    99         22
   100          3
   101          1
   103          1
   105          1
   109          3
   110         11
   111        999
   112        180
   113         47
   114          7
   115          1
   119          1
   121          1
   122          1
   123          6
   124         14
   125         38
   126          5
   127          3
   128          1
   135          1
   137          6
   138          1
   139          2
   140          1
   149          1
   153          2
   154          1
   167          1
   169          1
   181          1
   267          1
   268          1
   321          3
   322          1
   336        316
   337         38
   338         12
   339          2