##TITLE=Library Entry 57197
##JCAMP-DX=Revision 4.10 
##DATA TYPE=MASS SPECTRUM
##SAMPLE DESCRIPTION=Exported from NIST MS Search
##NAMES=HP
##CAS NAME=4-Heptanol, 4-methyl-
##MOLFORM=C8H18O
##CAS REGISTRY NO=598-01-6
##MP= -300
##BP= -300
##MW= 130
##$RETENTION INDEX=0
##$CONDENSED SPECTRUM=NO
##NPOINTS= 85
##XYDATA=(XY..XY) 1 
    13          1
    14          6
    15         56
    16          2
    17          6
    18         21
    19          2
    25          1
    26         19
    27        293
    28         48
    29        156
    30          5
    31         61
    32          2
    33          1
    36          1
    37          5
    38         12
    39        137
    40         23
    41        287
    42         45
    43        397
    44         19
    45        694
    46         16
    47          3
    49          1
    50          5
    51         10
    52          4
    53         26
    54          6
    55        197
    56         51
    57         53
    58         51
    59         38
    60          2
    61          1
    62          1
    63          3
    64          1
    65          5
    66          2
    67         15
    68          8
    69        183
    70         39
    71         57
    72          4
    73         28
    74          2
    75          1
    77          3
    78          1
    79          3
    80          1
    81          4
    82          2
    83         17
    84         10
    85          3
    86         18
    87        999
    88         54
    89          3
    91          2
    92          1
    93          1
    95          2
    97         10
    98          1
    99          1
   101          4
   102          1
   109          1
   110          1
   112         18
   113          4
   115        108
   116          8
   117          1
   129          1