##TITLE=Library Entry 12160
##JCAMP-DX=Revision 4.10 
##DATA TYPE=MASS SPECTRUM
##SAMPLE DESCRIPTION=Japan AIST/NIMC Database- Spectrum MS-IW-5644
##NAMES=HP
##CAS NAME=Bromoacetone
##MOLFORM=C3H5BrO
##CAS REGISTRY NO=598-31-2
##MP= -300
##BP= -300
##MW= 136
##$RETENTION INDEX=751
##$CONDENSED SPECTRUM=NO
##NPOINTS= 49
##XYDATA=(XY..XY) 1 
    13          3
    14         13
    15         80
    16          1
    24          1
    25          5
    26         27
    27         66
    28         17
    29         43
    30          1
    31          3
    36          4
    37          8
    38          9
    39         14
    40          5
    41         11
    42        111
    43        999
    44         42
    45          4
    53          2
    54          1
    55          4
    56          7
    57          6
    58          2
    79         18
    80         25
    81         18
    82         24
    91          4
    92          7
    93         86
    94          9
    95         81
    96          2
    99          1
   105          1
   107          1
   120          3
   121         19
   122          3
   123         19
   136        117
   137          5
   138        114
   139          5