##TITLE=Library Entry 58737
##JCAMP-DX=Revision 4.10 
##DATA TYPE=MASS SPECTRUM
##SAMPLE DESCRIPTION=Japan AIST/NIMC Database- Spectrum MS-NW-2769
##NAMES=HP
##CAS NAME=Thiourea, methyl-
##MOLFORM=C2H6N2S
##CAS REGISTRY NO=598-52-7
##MP= -300
##BP= -300
##MW= 90
##$RETENTION INDEX=0
##$CONDENSED SPECTRUM=NO
##NPOINTS= 53
##XYDATA=(XY..XY) 1 
    12          1
    13          2
    14          3
    15         45
    16          2
    17          5
    18         25
    26          2
    27         19
    28        229
    29         23
    30        504
    31         31
    32         27
    33         18
    34         11
    35          2
    36          1
    38          1
    39          1
    40          3
    41          6
    42         27
    43        119
    44         10
    45         24
    46          9
    47         26
    48          9
    49          1
    53          9
    54          3
    55         75
    56         43
    57        330
    58         16
    59         51
    60        276
    61         47
    62         36
    63          3
    64          1
    70          1
    71          1
    72         16
    73         16
    74         59
    75          6
    76          4
    90        999
    91         37
    92         45
    93          1