##TITLE=Library Entry 16938
##JCAMP-DX=Revision 4.10 
##DATA TYPE=MASS SPECTRUM
##SAMPLE DESCRIPTION=Japan AIST/NIMC Database- Spectrum MS-NW-1316
##NAMES=HP
##CAS NAME=2-Butanol, 3-methyl-
##MOLFORM=C5H12O
##CAS REGISTRY NO=598-75-4
##MP= -300
##BP= -300
##MW= 88
##$RETENTION INDEX=674
##$CONDENSED SPECTRUM=NO
##NPOINTS= 38
##XYDATA=(XY..XY) 1 
    14          2
    15         16
    18          1
    26          5
    27         68
    28          7
    29         30
    30          1
    31         27
    32          1
    37          1
    38          4
    39         37
    40          5
    41         66
    42         18
    43         81
    44        117
    45        999
    46         23
    47          4
    50          2
    51          2
    53          5
    54          1
    55        109
    56          6
    57          8
    58          2
    59          2
    69          7
    70          5
    71          6
    72          2
    73         97
    74          5
    87          5
    88          3