##TITLE=Library Entry 559
##JCAMP-DX=Revision 4.10 
##DATA TYPE=MASS SPECTRUM
##SAMPLE DESCRIPTION=Japan AIST/NIMC Database- Spectrum MS-NW-2720
##NAMES=HP
##CAS NAME=Propionyl bromide
##MOLFORM=C3H5BrO
##CAS REGISTRY NO=598-22-1
##MP= -300
##BP= -300
##MW= 136
##$RETENTION INDEX=0
##$CONDENSED SPECTRUM=NO
##NPOINTS= 60
##XYDATA=(XY..XY) 1 
    13          8
    14         12
    15         15
    16          1
    17          1
    18          3
    24          6
    25         32
    26        223
    27        666
    28        215
    29        999
    30         23
    31          4
    32          2
    35          2
    36         11
    37         14
    38         13
    39         18
    40          2
    41         19
    42         68
    43          6
    44          4
    45          8
    49          1
    52          3
    53         10
    54         21
    55         37
    56        119
    57        995
    58         33
    59          2
    63          6
    65          2
    69          3
    71          3
    73          7
    74         11
    75          1
    76          1
    79         61
    80         38
    81         59
    82         37
    91          3
    92          2
    93          9
    94          2
    95          7
   104          2
   105          1
   106          1
   107         18
   109         18
   110          1
   119          1
   121          1