##TITLE=Library Entry 15514
##JCAMP-DX=Revision 4.10 
##DATA TYPE=MASS SPECTRUM
##SAMPLE DESCRIPTION=CARL DJERASSI DEPT OF CHEM STANFORD UNIV STANFORD CALIF
 94305
##NAMES=HP
##CAS NAME=2-Butanamine, 3-methyl-
##MOLFORM=C5H13N
##CAS REGISTRY NO=598-74-3
##MP= -300
##BP= -300
##MW= 87
##$RETENTION INDEX=0
##$CONDENSED SPECTRUM=NO
##NPOINTS= 25
##XYDATA=(XY..XY) 1 
    15         10
    17         10
    18         50
    27         30
    28         30
    29         10
    30         20
    31         10
    41         30
    42         40
    43         30
    44        999
    45         30
    55         60
    56         20
    57         10
    58         10
    69         10
    70         20
    71         10
    72         40
    73         10
    84         10
    86         10
    87         10