##TITLE=Library Entry 2193
##JCAMP-DX=Revision 4.10 
##DATA TYPE=MASS SPECTRUM
##SAMPLE DESCRIPTION=Exported from NIST MS Search
##NAMES=HP
##CAS NAME=Dimethylketene
##MOLFORM=C4H6O
##CAS REGISTRY NO=598-26-5
##MP= -300
##BP= -300
##MW= 70
##$RETENTION INDEX=484
##$CONDENSED SPECTRUM=NO
##NPOINTS= 24
##XYDATA=(XY..XY) 1 
    25         33
    26        100
    27        314
    29         44
    36         20
    37        100
    38        133
    39        580
    40        314
    41        999
    42        345
    43        122
    51          6
    52          5
    53         22
    54          7
    55         31
    56         20
    57          2
    58          4
    68         13
    69          7
    70        465
    71         24