##TITLE=Library Entry 959
##JCAMP-DX=Revision 4.10 
##DATA TYPE=MASS SPECTRUM
##SAMPLE DESCRIPTION=Japan AIST/NIMC Database- Spectrum MS-NW-1722
##NAMES=HP
##CAS NAME=Urea, methyl-
##MOLFORM=C2H6N2O
##CAS REGISTRY NO=598-50-5
##MP= -300
##BP= -300
##MW= 74
##$RETENTION INDEX=0
##$CONDENSED SPECTRUM=NO
##NPOINTS= 36
##XYDATA=(XY..XY) 1 
    12          9
    13          5
    14          9
    15        142
    16         59
    17         71
    18         39
    26         21
    27         90
    28        476
    29        129
    30        999
    31        549
    32         19
    38          3
    39          6
    40          3
    41          5
    42        134
    43        601
    44        220
    45         17
    46          1
    50          2
    51          3
    52          1
    53          3
    54          3
    55          9
    56         37
    57         75
    58         83
    59          3
    74        405
    75         12
    76          1