##TITLE=Library Entry 15932
##JCAMP-DX=Revision 4.10 
##DATA TYPE=MASS SPECTRUM
##SAMPLE DESCRIPTION=Japan AIST/NIMC Database- Spectrum MS-NW-5005
##NAMES=HP
##CAS NAME=Urea, N,N-dimethyl-
##MOLFORM=C3H8N2O
##CAS REGISTRY NO=598-94-7
##MP= -300
##BP= -300
##MW= 88
##$RETENTION INDEX=0
##$CONDENSED SPECTRUM=NO
##NPOINTS= 42
##XYDATA=(XY..XY) 1 
    12          5
    13          6
    14         17
    15        194
    16         23
    17          9
    18         83
    19          1
    26          8
    27         32
    28        178
    29         42
    30        112
    31          3
    32          1
    38          5
    39          9
    40         25
    41         33
    42        213
    43        164
    44        999
    45        428
    46         11
    53          7
    54          2
    55          4
    56         19
    57          3
    58          2
    59          7
    60          1
    67          1
    69         45
    70         28
    71          2
    72         65
    73          9
    87          1
    88        431
    89         21
    90          2