##TITLE=Library Entry 1495
##JCAMP-DX=Revision 4.10 
##DATA TYPE=MASS SPECTRUM
##SAMPLE DESCRIPTION=NIST Mass Spectrometry Data Center
##NAMES=HP
##CAS NAME=Ethanol, 2,2-dichloro-
##MOLFORM=C2H4Cl2O
##CAS REGISTRY NO=598-38-9
##MP= -300
##BP= -300
##MW= 114
##$RETENTION INDEX=692
##$CONDENSED SPECTRUM=NO
##NPOINTS= 58
##XYDATA=(XY..XY) 1 
    14         10
    15         28
    16          1
    17          1
    24          2
    25         10
    26         37
    27         29
    29         85
    31        999
    32         13
    33          2
    35         31
    36         11
    37         12
    38          4
    39          1
    40          2
    41         13
    42         64
    43         96
    47         57
    48        102
    49        135
    50         43
    51         39
    52          3
    59          3
    60         20
    61         66
    62         28
    63         23
    64          7
    65          2
    70          1
    76         14
    77         10
    78         19
    79         64
    80          6
    81         20
    82          7
    83         74
    84          6
    85         48
    86          2
    87          8
    95          1
    96          4
    97          3
    98          2
    99          1
   112          1
   114         66
   115          3
   116         42
   117          1
   118          7