##TITLE=Library Entry 17857
##JCAMP-DX=Revision 4.10 
##DATA TYPE=MASS SPECTRUM
##SAMPLE DESCRIPTION=Exported from NIST MS Search
##NAMES=HP
##CAS NAME=Methyl nitrate
##MOLFORM=CH3NO3
##CAS REGISTRY NO=598-58-3
##MP= -300
##BP= -300
##MW= 77
##$RETENTION INDEX=548
##$CONDENSED SPECTRUM=NO
##NPOINTS= 25
##XYDATA=(XY..XY) 1 
     2          5
    12          9
    13         14
    14         35
    15         63
    16         20
    17          4
    18          6
    19          1
    20          1
    25          1
    26          1
    27          4
    28         27
    29        249
    30        314
    31          9
    32         28
    46        999
    47          5
    48          4
    60          1
    61          1
    76          5
    77          1