##TITLE=Library Entry 56628
##JCAMP-DX=Revision 4.10 
##DATA TYPE=MASS SPECTRUM
##SAMPLE DESCRIPTION=Japan AIST/NIMC Database- Spectrum MS-IW-4863
##NAMES=HP
##CAS NAME=Cyclopropane-1,1-dicarboxylic acid
##MOLFORM=C5H6O4
##CAS REGISTRY NO=598-10-7
##MP= -300
##BP= -300
##MW= 130
##$RETENTION INDEX=0
##$CONDENSED SPECTRUM=NO
##NPOINTS= 79
##XYDATA=(XY..XY) 1 
    12          1
    13          3
    14          9
    15         21
    16          2
    17         13
    18         72
    19          1
    24          2
    25         12
    26         59
    27        134
    28         78
    29        104
    30          8
    31         44
    32          1
    33          6
    34          2
    36         10
    37         69
    38        141
    39        759
    40        436
    41        611
    42        174
    43        129
    44         88
    45        403
    46         24
    47          9
    48          3
    49          3
    50          4
    51          4
    52          3
    53        146
    54        181
    55        108
    56         31
    57         62
    58        140
    59          5
    60         14
    63          2
    65          2
    66         37
    67         72
    68        227
    69        156
    70          7
    71         75
    72         48
    73          3
    77          1
    81          1
    82        480
    83         61
    84        239
    85         84
    86        999
    87         48
    88          4
    91          1
    94          2
    95         55
    96          3
    97          4
    99         30
   100          5
   111         26
   112        826
   113        129
   114         10
   115          2
   128          3
   129          5
   130         18
   131          6