##TITLE=Library Entry 29549
##JCAMP-DX=Revision 4.10 
##DATA TYPE=MASS SPECTRUM
##SAMPLE DESCRIPTION=Exported from NIST MS Search
##NAMES=HP
##CAS NAME=Propane, 2-methoxy-
##MOLFORM=C4H10O
##CAS REGISTRY NO=598-53-8
##MP= -300
##BP= -300
##MW= 74
##$RETENTION INDEX=0
##$CONDENSED SPECTRUM=NO
##NPOINTS= 45
##XYDATA=(XY..XY) 1 
    12          5
    13         12
    14         44
    15        254
    16          6
    17          1
    18          1
    19          2
    20          1
    24          1
    25          4
    26         37
    27        180
    28         37
    29        334
    30         16
    31        185
    32          6
    33         24
    34          1
    36          1
    37         14
    38         27
    39        124
    40         21
    41        172
    42         93
    43        298
    44         14
    45         23
    46          1
    53          1
    54          1
    55          3
    56          1
    57          5
    58          6
    59        999
    60         39
    61          2
    71          1
    72          1
    73         43
    74         66
    75          3