##TITLE=Library Entry 887
##JCAMP-DX=Revision 4.10 
##DATA TYPE=MASS SPECTRUM
##SAMPLE DESCRIPTION=Japan AIST/NIMC Database- Spectrum MS-NW-5419
##NAMES=HP
##CAS NAME=Acetamide, 2-amino-
##MOLFORM=C2H6N2O
##CAS REGISTRY NO=598-41-4
##MP= -300
##BP= -300
##MW= 74
##$RETENTION INDEX=0
##$CONDENSED SPECTRUM=NO
##NPOINTS= 28
##XYDATA=(XY..XY) 1 
    13          1
    14          3
    15          2
    16         15
    26          2
    27         19
    28        178
    29         39
    30        999
    31         23
    39          2
    40          4
    41          5
    42         11
    43         10
    44         85
    45         13
    46          3
    53          2
    54          2
    55          5
    56          2
    57          2
    58          1
    71          3
    73          1
    74         69
    75          2