##TITLE=Library Entry 15496
##JCAMP-DX=Revision 4.10 
##DATA TYPE=MASS SPECTRUM
##SAMPLE DESCRIPTION=NIST Mass Spectrometry Data Center, 1998.
##NAMES=HP
##CAS NAME=Carbamic acid, methyl ester
##MOLFORM=C2H5NO2
##CAS REGISTRY NO=598-55-0
##MP= -300
##BP= -300
##MW= 75
##$RETENTION INDEX=0
##$CONDENSED SPECTRUM=NO
##NPOINTS= 22
##XYDATA=(XY..XY) 1 
    14          5
    15         36
    16         26
    17         12
    18          9
    27          5
    28         23
    29         95
    30         47
    31        165
    32         34
    33          5
    42         13
    43         64
    44        999
    45        209
    46        282
    47         24
    59         24
    74          4
    75        251
    76          6