##TITLE=Library Entry 31553
##JCAMP-DX=Revision 4.10 
##DATA TYPE=MASS SPECTRUM
##SAMPLE DESCRIPTION=Japan AIST/NIMC Database- Spectrum MS-NW- 959
##NAMES=HP
##CAS NAME=Propane, 1,1,2-trichloro-
##MOLFORM=C3H5Cl3
##CAS REGISTRY NO=598-77-6
##MP= -300
##BP= -300
##MW= 146
##$RETENTION INDEX=827
##$CONDENSED SPECTRUM=NO
##NPOINTS= 62
##XYDATA=(XY..XY) 1 
    14          2
    15          8
    25          5
    26         21
    27        272
    28          9
    35         13
    36         16
    37         29
    38         41
    39        172
    40         14
    41         49
    42          3
    43          5
    47         14
    48         14
    49         73
    50          5
    51         21
    60          9
    61         29
    62        325
    63        999
    64        119
    65        310
    66          7
    71          1
    72          4
    73         15
    74          2
    75        144
    76         16
    77         45
    78          6
    82          2
    83         65
    84          2
    85         41
    87          6
    95         18
    96          8
    97         30
    98          5
    99         12
   101          2
   109          8
   110         10
   111         30
   112          8
   113         16
   114          2
   115          3
   131          5
   133          5
   135          1
   145          2
   146          4
   147          2
   148          3
   149          1
   150          1