##TITLE=Library Entry 32548
##JCAMP-DX=Revision 4.10 
##DATA TYPE=MASS SPECTRUM
##SAMPLE DESCRIPTION=NIST Mass Spectrometry Data Center, 1990.
##NAMES=HP
##CAS NAME=1-Butyne, 3-methyl-
##MOLFORM=C5H8
##CAS REGISTRY NO=598-23-2
##MP= -300
##BP= -300
##MW= 68
##$RETENTION INDEX=436
##$CONDENSED SPECTRUM=NO
##NPOINTS= 37
##XYDATA=(XY..XY) 1 
    13          4
    14         10
    15         31
    16          2
    17          0
    18          0
    24          2
    25         10
    26         39
    27        253
    28         29
    31         10
    36          8
    37         43
    38         64
    39        185
    40        117
    41        107
    42         34
    43          2
    44          2
    48          7
    49         41
    50        188
    51        220
    52        106
    53        784
    54         34
    60          8
    61         21
    62         28
    63         29
    64          7
    65         67
    66          7
    67        999
    68         78