##TITLE=Library Entry 360
##JCAMP-DX=Revision 4.10 
##DATA TYPE=MASS SPECTRUM
##SAMPLE DESCRIPTION=Japan AIST/NIMC Database- Spectrum MS-NW-8494
##NAMES=HP
##CAS NAME=2-Bromopropanoic acid
##MOLFORM=C3H5BrO2
##CAS REGISTRY NO=598-72-1
##MP= -300
##BP= -300
##MW= 152
##$RETENTION INDEX=0
##$CONDENSED SPECTRUM=NO
##NPOINTS= 83
##XYDATA=(XY..XY) 1 
    12          2
    13          6
    14         10
    15         19
    16          2
    17          4
    18         12
    24          4
    25         27
    26        246
    27        903
    28        644
    29        999
    30         28
    31         19
    32          1
    36          5
    37          4
    38          3
    39          3
    40          2
    41          9
    42         12
    43         83
    44         41
    45        456
    46         12
    47          3
    52          2
    53         17
    54          7
    55        144
    56         62
    57         10
    58          1
    59          1
    60          1
    62          1
    63          9
    64          9
    65          3
    66          3
    71          5
    72         11
    73        384
    74         29
    75          3
    77          1
    79         39
    80         48
    81         40
    82         46
    83          2
    87          2
    91          2
    92          4
    93          6
    94          4
    95          4
    96          1
   104          2
   105          8
   106         15
   107        162
   108        301
   109        160
   110        277
   111         10
   120          1
   122          1
   123          1
   127          1
   128          1
   133          1
   134          1
   135          9
   136          1
   137          8
   151          2
   152         54
   153          5
   154         52
   155          3