##TITLE=Library Entry 24071
##JCAMP-DX=Revision 4.10 
##DATA TYPE=MASS SPECTRUM
##SAMPLE DESCRIPTION=Japan AIST/NIMC Database- Spectrum MS-NW-4344
##NAMES=HP
##CAS NAME=3-Buten-2-ol
##MOLFORM=C4H8O
##CAS REGISTRY NO=598-32-3
##MP= -300
##BP= -300
##MW= 72
##$RETENTION INDEX=543
##$CONDENSED SPECTRUM=NO
##NPOINTS= 46
##XYDATA=(XY..XY) 1 
    13          2
    14         10
    15         38
    16          1
    17          3
    18          9
    19         16
    24          1
    25          8
    26         64
    27        298
    28         38
    29        243
    30          7
    31        103
    32          5
    36          3
    37         18
    38         25
    39        136
    40         11
    41         60
    42         36
    43        730
    44         57
    45        305
    46          7
    48          2
    49         13
    50         42
    51         34
    52         10
    53         68
    54         58
    55        102
    56          9
    57        999
    58         33
    59          3
    67          1
    68          2
    69          4
    70          4
    71        137
    72         25
    73          1