##TITLE=Library Entry 28534
##JCAMP-DX=Revision 4.10 
##DATA TYPE=MASS SPECTRUM
##SAMPLE DESCRIPTION=Japan AIST/NIMC Database- Spectrum MS-NW-4319
##NAMES=HP
##CAS NAME=Ethanamine, N,N-dimethyl-
##MOLFORM=C4H11N
##CAS REGISTRY NO=598-56-1
##MP= -300
##BP= -300
##MW= 73
##$RETENTION INDEX=513
##$CONDENSED SPECTRUM=NO
##NPOINTS= 37
##XYDATA=(XY..XY) 1 
    13          1
    14          6
    15         80
    16          1
    17          1
    18          2
    25          1
    26         13
    27         57
    28         53
    29         65
    30        130
    31          2
    32          2
    38          2
    39          5
    40         12
    41         26
    42        212
    43         65
    44        238
    45          8
    46          1
    51          1
    52          3
    54          9
    55          7
    56         73
    57         48
    58        999
    59         37
    68          1
    70         16
    71         12
    72        205
    73        251
    74         12