##TITLE=Library Entry 69831
##JCAMP-DX=Revision 4.10 
##DATA TYPE=MASS SPECTRUM
##SAMPLE DESCRIPTION=Exported from NIST MS Search
##NAMES=HP
##CAS NAME=2-Pentene, 3,4,4-trimethyl-
##MOLFORM=C8H16
##CAS REGISTRY NO=598-96-9
##MP= -300
##BP= -300
##MW= 112
##$RETENTION INDEX=746
##$CONDENSED SPECTRUM=NO
##NPOINTS= 74
##XYDATA=(XY..XY) 1 
    12          1
    13          2
    14         10
    15        124
    16          5
    25          1
    26         21
    27        277
    28         50
    29        221
    30          5
    31          1
    37          5
    38         17
    39        267
    40         37
    41        421
    42         29
    43        130
    44          4
    45          2
    46          5
    47          1
    48          1
    49          2
    50         23
    51         49
    52         20
    53        105
    54         22
    55        787
    56         86
    57        242
    58         11
    61          1
    62          4
    63         10
    64          2
    65         21
    66         10
    67         47
    68          7
    69        208
    70         21
    71          1
    73          1
    74          2
    75          1
    76          1
    77         20
    78          5
    79         27
    80          6
    81         40
    82          5
    83          5
    84          4
    85          1
    86          1
    89          1
    91          3
    92          1
    93          1
    94          1
    95          7
    96         17
    97        999
    98         79
    99          3
   110          1
   111          1
   112        266
   113         24
   114          1