##TITLE=Library Entry 36160
##JCAMP-DX=Revision 4.10 
##DATA TYPE=MASS SPECTRUM
##SAMPLE DESCRIPTION=J.PASSMORE UNIV. OF NEW BRUNSWICK, FREDERICTON, N.B., C
ANADA
##NAMES=HP
##CAS NAME=Selenium, difluorobis(pentafluoroethyl)-
##MOLFORM=C4F12Se
##CAS REGISTRY NO=59802-62-9
##MP= -300
##BP= -300
##MW= 356
##$RETENTION INDEX=0
##$CONDENSED SPECTRUM=NO
##NPOINTS= 17
##XYDATA=(XY..XY) 1 
    31        230
    50         61
    69        999
    80         57
   100         40
   111        192
   119        718
   130        110
   161         56
   180        201
   199         51
   218         16
   237         15
   249         12
   299         10
   318         40
   337         11