##TITLE=Library Entry 74913
##JCAMP-DX=Revision 4.10 
##DATA TYPE=MASS SPECTRUM
##SAMPLE DESCRIPTION=Japan AIST/NIMC Database- Spectrum MS-NW-6235
##NAMES=HP
##CAS NAME=Butanedioic acid, didodecyl ester
##MOLFORM=C28H54O4
##CAS REGISTRY NO=5980-15-4
##MP= -300
##BP= -300
##MW= 454
##$RETENTION INDEX=0
##$CONDENSED SPECTRUM=NO
##NPOINTS= 173
##XYDATA=(XY..XY) 1 
    15          1
    17          1
    18          3
    26          4
    27         61
    28         51
    29        174
    30          5
    31          8
    38          1
    39         31
    40          8
    41        330
    42        109
    43        626
    44         21
    45          6
    49          1
    51          1
    52          1
    53         15
    54         45
    55        432
    56        232
    57        750
    58         34
    59          1
    60          1
    61          3
    64          1
    65          2
    66          5
    67         49
    68         68
    69        307
    70        177
    71        462
    72         26
    73         23
    74         24
    75         12
    76          1
    77          1
    79          5
    80          3
    81         26
    82         77
    83        227
    84        105
    85        324
    86         20
    87          2
    91          1
    93          1
    94          2
    95         12
    96         33
    97        139
    98         61
    99        154
   100         13
   101        999
   102         45
   103          9
   106          1
   108          1
   109          5
   110         14
   111         67
   112         33
   113        108
   114         10
   115          1
   116          2
   117          2
   118          6
   119        752
   120         34
   121          7
   123          2
   124          6
   125         26
   126         18
   127         47
   128          7
   129          5
   130          1
   131          3
   137          1
   138          6
   139         10
   140         33
   141          9
   142          2
   143          1
   144          1
   145          3
   146          2
   147          5
   148          1
   152          1
   153          1
   154          3
   155          2
   156          2
   157          2
   158          1
   159          1
   166          6
   167          4
   168         55
   169        328
   170         43
   171          3
   175          1
   182          1
   183          2
   184          1
   185          3
   187          1
   189          1
   196          2
   197          3
   198          5
   199          1
   200          2
   201          8
   202          1
   211          1
   212          8
   213          6
   214          1
   225          1
   226          5
   227          1
   229          1
   239          1
   240          1
   241          2
   242          3
   252          3
   253          1
   255          1
   259          8
   260          1
   267          1
   268         14
   269         63
   270         12
   271          2
   284          1
   285          1
   286          2
   287        622
   288        115
   289         15
   290          2
   313          1
   314          4
   315          8
   316          1
   324          1
   327          3
   328          1
   355          3
   356          1
   397          1
   411          1
   425          1
   453          1
   454          7
   455          4
   456          1