##TITLE=Library Entry 44924
##JCAMP-DX=Revision 4.10 
##DATA TYPE=MASS SPECTRUM
##SAMPLE DESCRIPTION=Chemical Concepts
##NAMES=HP
##CAS NAME=Benzenesulfonamide, 2-bromo-5-carboxy-
##MOLFORM=C7H6BrNO4S
##CAS REGISTRY NO=59815-19-9
##MP= -300
##BP= -300
##MW= 279
##$RETENTION INDEX=0
##$CONDENSED SPECTRUM=NO
##NPOINTS= 199
##XYDATA=(XY..XY) 1 
    33          3
    34          3
    36         16
    37         67
    38         95
    39        104
    40         29
    41         56
    42         31
    43        132
    44        132
    45        271
    46         53
    48        150
    50        448
    51        127
    52         61
    53        154
    54         21
    55         53
    56         16
    57         54
    58          9
    60         75
    61         46
    62        115
    63        466
    64        665
    65        148
    66         45
    67         20
    68         42
    69         82
    70         22
    71         32
    74        999
    75        883
    76        182
    77         59
    78         42
    79         83
    80        261
    81         95
    82         94
    83         28
    84         20
    85         20
    86          8
    87          9
    88          4
    90         99
    91        137
    92        494
    93         63
    94         19
    95         51
    96         26
    97         24
    98         11
    99         10
   101         23
   102         40
   103        104
   104         16
   105         22
   106         22
   107         38
   108         49
   109         25
   110         11
   111         19
   112         10
   113          7
   114          2
   115          7
   117        107
   118         55
   119        177
   120         58
   121         40
   122         13
   123         12
   124         13
   125         10
   126          4
   128         38
   129         25
   130         31
   131         25
   132          3
   133         14
   136        555
   137         61
   138         14
   139          7
   140          7
   141          7
   143        699
   145        733
   146         33
   147          4
   148          2
   149          5
   150         13
   152        253
   153        134
   154         83
   155        134
   156         66
   157         35
   158          8
   159         24
   161         28
   162          2
   163          4
   165          6
   166          3
   167          3
   168          8
   169         12
   170         49
   171        102
   172         53
   173         87
   174          9
   175          6
   176          1
   177          2
   178          1
   179          2
   181         36
   182         38
   183         83
   184         24
   185         65
   186         15
   187         30
   188         16
   189         24
   190          7
   191          4
   192          1
   193          2
   194          1
   195          2
   197         59
   199        785
   200        296
   201        706
   202        101
   203         10
   204          3
   205          1
   207          2
   208          1
   209          1
   211          2
   213          2
   215        305
   216        582
   217        322
   218        520
   219         44
   220          6
   221          3
   222          2
   224          1
   225          1
   226          1
   227          2
   229          2
   230          2
   232          7
   234          8
   236          8
   237          6
   238          2
   239          2
   241          1
   245          2
   247          5
   248          1
   249          4
   250          1
   251          1
   255          1
   256          2
   257          1
   262         76
   263        132
   264         80
   265        130
   266         13
   267          9
   279        822
   281        940
   282         68
   283         39
   284          3