##TITLE=Library Entry 32396
##JCAMP-DX=Revision 4.10 
##DATA TYPE=MASS SPECTRUM
##SAMPLE DESCRIPTION=Japan AIST/NIMC Database- Spectrum MS-IW-6770
##NAMES=HP
##CAS NAME=1-(2-Ethylcrotonoyl)urea
##MOLFORM=C7H12N2O2
##CAS REGISTRY NO=5982-97-8
##MP= -300
##BP= -300
##MW= 156
##$RETENTION INDEX=0
##$CONDENSED SPECTRUM=NO
##NPOINTS= 104
##XYDATA=(XY..XY) 1 
    12          4
    13          1
    14          6
    15         28
    16         14
    17          5
    18          1
    25          4
    26         57
    27        281
    28        443
    29        191
    30         15
    31          6
    32          2
    33          1
    36          2
    37         35
    38         54
    39        283
    40         92
    41        690
    42        203
    43        658
    44        309
    45          9
    46          4
    47          2
    48          1
    49         11
    50         30
    51         59
    52        111
    53        663
    54        143
    55        342
    56         27
    57          9
    58          1
    59          7
    60          3
    61         38
    62         13
    63         28
    64         42
    65         61
    66         96
    67        999
    68        477
    69        314
    70         82
    71          9
    72          5
    73          4
    74          1
    75          5
    76          6
    77          9
    78         11
    79         26
    80        478
    81        112
    82         14
    83          7
    84         16
    85         38
    86          7
    87          9
    88          1
    90          1
    91          3
    92         12
    93         23
    94         55
    95        583
    96        606
    97        142
    98        516
    99         40
   100          4
   105          1
   106          1
   109          1
   110          2
   111          5
   112         25
   113        595
   114         50
   115          4
   118          1
   120          1
   124          3
   125          1
   127          5
   128         41
   129          3
   130          2
   139          8
   140          1
   141         28
   142          2
   156        279
   157         29
   158          2