##TITLE=Library Entry 51702
##JCAMP-DX=Revision 4.10 
##DATA TYPE=MASS SPECTRUM
##SAMPLE DESCRIPTION=Chemical Concepts
##NAMES=HP
##CAS NAME=Cobalt, (.eta.3-2-propenyl)tris[tris(1-methylethyl) phosphite-P]-
##MOLFORM=C30H68CoO9P3
##CAS REGISTRY NO=59830-93-2
##MP= -300
##BP= -300
##MW= 724
##$RETENTION INDEX=0
##$CONDENSED SPECTRUM=NO
##NPOINTS= 284
##XYDATA=(XY..XY) 1 
    26          5
    27         75
    28          6
    29          7
    31          7
    36          1
    37          6
    38          7
    39         75
    40         69
    41        181
    42         49
    43        399
    44         13
    45         81
    46          2
    47         25
    48          1
    49          0
    50          0
    51          0
    53          1
    54          1
    55         10
    56          3
    57         14
    58          9
    59         50
    60          2
    62          0
    63          1
    64          0
    65        251
    66          2
    67          4
    68          2
    69         11
    70          4
    71         11
    72          0
    73          2
    74          0
    75          0
    76          0
    77          2
    78          0
    79          3
    80          2
    81          6
    82        999
    83        235
    84          5
    85          7
    86          0
    87          1
    88          0
    89          0
    90          2
    91         21
    92         15
    93          1
    94          1
    95          4
    96         12
    97          6
    98          1
    99         26
   100          5
   101          4
   104          0
   105         24
   107        620
   108         31
   109        318
   110          8
   111          4
   112          1
   113          1
   115          1
   116          1
   117          2
   118          4
   119          2
   120          1
   121          1
   122         12
   123         83
   124        849
   125        141
   126          9
   127          1
   128          0
   129          1
   130          0
   131          0
   133          1
   134          5
   135          2
   137          1
   138          2
   139          2
   140         33
   141          9
   142          4
   143          1
   144          0
   145          1
   147          2
   148          3
   149        117
   150          8
   151          2
   152          1
   153          0
   154          2
   155          0
   156          2
   157          3
   158          1
   159          0
   161          1
   162          2
   163          6
   164         61
   165         22
   166        102
   167         77
   168          6
   169          0
   170          1
   171          0
   175          0
   176          0
   177          0
   178          1
   179          0
   180         28
   181         35
   182         99
   183         14
   184         10
   185          0
   186         33
   187          6
   188          1
   191          0
   193          1
   194          2
   195          1
   196          0
   197          0
   198          3
   199          1
   200          0
   202          6
   203          3
   204          6
   205          2
   206          2
   207          9
   208         65
   209         16
   210          1
   212          0
   220          7
   221          4
   222          5
   223         14
   224        291
   225         28
   226         19
   227          2
   228         11
   229          9
   230          2
   231          1
   238          3
   240          2
   244         20
   245          2
   246         12
   247          4
   249          0
   256          0
   262          3
   263          1
   264          3
   265          9
   266        193
   267         39
   268         97
   269          9
   270          1
   271         21
   272          4
   273          2
   277          2
   278          1
   280          0
   281          0
   282         17
   283          1
   284          2
   286          4
   287          1
   288         13
   289          7
   290          1
   304          1
   305          2
   306          8
   307          3
   308        110
   309         18
   310          2
   313          0
   314          2
   315          2
   316          3
   324          7
   325          2
   326         13
   327          2
   328          1
   329          1
   330         18
   331          8
   332          2
   346          0
   347          0
   349          0
   355          0
   356          0
   357          0
   359          1
   371          1
   372          2
   373         16
   374         16
   375          2
   376          0
   389          0
   390          0
   391          0
   398          0
   414          1
   415          1
   416          0
   417          7
   418          1
   431          2
   432         12
   433          4
   434          1
   446          0
   447          0
   448          0
   456          1
   457         49
   458         11
   459          2
   473         19
   474          8
   475        273
   476         57
   477         10
   478          0
   488          0
   489          0
   502          0
   513          0
   514          0
   516        288
   517         73
   518         12
   519          1
   530          0
   665          6
   666          2
   683          7
   684          2
   685          0
   724          1
   725          0