##TITLE=Library Entry 55997
##JCAMP-DX=Revision 4.10 
##DATA TYPE=MASS SPECTRUM
##SAMPLE DESCRIPTION=A.A.Kutin, Moscow, Russia
##NAMES=HP
##CAS NAME=Propan-2-ol, 1-tert-butylamino-3-[4-(1,2,3-thiadiazol-4-yl)phenox
y]-
##MOLFORM=C15H21N3O2S
##CAS REGISTRY NO=59834-09-2
##MP= -300
##BP= -300
##MW= 307
##$RETENTION INDEX=0
##$CONDENSED SPECTRUM=NO
##NPOINTS= 207
##XYDATA=(XY..XY) 1 
    33          1
    34          3
    35          0
    36          1
    37          1
    38          3
    39         28
    40         23
    41        120
    42         39
    43         40
    44         25
    45         20
    46          2
    47          1
    48          0
    50          7
    51         16
    52          3
    53          4
    54          5
    55         22
    56         51
    57        188
    58         70
    59          6
    60         33
    61          4
    62          4
    63         16
    64          3
    65          3
    66          2
    67          3
    68          4
    69         17
    70         79
    71         93
    72         18
    73          6
    74         49
    75          5
    76          5
    77         32
    78         10
    79          2
    80          1
    81          5
    82          6
    83          5
    84         15
    86        999
    87         56
    88          4
    89         36
    90          5
    91         16
    92          2
    93          5
    94          4
    95          7
    96         10
    97          4
    98         14
    99          3
   100          7
   101          6
   102          2
   103          2
   104          0
   105          5
   106          2
   107          4
   108          1
   109          1
   111          5
   112          4
   114         29
   115          4
   116         20
   117          5
   118          5
   119          3
   120          4
   121         47
   122          9
   123          4
   124          1
   125          0
   127          2
   128          5
   130         28
   131          5
   132         11
   133         12
   134          7
   135          7
   136          1
   137          1
   138          0
   139          8
   140          1
   141          3
   142          0
   143          0
   144          0
   145          4
   146          1
   147          3
   149         49
   150         51
   151         13
   152          4
   153          1
   154          0
   155          1
   156          2
   157          1
   158          0
   159          0
   160          0
   161          2
   162          1
   163         12
   164          2
   165          1
   167          1
   169          0
   170          0
   171          1
   174          0
   176          0
   177          0
   178          9
   179          2
   180          1
   181          0
   183          1
   185          0
   187          1
   188          0
   189          8
   190          1
   191          3
   192          3
   193          1
   194          0
   195          0
   199          0
   201          0
   203          1
   205          0
   206          0
   207          0
   213          0
   217          4
   218          0
   219          0
   220          0
   221          3
   222          0
   223          1
   231          0
   232          4
   233          1
   235          0
   236          0
   238          0
   239          0
   241          0
   242          0
   246          0
   248          0
   250          1
   251          0
   253          0
   263         79
   264        103
   265         19
   266          6
   267          1
   268          0
   269          0
   271          0
   274          2
   275          0
   276          1
   277          0
   278          0
   279          3
   280          0
   281          0
   282          0
   288          0
   290          2
   292        131
   293         23
   294          8
   295          1
   297          0
   299          0
   301          0
   303          0
   306          0
   307         12
   308          4
   309          1