##TITLE=Library Entry 82865
##JCAMP-DX=Revision 4.10 
##DATA TYPE=MASS SPECTRUM
##SAMPLE DESCRIPTION=ASES Database, Dalian Institute, P.R. China
##NAMES=HP
##CAS NAME=N-Methyl-N-phenyl-N'-(2-methoxyphenyl)-urea
##MOLFORM=C15H16N2O2
##CAS REGISTRY NO=59849-57-9
##MP= -300
##BP= -300
##MW= 256
##$RETENTION INDEX=0
##$CONDENSED SPECTRUM=NO
##NPOINTS= 17
##XYDATA=(XY..XY) 1 
    63         50
    64         49
    65         78
    76        181
    77        179
    78        158
   104         70
   105         80
   106        999
   107        819
   108        119
   119        320
   120         80
   149        350
   150        119
   225         99
   256        179