##TITLE=Library Entry 83976
##JCAMP-DX=Revision 4.10 
##DATA TYPE=MASS SPECTRUM
##SAMPLE DESCRIPTION=ASES Database, Dalian Institute, P.R. China
##NAMES=HP
##CAS NAME=N-Methyl-N-phenyl-N'-(3-methoxyphenyl)-urea
##MOLFORM=C15H16N2O2
##CAS REGISTRY NO=59849-56-8
##MP= -300
##BP= -300
##MW= 256
##$RETENTION INDEX=0
##$CONDENSED SPECTRUM=NO
##NPOINTS= 14
##XYDATA=(XY..XY) 1 
    77        199
    78         80
    79         79
    91         70
   106        679
   107        999
   108        109
   119        110
   134        241
   135         49
   149        240
   150         50
   256        471
   257        120