##TITLE=Library Entry 5563
##JCAMP-DX=Revision 4.10 
##DATA TYPE=MASS SPECTRUM
##SAMPLE DESCRIPTION=H.J. MOECKEL & J. WEISS, HAHN-MEITNER-INST. BERLIN, W.
 G
##NAMES=HP
##CAS NAME=n-Propyl sec-butyl disulfide
##MOLFORM=C7H16S2
##CAS REGISTRY NO=59849-54-6
##MP= -300
##BP= -300
##MW= 164
##$RETENTION INDEX=1166
##$CONDENSED SPECTRUM=NO
##NPOINTS= 89
##XYDATA=(XY..XY) 1 
    15         11
    24          0
    25          0
    26         19
    27        260
    29        666
    30         15
    31          1
    33          1
    34          2
    35          9
    36          0
    37          2
    38          9
    39        125
    40         18
    41        612
    42         57
    43        999
    44         41
    45         60
    46         18
    47         34
    48          1
    49          2
    50          2
    51          3
    52          1
    53         13
    54          8
    55         56
    56         31
    57        466
    58         32
    59         48
    60         16
    61         23
    62          1
    63          1
    64         11
    65          7
    66         83
    67          2
    68          6
    69          1
    70          0
    71          3
    72          1
    73         23
    74          2
    75          1
    76          1
    77          0
    78          1
    79          8
    80          0
    81          0
    85          0
    86          0
    87          7
    88         11
    89          4
    90          1
    91          0
    92          0
    93          7
    94          0
    95          0
   103          0
   105          0
   106          0
   107         16
   108        351
   109         21
   110         31
   111          1
   112          0
   121          0
   122          1
   123          0
   124          0
   135          0
   162          0
   163          6
   164        154
   165         16
   166         14
   167          1
   168          0