##TITLE=Library Entry 29088
##JCAMP-DX=Revision 4.10 
##DATA TYPE=MASS SPECTRUM
##SAMPLE DESCRIPTION=ATLAS OF MASS SPECTRA OF ORGANIC COMPOUNDS, V. A. KOPTY
UG, ED.
##NAMES=HP
##CAS NAME=Diazene, [1-[2,2-bis(1-methylethyl)hydrazino]ethyl]ethyl-
##MOLFORM=C10H24N4
##CAS REGISTRY NO=59856-63-2
##MP= -300
##BP= -300
##MW= 200
##$RETENTION INDEX=0
##$CONDENSED SPECTRUM=NO
##NPOINTS= 34
##XYDATA=(XY..XY) 1 
    28        112
    29        137
    30         64
    31         25
    39         37
    40         14
    41        149
    42        174
    43        261
    44        286
    55          7
    56        112
    57         58
    58        999
    59         87
    69          8
    70         68
    71         12
    72         14
    73         53
    84         34
    85        311
    86        137
    87         10
    99         27
   100         77
   101        162
   102         12
   115         24
   127        137
   128         12
   142         60
   143        473
   144         52