##TITLE=Library Entry 66153
##JCAMP-DX=Revision 4.10 
##DATA TYPE=MASS SPECTRUM
##SAMPLE DESCRIPTION=J.E. WILKINSON S-CUBED, SAN DIEGO, CA.
##NAMES=HP
##CAS NAME=5,7-Octadien-2-ol, 2,6-dimethyl-
##MOLFORM=C10H18O
##CAS REGISTRY NO=5986-38-9
##MP= -300
##BP= -300
##MW= 154
##$RETENTION INDEX=1174
##$CONDENSED SPECTRUM=NO
##NPOINTS= 50
##XYDATA=(XY..XY) 1 
    41        424
    42         26
    43        549
    44         15
    45          9
    50          7
    51         55
    52         29
    53        290
    54         20
    55        211
    56         26
    57         19
    58         30
    59        840
    60         13
    63          6
    65         62
    66         27
    67        123
    68         65
    69         33
    70          4
    71          9
    77        180
    78         17
    79        505
    80        286
    81        878
    82         46
    83         17
    84         12
    85          1
    91        168
    92        142
    93        999
    94        101
    95         33
    97          1
   105         48
   106          5
   107         92
   108          7
   109          0
   119          2
   121        237
   122         10
   136        234
   137         11
   139          8