##TITLE=Library Entry 2430
##JCAMP-DX=Revision 4.10 
##DATA TYPE=MASS SPECTRUM
##SAMPLE DESCRIPTION=Chemical Concepts
##NAMES=HP
##CAS NAME=4aH-Cycloprop[e]azulen-4a-ol, decahydro-1,1,4,7-tetramethyl-, [1a
R-(1a.alpha.,4.beta.,4a.beta.,7.alpha.,7a.beta.,7b.alpha.)]-
##MOLFORM=C15H26O
##CAS REGISTRY NO=5986-49-2
##MP= -300
##BP= -300
##MW= 222
##$RETENTION INDEX=1568
##$CONDENSED SPECTRUM=NO
##NPOINTS= 124
##XYDATA=(XY..XY) 1 
    26         62
    27        418
    28         34
    29        670
    30         10
    31         36
    38         12
    39        535
    40         62
    41        999
    42        104
    43        948
    44         15
    45         48
    50         12
    51         94
    52         24
    53        397
    54         42
    55        947
    56         76
    57        178
    58         13
    59        382
    60          8
    63         21
    64          7
    65        171
    66         41
    67        494
    68        105
    69        372
    70        120
    71         81
    72         28
    73          8
    75          9
    77        179
    78         65
    79        260
    80         86
    81        667
    82        299
    83        697
    84        115
    85         81
    86         10
    91        242
    92         53
    93        788
    94        141
    95        354
    96        206
    97        233
    98        300
    99         50
   100          7
   103         22
   104          9
   105        350
   106         67
   107        713
   108        313
   109        449
   110         89
   111        919
   112        124
   113         12
   115         23
   116         10
   117         24
   118          8
   119        302
   120        102
   121        267
   122        526
   123        245
   124        187
   125        140
   126         15
   127          9
   128          9
   129         13
   131         17
   133        213
   134         71
   135        164
   136         81
   137         89
   138         60
   139         60
   140         24
   145         17
   146          6
   147        128
   148        124
   149        384
   150         47
   151         80
   152         19
   153         23
   159          9
   160         18
   161        614
   162        128
   163         36
   164        173
   165        306
   166         73
   167         19
   175         42
   176         17
   179        317
   180         50
   181          7
   189        117
   190         16
   193         15
   204        160
   205         36
   207         72
   208          8
   222        185
   223         32