##TITLE=Library Entry 8594
##JCAMP-DX=Revision 4.10 
##DATA TYPE=MASS SPECTRUM
##SAMPLE DESCRIPTION=Chemical Concepts
##NAMES=HP
##CAS NAME=Ribopyranoside, methyl, cyclic 2,4-benzeneboronate 3-acetate, .be
ta.-d-
##MOLFORM=C14H17BO6
##CAS REGISTRY NO=5987-61-1
##MP= -300
##BP= -300
##MW= 292
##$RETENTION INDEX=0
##$CONDENSED SPECTRUM=NO
##NPOINTS= 171
##XYDATA=(XY..XY) 1 
    26         12
    27         54
    28         21
    29         58
    30          4
    31         45
    32          1
    33         13
    37          2
    38          3
    39         55
    40         12
    41         72
    42         27
    43        999
    44         33
    45         60
    46          1
    47          0
    49          1
    50         13
    51         38
    52         21
    53         31
    54          7
    55         19
    56          4
    57         42
    58          9
    59         18
    60          3
    61         15
    62          2
    63          6
    64          1
    65          5
    66          3
    67          3
    68        135
    69        723
    70         34
    71         12
    72          1
    73         12
    74         34
    75          5
    76          8
    77         49
    78         29
    79         14
    80          3
    81          1
    82          3
    83          5
    84          9
    85         20
    86         65
    87         58
    88          7
    89         25
    90         17
    91         42
    92          4
    93          1
    94          2
    95          2
    96          0
    97          4
    98          4
    99         17
   100          3
   101          5
   102          8
   103         43
   104        110
   105        272
   106         18
   107          2
   109          1
   110          4
   111         13
   112         68
   113        110
   114          5
   115          7
   116          8
   117         52
   118         18
   119         25
   120          5
   121         32
   122         16
   123          1
   125          1
   126          3
   127          5
   128         11
   129          5
   130          4
   131         16
   132          2
   133          2
   134          0
   135          2
   136          3
   139          0
   140          0
   141          2
   142          2
   143          5
   144         11
   145         63
   146        234
   147         51
   148         11
   149         20
   150          2
   151          1
   152          1
   153          4
   154        122
   155        456
   156         34
   157          7
   158         23
   159        100
   160         21
   161         19
   162          3
   163          9
   164         24
   165          2
   168          0
   169          0
   170          1
   171         46
   172        216
   173        173
   174         22
   175          9
   176          1
   177          0
   185          0
   186          1
   187          6
   188         13
   189         13
   190          6
   191          1
   200          0
   201          8
   202         24
   203          6
   204          1
   211          0
   213          1
   214         67
   215        285
   216         30
   217          6
   218          1
   219          0
   230          0
   231          2
   232          3
   233          1
   260          0
   261          1
   291          0
   292          2
   293          0