##TITLE=Library Entry 12984
##JCAMP-DX=Revision 4.10 
##DATA TYPE=MASS SPECTRUM
##SAMPLE DESCRIPTION=Institute of Organic Chemistry, Novosibirsk, USSR 1988
##NAMES=HP
##CAS NAME=p-Nitrophenyl 2,3,4,6-tetra-O-acetyl-.beta.-D-glucopyranoside
##MOLFORM=C20H23NO12
##CAS REGISTRY NO=5987-78-0
##MP= -300
##BP= -300
##MW= 469
##$RETENTION INDEX=0
##$CONDENSED SPECTRUM=NO
##NPOINTS= 88
##XYDATA=(XY..XY) 1 
    41         13
    42         21
    43        999
    44         54
    45         14
    50          8
    51          5
    52          4
    53         13
    54          5
    55         17
    56          5
    57          9
    60         17
    61         21
    63         11
    64          9
    65         21
    69         33
    70         13
    71         17
    73         29
    81         99
    82          9
    83          7
    85         49
    86         11
    93         11
    94          7
    97        109
    98         29
    99         39
   101          5
   102         17
   103         73
   109        699
   110         59
   111          9
   113         13
   115         91
   116         17
   123         15
   124          4
   125          7
   126         13
   127        359
   128         21
   139         99
   140         19
   141         15
   142          2
   143          6
   144          5
   145         65
   151          5
   152          5
   153          1
   155          4
   157         11
   169        999
   170         97
   181          4
   182          2
   185          3
   186          2
   187         29
   188          3
   194          7
   206          5
   207          1
   211         35
   215          7
   222          3
   229         32
   230          3
   234          6
   247          1
   248          6
   271         35
   272          4
   276          1
   287          0
   288          0
   289          2
   290          2
   331        239
   396          0
   410          0