##TITLE=Library Entry 34506
##JCAMP-DX=Revision 4.10 
##DATA TYPE=MASS SPECTRUM
##SAMPLE DESCRIPTION=NIST Mass Spectrometry Data Center
##NAMES=HP
##CAS NAME=(R)-2-Methyl-5-(6-methylhepta-1,5-dien-2-yl)cyclohex-2-enone
##MOLFORM=C15H22O
##CAS REGISTRY NO=5988-72-7
##MP= -300
##BP= -300
##MW= 218
##$RETENTION INDEX=1730
##$CONDENSED SPECTRUM=NO
##NPOINTS= 76
##XYDATA=(XY..XY) 1 
    18          7
    26          5
    27         40
    29         17
    38         11
    39        168
    40         38
    41        757
    42         23
    44          7
    50          7
    51         35
    52         21
    53        159
    54        120
    62          8
    63          9
    64          7
    65         61
    66         26
    67        179
    68         28
    69        999
    77         82
    78         19
    79        115
    80         27
    81         48
    82        159
    91         68
    92         18
    93         52
    94         16
    96         13
   103         16
   104          7
   105         60
   106         22
   107         92
   108        116
   109        385
   110         46
   111         28
   117         14
   119         56
   121        136
   122         86
   130         10
   131         17
   133         12
   134         25
   135        212
   136        136
   137          8
   141          6
   142          5
   143          8
   144          3
   145          8
   146         15
   147         49
   148        208
   149         68
   150         43
   159         19
   160         13
   161         23
   162         10
   163          6
   174          9
   175         85
   176         14
   201          3
   203          9
   218         39
   219          7