##TITLE=Library Entry 33689
##JCAMP-DX=Revision 4.10 
##DATA TYPE=MASS SPECTRUM
##SAMPLE DESCRIPTION=CONTINENTAL OIL CO., PONCA CITY, OKLA, USA
##NAMES=HP
##CAS NAME=Cyclohexene, 1-methyl-4-(1-methylethenyl)-, (S)-
##MOLFORM=C10H16
##CAS REGISTRY NO=5989-54-8
##MP= -300
##BP= -300
##MW= 136
##$RETENTION INDEX=1031
##$CONDENSED SPECTRUM=NO
##NPOINTS= 101
##XYDATA=(XY..XY) 1 
    14          6
    15         43
    16          2
    25          0
    26         17
    27        246
    28         58
    29        102
    30          5
    36          0
    37          6
    38         22
    39        313
    40        104
    41        275
    42         51
    43         36
    44          5
    49          1
    50         24
    51         73
    52         38
    53        228
    54         24
    55         80
    56          9
    57          6
    58          1
    60          1
    61          2
    62          8
    63         24
    64         10
    65         58
    66        102
    67        414
    68        999
    69        101
    70         13
    71          5
    74          3
    75          6
    76          5
    77        119
    78         38
    79        203
    80         95
    81        100
    82         24
    83          5
    84          3
    85          2
    86          1
    89          8
    90          9
    91        127
    92        136
    93        461
    94        163
    95         83
    96         13
    97          2
    98          1
    99          0
   100          0
   101          0
   102          2
   103          9
   104          5
   105         40
   106         14
   107        131
   108         48
   109          7
   110          1
   111          0
   112          0
   113          0
   114          0
   115          6
   116          2
   117          4
   118          1
   119         10
   120          4
   121        158
   122         22
   123          3
   124          1
   125          1
   126          0
   128          0
   129          0
   131          0
   132          0
   133          0
   134          1
   135          2
   136        164
   137         18
   138          0