##TITLE=Library Entry 33688
##JCAMP-DX=Revision 4.10 
##DATA TYPE=MASS SPECTRUM
##SAMPLE DESCRIPTION=Japan AIST/NIMC Database- Spectrum MS-NW-1514
##NAMES=HP
##CAS NAME=D-Limonene
##MOLFORM=C10H16
##CAS REGISTRY NO=5989-27-5
##MP= -300
##BP= -300
##MW= 136
##$RETENTION INDEX=0
##$CONDENSED SPECTRUM=NO
##NPOINTS= 85
##XYDATA=(XY..XY) 1 
    15          5
    26          4
    27         92
    28          9
    29         55
    30          1
    32          3
    37          1
    38          8
    39        155
    40         57
    41        192
    42         28
    43         34
    44          3
    45          1
    50         12
    51         45
    52         23
    53        170
    54         15
    55         70
    56          7
    57          6
    58          5
    59          3
    60          1
    61          1
    62          4
    63         15
    64          4
    65         48
    66         28
    67        446
    68        999
    69         90
    70          6
    71          5
    72          1
    73          1
    74          4
    75          3
    76          2
    77        116
    78         29
    79        227
    80        110
    81        108
    82         23
    83          4
    84          3
    85          1
    87          2
    89          4
    90          1
    91        126
    92        187
    93        590
    94        225
    95         75
    96          7
    97          1
    98          1
   102          1
   103          8
   104          4
   105         43
   106         13
   107        170
   108         48
   109          7
   115          7
   116          2
   117          5
   118          1
   119         13
   120          4
   121        194
   122         18
   123          2
   134          4
   135          4
   136        225
   137         26
   138          1