##TITLE=Library Entry 30330
##JCAMP-DX=Revision 4.10 
##DATA TYPE=MASS SPECTRUM
##SAMPLE DESCRIPTION=NIST Mass Spectrometry Data Center, 2010
##NAMES=HP
##CAS NAME=2-Furanmethanol, 5-ethenyltetrahydro-.alpha.,.alpha.,5-trimethyl-
, cis-
##MOLFORM=C10H18O2
##CAS REGISTRY NO=5989-33-3
##MP= -300
##BP= -300
##MW= 170
##$RETENTION INDEX=1074
##$CONDENSED SPECTRUM=NO
##NPOINTS= 82
##XYDATA=(XY..XY) 1 
    26          3
    27         45
    28          8
    29         42
    30          1
    31         63
    37          1
    38          5
    39        117
    40         25
    41        237
    42         38
    43        427
    44         20
    45         32
    46          1
    50          8
    51         22
    52         12
    53        100
    54         25
    55        379
    56         37
    57         63
    58         19
    59        999
    60         35
    61          4
    62          2
    63          5
    64          3
    65         39
    66         16
    67        356
    68        364
    69        173
    70         87
    71        155
    72         82
    73         21
    74          2
    75          1
    77         59
    78         11
    79        150
    80         13
    81        216
    82         49
    83        171
    84         67
    85         81
    86          9
    87          4
    91         68
    92          7
    93        406
    94        525
    95         87
    96         11
    97        117
    98         13
   102         23
   103          2
   107         15
   109         50
   110         28
   111        398
   112         75
   113          8
   123          3
   124          1
   125         15
   126          2
   127          3
   137         73
   138          7
   143         17
   144          1
   152          4
   153          1
   155         53
   156          5