##TITLE=Library Entry 100092
##JCAMP-DX=Revision 4.10 
##DATA TYPE=MASS SPECTRUM
##SAMPLE DESCRIPTION=G.BRAMMER,UNIVERSITY OF TEXAS
##NAMES=HP
##CAS NAME=Tricyclo[5.4.0.0(2,8)]undec-9-ene, 2,6,6,9-tetramethyl-, (1R,2S,7
R,8R)-
##MOLFORM=C15H24
##CAS REGISTRY NO=5989-08-2
##MP= -300
##BP= -300
##MW= 204
##$RETENTION INDEX=1353
##$CONDENSED SPECTRUM=NO
##NPOINTS= 157
##XYDATA=(XY..XY) 1 
    26          0
    27         30
    29         41
    30          0
    33          0
    35          0
    37          2
    38          1
    39         58
    41        156
    42         17
    43         56
    45          0
    46          0
    47          0
    48          0
    49          0
    50          3
    51         21
    52          8
    53         60
    54         10
    55        146
    56         86
    57         40
    58          3
    59          2
    60          0
    61          1
    62          2
    63         12
    64          4
    65         51
    66         15
    67         59
    68         21
    69        138
    70         30
    71          5
    72          2
    73          0
    74          5
    75          1
    76          3
    77         99
    78         30
    79        119
    80         75
    81        100
    82         25
    83         25
    84         19
    85          2
    86          0
    87          1
    88          0
    89         10
    90          1
    91        255
    92        181
    93        350
    94         86
    95         71
    96         22
    97         19
    98          1
    99          0
   100          0
   101          2
   102          5
   103         29
   104         13
   105        516
   106        123
   107        271
   108        106
   109        118
   110         13
   111          4
   112         19
   113          2
   114          2
   115         43
   116         15
   117         46
   118         32
   119        999
   120        233
   121        204
   122         71
   123         33
   124          9
   125          0
   126          0
   127          4
   128         19
   129         17
   130         10
   131         39
   132         22
   133        422
   134        113
   135         68
   136        118
   137         13
   138          1
   139          1
   140          0
   141         10
   142          3
   143          6
   144          7
   145         27
   146          9
   147         85
   148         52
   149         28
   150          4
   151          2
   152          1
   153          0
   154          0
   155          0
   156          0
   157          3
   158          0
   159          4
   160          8
   161        239
   162         47
   163          8
   164          1
   165          3
   166          0
   167          0
   168          0
   169          0
   170          1
   171          0
   172          0
   173          2
   174          1
   175         26
   176         11
   187          2
   188          0
   189        107
   190         21
   191          1
   193          0
   194          0
   200          0
   201          0
   202          1
   203          3
   204        210
   205         40