##TITLE=Library Entry 67661
##JCAMP-DX=Revision 4.10 
##DATA TYPE=MASS SPECTRUM
##SAMPLE DESCRIPTION=Chemical Concepts
##NAMES=HP
##CAS NAME=N-(5-Isopropyl-1,3,4-thiadiazol-2-yl)-2-furimidic acid
##MOLFORM=C10H11N3O2S
##CAS REGISTRY NO=59899-00-2
##MP= -300
##BP= -300
##MW= 237
##$RETENTION INDEX=0
##$CONDENSED SPECTRUM=NO
##NPOINTS= 130
##XYDATA=(XY..XY) 1 
    33          4
    34          5
    35          6
    36         18
    37         22
    38         74
    39        314
    40         24
    41         73
    42         29
    43         70
    44         10
    45         70
    46          9
    47         26
    48          3
    49          3
    50          5
    51         17
    52         12
    53         66
    54         44
    55         22
    56          5
    57          8
    58         11
    59         43
    60         20
    61          4
    62          2
    63          1
    64          7
    65          5
    66         11
    67         43
    68         24
    69         16
    70         45
    71         37
    72         17
    73         10
    74         20
    75          4
    76          2
    77          2
    78          1
    79          3
    80          5
    81         35
    82         14
    83         17
    84          7
    85         22
    86          9
    87         31
    88          2
    89          1
    91          2
    93          6
    95        999
    96         50
    97          9
    98          4
    99          4
   100          4
   101          2
   102          1
   105          1
   107          2
   108          2
   109         11
   110          6
   111          6
   112         25
   113          4
   114          6
   115          2
   116          2
   119          2
   120          1
   121          1
   122          3
   123          1
   124          1
   125          3
   126          1
   127          4
   128         20
   129          5
   130          1
   135          1
   136          2
   139          8
   140         81
   141          6
   142          6
   143          9
   144          1
   150         27
   151          4
   152          1
   154          3
   166          4
   167          1
   168          5
   169          1
   170          4
   171          1
   178          2
   180          1
   181          1
   183         17
   184          2
   185          1
   194          1
   195          8
   196          2
   197          1
   209        169
   210         17
   211          8
   212          1
   220          1
   222          8
   223          2
   235          1
   236          3
   237         24
   238          3
   239          1