##TITLE=Library Entry 83248
##JCAMP-DX=Revision 4.10 
##DATA TYPE=MASS SPECTRUM
##SAMPLE DESCRIPTION=Japan AIST/NIMC Database- Spectrum MS-IW-3961
##NAMES=HP
##CAS NAME=Benzenesulfonamide, 4-methyl-N-(4-methylphenyl)-
##MOLFORM=C14H15NO2S
##CAS REGISTRY NO=599-86-0
##MP= -300
##BP= -300
##MW= 261
##$RETENTION INDEX=0
##$CONDENSED SPECTRUM=NO
##NPOINTS= 100
##XYDATA=(XY..XY) 1 
    17          2
    18          7
    27          8
    28          7
    29          1
    32          1
    38          2
    39         29
    40          3
    41          9
    42          1
    43          1
    44          1
    45          2
    48          1
    50          8
    51         24
    52         18
    53         16
    54          2
    55          1
    57          1
    61          1
    62          4
    63         19
    64          9
    65         65
    66          7
    67          3
    69          1
    71          1
    74          1
    75          2
    76          3
    77        134
    78         43
    79        162
    80         13
    81          1
    89         17
    90          9
    91        165
    92         20
    93          2
    95          1
    97          1
   102          1
   103          1
   104         17
   105         22
   106        999
   107        118
   108          6
   111          1
   115          2
   116          1
   118          1
   120          1
   121          1
   122          1
   123          3
   124          5
   127          1
   128          1
   129          1
   139         15
   140          4
   141          2
   142          1
   149          1
   152          2
   153          2
   154          2
   155         42
   156          4
   157          3
   165          1
   166          1
   167          6
   168          1
   169          1
   170          4
   178          1
   179          1
   180          9
   181         12
   182         40
   183          6
   193          1
   194          5
   195          3
   196         47
   197         14
   198          2
   259          2
   260          1
   261        562
   262         92
   263         33
   264          4