##TITLE=Library Entry 38266
##JCAMP-DX=Revision 4.10 
##DATA TYPE=MASS SPECTRUM
##SAMPLE DESCRIPTION=Japan AIST/NIMC Database- Spectrum MS-NW-1240
##NAMES=HP
##CAS NAME=Pantolactone
##MOLFORM=C6H10O3
##CAS REGISTRY NO=599-04-2
##MP= -300
##BP= -300
##MW= 130
##$RETENTION INDEX=2029
##$CONDENSED SPECTRUM=NO
##NPOINTS= 53
##XYDATA=(XY..XY) 1 
    14          4
    15         22
    17          1
    18          5
    19          6
    25          1
    26         11
    27        156
    28         33
    29        112
    30         34
    31         59
    32          2
    37          6
    38         13
    39        122
    40         24
    41        245
    42         27
    43        308
    44         26
    45         43
    46          1
    49          1
    50          6
    51          8
    52          4
    53         65
    54         10
    55         92
    56         62
    57        195
    58         34
    59          4
    65          2
    66          1
    67         25
    68         80
    69         13
    70          4
    71        999
    72         92
    73         43
    74          2
    76          3
    83          4
    84          1
    85         13
    86         15
    87          1
   112          1
   130          2
   131          2