##TITLE=Library Entry 83252
##JCAMP-DX=Revision 4.10 
##DATA TYPE=MASS SPECTRUM
##SAMPLE DESCRIPTION=Japan AIST/NIMC Database- Spectrum MS-IW-4360
##NAMES=HP
##CAS NAME=Benzenesulfonamide, N,4-dimethyl-N-phenyl-
##MOLFORM=C14H15NO2S
##CAS REGISTRY NO=599-62-2
##MP= -300
##BP= -300
##MW= 261
##$RETENTION INDEX=0
##$CONDENSED SPECTRUM=NO
##NPOINTS= 84
##XYDATA=(XY..XY) 1 
    15          1
    27          4
    28          9
    30         12
    38          3
    39         38
    40          2
    41          8
    42          3
    44          1
    45          1
    50          7
    51         45
    52          8
    53          5
    54          1
    55          1
    62          4
    63         23
    64         11
    65         74
    66          8
    67          2
    74          1
    75          2
    76          3
    77        275
    78         61
    79        133
    80          9
    81          1
    89         15
    90         12
    91        254
    92         24
    93          1
   103          1
   104         76
   105        107
   106        999
   107        106
   108          4
   111          1
   115          3
   118          1
   120          2
   121          1
   122          2
   127          1
   128          2
   129          1
   139          7
   140          2
   141          9
   142          4
   152          2
   153          2
   154          2
   155         77
   156         98
   157         14
   158          1
   165          2
   166          3
   167         11
   168          3
   169          1
   171          2
   179          1
   180          7
   181         11
   182         99
   183         14
   184          1
   194          3
   196        172
   197        338
   198         51
   199          4
   260          1
   261        607
   262        102
   263         37
   264          5