##TITLE=Library Entry 46591
##JCAMP-DX=Revision 4.10 
##DATA TYPE=MASS SPECTRUM
##SAMPLE DESCRIPTION=Japan AIST/NIMC Database- Spectrum MS-NW-1927
##NAMES=HP
##CAS NAME=N-Hydroxybenzenesulfonamide
##MOLFORM=C6H7NO3S
##CAS REGISTRY NO=599-71-3
##MP= -300
##BP= -300
##MW= 173
##$RETENTION INDEX=0
##$CONDENSED SPECTRUM=NO
##NPOINTS= 76
##XYDATA=(XY..XY) 1 
    17          2
    18          6
    26          3
    27         21
    28          9
    30         56
    31          9
    32          9
    37          7
    38         15
    39         44
    40          3
    41          1
    44          2
    45          9
    46          2
    47          1
    48         13
    49          7
    50        107
    51        323
    52         25
    53          9
    54          1
    55          1
    57          2
    58          2
    61          3
    62          6
    63         10
    64         19
    65         53
    66         19
    67          1
    69         10
    70          2
    71          2
    73          7
    74         33
    75         20
    76         25
    77        999
    78        248
    79         23
    80          1
    81          3
    82          3
    84          1
    91          1
    92          7
    93         37
    94         55
    95          4
    97         19
    98          1
    99          1
   108          2
   109          8
   110          7
   111          1
   125         38
   126          6
   127          2
   140          1
   141        175
   142        173
   143         73
   144         12
   145          3
   154          1
   157         34
   158          8
   159          2
   173         64
   174          6
   175          3