##TITLE=Library Entry 63450
##JCAMP-DX=Revision 4.10 
##DATA TYPE=MASS SPECTRUM
##SAMPLE DESCRIPTION=NIST Mass Spectrometry Data Center, 2010
##NAMES=HP
##CAS NAME=Benzenesulfonamide, N,N,4-trimethyl-
##MOLFORM=C9H13NO2S
##CAS REGISTRY NO=599-69-9
##MP= -300
##BP= -300
##MW= 199
##$RETENTION INDEX=1671
##$CONDENSED SPECTRUM=NO
##NPOINTS= 98
##XYDATA=(XY..XY) 1 
    15          7
    26          1
    27          6
    28         19
    29          2
    30          2
    32          1
    37          1
    38          6
    39         57
    40          7
    41         21
    42         75
    43         32
    44        273
    45         13
    46          1
    48          2
    49          1
    50         16
    51         30
    52          8
    53          5
    54          2
    58          2
    59          1
    60          2
    61          4
    62         16
    63         59
    64         19
    65        202
    66         13
    67         11
    69          4
    70          1
    71          2
    73          3
    74          5
    75          5
    76          4
    77         21
    78          8
    79          7
    80          4
    81          1
    82          1
    84          1
    85          2
    86          3
    87          3
    88          2
    89         64
    90         29
    91        999
    92        216
    93         16
    94          2
    95          2
    96          1
    97          1
   103          1
   104          4
   105          5
   106          3
   107         11
   108         12
   109          2
   110          1
   111          3
   117          1
   118          8
   119          5
   120          9
   121          4
   122          2
   123          2
   124          1
   132          1
   134         40
   135         23
   136          2
   138          1
   139         28
   140          5
   141          1
   142          1
   155        182
   156         22
   157         21
   158          2
   159          1
   197          1
   198         25
   199        356
   200         37
   201         16
   202          2