##TITLE=Library Entry 46796
##JCAMP-DX=Revision 4.10 
##DATA TYPE=MASS SPECTRUM
##SAMPLE DESCRIPTION=NIST Mass Spectrometry Data Center, 1990.
##NAMES=HP
##CAS NAME=Benzene, (ethylsulfonyl)-
##MOLFORM=C8H10O2S
##CAS REGISTRY NO=599-70-2
##MP= -300
##BP= -300
##MW= 170
##$RETENTION INDEX=0
##$CONDENSED SPECTRUM=NO
##NPOINTS= 55
##XYDATA=(XY..XY) 1 
    18          2
    26         31
    27        159
    28         31
    29        193
    30          4
    37          6
    38         17
    39         60
    44          3
    45         18
    48          8
    49         13
    50        177
    51        513
    52         41
    53         16
    58          5
    61          6
    62          8
    63         18
    64          7
    65         66
    66         41
    69         14
    70          4
    73         12
    74         46
    75         30
    76          4
    77        999
    78        711
    79         53
    81          6
    82          7
    91         54
    92         10
    94        562
    95         45
    96          6
    97         39
   103          3
   105          5
   108          4
   109          6
   110          2
   125         64
   126         14
   141        215
   142        154
   143         20
   144          7
   170        278
   171         28
   172         13