##TITLE=Library Entry 7755
##JCAMP-DX=Revision 4.10 
##DATA TYPE=MASS SPECTRUM
##SAMPLE DESCRIPTION=J. Klune, Insect Chem. Ecol. Lab., USDA, Beltsville, MD
 20705
##NAMES=HP
##CAS NAME=erythro-9,10-Dibromopentacosane
##MOLFORM=C25H50Br2
##CAS REGISTRY NO=59907-02-7
##MP= -300
##BP= -300
##MW= 508
##$RETENTION INDEX=0
##$CONDENSED SPECTRUM=NO
##NPOINTS= 140
##XYDATA=(XY..XY) 1 
    41        488
    42        131
    43        999
    44         36
    51          3
    53         45
    54        128
    55        708
    56        166
    57        904
    58         42
    63          3
    65         20
    66         16
    67        277
    68         95
    69        656
    70        123
    71        509
    72         26
    77         16
    78          3
    79         72
    80         34
    81        280
    82        133
    83        685
    84         83
    85        343
    86         25
    91         15
    93         25
    94         10
    95        208
    96         89
    97        683
    98         66
    99        118
   100          4
   101          6
   107         12
   109        115
   110         38
   111        411
   112         43
   113         68
   114          4
   115          5
   119         13
   121         22
   123         62
   124         22
   125        214
   126         26
   127         49
   128          3
   133         12
   135         21
   137         42
   138         21
   139        102
   140         17
   141         37
   147          3
   149         11
   151         19
   152         12
   153         63
   154          5
   155         43
   157          4
   163          9
   165         14
   166          7
   167         45
   168          4
   169         31
   171          3
   177          9
   179         11
   180          3
   181         31
   182          3
   183         19
   191          8
   193         13
   194          8
   195         25
   197         17
   205          8
   207         15
   208          7
   209         22
   210          3
   211         18
   221          9
   222          7
   223         16
   225         14
   227          3
   233          3
   235          8
   237         13
   239         10
   247          8
   249          8
   251         13
   253         11
   261         10
   263         10
   264          7
   265         11
   266          6
   267          4
   268          6
   275          3
   277          7
   279          9
   291          4
   293          7
   298          3
   305          3
   317          9
   319          3
   320          4
   331          7
   333          8
   347          9
   348         12
   349         52
   350         41
   351         11
   429        231
   430         61
   431        228
   432         60
   433          8
   508          3
   510          6
   512          3