##TITLE=Library Entry 5795
##JCAMP-DX=Revision 4.10 
##DATA TYPE=MASS SPECTRUM
##SAMPLE DESCRIPTION=T. KOJIMA, DEP. CHEM., NATL. DEF. ACAD., YOKOSUKA-SHI,
 JAPAN
##NAMES=HP
##CAS NAME=2,4,6,8-Tetramethyl-1-undecene
##MOLFORM=C15H30
##CAS REGISTRY NO=59920-26-2
##MP= -300
##BP= -300
##MW= 210
##$RETENTION INDEX=1285
##$CONDENSED SPECTRUM=NO
##NPOINTS= 24
##XYDATA=(XY..XY) 1 
    27        530
    28        540
    29        600
    39        230
    41        750
    42        200
    43        999
    44        120
    53         60
    55        400
    56        180
    57        360
    68        130
    69        300
    70        170
    71        160
    83        120
    84        110
    85        100
    97         10
    98         10
    99         10
   111         10
   112         10