##TITLE=Library Entry 8220
##JCAMP-DX=Revision 4.10 
##DATA TYPE=MASS SPECTRUM
##SAMPLE DESCRIPTION=Chemical Concepts
##NAMES=HP
##CAS NAME=d-Mannitol, 1-O-ethyl-, pentaacetate
##MOLFORM=C18H28O11
##CAS REGISTRY NO=59921-39-0
##MP= -300
##BP= -300
##MW= 420
##$RETENTION INDEX=0
##$CONDENSED SPECTRUM=NO
##NPOINTS= 198
##XYDATA=(XY..XY) 1 
    27         10
    28          0
    29         30
    30          0
    31         71
    39          2
    40          0
    41          8
    42          9
    43        999
    44         19
    45          7
    46          0
    47          1
    51          0
    53          1
    54          0
    55          7
    56          2
    57          9
    58          3
    59        131
    60          7
    61         13
    62          0
    65          0
    66          0
    67          1
    68          5
    69         18
    70          6
    71          4
    72          0
    73         26
    74          1
    75          1
    77          0
    78          0
    79          0
    80          2
    81         11
    82          4
    83          5
    84          2
    85         20
    86         14
    87          5
    88          3
    89          8
    90          0
    91          0
    93          1
    94          2
    95          3
    96          2
    97         26
    98         32
    99         11
   100          1
   101        125
   102         12
   103         26
   104          0
   105          0
   109          2
   110          8
   111         16
   112         13
   113          9
   114          5
   115         72
   116          8
   117          1
   118          0
   119          4
   120          0
   121          0
   122          0
   123          1
   124          1
   125          3
   126          2
   127         13
   128         15
   129          3
   130          1
   131         20
   132          1
   133          0
   135          0
   136          0
   137          0
   138          7
   139         54
   140         15
   141          4
   142          2
   143         94
   144         10
   145         29
   146          2
   147          0
   150          0
   151          0
   152          3
   153         12
   154          6
   155          6
   156         21
   157         46
   158         10
   159          1
   160          0
   161          7
   162          0
   163          0
   164          0
   165          0
   166          0
   167          0
   168          0
   169          2
   170          7
   171          3
   172          0
   173         18
   174          2
   175          1
   176          0
   180          2
   181          1
   182          1
   183          0
   184          1
   185          8
   186          1
   187         10
   188          0
   191          0
   192          0
   193          0
   194          0
   195          0
   196          1
   197         12
   198         34
   199         13
   200          9
   201          1
   203          2
   204          0
   208          0
   211          0
   212          1
   213          0
   214          1
   215          2
   216          2
   217          6
   218          0
   227          2
   228          0
   229          0
   230          0
   231          1
   240          3
   241          1
   242          9
   243          1
   245          3
   246          0
   256          0
   257          1
   258         12
   259         16
   260          2
   261          0
   273          2
   274          0
   275          2
   276          0
   289          1
   300         10
   301          1
   302          0
   303          1
   316          1
   317          1
   318          0
   333          1
   334          0
   347          1
   348          0
   361          2
   362          0
   375          1
   376          0
   405          0