##TITLE=Library Entry 22042
##JCAMP-DX=Revision 4.10 
##DATA TYPE=MASS SPECTRUM
##SAMPLE DESCRIPTION=V.Zaikin,Topchiev Inst.Petrochem.Synth.,Moscow
##NAMES=HP
##CAS NAME=Acetic acid, bromo-, 2-methylpropyl ester
##MOLFORM=C6H11BrO2
##CAS REGISTRY NO=59956-48-8
##MP= -300
##BP= -300
##MW= 194
##$RETENTION INDEX=1021
##$CONDENSED SPECTRUM=NO
##NPOINTS= 51
##XYDATA=(XY..XY) 1 
    26          9
    27         60
    28         18
    29        108
    30          5
    31         13
    35          2
    36         15
    37          2
    38          6
    39         65
    40         14
    41        244
    42        116
    43        170
    44          2
    45          3
    49          1
    54          2
    55         38
    56        999
    57        237
    58          9
    59          8
    60          2
    69         10
    71         32
    72         47
    73         31
    74          1
    82          5
    91          1
    92          3
    93         48
    94          6
    95         47
    96          3
    97          2
   115          3
   120          6
   121        158
   122          9
   123        154
   124          3
   139          4
   141          3
   151         16
   152          5
   153         17
   154          5
   155          2