##TITLE=Library Entry 69708
##JCAMP-DX=Revision 4.10 
##DATA TYPE=MASS SPECTRUM
##SAMPLE DESCRIPTION=F. TURECEK,HEYROVSKY INST PHYS CHEM & ELECTROCHEM,PRAGU
E,CZECH
##NAMES=HP
##CAS NAME=trans-2-Oxabicyclo[4.4.0]decane
##MOLFORM=C9H16O
##CAS REGISTRY NO=59958-46-2
##MP= -300
##BP= -300
##MW= 140
##$RETENTION INDEX=0
##$CONDENSED SPECTRUM=NO
##NPOINTS= 58
##XYDATA=(XY..XY) 1 
    26         10
    27        110
    29         80
    31         10
    38         10
    39        130
    40         20
    41        290
    42         40
    43         60
    44         10
    45          7
    50          7
    51         20
    52         10
    53         50
    54         60
    55        120
    56         40
    57         30
    58          4
    63          4
    65         10
    66         10
    67        150
    68         50
    69        120
    70         20
    71         30
    77         20
    78         10
    79         80
    80         20
    81         70
    82         30
    83         50
    84         30
    85          4
    91         10
    93         20
    94         10
    95         20
    96         10
    97        999
    98         70
    99         10
   105          6
   106          3
   107          4
   109          6
   110          4
   111         10
   112          3
   121          5
   123          5
   139         40
   140        250
   141         30