##TITLE=Library Entry 98320
##JCAMP-DX=Revision 4.10 
##DATA TYPE=MASS SPECTRUM
##SAMPLE DESCRIPTION=V.Zaikin,Topchiev Inst.Petrochem.Synth.,Moscow
##NAMES=HP
##CAS NAME=Bromoacetic acid, 3-phenylpropyl ester
##MOLFORM=C11H13BrO2
##CAS REGISTRY NO=59956-66-0
##MP= -300
##BP= -300
##MW= 256
##$RETENTION INDEX=0
##$CONDENSED SPECTRUM=NO
##NPOINTS= 92
##XYDATA=(XY..XY) 1 
    22          2
    25          2
    26         13
    27         18
    28          3
    29          9
    30          2
    31          4
    35          4
    36         37
    37          2
    38         12
    39         44
    40          5
    41         31
    42         28
    43         24
    44          3
    45          3
    49          3
    50         21
    51         51
    52         25
    53          7
    54          1
    55          5
    56          2
    57          8
    58          4
    60          2
    61          1
    62          5
    63         24
    64          7
    65         75
    66          9
    67          3
    69          2
    70          1
    71          3
    73          3
    74          5
    75          6
    76          7
    77         70
    78         59
    79         53
    80         37
    81         16
    82         35
    83          2
    86          2
    87          2
    89         22
    90         13
    91        455
    92         69
    93         28
    94          4
    95         27
    96          4
   101          1
   102          8
   103         57
   104         41
   105         76
   106          7
   107          6
   115         42
   116         12
   117        658
   118        999
   119        106
   120          5
   121         37
   122          2
   123         37
   129          1
   131          2
   133          4
   134          6
   135          3
   136          1
   138          1
   140          1
   169          1
   179          1
   181          1
   191          2
   193          1
   198          3
   200          2