##TITLE=Library Entry 97598
##JCAMP-DX=Revision 4.10 
##DATA TYPE=MASS SPECTRUM
##SAMPLE DESCRIPTION=Japan AIST/NIMC Database- Spectrum MS-IW-5018
##NAMES=HP
##CAS NAME=N,N'-(Oxybis(methyleneoxy-p-phenylenetrimethylene))diacetamide
##MOLFORM=C24H32N2O5
##CAS REGISTRY NO=5996-53-2
##MP= -300
##BP= -300
##MW= 428
##$RETENTION INDEX=0
##$CONDENSED SPECTRUM=NO
##NPOINTS= 202
##XYDATA=(XY..XY) 1 
    14          4
    15          5
    16          1
    25          3
    26         22
    27         28
    28        140
    29         49
    30        496
    31         28
    32          2
    37          1
    38         10
    39         40
    40         48
    41        120
    42         34
    43        182
    44        117
    45         28
    46          1
    49          1
    50         12
    51         29
    52         17
    53         12
    54          7
    55         21
    56         22
    57         14
    58         12
    59          4
    60         40
    61          2
    62          4
    63         15
    64          6
    65         30
    66         10
    67          6
    68          6
    69          4
    70          3
    71          5
    72        377
    73        247
    74         13
    75          5
    76          8
    77         82
    78         57
    79         42
    80          6
    81          4
    82          2
    83          3
    84          6
    85          5
    86         67
    87          8
    88          9
    89         30
    90         62
    91        174
    92         27
    93         17
    94         11
    95          7
    96          2
    97          3
    98          3
    99          6
   100         17
   101          5
   102         12
   103         71
   104         69
   105         77
   106         79
   107        241
   108         37
   109          3
   110          1
   111          1
   112          1
   113          2
   114          2
   115        107
   116         49
   117        999
   118        122
   119         60
   120         55
   121        325
   122         37
   123          4
   125          1
   127          2
   128          9
   129        114
   130         38
   131         30
   132         50
   133        416
   134        239
   135         49
   136          9
   137          1
   139          1
   141          2
   142          1
   143          2
   144          4
   145         28
   146        143
   147        516
   148         85
   149         13
   150          9
   151          2
   152          7
   153          1
   154          1
   155          1
   156          1
   157          1
   158          3
   159          3
   160          7
   161          3
   162         28
   163         14
   164         49
   165          7
   166          1
   167          1
   171          1
   172          1
   173          5
   174          4
   175         15
   176         32
   177          7
   178          3
   179          1
   180          2
   181          1
   186          1
   187          1
   188         73
   189         12
   190         39
   191          7
   192        124
   193         62
   194        312
   195         39
   196          4
   197          1
   202          1
   203          2
   204        112
   205         37
   206        397
   207         62
   208          7
   209          1
   220          1
   221          1
   222          3
   223          1
   224          1
   232        145
   233         22
   234          3
   235         14
   236        164
   237         24
   238          3
   239          2
   253          1
   267          2
   284         22
   285          5
   296          1
   298          1
   308          1
   309          1
   310          1
   313          3
   314          1
   326        124
   327         28
   328          4
   339          1
   355          1
   356          2
   398         36
   399          9
   400          1
   428         15
   429          5