##TITLE=Library Entry 37948
##JCAMP-DX=Revision 4.10 
##DATA TYPE=MASS SPECTRUM
##SAMPLE DESCRIPTION=V.G.Zaikin,TIPS,Russian Acad.Sci.Moscow
##NAMES=HP
##CAS NAME=4-Trifluoromethylbenzoic acid, 2-ethylhexyl ester
##MOLFORM=C16H21F3O2
##CAS REGISTRY NO=59986-40-2
##MP= -300
##BP= -300
##MW= 302
##$RETENTION INDEX=0
##$CONDENSED SPECTRUM=NO
##NPOINTS= 72
##XYDATA=(XY..XY) 1 
    26         12
    27        195
    28         29
    29        318
    30         29
    31         13
    37          6
    38          7
    39        125
    40         17
    41        515
    42        152
    43        339
    44         29
    45          9
    50         41
    51         31
    52          7
    53         41
    54         43
    55        449
    56        355
    57        599
    58         25
    59          7
    62          6
    63         11
    65          6
    67         25
    68         27
    69        157
    70        999
    71        155
    72          9
    74         13
    75         61
    76         25
    77         13
    81         11
    82         45
    83        248
    84        129
    85         12
    95         69
    96          7
    97         22
    98          6
    99         12
   100          6
   111          7
   112        401
   113         32
   119          6
   125         39
   126         49
   127         12
   135         11
   143         12
   144         12
   145        375
   146         35
   171         15
   172          9
   173        731
   174         67
   190         16
   191         45
   192          6
   203         15
   204          7
   283         35
   284          7