##TITLE=Library Entry 54640
##JCAMP-DX=Revision 4.10 
##DATA TYPE=MASS SPECTRUM
##SAMPLE DESCRIPTION=Chuck Anderson, Aldrich Chemical Co.
##NAMES=HP
##CAS NAME=(S)-(-)-1-Amino-2-(methoxymethyl)-pyrrolidine
##MOLFORM=C6H14N2O
##CAS REGISTRY NO=59983-39-0
##MP= -300
##BP= -300
##MW= 130
##$RETENTION INDEX=0
##$CONDENSED SPECTRUM=NO
##NPOINTS= 43
##XYDATA=(XY..XY) 1 
    15         22
    17          3
    18         19
    26          7
    27         46
    28         54
    29         59
    30         44
    31         18
    32          2
    33          1
    38          2
    39         43
    40          6
    41        175
    42         30
    43        101
    44         21
    45         69
    51          1
    52          1
    53          9
    54          8
    55         24
    56         24
    57         35
    58          7
    67          8
    68        141
    69         13
    70          7
    71         16
    80          2
    82          3
    83         15
    84          0
    85        999
    86         39
    87          0
    97          4
    98          1
   130         23
   131          0