##TITLE=Library Entry 37841
##JCAMP-DX=Revision 4.10 
##DATA TYPE=MASS SPECTRUM
##SAMPLE DESCRIPTION=V.Zaikin,Inst.Petrochem.Synth.,RAS,Moscow
##NAMES=HP
##CAS NAME=2-Chlorobenzoic acid, 2-ethylhexyl ester
##MOLFORM=C15H21ClO2
##CAS REGISTRY NO=59986-39-9
##MP= -300
##BP= -300
##MW= 268
##$RETENTION INDEX=0
##$CONDENSED SPECTRUM=NO
##NPOINTS= 100
##XYDATA=(XY..XY) 1 
    25          7
    26         10
    27         89
    28         25
    29        149
    30          3
    39         73
    40         22
    41        278
    42         75
    43        171
    44          5
    50         62
    51         44
    52         11
    53         27
    54         31
    55        258
    56        217
    57        237
    58         14
    59          7
    60          4
    61          7
    62          4
    63         15
    64          4
    65         13
    66          3
    67         18
    68         20
    69        116
    70        999
    71        171
    72         15
    73         10
    74         27
    75        152
    76         64
    77         49
    78          6
    79         13
    80          3
    81          4
    82         27
    83        251
    84        129
    85         28
    86          3
    87          9
    88          2
    89          3
    91         15
    92          6
    93          4
    95          3
    97         18
    98          2
    99          3
   102          2
   103          3
   104         22
   105         23
   110         12
   111        251
   112        505
   113        117
   114          9
   115          2
   117          2
   118          3
   122          3
   125          4
   126          2
   127          2
   128          3
   129          2
   131          2
   135         18
   136          5
   137          2
   138          6
   139        892
   140         84
   141        298
   142         22
   147          2
   152          3
   155          2
   156         61
   157        222
   158         37
   159         62
   160          8
   168          2
   169         29
   170         10
   171         13
   172          2
   184          2