##TITLE=Library Entry 50527
##JCAMP-DX=Revision 4.10 
##DATA TYPE=MASS SPECTRUM
##SAMPLE DESCRIPTION=V.G.Zaikin, TIPS, Russian Acad. Sci.
##NAMES=HP
##CAS NAME=1-Cyclohexyl-2-cyclohexylidenethane
##MOLFORM=C14H24
##CAS REGISTRY NO=59986-23-1
##MP= -300
##BP= -300
##MW= 192
##$RETENTION INDEX=0
##$CONDENSED SPECTRUM=NO
##NPOINTS= 39
##XYDATA=(XY..XY) 1 
    39        192
    41        534
    42         48
    43        132
    53        132
    54        162
    55        660
    56         48
    57         24
    65         54
    66         60
    67        648
    68        300
    69        102
    77         90
    78         42
    79        162
    80         78
    81        999
    82        183
    83         96
    84         12
    91         60
    92         21
    93         66
    94         54
    95        204
    96        978
    97        636
    98         54
   108         27
   109         96
   110         60
   111         18
   121         36
   122         12
   192        150
   193         23
   194          2