##TITLE=Library Entry 23272
##JCAMP-DX=Revision 4.10 
##DATA TYPE=MASS SPECTRUM
##SAMPLE DESCRIPTION=Japan AIST/NIMC Database- Spectrum MS-IW-2678
##NAMES=HP
##CAS NAME=4,4-Dimethyl-3-oxopentanenitrile
##MOLFORM=C7H11NO
##CAS REGISTRY NO=59997-51-2
##MP= -300
##BP= -300
##MW= 125
##$RETENTION INDEX=0
##$CONDENSED SPECTRUM=NO
##NPOINTS= 43
##XYDATA=(XY..XY) 1 
    14          2
    15          9
    26          7
    27         63
    28         20
    29        379
    30          9
    31          1
    37          5
    38         12
    39        133
    40         87
    41        613
    42         47
    43         11
    49          1
    50          7
    51          9
    52          4
    53         13
    54          9
    55         63
    56         17
    57        999
    58         54
    59          1
    63          1
    64          1
    65          3
    66          2
    67          5
    68         89
    69         81
    70          9
    82         40
    83          5
    85         24
    86          1
    92          2
    97        108
    98          7
   110          9
   125          4