##TITLE=Library Entry 77895
##JCAMP-DX=Revision 4.10 
##DATA TYPE=MASS SPECTRUM
##SAMPLE DESCRIPTION=L.F.ZERILLI, DOW-LEFETIT, VIA DURANDO 38, 20158 MILAN,
 If
##NAMES=HP
##CAS NAME=7,14-Dichlorodiftalone
##MOLFORM=C16H10Cl2N2O2
##CAS REGISTRY NO=59997-29-4
##MP= -300
##BP= -300
##MW= 332
##$RETENTION INDEX=0
##$CONDENSED SPECTRUM=NO
##NPOINTS= 60
##XYDATA=(XY..XY) 1 
    27         20
    28        120
    35         80
    36        475
    37         20
    38        160
    39         60
    50        180
    51        140
    52         40
    62         40
    63        120
    64         20
    74         40
    75        140
    76        779
    77        300
    78         40
    89        300
    90        100
   102        539
   103        440
   104        999
   105        160
   130        666
   131        260
   132        555
   133        100
   134         20
   151         80
   152        100
   159         40
   166         80
   176         80
   177        100
   178        100
   179         20
   204         60
   205        160
   206        120
   207         40
   219         40
   220         80
   233        420
   234        300
   235        140
   247        100
   248         40
   259         80
   260        340
   261        879
   262        699
   263        160
   278         40
   296         60
   297        659
   298        140
   299        220
   300         40
   332         40