##TITLE=Library Entry 4643
##JCAMP-DX=Revision 4.10 
##DATA TYPE=MASS SPECTRUM
##SAMPLE DESCRIPTION=Japan AIST/NIMC Database- Spectrum MS-NW-4134
##NAMES=HP
##CAS NAME=Ethylenediaminetetraacetic acid
##MOLFORM=C10H16N2O8
##CAS REGISTRY NO=60-00-4
##MP= -300
##BP= -300
##MW= 292
##$RETENTION INDEX=0
##$CONDENSED SPECTRUM=NO
##NPOINTS= 212
##XYDATA=(XY..XY) 1 
    12         13
    13          4
    14         26
    15        153
    16         39
    17         54
    18        200
    25          2
    26         18
    27         65
    28        393
    29         47
    30         85
    31         55
    32          3
    34          1
    36          2
    37          1
    38          6
    39         20
    40         30
    41        132
    42        999
    43        154
    44        759
    45         47
    46          5
    48          1
    49         10
    50          2
    51          3
    52          7
    53          8
    54         40
    55         62
    56        463
    57        140
    58        396
    59         29
    60         95
    61          3
    62          2
    63          8
    64          1
    65          2
    66          3
    67          7
    68         20
    69         30
    70        127
    71         56
    72         35
    73          9
    74         60
    75          3
    76          1
    77          2
    78          2
    79          3
    80          7
    81          8
    82         16
    83         30
    84         38
    85         37
    86         87
    87         14
    88        494
    89         20
    90          4
    91          3
    92          2
    93          2
    94          5
    95          9
    96          8
    97         31
    98         35
    99        132
   100         67
   101        160
   102        277
   103         18
   104          4
   105          2
   106          2
   107          2
   108          4
   109          6
   110          6
   111         17
   112          9
   113         35
   114        161
   115         42
   116         13
   117          3
   118         25
   119          3
   120          3
   121          3
   122          3
   123          4
   124          4
   125          9
   126          8
   127        121
   128        177
   129         27
   130          8
   131          8
   132         19
   133          3
   134          3
   135          3
   136          2
   137          4
   138          5
   139          9
   140         12
   141         23
   142         43
   143        256
   144         25
   145          8
   146        723
   147         49
   148          9
   149          3
   150          2
   151          4
   152          3
   153          3
   154          4
   155          4
   156          4
   157         30
   158          7
   159         31
   160         31
   161          4
   162          1
   163          2
   164          2
   165          2
   166          3
   167          2
   168          2
   169          3
   170         10
   171        411
   172        111
   173         13
   174          2
   175          2
   176          2
   177          1
   178          2
   179          1
   180          2
   181          2
   182          1
   183          4
   184          9
   185          6
   186          6
   187         40
   188          5
   189          2
   190          1
   191          1
   193          1
   194          1
   195          1
   196          1
   197          1
   198          4
   199          2
   200          3
   201          3
   202          2
   203          2
   204          2
   205          1
   208          1
   209          1
   210          1
   211          1
   212          1
   214          1
   215          4
   216         12
   217          2
   218          1
   226          1
   228          2
   229          9
   230          6
   231          1
   232          1
   233          2
   240          1
   243          1
   246          4
   247          8
   248          2
   256          4
   257          1
   274         10
   275          2
   292          6
   293          1