##TITLE=Library Entry 65065
##JCAMP-DX=Revision 4.10 
##DATA TYPE=MASS SPECTRUM
##SAMPLE DESCRIPTION=NIST Mass Spectrometry Data Center, 1990.
##NAMES=HP
##CAS NAME=Benzenamine, 4-(phenylazo)-
##MOLFORM=C12H11N3
##CAS REGISTRY NO=60-09-3
##MP= -300
##BP= -300
##MW= 197
##$RETENTION INDEX=0
##$CONDENSED SPECTRUM=NO
##NPOINTS= 79
##XYDATA=(XY..XY) 1 
    14          1
    15          2
    16          1
    26          5
    27         19
    28         36
    29          4
    30          2
    37         11
    38         36
    39        133
    40         13
    41         29
    42         11
    44          1
    46          1
    49          4
    50         46
    51        172
    52         69
    53         25
    54         13
    55          2
    61          5
    62         17
    63         51
    64         63
    65        419
    66         57
    67          4
    73          1
    74          9
    75          8
    76          1
    77        250
    78         28
    79         14
    80          4
    87          1
    88          2
    89          5
    90         12
    91          1
    92        999
    93         85
    94          2
    98          3
   102          4
   103          3
   105         22
   106          5
   108          1
   114          2
   115         19
   116          3
   117          2
   120        332
   121         23
   126          1
   127          4
   128          4
   130          2
   139          7
   140          6
   141         14
   142          2
   143          1
   150          1
   151          7
   152          8
   153          2
   154          1
   166          7
   167         28
   168          9
   169          4
   197        401
   198         57
   199          3