##TITLE=Library Entry 83988
##JCAMP-DX=Revision 4.10 
##DATA TYPE=MASS SPECTRUM
##SAMPLE DESCRIPTION=Japan AIST/NIMC Database- Spectrum MS-NW-2550
##NAMES=HP
##CAS NAME=Tyrosine
##MOLFORM=C9H11NO3
##CAS REGISTRY NO=60-18-4
##MP= -300
##BP= -300
##MW= 181
##$RETENTION INDEX=0
##$CONDENSED SPECTRUM=NO
##NPOINTS= 79
##XYDATA=(XY..XY) 1 
    15          2
    16          1
    17          3
    18         10
    26          2
    27         12
    28         42
    29          7
    30         10
    37          1
    38          4
    39         23
    40          3
    41          4
    42          9
    43         12
    44          9
    45          3
    46          9
    50          7
    51         18
    52         11
    53         15
    54          3
    55          8
    56          2
    57          8
    58          3
    59          2
    61          1
    62          3
    63          9
    64          2
    65         13
    66          3
    67          7
    68         13
    74         45
    75         10
    76          2
    77         75
    78         19
    79         16
    80          6
    81          4
    84          1
    89          5
    90          5
    91         45
    92          5
    93          1
    94          6
    95          1
   104          2
   105          3
   106         12
   107        999
   108        128
   109          9
   116          2
   117          4
   118          6
   119         10
   120          9
   121          1
   132          2
   133          6
   134         11
   135         22
   136         35
   137          3
   146          1
   147          2
   148          1
   162          2
   163          7
   164          2
   181         29
   182          2