##TITLE=Library Entry 951
##JCAMP-DX=Revision 4.10 
##DATA TYPE=MASS SPECTRUM
##SAMPLE DESCRIPTION=NIST Mass Spectrometry Data Center
##NAMES=HP
##CAS NAME=Mercaptamine
##MOLFORM=C2H7NS
##CAS REGISTRY NO=60-23-1
##MP= -300
##BP= -300
##MW= 77
##$RETENTION INDEX=0
##$CONDENSED SPECTRUM=NO
##NPOINTS= 26
##XYDATA=(XY..XY) 1 
    26          8
    27         35
    29         13
    30        999
    31         23
    32         15
    33         12
    34          8
    39          9
    40         18
    41         50
    42        136
    43         86
    44         54
    45        124
    46         38
    47         86
    48         23
    49          9
    57         21
    58         43
    59        126
    60         29
    61         12
    76          9
    77         62