##TITLE=Library Entry 1049
##JCAMP-DX=Revision 4.10 
##DATA TYPE=MASS SPECTRUM
##SAMPLE DESCRIPTION=James Little,Eastman Chem.Co.,Kingsport,TN
##NAMES=HP
##CAS NAME=Aminocaproic acid
##MOLFORM=C6H13NO2
##CAS REGISTRY NO=60-32-2
##MP= -300
##BP= -300
##MW= 131
##$RETENTION INDEX=0
##$CONDENSED SPECTRUM=NO
##NPOINTS= 32
##XYDATA=(XY..XY) 1 
    27         61
    28         46
    29         38
    30        999
    31         31
    39         45
    41         68
    42         39
    43         31
    44         34
    45        140
    54          9
    55         48
    56         34
    59         29
    60         13
    67         20
    69         18
    70          6
    72         80
    73         19
    74          3
    83          3
    84          9
    85          3
    86         13
    95          2
   112          4
   114         12
   130          2
   131         15
   132         14