##TITLE=Library Entry 17851
##JCAMP-DX=Revision 4.10 
##DATA TYPE=MASS SPECTRUM
##SAMPLE DESCRIPTION=Chemical Concepts
##NAMES=HP
##CAS NAME=Hydrazine, methyl-
##MOLFORM=CH6N2
##CAS REGISTRY NO=60-34-4
##MP= -300
##BP= -300
##MW= 46
##$RETENTION INDEX=1479
##$CONDENSED SPECTRUM=NO
##NPOINTS= 18
##XYDATA=(XY..XY) 1 
    27         63
    28        726
    29        215
    30        188
    31        632
    35          0
    36          4
    38          1
    39          2
    40          8
    41          9
    42         42
    43         77
    44         46
    45        709
    46        999
    47         26
    48          0