##TITLE=Library Entry 32846
##JCAMP-DX=Revision 4.10 
##DATA TYPE=MASS SPECTRUM
##SAMPLE DESCRIPTION=Japan AIST/NIMC Database- Spectrum MS-NW- 623
##NAMES=HP
##CAS NAME=9,12-Octadecadienoic acid (Z,Z)-
##MOLFORM=C18H32O2
##CAS REGISTRY NO=60-33-3
##MP= -300
##BP= -300
##MW= 280
##$RETENTION INDEX=2133
##$CONDENSED SPECTRUM=NO
##NPOINTS= 207
##XYDATA=(XY..XY) 1 
    15          5
    17          2
    18         11
    26          5
    27        110
    28         24
    29        209
    30          5
    31         10
    38          2
    39        106
    40         18
    41        541
    42         51
    43        192
    44          6
    45         37
    46          1
    47          1
    50          2
    51         10
    52          9
    53         90
    54        449
    55        595
    56         73
    57         94
    58          5
    59         17
    60         59
    61          7
    63          3
    64          1
    65         42
    66         66
    67        999
    68        602
    69        359
    70         59
    71         44
    72          3
    73         54
    74          9
    75          1
    77         73
    78         25
    79        226
    80        176
    81        878
    82        730
    83        236
    84         57
    85         32
    86          4
    87         22
    88          2
    89          1
    91         60
    92         13
    93        104
    94        116
    95        627
    96        547
    97        161
    98         49
    99         16
   100          9
   101         26
   102          3
   103          2
   104          3
   105         19
   106         11
   107         62
   108         89
   109        294
   110        321
   111         76
   112         17
   113         16
   114         16
   115         15
   116          4
   117          6
   118          3
   119         15
   120         11
   121         58
   122         77
   123        140
   124        168
   125         34
   126         26
   127         25
   128          6
   129         13
   130          2
   131         10
   132          5
   133         19
   134          9
   135         49
   136         68
   137         88
   138         87
   139         20
   140         34
   141         12
   142          3
   143          5
   144          1
   145          7
   146          3
   147         12
   148          6
   149         39
   150         58
   151         56
   152         37
   153         22
   154         31
   155          8
   156          1
   157          4
   158          1
   159          6
   160          2
   161          6
   162          2
   163         18
   164         29
   165         27
   166         18
   167         28
   168         39
   169          7
   170          1
   171          4
   172          1
   173          8
   174          2
   175          3
   176          1
   177         10
   178         14
   179         15
   180         11
   181         25
   182         49
   183          8
   184          1
   185          3
   186          1
   187          6
   188          1
   189          2
   191          7
   192          5
   193          8
   194          5
   195         23
   196         36
   197          6
   198          1
   199          2
   201          2
   203          1
   205          4
   206          3
   207          5
   208          3
   209         20
   210         21
   211          3
   213          3
   218          1
   219          2
   220         16
   221          6
   222          7
   223         16
   224          9
   225          2
   233          1
   234          4
   235          3
   236          3
   237          9
   238          4
   239          1
   246          2
   251          7
   252          3
   256          8
   257          1
   262         11
   263          9
   264         26
   265          8
   266          1
   276          1
   278          7
   279          4
   280        354
   281         71
   282         16
   283          2