##TITLE=Library Entry 48926
##JCAMP-DX=Revision 4.10 
##DATA TYPE=MASS SPECTRUM
##SAMPLE DESCRIPTION=NIST Mass Spectrometry Data Center, 1990.
##NAMES=HP
##CAS NAME=Dieldrin
##MOLFORM=C12H8Cl6O
##CAS REGISTRY NO=60-57-1
##MP= -300
##BP= -300
##MW= 378
##$RETENTION INDEX=2167
##$CONDENSED SPECTRUM=NO
##NPOINTS= 140
##XYDATA=(XY..XY) 1 
    27         67
    29         58
    38         19
    39        119
    40         22
    41         19
    50         41
    51         87
    52         37
    53        110
    54         53
    55         27
    57         19
    61         24
    62         33
    63         54
    65         37
    66         44
    67         21
    69         15
    73         55
    74         47
    75         54
    77        267
    79        999
    80        126
    81        363
    82        327
    83         37
    84         28
    85         51
    86         51
    87         34
    88         13
    89         22
    91         28
    96         27
    97         39
    98         37
    99         38
   101         23
   106         18
   107        130
   108        153
   109         60
   110         27
   111         25
   113         46
   115         26
   117         26
   119         29
   120         27
   121         33
   122         15
   123         18
   125         18
   130         20
   131         24
   132         19
   133         35
   135         22
   137         24
   138         22
   139         32
   141         30
   143         45
   145         29
   147         36
   149         36
   165         18
   167         32
   169         28
   170         24
   171         21
   172         21
   173         53
   174         19
   175         33
   181         20
   183         30
   191         46
   193         51
   195         25
   201         22
   203         32
   204         24
   205         24
   206         23
   207         37
   208         20
   209         49
   211         17
   216         21
   217         29
   218         17
   219         31
   229         15
   230         25
   235         70
   236         32
   237        110
   238         32
   239         80
   240         21
   241         42
   242         17
   243         90
   244         26
   245         76
   246         24
   247         31
   251         21
   253         20
   255         29
   257         20
   261        125
   263        202
   264         24
   265        140
   266         21
   267         50
   270         18
   272         31
   273         21
   274         25
   275         81
   276         20
   277        151
   278         25
   279        148
   280         24
   281         73
   283         24
   309         14
   343         33
   345         60
   347         37
   378         27
   380         46
   382         42