##TITLE=Library Entry 90941
##JCAMP-DX=Revision 4.10 
##DATA TYPE=MASS SPECTRUM
##SAMPLE DESCRIPTION=Japan AIST/NIMC Database- Spectrum MS-NW-7239
##NAMES=HP
##CAS NAME=2H-Imidazole-2-thione, 1,3-dihydro-1-methyl-
##MOLFORM=C4H6N2S
##CAS REGISTRY NO=60-56-0
##MP= -300
##BP= -300
##MW= 114
##$RETENTION INDEX=0
##$CONDENSED SPECTRUM=NO
##NPOINTS= 68
##XYDATA=(XY..XY) 1 
    13          1
    14          3
    15         19
    25          2
    26         14
    27         21
    28         83
    29         12
    30         10
    32          9
    33          3
    34          1
    38          5
    39          8
    40         26
    41         28
    42        138
    43          9
    44         19
    45         51
    46         13
    47          5
    50          1
    51          5
    52         19
    53         11
    54         73
    55         52
    56         41
    57         55
    58         18
    59         41
    60         20
    61          3
    62          1
    66          2
    67          2
    68         23
    69        107
    70         12
    71         13
    72        167
    73         14
    74         14
    75          1
    76          1
    79         12
    80          5
    81         85
    82         14
    83          2
    84          8
    85          4
    86         40
    87          5
    88          2
    97          4
    98          4
    99         21
   100          1
   101          1
   111          2
   112          2
   113        122
   114        999
   115         66
   116         47
   117          3