##TITLE=Library Entry 15630
##JCAMP-DX=Revision 4.10 
##DATA TYPE=MASS SPECTRUM
##SAMPLE DESCRIPTION=Chemical Concepts
##NAMES=HP
##CAS NAME=Tetracycline
##MOLFORM=C22H24N2O8
##CAS REGISTRY NO=60-54-8
##MP= -300
##BP= -300
##MW= 444
##$RETENTION INDEX=0
##$CONDENSED SPECTRUM=NO
##NPOINTS= 375
##XYDATA=(XY..XY) 1 
    41         55
    42        239
    43        139
    44        999
    45        126
    46        594
    47         14
    49          0
    50          3
    51          7
    52          3
    53         13
    54          6
    55         63
    56         37
    57        100
    58        951
    59         37
    60          8
    61          1
    62          1
    63          6
    64          3
    65         16
    66          4
    67         14
    68         29
    69         43
    70         53
    71        157
    72         53
    73          8
    74         35
    75          5
    76          5
    77         19
    78          6
    79         12
    80          5
    81         12
    82         51
    83         14
    84        819
    85        126
    86         23
    87          7
    88          3
    89         10
    90          3
    91         16
    92          5
    93         11
    94         14
    95         10
    96         15
    97         30
    98        215
    99         34
   100         71
   101         11
   102         13
   103         11
   104          4
   105         14
   106          4
   107         20
   108          7
   109          9
   110         15
   111         13
   112         49
   113         15
   114         13
   115         41
   116         12
   117          9
   118          8
   119          8
   120          9
   121         31
   122          7
   123         14
   124         17
   125         14
   126         42
   127         50
   128         32
   129         18
   130          8
   131         14
   132          5
   133         17
   134         12
   135         12
   136          8
   137         13
   138         14
   139         28
   140         20
   141         30
   142         27
   143         18
   144         15
   145         15
   146          6
   147         32
   148         19
   149         12
   150          9
   151         23
   152         54
   153         49
   154         83
   155         26
   156         32
   157         30
   158          8
   159         10
   160          8
   161         28
   162         21
   163        111
   164         35
   165         40
   166         26
   167         15
   168         37
   169         38
   170        187
   171        112
   172         15
   173         22
   174         27
   175         19
   176          9
   177          7
   178          9
   179          7
   180         12
   181         37
   182         23
   183         34
   184          8
   185         22
   186         47
   187         51
   188         38
   189         21
   190         10
   191         11
   192          5
   193          8
   194         30
   195         33
   196         44
   197         32
   198         16
   199         14
   200         18
   201         44
   202         13
   203         13
   204         42
   205         16
   206          3
   207          6
   208         17
   209         23
   210         28
   211         49
   212         31
   213         91
   214         54
   215         45
   216          7
   217         13
   218          6
   219          6
   220          6
   221          6
   222          6
   223         21
   224         17
   225         31
   226         30
   227         28
   228         17
   229         10
   230          5
   231         16
   232          3
   233          3
   234          3
   235          6
   236         10
   237         12
   238         17
   239         53
   240         62
   241         71
   242         36
   243          9
   244          4
   245          3
   246         11
   247          3
   248          2
   249          5
   250         15
   251         16
   252         20
   253         17
   254         14
   255         25
   256         81
   257         37
   258         10
   259          7
   260          2
   261          1
   262          7
   263          9
   264         37
   265         16
   266         34
   267         27
   268         65
   269         27
   270         10
   271          4
   272          3
   273         16
   274          3
   275          5
   276          4
   277          7
   278         11
   279         10
   280         14
   281         29
   282         13
   283          7
   284         22
   285          5
   286         17
   287          5
   288          6
   289          3
   290          5
   291          6
   292         27
   293         14
   294         15
   295         15
   296         34
   297         13
   298          5
   299          2
   300          8
   301          7
   302         13
   303          4
   304          3
   305          4
   306          4
   307          5
   308         27
   309         14
   310         35
   311          9
   312         15
   313         90
   314        101
   315         21
   316          4
   317          1
   318         10
   319         11
   320         50
   321         21
   322         16
   323         10
   324          9
   325         14
   326          9
   327          3
   328          4
   329          3
   330         54
   331         68
   332         17
   333          3
   334          2
   335          7
   336         53
   337         24
   338         70
   339         25
   340         16
   341          9
   342          5
   343          5
   344          1
   345          6
   346          7
   347         10
   348         18
   349          9
   350          5
   351          4
   352          1
   353         24
   354         13
   355         18
   356         10
   357         12
   358          4
   359          1
   360          0
   362          0
   363          9
   364        118
   365         40
   366        100
   367         31
   368          5
   369          2
   370          0
   371         37
   372          6
   373          8
   374          3
   376          0
   378          0
   380          2
   381         46
   382         22
   383         57
   384         78
   385         18
   386          5
   387          0
   390          0
   391         44
   392         27
   393          6
   394         14
   395          3
   398          0
   399         37
   400         42
   401        148
   402         34
   403          6
   407          0
   408         19
   409        128
   410         59
   411         17
   412         11
   413          2
   414          0
   416          1
   418          0
   425          1
   426        307
   427        101
   428         22
   429         15
   430          2
   442          0
   443          1
   444        173
   445         48
   446          8