##TITLE=Library Entry 40301
##JCAMP-DX=Revision 4.10 
##DATA TYPE=MASS SPECTRUM
##SAMPLE DESCRIPTION=Tox21 Consortium/NIST Mass Spectrometry Data Center, 20
12
##NAMES=HP
##CAS NAME=Promethazine
##MOLFORM=C17H20N2S
##CAS REGISTRY NO=60-87-7
##MP= -300
##BP= -300
##MW= 284
##$RETENTION INDEX=2270
##$CONDENSED SPECTRUM=NO
##NPOINTS= 147
##XYDATA=(XY..XY) 1 
    27          1
    28          2
    29          2
    30          1
    39          4
    40          1
    41          3
    42         21
    43          5
    44         19
    45          4
    50          2
    51          5
    52          1
    54          2
    55          3
    56         23
    57         11
    58          4
    62          1
    63          5
    64          1
    65          6
    66          1
    68          1
    69          8
    70         25
    71         15
    72        999
    73         50
    74          2
    75          3
    76          3
    77          8
    78          2
    79          1
    81          1
    82          3
    83          1
    84          2
    85          2
    86          3
    87          1
    88          1
    89          3
    90          2
    91          1
    92          1
    93          2
    94          1
    95          2
    96          1
   100          1
   101          2
   102          2
   103          1
   104          1
   105          1
   106          1
   107          1
   108          5
   109          6
   110          1
   111          1
   113          2
   114          2
   115          4
   116          1
   117          1
   120          1
   121          2
   122          1
   125          1
   126          3
   127          9
   128          6
   129          1
   130          1
   133          1
   134          2
   135          1
   136          1
   137          1
   138          2
   139         13
   140          8
   141          2
   145          2
   146          1
   147          1
   150          2
   151          8
   152         22
   153          8
   154         13
   155          2
   158          1
   159          1
   164          3
   165          2
   166          8
   167          8
   168          2
   169          1
   170          2
   171          7
   172          3
   173          1
   177          2
   178          8
   179         15
   180         57
   181          9
   182          1
   183          4
   184          9
   185          2
   186          1
   191          1
   196          5
   197          8
   198         35
   199          9
   200          2
   204          1
   205          1
   206          1
   208          1
   209          1
   210          5
   211          2
   212         14
   213         24
   214          4
   215          1
   222          1
   223          2
   224          2
   225          1
   236          1
   238          1
   239          1
   240          1
   282          1
   284         35
   285          7
   286          2