##TITLE=Library Entry 56931
##JCAMP-DX=Revision 4.10 
##DATA TYPE=MASS SPECTRUM
##SAMPLE DESCRIPTION=MI-0111
##NAMES=HP
##CAS NAME=Diethazine
##MOLFORM=C18H22N2S
##CAS REGISTRY NO=60-91-3
##MP= -300
##BP= -300
##MW= 298
##$RETENTION INDEX=2379
##$CONDENSED SPECTRUM=NO
##NPOINTS= 86
##XYDATA=(XY..XY) 1 
    27          4
    28         14
    29         19
    30         49
    35          1
    36          1
    41          4
    42         11
    43          4
    44          9
    45          4
    47         14
    48         11
    49          9
    50          9
    51          6
    52          4
    54          1
    56         14
    57          9
    58         59
    59          1
    69          4
    70          4
    71          4
    72          4
    77          2
    78          7
    79          2
    82          9
    83         64
    84          9
    85         44
    86        999
    87         59
    99          1
   100          9
   101          1
   108          4
   109          9
   118          1
   120          2
   121          1
   127          9
   128          1
   139          9
   140          6
   141          1
   151          6
   152          9
   153          9
   154         11
   155          1
   166          6
   167          6
   168          1
   171          6
   172          4
   177          4
   178          9
   179         14
   180         39
   181          9
   182          1
   183          2
   184          6
   196          4
   197          9
   198         34
   199         11
   200          4
   201          1
   210          4
   211          4
   212         29
   213          9
   214          4
   223          6
   224          7
   225          8
   226          6
   227          4
   298        104
   299         34
   300          9
   301          4