##TITLE=Library Entry 29469
##JCAMP-DX=Revision 4.10 
##DATA TYPE=MASS SPECTRUM
##SAMPLE DESCRIPTION=AAFS Toxicology Section MS DB Committee, U. Alberta, Ca
nada
##NAMES=HP
##CAS NAME=Methotrimeprazine
##MOLFORM=C19H24N2OS
##CAS REGISTRY NO=60-99-1
##MP= -300
##BP= -300
##MW= 328
##$RETENTION INDEX=0
##$CONDENSED SPECTRUM=NO
##NPOINTS= 192
##XYDATA=(XY..XY) 1 
    29          7
    30         37
    39          9
    40          1
    41         13
    42         59
    43         14
    44         23
    45         12
    46          1
    49          3
    51          6
    52          2
    53          2
    54          1
    55          4
    56         10
    58        999
    59         40
    61          1
    63          9
    64          2
    65          7
    66          1
    67          2
    68          2
    69         15
    70         15
    71          9
    72          1
    73          1
    74          2
    75          5
    76          5
    77         10
    78          3
    80          2
    81          2
    82         10
    83          2
    84         44
    85         11
    86         13
    87          2
    88          4
    90          1
    91          4
    92          2
    93          3
    94          5
    95          9
    96          6
    97          4
    98          7
    99         12
   100        132
   101         12
   102          5
   103          1
   104          1
   105          1
   106          1
   108          6
   109          7
   111          1
   113          2
   114          5
   115          6
   116          1
   117          1
   119          1
   120          3
   121          3
   122          1
   125          1
   126          3
   127          7
   128          6
   129          3
   133          2
   134          4
   135          4
   136          2
   138          1
   139          6
   140         14
   141         15
   142          1
   145          2
   146          3
   147          1
   148          1
   149          1
   150          1
   151          1
   152          7
   153         10
   154          9
   158          6
   160          1
   164          5
   165          3
   166         12
   167         27
   168          5
   169          2
   170          1
   171          9
   172          3
   173          1
   174          1
   177          1
   178          3
   179          3
   180          4
   182          1
   183          2
   184         14
   185         92
   186         20
   187          6
   189          1
   191          2
   192          4
   193          3
   194          3
   195          7
   196          8
   197          8
   198         21
   199         17
   200          6
   204          1
   205          1
   206          1
   207          6
   208          5
   209          7
   210         54
   211         11
   212          8
   213          5
   214          8
   215          1
   220          1
   221          2
   222          2
   223          6
   224          3
   225          3
   226          7
   227         19
   228        102
   229        104
   230         20
   231          6
   234          3
   235          3
   236          5
   237          4
   238          5
   239          4
   240          8
   241          4
   242         70
   243         38
   244         10
   245          1
   250          3
   251          2
   252          3
   253          8
   254         11
   255          7
   256          2
   266          3
   267          5
   268         64
   269         49
   270         41
   271          7
   272          2
   281          1
   282        125
   283         76
   284         21
   285          5
   328        793
   329        179
   330         52
   331          8
   332          1