##TITLE=Library Entry 96
##JCAMP-DX=Revision 4.10 
##DATA TYPE=MASS SPECTRUM
##SAMPLE DESCRIPTION=Japan AIST/NIMC Database- Spectrum MS-NW-8809
##NAMES=HP
##CAS NAME=Propanoic acid, 2,3-dibromo-
##MOLFORM=C3H4Br2O2
##CAS REGISTRY NO=600-05-5
##MP= -300
##BP= -300
##MW= 230
##$RETENTION INDEX=0
##$CONDENSED SPECTRUM=NO
##NPOINTS= 107
##XYDATA=(XY..XY) 1 
    12          4
    13          6
    14         13
    15         20
    16          5
    17          3
    18         14
    24          9
    25         70
    26        380
    27        999
    28         86
    29         30
    30          1
    31          4
    32          2
    34          2
    36          9
    37          4
    38          4
    39          3
    40          5
    41         14
    42         54
    43         76
    44        209
    45        316
    46          9
    47          1
    51          1
    52          7
    53         84
    54         36
    55        190
    56         13
    57          3
    60          6
    61          2
    62          3
    63          1
    64          2
    66          2
    67          2
    69          3
    70          1
    71        641
    72        271
    73         22
    74          2
    77          3
    79         93
    80        215
    81         95
    82        210
    83          2
    84          6
    87          1
    89          1
    91          6
    92          5
    93         14
    94          8
    95          9
    96          3
   103          4
   104         23
   105        214
   106        302
   107        240
   108        271
   109         37
   110          1
   111          4
   120         13
   121          2
   122         19
   123         11
   124          6
   125         10
   127          2
   128          1
   133         91
   134          3
   135         90
   136          3
   149          8
   150        543
   151        504
   152        545
   153        481
   154         18
   155          2
   158          2
   159          5
   160          4
   161          3
   162          2
   185         10
   186          1
   187         20
   188          1
   189          9
   204          1
   206          1
   224          1
   226          1
   232          1