##TITLE=Library Entry 5575
##JCAMP-DX=Revision 4.10 
##DATA TYPE=MASS SPECTRUM
##SAMPLE DESCRIPTION=NIST Mass Spectrometry Data Center, 1990.
##NAMES=HP
##CAS NAME=2,3-Pentanedione
##MOLFORM=C5H8O2
##CAS REGISTRY NO=600-14-6
##MP= -300
##BP= -300
##MW= 100
##$RETENTION INDEX=698
##$CONDENSED SPECTRUM=NO
##NPOINTS= 32
##XYDATA=(XY..XY) 1 
    13         13
    14         49
    15        143
    16          6
    18          4
    24          3
    25         18
    26         92
    27        258
    28         98
    29        608
    30         15
    31          8
    32          1
    37          9
    38          8
    39         16
    40          9
    41         27
    42        124
    43        999
    44         36
    45          4
    50          4
    53         11
    54          3
    55         10
    56          3
    57        328
    58         13
   100        111
   101          8