##TITLE=Library Entry 2028
##JCAMP-DX=Revision 4.10 
##DATA TYPE=MASS SPECTRUM
##SAMPLE DESCRIPTION=RADIAN CORP
##NAMES=HP
##CAS NAME=Pentane, 2,3-dichloro-
##MOLFORM=C5H10Cl2
##CAS REGISTRY NO=600-11-3
##MP= -300
##BP= -300
##MW= 140
##$RETENTION INDEX=844
##$CONDENSED SPECTRUM=NO
##NPOINTS= 42
##XYDATA=(XY..XY) 1 
    13          4
    15         11
    25          8
    26         51
    27        468
    28         59
    29        144
    30          3
    32          7
    35          1
    36          3
    37         17
    38          3
    39         11
    40         41
    41        999
    42        314
    43         10
    62         28
    63         24
    64          5
    66          2
    67         10
    68         23
    70          3
    75         10
    76        127
    77         56
    78         57
    79         27
    80          1
    88          4
    99          5
   100          1
   104        105
   105         11
   106         37
   107          3
   109          6
   110          4
   112          3
   113          4