##TITLE=Library Entry 2086
##JCAMP-DX=Revision 4.10 
##DATA TYPE=MASS SPECTRUM
##SAMPLE DESCRIPTION=Japan AIST/NIMC Database- Spectrum MS-NW-1320
##NAMES=HP
##CAS NAME=Propanoic acid, 2-bromo-2-methyl-, ethyl ester
##MOLFORM=C6H11BrO2
##CAS REGISTRY NO=600-00-0
##MP= -300
##BP= -300
##MW= 194
##$RETENTION INDEX=0
##$CONDENSED SPECTRUM=NO
##NPOINTS= 85
##XYDATA=(XY..XY) 1 
    13          1
    14          7
    15         38
    16          1
    18          2
    25          3
    26         39
    27        225
    28         34
    29        747
    30         16
    31         31
    32          9
    36          2
    37          7
    38         15
    39        190
    40         53
    41        999
    42        206
    43         82
    44          8
    45         91
    46          3
    47          2
    53          5
    54          1
    55          7
    56          1
    57          4
    58          3
    59        377
    60         12
    68          3
    69         83
    70         68
    71         24
    72          1
    73          9
    75          2
    76          2
    77         15
    78          2
    79          6
    80          7
    81          5
    82          6
    85          2
    86          9
    87        435
    88         26
    89          2
    93          6
    95          5
    99          3
   105          4
   106          2
   107          5
   108          2
   109          2
   113          1
   114          2
   115        707
   116         49
   117          5
   120         40
   121        653
   122         61
   123        641
   124         19
   125          2
   133          1
   135          3
   137          2
   149         40
   150          2
   151         38
   152          2
   153          2
   166          2
   168          2
   194         19
   195          2
   196         18
   197          1