##TITLE=Library Entry 9426
##JCAMP-DX=Revision 4.10 
##DATA TYPE=MASS SPECTRUM
##SAMPLE DESCRIPTION=Div. of Experiment Therapeutics WRAIR, WRAMC, Washingto
n DC 20307
##NAMES=HP
##CAS NAME=Pregnane-11,20-dione, 3-hydroxy-, (3.beta.,5.alpha.)-
##MOLFORM=C21H32O3
##CAS REGISTRY NO=600-59-9
##MP= -300
##BP= -300
##MW= 332
##$RETENTION INDEX=0
##$CONDENSED SPECTRUM=NO
##NPOINTS= 185
##XYDATA=(XY..XY) 1 
    41        179
    43        999
    45         41
    49          0
    51          7
    53         97
    55        180
    57         49
    59          7
    61          1
    63          1
    65         24
    67        125
    69         92
    71         82
    72          1
    73          1
    77         79
    79        212
    81        204
    83         29
    85         57
    86          2
    89          1
    91        125
    93         80
    95        120
    96         31
    97         21
    98         16
    99          1
   103          8
   105        112
   107        139
   108         58
   109         60
   110          4
   111          7
   112          0
   113          1
   115         12
   117         30
   119         40
   120          5
   121         47
   122         45
   123         38
   124         24
   125         15
   126          2
   127          0
   128          5
   129          6
   131         29
   133         58
   134          8
   135         58
   136         15
   137         15
   138          7
   139          3
   141          5
   142          1
   143         12
   145         26
   147         58
   148         25
   149         22
   151         24
   152          3
   153          1
   155          3
   157          9
   159         28
   160         15
   161         21
   162          2
   163         10
   165          7
   166          8
   167          2
   169          4
   171         11
   173         14
   175         20
   177         14
   178          7
   179          2
   181          1
   183          2
   185          6
   186          5
   187          9
   188         13
   189          8
   190          1
   191          7
   193         21
   194          3
   195          3
   197          6
   199          5
   201          6
   202          0
   203          4
   204          3
   206         37
   207          5
   208          2
   209          0
   211          6
   212          1
   213          6
   214          0
   215          8
   216          1
   217          2
   218          3
   219         18
   220          3
   221          2
   223          2
   225          3
   226          1
   227          2
   229         13
   230          3
   231          6
   232          1
   233          5
   234          1
   235          1
   238          1
   239          2
   241          4
   243         13
   244          3
   245          3
   246          1
   247         18
   248         23
   249          5
   251          1
   253          4
   255          1
   256          2
   257          3
   259         10
   260          2
   261         48
   262         17
   263          2
   267          1
   268          0
   269          3
   271          6
   272          1
   273          1
   274          9
   275          4
   276          0
   281          2
   285          0
   286          2
   287          2
   288          0
   289         40
   290          5
   291          0
   296          2
   297          0
   299          5
   300          1
   304         15
   305          2
   313          1
   314          5
   315          7
   316          0
   317          9
   318          2
   330          4
   332        188
   333         39
   334          5