##TITLE=Library Entry 16716
##JCAMP-DX=Revision 4.10 
##DATA TYPE=MASS SPECTRUM
##SAMPLE DESCRIPTION=G. Wolber, Eastman Kodak Company, Rochester, NY
##NAMES=HP
##CAS NAME=Monomethyl oxalate
##MOLFORM=C3H4O4
##CAS REGISTRY NO=600-23-7
##MP= -300
##BP= -300
##MW= 104
##$RETENTION INDEX=0
##$CONDENSED SPECTRUM=NO
##NPOINTS= 19
##XYDATA=(XY..XY) 1 
    28        112
    29        344
    30         63
    31        443
    32         66
    33          2
    40          1
    42          3
    43         40
    44        222
    45        999
    46         23
    47          5
    56         24
    59        394
    60        200
    61          6
    62          1
   104          3