##TITLE=Library Entry 7113
##JCAMP-DX=Revision 4.10 
##DATA TYPE=MASS SPECTRUM
##SAMPLE DESCRIPTION=LAC, NIDDK, NIH, Bethesda, MD 20892
##NAMES=HP
##CAS NAME=Allopregnane-3.beta.,7.alpha.,11.alpha.-triol-20-one
##MOLFORM=C21H34O4
##CAS REGISTRY NO=600-41-9
##MP= -300
##BP= -300
##MW= 350
##$RETENTION INDEX=0
##$CONDENSED SPECTRUM=NO
##NPOINTS= 233
##XYDATA=(XY..XY) 1 
    41        186
    43        999
    44         46
    45         32
    47         12
    48          3
    49          4
    51          1
    52          4
    53         59
    54         11
    55        209
    56         16
    57        123
    58         13
    59          6
    65         26
    66         13
    67        142
    68         33
    69         91
    70         23
    71        116
    72          7
    73          3
    77         76
    78         24
    79        168
    80         45
    81        181
    82         30
    83         58
    84         41
    85         76
    86         23
    91        140
    92         34
    93        184
    94         69
    95        174
    96         27
    97         48
    98         20
    99         12
   103         10
   104         12
   105        111
   106         43
   107        128
   108         58
   109         86
   110         16
   111         25
   112          5
   113          5
   115         13
   116          6
   117         40
   118         29
   119         76
   120         35
   121         65
   122         37
   123         51
   124         21
   125         17
   126          7
   127          6
   128          8
   129         24
   130         15
   131         65
   132         28
   133         66
   134         24
   135         62
   136         29
   137         51
   138         86
   139         16
   140          8
   141         12
   142         13
   143         41
   144         33
   145         81
   146         27
   147         54
   148         24
   149         39
   150         13
   151         14
   152          4
   153          6
   154         24
   155         24
   156         11
   157         40
   158         22
   159         64
   160         25
   161         34
   162         14
   163         26
   164         10
   165          8
   166          2
   167         20
   168          6
   169         25
   170         20
   171         32
   172         14
   173         31
   174         11
   175         23
   176         10
   177         18
   178          9
   179          6
   180          5
   181         14
   182          8
   183         19
   184         10
   185         24
   186         17
   187         29
   188         54
   189         24
   190          7
   191          7
   192          3
   193         12
   194         10
   195          9
   196          3
   197         25
   198         12
   199         17
   200         13
   201         16
   202          9
   203         11
   204          3
   205         13
   206          7
   207          8
   209         11
   210          4
   211         48
   212         12
   213         20
   214          4
   215         12
   216         10
   217          5
   218          4
   219          5
   220          3
   221          4
   222          3
   223         10
   224          3
   225         14
   226         20
   227         17
   228          4
   229         36
   230         18
   231         17
   232          3
   233          3
   234          3
   237         10
   238          9
   239         15
   240          3
   241         11
   242          8
   243         15
   244         27
   245         14
   247         16
   248         14
   249         12
   250          2
   251          5
   252          4
   253         42
   254         13
   255         32
   256         23
   257         12
   259          4
   261          4
   262         44
   263         20
   264          3
   267          5
   268          3
   269          6
   270         25
   271        161
   272         35
   273          6
   274         12
   275          4
   278          3
   280         31
   281         75
   282         15
   285          2
   286          3
   287          3
   288         21
   289         15
   290          3
   292          2
   293          2
   296         33
   297          6
   299         59
   300         11
   314         75
   315         18
   316          2
   317         18
   318          3
   332         98
   333         23
   334          2
   350          2