##TITLE=Library Entry 10808
##JCAMP-DX=Revision 4.10 
##DATA TYPE=MASS SPECTRUM
##SAMPLE DESCRIPTION=NIST Mass Spectrometry Data Center, 1998.
##NAMES=HP
##CAS NAME=Propanoic acid, 2-oxo-, methyl ester
##MOLFORM=C4H6O3
##CAS REGISTRY NO=600-22-6
##MP= -300
##BP= -300
##MW= 102
##$RETENTION INDEX=701
##$CONDENSED SPECTRUM=NO
##NPOINTS= 30
##XYDATA=(XY..XY) 1 
    13          2
    14         10
    15         64
    16          1
    24          1
    25          3
    26          7
    27          5
    28          2
    29         45
    30          9
    31          6
    33          1
    37          1
    40          2
    41         15
    42         78
    43        999
    44         39
    45         15
    52          1
    53          5
    54          1
    56         10
    59         59
    60          2
    74          1
   102        115
   103          5
   104          1