##TITLE=Library Entry 74358
##JCAMP-DX=Revision 4.10 
##DATA TYPE=MASS SPECTRUM
##SAMPLE DESCRIPTION=L. E. Elvebak II et. al. Carbohydrate Research 274 (199
5) 71-83
##NAMES=HP
##CAS NAME=1,5-Anhydro-2,3,4,6-tetra-O-methyl-D-mannitol
##MOLFORM=C10H20O5
##CAS REGISTRY NO=6001-00-9
##MP= -300
##BP= -300
##MW= 220
##$RETENTION INDEX=1423
##$CONDENSED SPECTRUM=NO
##NPOINTS= 34
##XYDATA=(XY..XY) 1 
    41         33
    43         28
    45        112
    58         66
    59         42
    69         26
    71        294
    73         96
    75        286
    84         28
    85         36
    87         58
    88        212
    90         53
    99        294
   101        999
   103        160
   112         41
   113         19
   115        110
   117         14
   126         19
   127         25
   130         28
   131         42
   143        217
   156         17
   157         16
   158         48
   161         17
   175        212
   176         25
   188         52
   220          6