##TITLE=Library Entry 34512
##JCAMP-DX=Revision 4.10 
##DATA TYPE=MASS SPECTRUM
##SAMPLE DESCRIPTION=Chemical Concepts
##NAMES=HP
##CAS NAME=6-Methyl-hept-2-yn-4-ol
##MOLFORM=C8H14O
##CAS REGISTRY NO=60018-69-1
##MP= -300
##BP= -300
##MW= 126
##$RETENTION INDEX=0
##$CONDENSED SPECTRUM=NO
##NPOINTS= 86
##XYDATA=(XY..XY) 1 
    25          0
    26          6
    27         76
    28         15
    29         88
    30          2
    31         12
    37          5
    38         17
    39        176
    40         28
    41        254
    42         45
    43        108
    44         14
    45         16
    46          1
    47          0
    48          0
    49          1
    50         11
    51         26
    52         12
    53         27
    54          6
    55         50
    56         26
    57        104
    58          7
    59          9
    60          8
    61          2
    62          4
    63         10
    64          3
    65         25
    66         28
    67         83
    68         39
    69        999
    70        109
    71         32
    72          5
    73          1
    74          3
    75          1
    76          2
    77         24
    78          4
    79         11
    80          2
    81          9
    82         32
    83         35
    84         70
    85         11
    86          3
    87          4
    88          1
    89          1
    90          1
    91         19
    92          2
    93         27
    94          3
    95          6
    96          3
    97          7
    98          3
    99          1
   100          1
   101          1
   102          1
   103          0
   104          1
   105          2
   106          0
   107          3
   108          3
   109         12
   110          2
   111        223
   112         20
   113          1
   125          6
   126          1