##TITLE=Library Entry 75844
##JCAMP-DX=Revision 4.10 
##DATA TYPE=MASS SPECTRUM
##SAMPLE DESCRIPTION=TNO Volatile Compounds in Food - Chemical Concepts
##NAMES=HP
##CAS NAME=Benzene, [(butylsulfonyl)ethynyl]-
##MOLFORM=C12H14O2S
##CAS REGISTRY NO=60022-34-6
##MP= -300
##BP= -300
##MW= 222
##$RETENTION INDEX=0
##$CONDENSED SPECTRUM=NO
##NPOINTS= 79
##XYDATA=(XY..XY) 1 
    26          9
    27         80
    29        140
    30          4
    32         59
    34          0
    37          2
    38          5
    39         73
    40          0
    41        133
    42          5
    43          5
    44          2
    45          3
    48          3
    49          1
    50         22
    51         54
    52         16
    53          6
    55         64
    56         61
    57         26
    61          3
    62         14
    63         47
    64          5
    65          7
    69          5
    73          3
    74         31
    75         61
    76         34
    77         36
    78          3
    79          1
    81          2
    86          1
    87          3
    88          3
    89         92
    90         11
    91          7
    92          0
    93          2
    98          4
    99          2
   101         18
   102        999
   103        108
   104          7
   105         14
   106          1
   109          1
   115         19
   116          2
   117         12
   118         12
   119          2
   120          6
   121         11
   127          3
   128         14
   129         14
   130          2
   131          1
   133          4
   134          1
   141          3
   142          4
   143         11
   145          1
   149         14
   150          3
   157          1
   165          8
   167          4
   222          4