##TITLE=Library Entry 90113
##JCAMP-DX=Revision 4.10 
##DATA TYPE=MASS SPECTRUM
##SAMPLE DESCRIPTION=Japan AIST/NIMC Database- Spectrum MS-IW-2379
##NAMES=HP
##CAS NAME=1-(3-Methylbutyryl)pyrrolidine
##MOLFORM=C9H17NO
##CAS REGISTRY NO=60026-17-7
##MP= -300
##BP= -300
##MW= 155
##$RETENTION INDEX=0
##$CONDENSED SPECTRUM=NO
##NPOINTS= 68
##XYDATA=(XY..XY) 1 
    14          1
    15         14
    26          4
    27         53
    28         61
    29         76
    30         35
    31          1
    37          1
    38          4
    39         64
    40         14
    41        185
    42         71
    43        338
    44         30
    45          1
    50          1
    51          3
    52          2
    53         10
    54          7
    55        244
    56        130
    57        226
    58         12
    59          6
    65          1
    66          1
    67          5
    68         34
    69         69
    70        595
    71        297
    72         82
    73          3
    81          1
    82          2
    83         11
    84         17
    85        318
    86         20
    87          1
    91          9
    92          7
    94          1
    96          5
    97          3
    98        257
    99         33
   100          8
   110          2
   111          2
   112        207
   113        999
   114         74
   115          5
   124          2
   126          2
   127          4
   138          1
   140         72
   141          7
   153          3
   154         22
   155        277
   156         30
   157          2