##TITLE=Library Entry 7363
##JCAMP-DX=Revision 4.10 
##DATA TYPE=MASS SPECTRUM
##SAMPLE DESCRIPTION=J. Klune, Insect Chem. Ecol. Lab., USDA, Beltsville, MD
 20705
##NAMES=HP
##CAS NAME=Z-13-Octadecen-1-yl acetate
##MOLFORM=C20H38O2
##CAS REGISTRY NO=60037-58-3
##MP= -300
##BP= -300
##MW= 310
##$RETENTION INDEX=2200
##$CONDENSED SPECTRUM=NO
##NPOINTS= 140
##XYDATA=(XY..XY) 1 
    41        456
    42        146
    43        999
    50          6
    51          4
    52         12
    53         67
    54        269
    55        857
    56        121
    57        122
    58         28
    61        133
    62          4
    63         14
    65         31
    66         42
    67        371
    68        238
    69        292
    70         43
    71         37
    72         13
    73         51
    74          9
    76          4
    78          5
    79         46
    80         37
    81        386
    82        536
    83        196
    84         28
    89          4
    91          8
    92          6
    93         10
    95        292
    96        457
    97        140
    98         10
   100         11
   101          6
   102          4
   103          4
   104          8
   106          3
   107          6
   109        165
   110        184
   111         49
   113          9
   118          9
   120          7
   122          9
   123         75
   124        105
   125         28
   126         14
   127          5
   128          6
   130          4
   132          8
   136          7
   137         46
   138         77
   139         16
   140          4
   141          6
   142          4
   146         14
   148          4
   151         23
   152         35
   153         17
   154          9
   155          7
   156          4
   160          4
   161          7
   164          9
   165          7
   166         31
   167         14
   168         11
   169          6
   171          8
   173         12
   175          5
   176          5
   178          6
   179          8
   180         21
   181          9
   183          4
   184          4
   186          5
   187          6
   189          4
   190          5
   192          4
   193          8
   194         25
   195          4
   196          4
   198          7
   203          5
   205          4
   206          4
   208         20
   210          4
   211          5
   214          4
   215          5
   221          6
   222         14
   223         11
   225         13
   227          5
   229          9
   231          6
   232          4
   237          5
   240          6
   241          4
   246          4
   248         10
   250        142
   251         37
   267          5
   268         20
   281          4
   282         16
   294         12
   295         13
   308          9
   309          5
   310         50
   311         11
   312          1