##TITLE=Library Entry 10310
##JCAMP-DX=Revision 4.10 
##DATA TYPE=MASS SPECTRUM
##SAMPLE DESCRIPTION=NIST Mass Spectrometry Data Center
##NAMES=HP
##CAS NAME=Cyclohexanemethanol, 4-ethenyl-.alpha.,.alpha.,4-trimethyl-3-(1-m
ethylethenyl)-, acetate, [1R-(1.alpha.,3.alpha.,4.beta.)]-
##MOLFORM=C17H28O2
##CAS REGISTRY NO=60031-93-8
##MP= -300
##BP= -300
##MW= 264
##$RETENTION INDEX=1679
##$CONDENSED SPECTRUM=NO
##NPOINTS= 125
##XYDATA=(XY..XY) 1 
    26          2
    27         46
    28          9
    29         56
    30          2
    31          8
    38          4
    39        165
    40         49
    41        408
    42         48
    43        999
    44         25
    45         15
    50          8
    51         55
    52         32
    53        234
    54         32
    55        241
    56         19
    57         35
    58         10
    59        183
    60          9
    61         17
    63         25
    64          9
    65        123
    66         49
    67        411
    68        229
    69        257
    70         23
    71         58
    72         13
    73          3
    74          4
    76          6
    77        260
    78         56
    79        411
    80        145
    81        313
    82         43
    83         45
    84         39
    85         16
    86          4
    87          4
    89          9
    90          4
    91        313
    92         96
    93        596
    94        126
    95        196
    96         34
    97         27
    98          6
    99          3
   101         66
   102          9
   103         30
   104         13
   105        319
   106         80
   107        457
   109        172
   110         28
   111         19
   112          4
   113          6
   114          2
   115         63
   116         22
   117         52
   118         15
   119        318
   120        117
   121        559
   122        110
   123        148
   124         28
   125          8
   126          9
   129         33
   130         11
   131         48
   133        222
   134        112
   135        274
   136        142
   137         48
   138          8
   139          8
   144         10
   145         81
   146         23
   147        169
   148        107
   149         43
   150         10
   151          6
   152         10
   160         22
   161        539
   162        124
   163        157
   164         16
   167          2
   169          4
   173         26
   175         35
   176         25
   177          7
   186          2
   187         13
   189        244
   190         37
   191          8
   204        123
   205         31
   206          7
   223          1