##TITLE=Library Entry 44930
##JCAMP-DX=Revision 4.10 
##DATA TYPE=MASS SPECTRUM
##SAMPLE DESCRIPTION=J.E. WILKINSON S-CUBED, SAN DIEGO, CA.
##NAMES=HP
##CAS NAME=3,3',4,4',5,5'-Hexabromobiphenyl
##MOLFORM=C12H4Br6
##CAS REGISTRY NO=60044-26-0
##MP= -300
##BP= -300
##MW= 622
##$RETENTION INDEX=0
##$CONDENSED SPECTRUM=NO
##NPOINTS= 127
##XYDATA=(XY..XY) 1 
    49         56
    50         41
    61        120
    62         80
    63          2
    65          2
    73        438
    74        999
    75         44
    79         39
    80          9
    81         39
    82          4
    84          2
    85         66
    86         58
    97         29
    98        507
    99        127
   109         46
   110         39
   111         12
   113         83
   114         56
   120          4
   121          7
   122        110
   123         27
   128         73
   129          2
   130         73
   145          4
   146        129
   147        149
   148        681
   149         51
   152         29
   153        169
   154        377
   155        164
   178         29
   179          2
   180         24
   189          2
   190          2
   191          7
   193         19
   194        120
   195         46
   226         31
   227         78
   228         63
   229         73
   230          9
   232         29
   233        120
   234        223
   235        129
   236         12
   249          2
   253          2
   254          2
   256          2
   259          4
   273          9
   274         14
   275          2
   288          2
   306        279
   307         24
   308        789
   309         49
   310        294
   311         12
   313         41
   314         63
   315         29
   316          2
   320          2
   352          2
   381          2
   383          2
   385          4
   386          4
   387         39
   388         22
   389         36
   390         12
   391          4
   413          2
   416          2
   430          2
   445          2
   447          2
   448          2
   464         31
   466        159
   468        299
   469         12
   470        156
   472         19
   474          2
   476          2
   478          2
   480          2
   494          2
   496          4
   505          2
   507          2
   510          2
   511          4
   512          2
   544          2
   548          2
   550          2
   569          2
   574          2
   624         95
   626        345
   627          9
   628        517
   629         27
   630        311
   631         12
   632         80
   633          2
   634          2