##TITLE=Library Entry 67170
##JCAMP-DX=Revision 4.10 
##DATA TYPE=MASS SPECTRUM
##SAMPLE DESCRIPTION=JACSAT, 100(11)3416(1978); B. M. TROST
##NAMES=HP
##CAS NAME=Propanedioic acid, (1-cyclohexen-1-ylmethyl)-, dimethyl ester
##MOLFORM=C12H18O4
##CAS REGISTRY NO=60045-25-2
##MP= -300
##BP= -300
##MW= 226
##$RETENTION INDEX=0
##$CONDENSED SPECTRUM=NO
##NPOINTS= 19
##XYDATA=(XY..XY) 1 
    39        210
    41        310
    67        190
    77        210
    79        570
    91        220
    94        999
    95        270
   107        200
   133        470
   134        200
   135        230
   138        160
   163        150
   166        420
   167        120
   195        200
   208         10
   226        200