##TITLE=Library Entry 98045
##JCAMP-DX=Revision 4.10 
##DATA TYPE=MASS SPECTRUM
##SAMPLE DESCRIPTION=V.Zaikin,Topchiev Inst.Petrochem.Synth.,Moscow
##NAMES=HP
##CAS NAME=Benzenepropanoic acid, 3-phenylpropyl ester
##MOLFORM=C18H20O2
##CAS REGISTRY NO=60045-27-4
##MP= -300
##BP= -300
##MW= 268
##$RETENTION INDEX=2175
##$CONDENSED SPECTRUM=NO
##NPOINTS= 71
##XYDATA=(XY..XY) 1 
    26          3
    27          4
    28          1
    29          5
    35          1
    36          8
    38          2
    39          8
    40          9
    41          9
    42          1
    43          2
    50          5
    51         13
    52          5
    53          2
    55          2
    57          1
    58          1
    62          2
    63          7
    64          2
    65         25
    66          2
    67          1
    69          1
    73          2
    74          3
    75          3
    76          3
    77         39
    78         27
    79         26
    80          2
    89          8
    90          5
    91        332
    92         33
    93          3
    96          3
   102          7
   103         40
   104         73
   105         85
   106          9
   107         31
   108          3
   115         22
   116          8
   117        283
   118        999
   119         95
   120          7
   131          7
   132          7
   133         15
   134          3
   135          2
   147          2
   149          3
   150          5
   165          2
   166          1
   167          3
   177          1
   178          2
   179          2
   180          1
   191          3
   193          2
   267          1