##TITLE=Library Entry 58750
##JCAMP-DX=Revision 4.10 
##DATA TYPE=MASS SPECTRUM
##SAMPLE DESCRIPTION=Chemical Concepts
##NAMES=HP
##CAS NAME=Phosphine, methylbis(1-methylethyl)-
##MOLFORM=C7H17P
##CAS REGISTRY NO=60054-88-8
##MP= -300
##BP= -300
##MW= 132
##$RETENTION INDEX=0
##$CONDENSED SPECTRUM=NO
##NPOINTS= 82
##XYDATA=(XY..XY) 1 
    26          7
    27        162
    28          2
    29         44
    30          1
    31         15
    33          1
    34          0
    35          0
    37          1
    38          4
    39        104
    40         11
    41        403
    42         26
    43        630
    44         22
    45        105
    46         39
    47         87
    48        656
    49        267
    50          4
    51          1
    52          0
    53          4
    54          1
    55         69
    56          7
    57         62
    58         16
    59         88
    60         11
    61        411
    62        174
    63         19
    64          2
    65          0
    66          0
    67          1
    68          2
    69        101
    70          6
    71         19
    72          8
    73         43
    74         16
    75        242
    76         22
    77          2
    78          0
    79          0
    80          0
    81          0
    83          5
    84          0
    85          3
    86          0
    87          6
    88         11
    89        171
    90        999
    91         48
    92          1
    97          0
    99          0
   101          1
   102          0
   103          1
   104          2
   105          0
   106          1
   115          1
   116          1
   117        167
   118         10
   119          0
   130          0
   131         20
   132        430
   133         38
   134          1