##TITLE=Library Entry 63166
##JCAMP-DX=Revision 4.10 
##DATA TYPE=MASS SPECTRUM
##SAMPLE DESCRIPTION=ASES Database, Dalian Institute, P.R. China
##NAMES=HP
##CAS NAME=1-Benzylamino-4-benzyloxybutane
##MOLFORM=C18H23NO
##CAS REGISTRY NO=60058-23-3
##MP= -300
##BP= -300
##MW= 269
##$RETENTION INDEX=0
##$CONDENSED SPECTRUM=NO
##NPOINTS= 32
##XYDATA=(XY..XY) 1 
    30         20
    39         30
    41         19
    42          9
    50         10
    51         19
    52          9
    55         10
    63          9
    65         69
    70         40
    71         29
    77         30
    78         10
    79         20
    84          9
    90          9
    91        999
    92         90
   103        119
   104          9
   105          9
   107         19
   108         10
   120        238
   121         20
   160         10
   161         10
   162          9
   163          9
   178        330
   179         40