##TITLE=Library Entry 67582
##JCAMP-DX=Revision 4.10 
##DATA TYPE=MASS SPECTRUM
##SAMPLE DESCRIPTION=D.HENNEBERG, MAX-PLANCK INSTITUTE, MULHEIM, WEST GERMAN
Y
##NAMES=HP
##CAS NAME=Cyclopropanecarboxylic acid, 3-ethenyl-2,2-dimethyl-, ethyl ester
##MOLFORM=C10H16O2
##CAS REGISTRY NO=60066-50-4
##MP= -300
##BP= -300
##MW= 168
##$RETENTION INDEX=0
##$CONDENSED SPECTRUM=NO
##NPOINTS= 100
##XYDATA=(XY..XY) 1 
    27         60
    28         48
    29        287
    30          5
    31          3
    32          0
    35          0
    38          1
    39         50
    40         10
    41        125
    42          8
    43         46
    45          6
    46          0
    47          2
    48          2
    49          0
    50          2
    51          8
    52         10
    53         80
    54         12
    55        188
    56          8
    57          2
    58          1
    59         39
    60          3
    61          3
    63          1
    64          0
    65         17
    66          7
    67        275
    68         23
    69         12
    70          6
    71          3
    72          1
    73          2
    74          1
    75          1
    77         49
    78          8
    79        113
    80         41
    81         60
    82         22
    83         19
    84          2
    85          5
    86          0
    87         18
    88          4
    89          1
    90          0
    91         18
    92          3
    93         64
    94         47
    95        999
    96         80
    97         23
    98          8
    99         12
   100          3
   101          0
   104          2
   105          0
   106          1
   107          8
   108          2
   109          8
   110          2
   111          8
   112          3
   113          2
   115          0
   116          0
   121          0
   122         18
   123         78
   124         10
   125         23
   126          6
   127          3
   128          1
   129          0
   139          8
   140         10
   141          3
   152          0
   153         18
   154          2
   156          1
   167          0
   168        126
   169         14
   170          1