##TITLE=Library Entry 65876
##JCAMP-DX=Revision 4.10 
##DATA TYPE=MASS SPECTRUM
##SAMPLE DESCRIPTION=NIST Mass Spectrometry Data Center
##NAMES=HP
##CAS NAME=2,6,11-Dodecatrienal, 2,6-dimethyl-10-methylene-
##MOLFORM=C15H22O
##CAS REGISTRY NO=60066-88-8
##MP= -300
##BP= -300
##MW= 218
##$RETENTION INDEX=1695
##$CONDENSED SPECTRUM=NO
##NPOINTS= 91
##XYDATA=(XY..XY) 1 
    27         64
    28         13
    29        104
    38          5
    39        198
    40         37
    41        334
    42         14
    45          5
    50         11
    51         46
    52         25
    53        197
    54         33
    55        534
    62          3
    63         15
    64          6
    65        112
    66         32
    67        253
    68         69
    69        105
    77        197
    78         36
    79        296
    80         46
    81        260
    82         51
    83         38
    84         48
    91        241
    92         55
    93        999
    94         99
    95         68
    96          7
    97         36
   103         11
   105         96
   106         25
   107         79
   108         14
   109         35
   110          6
   115         14
   116          6
   117         23
   118         15
   119        142
   120        153
   121         64
   122         50
   123         25
   125          6
   129          4
   131         23
   132         23
   133        251
   134         83
   135         34
   136          5
   137          6
   143          6
   144          5
   145         20
   146         19
   147         36
   148         18
   149         10
   150          3
   157          5
   158          5
   159          8
   160          9
   161         20
   162          8
   171          5
   172          2
   174          5
   175         13
   176          6
   185         11
   187          4
   189          8
   190         43
   191          6
   200          3
   202          4
   203          7
   218          2