##TITLE=Library Entry 51539
##JCAMP-DX=Revision 4.10 
##DATA TYPE=MASS SPECTRUM
##SAMPLE DESCRIPTION=Japan AIST/NIMC Database- Spectrum MS-IW-2221
##NAMES=HP
##CAS NAME=n-Pentadecylcyclohexane
##MOLFORM=C21H42
##CAS REGISTRY NO=6006-95-7
##MP= -300
##BP= -300
##MW= 294
##$RETENTION INDEX=0
##$CONDENSED SPECTRUM=NO
##NPOINTS= 91
##XYDATA=(XY..XY) 1 
    27         14
    28          5
    29         44
    30          1
    39         16
    40          4
    41        163
    42         29
    43        168
    44          5
    51          1
    53         12
    54         29
    55        316
    56         58
    57        131
    58          6
    65          3
    66          3
    67        101
    68         37
    69        117
    70         40
    71         63
    72          3
    77          3
    78          1
    79          7
    80          3
    81         33
    82        999
    83        914
    84         78
    85         39
    86          2
    91          2
    92          1
    93          1
    94          1
    95         10
    96         37
    97        108
    98         20
    99          8
   109          6
   110          9
   111         43
   112         14
   113          5
   123          1
   124          6
   125         24
   126         10
   127          4
   137          1
   138          6
   139         22
   140          9
   141          3
   152          3
   153         10
   154          6
   155          2
   166          2
   167          7
   168          5
   169          1
   180          1
   181          4
   182         10
   183          2
   194          1
   195          2
   196          2
   197          1
   208          1
   209          2
   210         53
   211         21
   212          3
   223          1
   224          1
   237          1
   238          1
   266          5
   267          1
   292          1
   293          2
   294        345
   295         79
   296          8