##TITLE=Library Entry 44166
##JCAMP-DX=Revision 4.10 
##DATA TYPE=MASS SPECTRUM
##SAMPLE DESCRIPTION=O A MAMER, MCGILL UNIVERSITY, MONTRE
##NAMES=HP
##CAS NAME=D-Trehalose, 7TMS derivative
##MOLFORM=C33H78O11Si7
##CAS REGISTRY NO=60065-05-6
##MP= -300
##BP= -300
##MW= 846
##$RETENTION INDEX=0
##$CONDENSED SPECTRUM=NO
##NPOINTS= 171
##XYDATA=(XY..XY) 1 
    15         21
    26          6
    29         11
    40          5
    43         16
    44          5
    45         19
    47          5
    53          6
    54          7
    55          6
    58          3
    59         19
    61          4
    66          7
    69         13
    71          4
    72         17
    73        999
    74         86
    75         79
    76          5
    79          5
    81          7
    83          5
    85          4
    87          6
    88          5
    89         11
    97          5
    99          7
   101         14
   102          6
   103        217
   104         25
   105          8
   109          7
   113         11
   114          5
   115         10
   116          8
   117         67
   118         12
   127          8
   128          5
   129        133
   130         12
   131         35
   132          8
   133         39
   134          7
   136          5
   141          8
   142          8
   143         40
   144          7
   145         11
   146          5
   147        258
   148         42
   149         32
   150          6
   151          4
   153          5
   155         20
   156          5
   157         30
   158          9
   159          5
   161         10
   162          5
   167         12
   169         68
   170         12
   171         11
   173         14
   175         10
   177          9
   178          5
   183          8
   187          5
   189         37
   190         10
   191         79
   192         18
   193          5
   199         17
   202          4
   203         21
   204        158
   205         74
   206         22
   211          5
   215         13
   216          6
   217        239
   218        102
   219         40
   220         15
   221          5
   229         19
   230         15
   231         36
   232         12
   233         12
   234          6
   235          5
   241          7
   242          4
   243         67
   244         15
   245         22
   246          9
   247         38
   248          8
   249          7
   257         14
   258          9
   259         16
   260          6
   261          5
   263          5
   265         13
   271         65
   272         19
   273         12
   274          5
   275          5
   289          5
   291         14
   292          6
   293         12
   294          4
   303          6
   304          5
   305         15
   306         33
   307         17
   308          8
   317          9
   318          7
   319         58
   320         23
   321         10
   322          5
   329          5
   331         22
   332         10
   333         10
   335          5
   345         12
   346          6
   347         14
   348          6
   349          5
   353          8
   361        435
   362        143
   363         70
   364         18
   365          7
   393          5
   435         25
   436         12
   437          7
   450          5
   451         14
   452          7
   453          5
   479          5
   503          4