##TITLE=Library Entry 51538
##JCAMP-DX=Revision 4.10 
##DATA TYPE=MASS SPECTRUM
##SAMPLE DESCRIPTION=Japan AIST/NIMC Database- Spectrum MS-IW-2222
##NAMES=HP
##CAS NAME=n-Tridecylcyclohexane
##MOLFORM=C19H38
##CAS REGISTRY NO=6006-33-3
##MP= -300
##BP= -300
##MW= 266
##$RETENTION INDEX=1968
##$CONDENSED SPECTRUM=NO
##NPOINTS= 78
##XYDATA=(XY..XY) 1 
    27         10
    28          3
    29         32
    39          9
    40          2
    41        109
    42         18
    43        106
    44          3
    53          8
    54         20
    55        229
    56         41
    57         88
    58          4
    65          2
    66          2
    67         87
    68         29
    69         83
    70         31
    71         41
    72          2
    77          2
    79          4
    80          1
    81         21
    82        999
    83        884
    84         75
    85         27
    86          1
    91          1
    92          1
    95          6
    96         33
    97         97
    98         21
    99          6
   105          1
   106          1
   109          4
   110          9
   111         37
   112         13
   113          4
   123          1
   124          4
   125         22
   126          9
   127          3
   138          4
   139         17
   140          8
   141          2
   152          2
   153          7
   154         11
   155          2
   166          1
   167          3
   168          2
   169          1
   180          1
   181          2
   182         45
   183         16
   184          1
   195          2
   196          1
   209          2
   210          1
   223          1
   238          2
   265          2
   266        312
   267         65
   268          6