##TITLE=Library Entry 48206
##JCAMP-DX=Revision 4.10 
##DATA TYPE=MASS SPECTRUM
##SAMPLE DESCRIPTION=D.HENNEBERG, MAX-PLANCK INSTITUTE, MULHEIM, WEST GERMAN
Y
##NAMES=HP
##CAS NAME=Tricyclo[3.3.1.0(2,8)]nona-3,6-dien-9-one
##MOLFORM=C9H8O
##CAS REGISTRY NO=6006-24-2
##MP= -300
##BP= -300
##MW= 132
##$RETENTION INDEX=0
##$CONDENSED SPECTRUM=NO
##NPOINTS= 96
##XYDATA=(XY..XY) 1 
    24          0
    25          4
    26         94
    27        108
    28         92
    29          5
    30          0
    31          1
    32         10
    33          0
    34          0
    35          1
    36          3
    37         52
    38        116
    39        369
    40         17
    41         15
    42          2
    43          3
    44         10
    45          1
    46          0
    47          0
    48          4
    49         32
    50        289
    51        487
    52        219
    53         32
    54         46
    55         15
    56          2
    57          3
    58          4
    59          6
    60          4
    61         33
    62         71
    63        168
    64         26
    65        100
    66          9
    67          0
    68          0
    70          1
    71          1
    72          2
    73         15
    74         84
    75         60
    76         82
    77        299
    78        999
    79         65
    80          3
    81          2
    83          0
    84          2
    85          4
    86         10
    87         13
    88          2
    89         39
    90          5
    91        179
    92         14
    93          0
    95          0
    97          3
    98          9
    99          2
   100          2
   101         14
   102        126
   103        690
   104        848
   105         80
   106          4
   107          0
   109          0
   110          0
   112          0
   113          1
   114          1
   115          9
   116          9
   120          0
   126          0
   127          0
   129          1
   130         65
   131        513
   132        422
   133         45
   134          2