##TITLE=Library Entry 59140
##JCAMP-DX=Revision 4.10 
##DATA TYPE=MASS SPECTRUM
##SAMPLE DESCRIPTION=Exported from NIST MS Search
##NAMES=HP
##CAS NAME=Pentacosane, 13-phenyl-
##MOLFORM=C31H56
##CAS REGISTRY NO=6006-90-2
##MP= -300
##BP= -300
##MW= 428
##$RETENTION INDEX=0
##$CONDENSED SPECTRUM=NO
##NPOINTS= 273
##XYDATA=(XY..XY) 1 
    36          1
    37          1
    38          2
    39          7
    40          6
    41        183
    42         37
    43        334
    44         13
    45          1
    46          1
    47          1
    48          1
    49          1
    50          2
    51          4
    52          2
    53          9
    54         10
    55        121
    56         30
    57        200
    58         10
    59          1
    60          1
    61          1
    62          1
    63          1
    64          1
    65          6
    66          2
    67         16
    68          7
    69         57
    70         14
    71         94
    72          6
    73          1
    74          1
    75          1
    76          1
    77         11
    78         12
    79         11
    80          2
    81         10
    82          5
    83         34
    84          6
    85         61
    86          4
    87          1
    88          1
    89          1
    90          2
    91        999
    92        107
    93          9
    94          3
    95          6
    96          3
    97         23
    98          4
    99         18
   100          2
   101          1
   102          1
   103          9
   104        118
   105        217
   106         22
   107          2
   108          1
   109          3
   110          1
   111         10
   112          2
   113         10
   114          1
   115         10
   116          5
   117         67
   118         42
   119        115
   120         23
   121          3
   122          1
   123          1
   124          1
   125          3
   126          1
   127          4
   128          3
   129          6
   130          4
   131         22
   132          5
   133         93
   134         12
   135          1
   136          1
   137          1
   138          1
   139          1
   140          1
   141          3
   142          1
   143          2
   144          1
   145          5
   146          1
   147         81
   148         10
   149          1
   150          1
   151          1
   152          1
   153          1
   154          1
   155          9
   156          1
   157          1
   158          1
   159          2
   160          1
   161         65
   162          9
   163          1
   164          1
   165          1
   166          1
   167          1
   168          1
   169          1
   170          1
   171          1
   172          1
   173          1
   174          1
   175         48
   176          7
   177          1
   178          1
   179          1
   180          1
   181          1
   182          1
   183          4
   184          1
   185          1
   186          1
   187          1
   188          1
   189         30
   190          5
   191          1
   192          1
   193          1
   194          1
   195          1
   196          1
   197          2
   198          1
   199          1
   200          1
   201          1
   202          1
   203         16
   204          3
   205          1
   206          1
   207          1
   208          1
   209          1
   210          1
   211          1
   213          1
   214          1
   215          1
   216          1
   217          7
   218          1
   219          1
   225          1
   227          1
   228          1
   229          1
   230          1
   231          2
   232          1
   233          1
   237          1
   239          1
   241          1
   242          1
   243          1
   244          1
   245          1
   246          1
   247          1
   248          1
   249          1
   251          1
   252          1
   253          1
   254          1
   255          1
   256          1
   257          2
   258         23
   259        130
   260         73
   261         10
   262          1
   263          1
   264          1
   265          1
   266          1
   267          1
   268          1
   269          1
   270          1
   271          1
   272          2
   273          1
   274          2
   275          1
   276          1
   277          1
   278          1
   279          1
   280          1
   281          1
   282          1
   283          1
   284          1
   285          1
   286          1
   287          1
   288          1
   289          1
   292          1
   293          1
   294          1
   295          1
   296          1
   297          1
   298          1
   299          1
   300          1
   301          1
   302          1
   309          1
   310          1
   311          1
   312          1
   313          1
   314          1
   315          1
   316          1
   400          1
   401          1
   420          1
   421          1
   422          1
   423          1
   424          1
   425          1
   426          1
   427          1
   428         28
   429          8
   430          1