##TITLE=Library Entry 34368
##JCAMP-DX=Revision 4.10 
##DATA TYPE=MASS SPECTRUM
##SAMPLE DESCRIPTION=Exported from NIST MS Search
##NAMES=HP
##CAS NAME=3,7,11-Tridecatrienenitrile, 4,8,12-trimethyl-
##MOLFORM=C16H25N
##CAS REGISTRY NO=6006-01-5
##MP= -300
##BP= -300
##MW= 231
##$RETENTION INDEX=0
##$CONDENSED SPECTRUM=NO
##NPOINTS= 92
##XYDATA=(XY..XY) 1 
    27         47
    28         45
    29         40
    30          1
    33         27
    38          1
    39         90
    40         17
    41        336
    42         25
    43         15
    44          1
    50          1
    51         12
    52          5
    53         72
    54         10
    55         72
    56          3
    57         12
    58          1
    59         25
    63          5
    65         23
    66         21
    67        145
    68         81
    69        999
    70         56
    71          6
    74          2
    77         25
    78          6
    79         50
    80         22
    81        322
    82         35
    83          7
    89          1
    91         25
    92          2
    93         62
    94         25
    95         80
    96         20
   103          6
   104          1
   105         11
   106          8
   107         17
   108         10
   109         23
   111          1
   115          6
   119         10
   120         36
   121         83
   122         12
   123         41
   124         25
   125          3
   131          3
   132          1
   133          1
   134          5
   135         23
   136        148
   137         71
   138          6
   143          3
   144          3
   145          3
   146          7
   147         11
   148          8
   160          8
   161          2
   162         10
   163          1
   174          3
   175         22
   176          1
   188         22
   189          1
   190          1
   191          1
   216         10
   224          1
   229          6
   230          1
   231         26
   232          5