##TITLE=Library Entry 73107
##JCAMP-DX=Revision 4.10 
##DATA TYPE=MASS SPECTRUM
##SAMPLE DESCRIPTION=Chemical Concepts
##NAMES=HP
##CAS NAME=2-Propaneamine, N,N-diethyl-
##MOLFORM=C7H17N
##CAS REGISTRY NO=6006-15-1
##MP= -300
##BP= -300
##MW= 115
##$RETENTION INDEX=742
##$CONDENSED SPECTRUM=NO
##NPOINTS= 44
##XYDATA=(XY..XY) 1 
    25         11
    27        162
    28        116
    29        124
    30        165
    31          2
    38          1
    39         31
    40          6
    41         90
    42        176
    43         87
    44        303
    45          7
    52          1
    53          1
    54         15
    55         10
    56         90
    57         18
    58        462
    59         15
    67          0
    68          7
    69          4
    70         75
    71         17
    72        201
    73          9
    77          1
    82          0
    84         16
    85          8
    86         13
    87          0
    98          4
    99          4
   100        999
   101         65
   102          2
   113          0
   114         26
   115        146
   116         11