##TITLE=Library Entry 76544
##JCAMP-DX=Revision 4.10 
##DATA TYPE=MASS SPECTRUM
##SAMPLE DESCRIPTION=J. Barluenga, Dep. Org. Chem., Univ. Oviedo, Oviedo, Sp
ain
##NAMES=HP
##CAS NAME=Benzeneethanol, .beta.-methylene-
##MOLFORM=C9H10O
##CAS REGISTRY NO=6006-81-1
##MP= -300
##BP= -300
##MW= 134
##$RETENTION INDEX=0
##$CONDENSED SPECTRUM=NO
##NPOINTS= 18
##XYDATA=(XY..XY) 1 
    39        110
    50        220
    51        380
    63        140
    76        120
    77        810
    78        470
    79        230
    91        430
    92        440
   102        220
   103        999
   104        220
   105        580
   115        220
   133        300
   134        660
   135         65