##TITLE=Library Entry 100476
##JCAMP-DX=Revision 4.10 
##DATA TYPE=MASS SPECTRUM
##SAMPLE DESCRIPTION=Chemical Concepts
##NAMES=HP
##CAS NAME=2-Ethyl[1,3]dithiane
##MOLFORM=C6H12S2
##CAS REGISTRY NO=6007-23-4
##MP= -300
##BP= -300
##MW= 148
##$RETENTION INDEX=1130
##$CONDENSED SPECTRUM=NO
##NPOINTS= 94
##XYDATA=(XY..XY) 1 
    26          6
    27         48
    29         15
    30          0
    31          0
    33          1
    34          1
    35          1
    37          3
    38          6
    39         95
    40          9
    41        249
    42         18
    43         12
    44          2
    45        233
    46        109
    47         76
    48          6
    49          3
    53          5
    54          2
    55         33
    56          2
    57         10
    58         29
    59         68
    60         15
    61         18
    62          1
    63          1
    64         22
    65          2
    66          3
    67         22
    68          2
    69          9
    70          2
    71         33
    72         17
    73        141
    74        272
    75         76
    76         14
    77         12
    78         11
    79          5
    80          1
    81          7
    82          1
    83          3
    84          0
    85         34
    86          5
    87         19
    88          3
    89          3
    90          4
    91         31
    92          1
    93          2
    94          0
    97          1
    99          5
   100          0
   101         23
   102          1
   103          3
   104          0
   105         17
   106         24
   107          8
   108          2
   109          0
   113          1
   114          0
   115          9
   116          1
   117          1
   118          0
   119        999
   120         61
   121         89
   122          4
   123          3
   133          9
   134          0
   147         12
   148        534
   149         46
   150         47
   151          3
   152          1