##TITLE=Library Entry 96846
##JCAMP-DX=Revision 4.10 
##DATA TYPE=MASS SPECTRUM
##SAMPLE DESCRIPTION=Chemical Concepts
##NAMES=HP
##CAS NAME=[1,3]Dioxolane-4,5-dicarboxylic acid, diethyl ester
##MOLFORM=C9H14O6
##CAS REGISTRY NO=60077-28-3
##MP= -300
##BP= -300
##MW= 218
##$RETENTION INDEX=0
##$CONDENSED SPECTRUM=NO
##NPOINTS= 104
##XYDATA=(XY..XY) 1 
    25         36
    27        247
    28         35
    29        887
    30         46
    31        546
    33         26
    37         23
    38          9
    39         93
    40         82
    42        160
    43         26
    45        210
    46          6
    47         46
    49          5
    51          2
    52          2
    53         12
    54         13
    55         28
    56          8
    57         35
    58        116
    59        542
    60         48
    61        139
    62          4
    63          2
    67          3
    68          5
    69         79
    70         71
    71        349
    72        193
    73        171
    74          9
    75         54
    76         76
    77         37
    81          5
    82         25
    83         16
    84         13
    85         20
    86         17
    87        513
    88        343
    89        604
    90         28
    91          8
    97          3
    98         17
    99        195
   100         53
   101         25
   102          7
   103         69
   104         76
   105         29
   106          2
   111          2
   112          5
   113          9
   114         10
   115        288
   116         92
   117        999
   118         57
   119         13
   125          8
   126         77
   127        178
   128         34
   129         12
   130          4
   131         22
   132          4
   133         45
   134          3
   135          3
   141          6
   142          3
   143         20
   144         30
   145        409
   146         30
   147          5
   148          4
   149          5
   159          9
   161          7
   172          9
   173         90
   174          8
   175          4
   188          6
   189          3
   191          2
   203          2
   217          8
   218          2
   219          7