##TITLE=Library Entry 34560
##JCAMP-DX=Revision 4.10 
##DATA TYPE=MASS SPECTRUM
##SAMPLE DESCRIPTION=D. CORINA, DEP. BIOCHEM., UNIV. SOUTHAMPTON, SOUTHAMPTO
N, U.
##NAMES=HP
##CAS NAME=1,2-Dithiepane
##MOLFORM=C5H10S2
##CAS REGISTRY NO=6008-51-1
##MP= -300
##BP= -300
##MW= 134
##$RETENTION INDEX=1210
##$CONDENSED SPECTRUM=NO
##NPOINTS= 24
##XYDATA=(XY..XY) 1 
    41        950
    45        190
    47        170
    55        230
    60        160
    61        150
    64        110
    67        190
    68        220
    69        999
    74         63
    85         54
    87        390
    88         29
    89         26
    97         29
   100         33
   101        100
   102        200
   103        130
   105         33
   134        780
   135         52
   136         76