##TITLE=Library Entry 98884
##JCAMP-DX=Revision 4.10 
##DATA TYPE=MASS SPECTRUM
##SAMPLE DESCRIPTION=P. Vainiotalo, Dep. Chem., Univ. Joensuu, Joensuu, Finl
and
##NAMES=HP
##CAS NAME=2-Ethyl-2-methyl-1,3-dithiolane
##MOLFORM=C6H12S2
##CAS REGISTRY NO=6008-81-7
##MP= -300
##BP= -300
##MW= 148
##$RETENTION INDEX=1136
##$CONDENSED SPECTRUM=NO
##NPOINTS= 28
##XYDATA=(XY..XY) 1 
    27        100
    29         40
    39         50
    41         40
    44         30
    45        110
    46         20
    47         40
    53         40
    54         30
    55        300
    56         40
    58         60
    59        500
    60         40
    61        120
    71         20
    73         60
    87         30
    88        100
   105         30
   119        999
   120        100
   121        100
   133        100
   148        390
   149         40
   150         40