##TITLE=Library Entry 21567
##JCAMP-DX=Revision 4.10 
##DATA TYPE=MASS SPECTRUM
##SAMPLE DESCRIPTION=D. CORINA, DEP. BIOCHEM., UNIV. SOUTHAMPTON, SOUTHAMPTO
N, U.
##NAMES=HP
##CAS NAME=1,2-Dithiocane
##MOLFORM=C6H12S2
##CAS REGISTRY NO=6008-69-1
##MP= -300
##BP= -300
##MW= 148
##$RETENTION INDEX=0
##$CONDENSED SPECTRUM=NO
##NPOINTS= 23
##XYDATA=(XY..XY) 1 
    41        560
    55        999
    67        170
    69         65
    81        100
    82         63
    83        260
    84         30
    85         27
    87        180
    88         23
    89         11
   101         97
   102         10
   103          7
   105         29
   114         17
   115        210
   116         48
   117         15
   148        720
   149         65
   150         65