##TITLE=Library Entry 45012
##JCAMP-DX=Revision 4.10 
##DATA TYPE=MASS SPECTRUM
##SAMPLE DESCRIPTION=Chemical Concepts
##NAMES=HP
##CAS NAME=Heptanal, 7,7-dimethoxy-
##MOLFORM=C9H18O3
##CAS REGISTRY NO=60090-77-9
##MP= -300
##BP= -300
##MW= 174
##$RETENTION INDEX=0
##$CONDENSED SPECTRUM=NO
##NPOINTS= 94
##XYDATA=(XY..XY) 1 
    26          4
    27         57
    28         22
    29         89
    30          2
    31         57
    33          6
    34          0
    35          0
    37          0
    38          1
    39         52
    41        127
    42         17
    43         50
    44         17
    45        111
    46          1
    47        117
    48          1
    50          0
    51          1
    52          1
    53         16
    54         10
    55         96
    56          9
    57         34
    58         68
    59         11
    61         32
    62          1
    63          2
    64          0
    65          1
    66          1
    67         59
    68          5
    69         12
    70          2
    71        114
    72          7
    73          1
    74          7
    75        999
    76         36
    77         13
    78          1
    79         15
    80          0
    81         27
    82          9
    83         45
    84          5
    85         12
    86          0
    87          6
    88          1
    89          0
    91          4
    92          0
    93         38
    94          9
    95          1
    96          0
    97         11
    98          3
    99          3
   100          0
   101          3
   102          0
   103          0
   105          0
   108          0
   109          0
   110          5
   111         43
   112          3
   113          1
   114          1
   115          3
   122          0
   123          0
   124          0
   125         22
   126          2
   127          0
   129          0
   130          1
   142          3
   143         86
   144          6
   145          0
   157          0