##TITLE=Library Entry 76995
##JCAMP-DX=Revision 4.10 
##DATA TYPE=MASS SPECTRUM
##SAMPLE DESCRIPTION=Chemical Concepts
##NAMES=HP
##CAS NAME=Ethylmalonic acid
##MOLFORM=C5H8O4
##CAS REGISTRY NO=601-75-2
##MP= -300
##BP= -300
##MW= 132
##$RETENTION INDEX=0
##$CONDENSED SPECTRUM=NO
##NPOINTS= 88
##XYDATA=(XY..XY) 1 
    18          2
    25          2
    26         31
    27        219
    28          1
    29         63
    30          2
    31         24
    33          0
    34          1
    35          0
    36          2
    37          8
    38         18
    39        146
    40         23
    41        176
    42        128
    43         81
    44         19
    45        193
    46          7
    47          3
    48          0
    49          0
    50          1
    51          3
    52          0
    53          7
    54          2
    55        274
    56          8
    57          8
    58         20
    59          3
    60         26
    61          1
    62          0
    63          2
    64          3
    65          1
    66          1
    67          1
    68         70
    69        114
    70         36
    71         21
    72          2
    73        281
    74         10
    75          1
    76          0
    77          3
    78          1
    79          1
    81          0
    82          0
    83          0
    84          1
    85         12
    86        596
    87         88
    88         31
    89          2
    90          0
    91          5
    92          1
    93          0
    94          0
    95          0
    96          0
    97          0
    99         12
   100          0
   101          0
   104        999
   105         29
   106         10
   107          0
   108          0
   109          0
   113          2
   114          9
   115         25
   116          1
   131          0
   133          5
   134          0