##TITLE=Library Entry 76993
##JCAMP-DX=Revision 4.10 
##DATA TYPE=MASS SPECTRUM
##SAMPLE DESCRIPTION=LAC, NIDDK, NIH, Bethesda, MD 20892
##NAMES=HP
##CAS NAME=Propanedioic acid, (1-methylethyl)-
##MOLFORM=C6H10O4
##CAS REGISTRY NO=601-79-6
##MP= -300
##BP= -300
##MW= 146
##$RETENTION INDEX=0
##$CONDENSED SPECTRUM=NO
##NPOINTS= 55
##XYDATA=(XY..XY) 1 
    41        465
    42        244
    43        484
    44         21
    45        289
    46          6
    47          8
    48          3
    50         11
    51         23
    52          5
    53         44
    54         18
    55        126
    56         60
    57         41
    58          6
    59         65
    60         11
    61          0
    63          1
    66          2
    67          7
    68         31
    69        247
    70         11
    71         14
    72          8
    73          7
    81          5
    82         70
    83         69
    84         26
    85        113
    86        799
    87        389
    88         17
    89          2
    95          3
    97          1
    99         12
   100        142
   101         46
   102         18
   104        999
   105         49
   106          9
   127          7
   128          1
   129        164
   130          9
   131          0
   145          3
   146         38
   147          3