##TITLE=Library Entry 86518
##JCAMP-DX=Revision 4.10 
##DATA TYPE=MASS SPECTRUM
##SAMPLE DESCRIPTION=Japan AIST/NIMC Database- Spectrum MS-NW-1193
##NAMES=HP
##CAS NAME=1,3-Benzenediol, 2-nitro-
##MOLFORM=C6H5NO4
##CAS REGISTRY NO=601-89-8
##MP= -300
##BP= -300
##MW= 155
##$RETENTION INDEX=0
##$CONDENSED SPECTRUM=NO
##NPOINTS= 82
##XYDATA=(XY..XY) 1 
    12          1
    13          2
    14          4
    15          4
    16          2
    25          7
    26         70
    27        103
    28         46
    29         51
    30         94
    31          4
    32          3
    33          2
    34          2
    36          6
    37         52
    38         91
    39        334
    40         32
    41         21
    42         19
    43          9
    44          5
    45          5
    46          5
    47          2
    48          4
    49         18
    50         84
    51        239
    52        224
    53        194
    54        144
    55        114
    56         11
    60          4
    61         16
    62         32
    63         65
    64         25
    65         45
    66         51
    67         22
    68         33
    69         26
    70         57
    71          3
    74          2
    75          4
    76          5
    77         11
    78          5
    79         90
    80         62
    81        364
    82         34
    83          4
    90          2
    91         15
    92          3
    93        109
    94         24
    95        362
    96         45
    97         13
   107         11
   108         10
   109        999
   110         63
   111          6
   121          2
   122         16
   123          1
   125          2
   126          2
   137        111
   138          9
   139          6
   155        387
   156         27
   157          4