##TITLE=Library Entry 7149
##JCAMP-DX=Revision 4.10 
##DATA TYPE=MASS SPECTRUM
##SAMPLE DESCRIPTION=H. Fales, LC, NHLBI, NIH, Bethesda, MD 20892
##NAMES=HP
##CAS NAME=Cholestan-3-one, (5.beta.)-
##MOLFORM=C27H46O
##CAS REGISTRY NO=601-53-6
##MP= -300
##BP= -300
##MW= 386
##$RETENTION INDEX=3066
##$CONDENSED SPECTRUM=NO
##NPOINTS= 150
##XYDATA=(XY..XY) 1 
    41        401
    42         31
    43        999
    44         28
    53         71
    54          7
    55        618
    56         97
    57        345
    58         16
    59          3
    65         26
    66         14
    67        263
    68        139
    69        241
    70         49
    71        143
    72         12
    77         68
    78         21
    79        224
    80         51
    81        312
    82         82
    83        116
    84         16
    85         29
    88          5
    91        147
    92         28
    93        197
    94         63
    95        262
    96         42
    97         78
    98          8
    99          9
   103          6
   104          5
   105        129
   106         45
   107        173
   108         85
   109        164
   110         56
   111         47
   112          2
   115          6
   117         29
   118         29
   119         88
   120         48
   121        133
   122        105
   123        138
   124        104
   125         23
   129         12
   130          2
   131         44
   132         18
   133         65
   134         29
   135         71
   136         35
   137         53
   138          9
   143         14
   144          2
   145         43
   146         17
   147         59
   148         20
   149         52
   150         10
   151         13
   152         13
   157         16
   158          6
   159         76
   160         32
   161        111
   162         82
   163        100
   164         24
   165         32
   171         14
   172          2
   173         36
   174         26
   175         53
   176         58
   177         21
   178          5
   179         18
   185          9
   187         20
   188          8
   189         36
   190         18
   191         11
   199         28
   200          2
   201         12
   202          2
   203         30
   204         22
   205          6
   208          5
   213         50
   214         18
   215         38
   216          9
   217        103
   218         27
   219         10
   227          3
   228          2
   229         12
   230          9
   231        399
   232        256
   233         60
   234          9
   245          5
   246         40
   247         20
   255         15
   260          5
   261          7
   262          2
   263          6
   271          2
   272          2
   273          7
   275          5
   301          2
   315         10
   316         75
   317         19
   329         10
   353         30
   354          6
   368          5
   371         53
   372         17
   386        361
   387        111
   388         20