##TITLE=Library Entry 8639
##JCAMP-DX=Revision 4.10 
##DATA TYPE=MASS SPECTRUM
##SAMPLE DESCRIPTION=Exported from NIST MS Search
##NAMES=HP
##CAS NAME=2-Propanamine, N-(1-methylethyl)-N-nitroso-
##MOLFORM=C6H14N2O
##CAS REGISTRY NO=601-77-4
##MP= -300
##BP= -300
##MW= 130
##$RETENTION INDEX=979
##$CONDENSED SPECTRUM=NO
##NPOINTS= 73
##XYDATA=(XY..XY) 1 
    13          1
    14         16
    15        148
    16          4
    17          0
    18          2
    25          0
    26         25
    27        277
    28        104
    29         26
    30        129
    31          5
    32          1
    36          0
    37          4
    38         12
    39        124
    40         30
    41        316
    42        311
    43        999
    44         70
    45         14
    46          1
    47         21
    48          0
    49          0
    50          0
    51          1
    52          4
    53          1
    54         13
    55          5
    56         39
    57          9
    58        201
    59         12
    60          0
    64          0
    65          0
    66          0
    67          0
    68          9
    69          4
    70        338
    71         32
    72          1
    73          7
    74          0
    80          0
    81          0
    82          0
    83          0
    84         45
    85         56
    86          3
    87          1
    88         32
    89          2
    90          0
    98          1
    99          1
   100          0
   101          0
   102          0
   113          4
   114          0
   115          3
   116          0
   130        209
   131         15
   132          0