##TITLE=Library Entry 107719
##JCAMP-DX=Revision 4.10 
##DATA TYPE=MASS SPECTRUM
##SAMPLE DESCRIPTION=NIST Mass Spectrometry Data Center
##NAMES=HP
##CAS NAME=Cholest-4-en-3-one
##MOLFORM=C27H44O
##CAS REGISTRY NO=601-57-0
##MP= -300
##BP= -300
##MW= 384
##$RETENTION INDEX=3245
##$CONDENSED SPECTRUM=NO
##NPOINTS= 279
##XYDATA=(XY..XY) 1 
    15          2
    25          1
    26          2
    27         24
    28          6
    29         63
    30          1
    32          1
    37          1
    38          2
    39         30
    40          8
    41        222
    42         31
    43        381
    44         13
    45          7
    50          2
    51          5
    52          3
    53         41
    54         10
    55        273
    56         35
    57        192
    58          8
    59          3
    63          1
    64          1
    65         24
    66         11
    67        154
    68         30
    69        138
    70         18
    71         87
    72          5
    73          7
    74          1
    77         88
    78         22
    79        210
    80         31
    81        181
    82         26
    83         75
    84          7
    85         17
    86          3
    87          8
    89          4
    90          1
    91        210
    92         37
    93        189
    94         67
    95        235
    96         36
    97         67
    98          6
    99          6
   100          2
   101          5
   102          3
   103         20
   104         13
   105        190
   106         63
   107        205
   108         68
   109        171
   110         26
   111         51
   112          5
   113          4
   114          2
   115         26
   116         13
   117         68
   118         23
   119        139
   120         78
   121        182
   122        115
   123        166
   124        999
   125        103
   126          7
   127          7
   128         19
   129         33
   130         15
   131         92
   132         29
   133        151
   134        106
   135        206
   136         68
   137        104
   138         27
   139          5
   140          1
   141         12
   142         11
   143         34
   144         17
   145         79
   146         40
   147        218
   148        138
   149        174
   150         29
   151         14
   152          5
   153          4
   154          3
   155         13
   156          9
   157         28
   158         13
   159         73
   160         27
   161         64
   162         31
   163         43
   164          8
   165         15
   166          3
   167          3
   168          2
   169         12
   170         10
   171         26
   172         12
   173         54
   174         33
   175         45
   176         20
   177         26
   178          5
   179          8
   180          2
   181          3
   182          2
   183         11
   184          8
   185         26
   186         14
   187         70
   188         26
   189         29
   190          8
   191         11
   192          3
   193         11
   194          2
   195          2
   196          1
   197         12
   198          5
   199         12
   200          9
   201         32
   202         21
   203         16
   204          4
   205          8
   206         10
   207          3
   209          2
   210          1
   211         31
   212         13
   213         15
   214          6
   215         17
   216          9
   217          8
   218          3
   219          7
   220          3
   221          1
   223          1
   225          6
   226          9
   227          9
   228          8
   229        242
   230         60
   231         15
   232          4
   233          5
   234          1
   235          1
   236          1
   237          1
   239          2
   240          1
   241          2
   242          2
   243         14
   244         14
   245         33
   246          8
   247         28
   248          7
   249          1
   251          1
   252          1
   253         13
   254          3
   255          3
   256          1
   257         16
   258          6
   259          7
   260         98
   261        125
   262         24
   263          4
   264          1
   267          1
   269          3
   270          3
   271         38
   272          9
   273          4
   274          4
   275          4
   276          1
   281          2
   282          1
   283          2
   284          1
   285          3
   286         19
   287          5
   288          1
   289          1
   295          1
   297          1
   298          4
   299         42
   300         19
   301          4
   302          5
   303          1
   313          3
   314          2
   315          1
   325          1
   326          1
   327         34
   328         10
   329          2
   340          5
   341          5
   342         73
   343         20
   344          3
   351          7
   352          2
   353          1
   355          3
   356          4
   357          1
   365          1
   366         10
   367          7
   368          2
   369         44
   370         12
   371          2
   382          1
   383          3
   384        163
   385         45
   386          7
   387          1