##TITLE=Library Entry 35584
##JCAMP-DX=Revision 4.10 
##DATA TYPE=MASS SPECTRUM
##SAMPLE DESCRIPTION=Zaikin V.G., TIPS RAS, Moscow, Russia
##NAMES=HP
##CAS NAME=Cyclopropanecarboxylic acid, nonyl ester
##MOLFORM=C13H24O2
##CAS REGISTRY NO=60128-06-5
##MP= -300
##BP= -300
##MW= 212
##$RETENTION INDEX=0
##$CONDENSED SPECTRUM=NO
##NPOINTS= 56
##XYDATA=(XY..XY) 1 
    26          7
    27         29
    28          1
    29         52
    36          4
    38          4
    39         79
    40         19
    41        330
    42         76
    43        192
    44         16
    45         27
    51          3
    52          4
    53         12
    54         25
    55        222
    56        284
    57        105
    58          7
    67         26
    68         57
    69        999
    70        293
    71         65
    72          3
    73          5
    79         10
    81         12
    82         63
    83        210
    84        237
    85         59
    86         47
    87        979
    88         65
    89          7
    95          6
    96         29
    97        250
    98        175
    99         28
   111         11
   113         11
   114         10
   124         10
   125          3
   126        228
   127         25
   128          4
   137          3
   142         32
   143          4
   154          3
   155          3