##TITLE=Library Entry 10684
##JCAMP-DX=Revision 4.10 
##DATA TYPE=MASS SPECTRUM
##SAMPLE DESCRIPTION=V.G.Zaikin, TIPS RAS, Moscow, Russia
##NAMES=HP
##CAS NAME=3-Methyl-2-butenoic acid, hexadecyl ester
##MOLFORM=C21H40O2
##CAS REGISTRY NO=60129-26-2
##MP= -300
##BP= -300
##MW= 324
##$RETENTION INDEX=0
##$CONDENSED SPECTRUM=NO
##NPOINTS= 85
##XYDATA=(XY..XY) 1 
    25          7
    26         38
    27        319
    28        121
    29        559
    30         22
    31         17
    35          6
    36         29
    37         22
    38         39
    39        312
    40         81
    41        779
    42        208
    43        999
    44         76
    45         12
    49          4
    50         17
    51         35
    52         18
    53        143
    54        119
    55        912
    56        211
    57        508
    58         21
    59         21
    63          7
    65         15
    66         12
    67        106
    68         61
    69        219
    70         92
    71        221
    72         17
    77          7
    78          7
    79         15
    80          4
    81         53
    82        149
    83        880
    84         75
    85        122
    86          9
    87          4
    91          9
    92          4
    93          4
    95         22
    96         17
    97         77
    98         22
    99         38
   100        925
   101        775
   102         56
   103          9
   109          9
   110          9
   111         41
   112          8
   113         15
   117          3
   123          4
   125         17
   126          9
   127          9
   128          4
   135          2
   138          4
   139          4
   140          4
   141          6
   155          6
   167          4
   168          4
   196          4
   224          7
   323          1
   324         24
   325          5