##TITLE=Library Entry 34402
##JCAMP-DX=Revision 4.10 
##DATA TYPE=MASS SPECTRUM
##SAMPLE DESCRIPTION=V.G.Zaikin,TIPS,Russian Acad.Sci.Moscow
##NAMES=HP
##CAS NAME=Cyclopropanecarboxylic acid, propyl ester
##MOLFORM=C7H12O2
##CAS REGISTRY NO=60128-01-0
##MP= -300
##BP= -300
##MW= 128
##$RETENTION INDEX=0
##$CONDENSED SPECTRUM=NO
##NPOINTS= 39
##XYDATA=(XY..XY) 1 
    25          6
    26         66
    27        399
    28         24
    29         79
    30         15
    31         49
    36          6
    37         22
    38         59
    39        641
    40        105
    41        949
    42        287
    43        399
    44         45
    45        109
    52          9
    53          6
    55         49
    56         12
    57         11
    58         37
    59        109
    60          7
    68         55
    69        999
    70         85
    71         29
    73          9
    79          7
    85         29
    86         68
    87        835
    88         45
    89          6
    99         39
   100          3
   128          1