##TITLE=Library Entry 25995
##JCAMP-DX=Revision 4.10 
##DATA TYPE=MASS SPECTRUM
##SAMPLE DESCRIPTION=K. Jacobson, LBC, NIDDK, NIH, Bethesda, MD 20892
##NAMES=HP
##CAS NAME=7-Aminoheptanoic acid, N-t-butoxycarbonyl-
##MOLFORM=C12H23NO4
##CAS REGISTRY NO=60142-89-4
##MP= -300
##BP= -300
##MW= 245
##$RETENTION INDEX=0
##$CONDENSED SPECTRUM=NO
##NPOINTS= 188
##XYDATA=(XY..XY) 1 
    41        315
    42         61
    43        131
    44         86
    45        138
    46          9
    47          1
    48          0
    49          0
    50          3
    51          6
    52          3
    53         19
    54         13
    55        147
    56        117
    57        999
    58         17
    59        302
    60         60
    61          5
    62         11
    63          2
    64          0
    65          4
    66          2
    67         17
    68         16
    69         64
    70         13
    71         11
    72         27
    73         84
    74         51
    75          7
    76          2
    77          7
    78         10
    79          5
    80          2
    81         17
    82         21
    83         49
    84         24
    85         16
    86        434
    87         44
    88          7
    89          4
    90          1
    91          2
    92          1
    93          6
    94          1
    95          4
    96          4
    97         12
    98         24
    99         16
   100         16
   101          5
   102          6
   103          5
   104          1
   105          2
   106          7
   107          2
   108          2
   109          5
   110         32
   111         13
   112          5
   113          2
   114          3
   115          5
   116         17
   117         15
   118          1
   119          1
   120          0
   121          2
   122          2
   123          2
   124          8
   125          3
   126         23
   127         11
   128         27
   129          9
   130         70
   131          4
   132          1
   133          0
   134          1
   135          2
   136          1
   137          1
   138          1
   139          1
   140          1
   141          1
   142          4
   143          5
   144         74
   145         29
   146         38
   147          3
   148          1
   149          4
   150          1
   151          1
   152          2
   153          4
   154        319
   155         27
   156          3
   157          2
   158          1
   159          1
   160          3
   161          1
   162          0
   163          2
   164          0
   165          0
   166          0
   167          2
   168          2
   169          1
   170          2
   171         17
   172         98
   173          9
   174          1
   175          1
   176          1
   177          0
   178          0
   179          1
   180          0
   181          0
   182          0
   183          1
   184          1
   185          4
   186         52
   187          6
   188         20
   189        197
   190         25
   191          4
   192          1
   193          0
   194          0
   195          0
   196          0
   197          2
   198          3
   199          3
   200          3
   201          1
   202          1
   203          0
   204          0
   205          0
   206          0
   207          0
   211          0
   212          2
   213          5
   214          4
   215          2
   216          2
   217          0
   218          0
   219          0
   223          0
   227          0
   228          2
   229          0
   230          0
   236          0
   241          0
   242          0
   243          0
   245          1
   246          1
   247          0