##TITLE=Library Entry 44084
##JCAMP-DX=Revision 4.10 
##DATA TYPE=MASS SPECTRUM
##SAMPLE DESCRIPTION=A.Pleshkova, Nesmeyanov Inst.Org.Elem.Cpds, Moscow
##NAMES=HP
##CAS NAME=Tris(trimethylsilyl)-benzoyl-silane
##MOLFORM=C16H32OSi4
##CAS REGISTRY NO=60154-95-2
##MP= -300
##BP= -300
##MW= 352
##$RETENTION INDEX=0
##$CONDENSED SPECTRUM=NO
##NPOINTS= 79
##XYDATA=(XY..XY) 1 
    39         23
    41         34
    51         56
    52          6
    57        123
    58         12
    73        999
    74         85
    75         36
    76          1
    77         75
    78          5
   105        132
   106         10
   107          1
   129         86
   130         11
   131        135
   132         20
   133        108
   134         16
   135        286
   136         42
   137         22
   138          2
   147        256
   148         41
   149         20
   150          2
   173        188
   174         42
   175         23
   176          3
   177          1
   187        105
   188         24
   189         13
   190          2
   191          1
   193         85
   194         21
   195         11
   196          2
   205        185
   206         42
   207         16
   208          2
   232         65
   233         19
   234         11
   235          2
   236          1
   247         48
   248         15
   249        318
   250         92
   251         44
   252          9
   253          2
   263        103
   264         31
   265         15
   266          3
   267          1
   279         52
   280         16
   281          7
   282          2
   337        900
   338        337
   339        180
   340         45
   341         13
   342          3
   352         29
   353         11
   354          6
   355          2
   356          1