##TITLE=Library Entry 24039
##JCAMP-DX=Revision 4.10 
##DATA TYPE=MASS SPECTRUM
##SAMPLE DESCRIPTION=Japan AIST/NIMC Database- Spectrum MS-NW-5306
##NAMES=HP
##CAS NAME=n-Capric acid n-heptyl ester
##MOLFORM=C17H34O2
##CAS REGISTRY NO=60160-17-0
##MP= -300
##BP= -300
##MW= 270
##$RETENTION INDEX=1882
##$CONDENSED SPECTRUM=NO
##NPOINTS= 135
##XYDATA=(XY..XY) 1 
    14          1
    15          5
    17          1
    18          3
    25          1
    26         10
    27        145
    28         24
    29        295
    30          6
    31         12
    32          2
    37          2
    38          4
    39         96
    40         23
    41        553
    42        195
    43        697
    44         26
    45         16
    46          1
    49          1
    50          3
    51          5
    52          4
    53         32
    54         61
    55        441
    56        542
    57        999
    58         49
    59         13
    60        143
    61        236
    62          7
    63          3
    65          4
    66          4
    67         52
    68        106
    69        359
    70        516
    71        254
    72         15
    73        194
    74         23
    75          6
    77          3
    78          2
    79          9
    80          4
    81         60
    82         23
    83        126
    84         59
    85        110
    86          9
    87         63
    88          6
    89         31
    90          2
    91          4
    92          1
    93          6
    94          3
    95         48
    96         13
    97         60
    98        479
    99         48
   100          5
   101         34
   102          7
   103         27
   104          2
   105          1
   107          4
   108          3
   109          6
   110         21
   111         24
   112         20
   113         11
   114          4
   115         39
   116         15
   117         10
   118          1
   121          2
   122          1
   123          2
   124          1
   125          8
   126          5
   127          3
   128          3
   129        120
   130         11
   131          5
   132          1
   135          9
   136          4
   137          9
   138          2
   139          3
   141          2
   143         29
   144          3
   145          2
   152          2
   153         12
   154          3
   155        370
   156         44
   157          6
   158          2
   159          4
   169          1
   170          2
   171         11
   172         66
   173        548
   174         61
   175          6
   183          1
   185          1
   199          6
   213          7
   214          1
   227          4
   228          2
   241          1
   270          3
   271          1