##TITLE=Library Entry 16027
##JCAMP-DX=Revision 4.10 
##DATA TYPE=MASS SPECTRUM
##SAMPLE DESCRIPTION=Exported from NIST MS Search
##NAMES=HP
##CAS NAME=4,5-Isoxazoledione, 3-methyl-, 4-[(2-methylphenyl)hydrazone]
##MOLFORM=C11H11N3O2
##CAS REGISTRY NO=6017-60-3
##MP= -300
##BP= -300
##MW= 217
##$RETENTION INDEX=0
##$CONDENSED SPECTRUM=NO
##NPOINTS= 26
##XYDATA=(XY..XY) 1 
    39        350
    41        529
    44        999
    51        310
    52        270
    53        140
    63        150
    65        240
    77        519
    78        450
    79        529
    92        420
   104        739
   106        679
   107        490
   119        160
   130         50
   131        190
   132        250
   133        100
   145         90
   146        120
   172        100
   173         60
   176         50
   217        300