##TITLE=Library Entry 18750
##JCAMP-DX=Revision 4.10 
##DATA TYPE=MASS SPECTRUM
##SAMPLE DESCRIPTION=S.A. Rang et al., IR & MS of Unsatd. Hydrocarbons, 1977
##NAMES=HP
##CAS NAME=5-Tridecene
##MOLFORM=C13H24
##CAS REGISTRY NO=60186-80-3
##MP= -300
##BP= -300
##MW= 180
##$RETENTION INDEX=1306
##$CONDENSED SPECTRUM=NO
##NPOINTS= 93
##XYDATA=(XY..XY) 1 
    15          2
    25          1
    26         14
    27        263
    29        294
    30          7
    31          0
    37          1
    38          5
    39        172
    40         42
    41        588
    42         86
    43        456
    44         11
    45          1
    49          0
    50          7
    51         35
    52         74
    53        183
    54        999
    55        628
    56        104
    57         67
    58          8
    59          2
    60          0
    62          1
    63          7
    64          4
    65         61
    66         56
    67        911
    68        294
    69        243
    70         28
    71         11
    72          0
    76          1
    77         69
    78         18
    79        123
    80         48
    81        970
    82        294
    83        101
    84         19
    85          4
    86          0
    89          1
    90          0
    91         35
    92          5
    93         38
    94         17
    95        476
    96        189
    97         46
    98          5
    99          0
   103          1
   104          0
   105          4
   106          1
   107          8
   108          5
   109        145
   110        112
   111         12
   112          2
   113          0
   115          0
   117          0
   119          0
   121          2
   122          3
   123        167
   124         41
   125          4
   126          0
   135          1
   136          3
   137        112
   138         52
   139          5
   151         19
   152          3
   153          0
   156          1
   165          2
   180          5
   181          1