##TITLE=Library Entry 32421
##JCAMP-DX=Revision 4.10 
##DATA TYPE=MASS SPECTRUM
##SAMPLE DESCRIPTION=S.A. Rang et al., IR & MS of Unsatd. Hydrocarbons, 1977
##NAMES=HP
##CAS NAME=3-Tridecene
##MOLFORM=C13H24
##CAS REGISTRY NO=60186-78-9
##MP= -300
##BP= -300
##MW= 180
##$RETENTION INDEX=0
##$CONDENSED SPECTRUM=NO
##NPOINTS= 115
##XYDATA=(XY..XY) 1 
    15          2
    24          0
    25          1
    26         17
    27        233
    29        397
    30          9
    36          0
    37          1
    38          7
    39        218
    40         68
    41        867
    42        149
    43        542
    44         14
    45          2
    46          0
    49          1
    50          7
    51         30
    52         32
    53        172
    54        169
    55        602
    56        185
    57        224
    58         12
    59          1
    60          3
    61          0
    62          1
    63          8
    64          4
    65         65
    66        100
    67        999
    68        481
    69        457
    70        127
    71         65
    72          4
    73          3
    74          0
    75          1
    76          0
    77         57
    78         14
    79        117
    80         34
    81        554
    82        385
    83        130
    84         50
    85         16
    86          1
    87          0
    89          0
    90          0
    91         21
    92          3
    93         33
    94         19
    95        481
    96        123
    97         52
    98         19
    99          3
   100          0
   101          0
   102          0
   103          0
   104          0
   105          3
   106          0
   107         11
   108         12
   109        469
   110        185
   111         28
   112          7
   113          2
   114          0
   115          0
   117          0
   119          0
   121          2
   122          3
   123         84
   124         42
   125          8
   126          5
   127          1
   128          0
   129          0
   133          0
   135          2
   136          1
   137         29
   138         14
   139          2
   140          4
   141          1
   149          2
   151         53
   152          7
   153          0
   154          5
   155          0
   165          1
   166          0
   179          0
   180          2
   181          0
   182          0