##TITLE=Library Entry 32785
##JCAMP-DX=Revision 4.10 
##DATA TYPE=MASS SPECTRUM
##SAMPLE DESCRIPTION=S.A. Rang et al., IR & MS of Unsatd. Hydrocarbons, 1977
##NAMES=HP
##CAS NAME=4-Tridecyne
##MOLFORM=C13H24
##CAS REGISTRY NO=60186-79-0
##MP= -300
##BP= -300
##MW= 180
##$RETENTION INDEX=1310
##$CONDENSED SPECTRUM=NO
##NPOINTS= 94
##XYDATA=(XY..XY) 1 
    15          6
    25          1
    26         11
    27        209
    28         17
    29        314
    30          6
    31          0
    37          1
    38          4
    39        157
    40         36
    41        587
    42         71
    43        262
    44          4
    45          1
    50          7
    51         34
    52         57
    53        164
    54        307
    55        494
    56         59
    57        114
    58          6
    59          0
    60          1
    62          0
    63          7
    64          3
    65         57
    66         47
    67        999
    68        130
    69        112
    70         22
    71          8
    72          0
    73          0
    75          2
    76          0
    77         76
    78         18
    79        149
    80         94
    81        695
    82        217
    83         63
    84          7
    85          2
    86          0
    89          0
    91         33
    92          5
    93         37
    94         12
    95        284
    96        122
    97         32
    98          5
   103          1
   104          0
   105          4
   106          0
   107          9
   108          3
   109        124
   110         38
   111          4
   112          1
   115          0
   117          0
   119          0
   121          3
   122          3
   123        142
   124         63
   125          6
   126          0
   135          1
   136          0
   137         65
   138         16
   139          2
   141          0
   149          0
   151         10
   152          2
   153          0
   165          5
   166          0
   167          0
   180          1