##TITLE=Library Entry 29161
##JCAMP-DX=Revision 4.10 
##DATA TYPE=MASS SPECTRUM
##SAMPLE DESCRIPTION=A.A.Kutin, Moscow, Russia
##NAMES=HP
##CAS NAME=Propanamine, 1-(1-adamantyl)-
##MOLFORM=C13H23N
##CAS REGISTRY NO=60196-90-9
##MP= -300
##BP= -300
##MW= 193
##$RETENTION INDEX=0
##$CONDENSED SPECTRUM=NO
##NPOINTS= 96
##XYDATA=(XY..XY) 1 
    35         12
    36         40
    38         21
    39         39
    41        142
    42         28
    43         39
    44          6
    50          0
    51          9
    53         39
    54         21
    55         43
    57        623
    58        999
    59         35
    60          0
    62          0
    63          2
    64          0
    65         30
    66         17
    67         58
    68         18
    69         21
    70         14
    71          2
    72          2
    75          1
    77        111
    79        220
    80         39
    81         53
    82         16
    83          6
    84         10
    85          0
    89          1
    90          0
    91        134
    92         47
    93        117
    94         34
    95         17
    96          7
    97          1
    98          2
   103         10
   104          8
   105         54
   106         29
   107         54
   108         18
   109          3
   110          1
   115          9
   117         13
   118          5
   119         25
   120         17
   121         10
   122          6
   123          1
   128          1
   129          1
   130          3
   131          4
   133         15
   134         16
   135        135
   136         16
   137          0
   144          0
   145          2
   146          1
   147          5
   148          9
   149          2
   150          0
   158          0
   160         22
   161          5
   162          4
   164        986
   165        122
   166          4
   171          1
   174          1
   175          0
   176          2
   178          0
   188          0
   191          2
   192         24
   193          6
   194          2