##TITLE=Library Entry 91188
##JCAMP-DX=Revision 4.10 
##DATA TYPE=MASS SPECTRUM
##SAMPLE DESCRIPTION=Japan AIST/NIMC Database- Spectrum MS-NW- 229
##NAMES=HP
##CAS NAME=Naphthalene, 1,8-dinitro-
##MOLFORM=C10H6N2O4
##CAS REGISTRY NO=602-38-0
##MP= -300
##BP= -300
##MW= 218
##$RETENTION INDEX=0
##$CONDENSED SPECTRUM=NO
##NPOINTS= 104
##XYDATA=(XY..XY) 1 
    16          1
    18          4
    26          1
    27          5
    28          9
    30         51
    32          2
    37          5
    38         11
    39         33
    40          2
    41          2
    46          8
    49          3
    50         66
    51         51
    52         11
    53          2
    55          1
    57          1
    61         17
    62         66
    63        118
    64         40
    65          5
    73          7
    74        112
    75        117
    76         79
    77         30
    78          5
    79          1
    85          7
    86         36
    87         64
    88        154
    89         61
    90         15
    91          7
    92          2
    93          1
    97          4
    98         40
    99         39
   100         35
   101         46
   102         85
   103          9
   104         18
   105          8
   106          1
   109          1
   110          4
   111          6
   112          5
   113        206
   114        999
   115        107
   116        116
   117         15
   118          7
   119         34
   120          8
   121          3
   122          9
   123          3
   124          1
   125         12
   126        117
   127         26
   128         17
   129          9
   130         28
   131          5
   132         16
   133          4
   137          1
   140          2
   141          9
   142        213
   143         24
   144         25
   145          4
   146          3
   149          1
   156          6
   157          2
   158         19
   159          6
   160          3
   169          1
   170          1
   171          3
   172        737
   173         92
   174          8
   175          2
   187          2
   188          4
   202          6
   217          5
   218        238
   219         26
   220          3