##TITLE=Library Entry 71746
##JCAMP-DX=Revision 4.10 
##DATA TYPE=MASS SPECTRUM
##SAMPLE DESCRIPTION=ASES Database, Dalian Institute, P.R. China
##NAMES=HP
##CAS NAME=N-Dimethylamino-methylidene-2-amino-octadecan-1,3-diol methanebor
onate
##MOLFORM=C22H45BN2O2
##CAS REGISTRY NO=60203-28-3
##MP= -300
##BP= -300
##MW= 380
##$RETENTION INDEX=0
##$CONDENSED SPECTRUM=NO
##NPOINTS= 13
##XYDATA=(XY..XY) 1 
    43        260
    44        254
    57        204
    72        335
    73        613
    97        278
    98        999
   125        246
   336        376
   364        228
   365        902
   366        226
   380        128