##TITLE=Library Entry 109242
##JCAMP-DX=Revision 4.10 
##DATA TYPE=MASS SPECTRUM
##SAMPLE DESCRIPTION=ASES Database, Dalian Institute, P.R. China
##NAMES=HP
##CAS NAME=2-Methyl-N-(1-methylethylidene)-4-[(1E)-1-pentadecenyl]-1,3,2-dio
xaborinan-5-amine  #
##MOLFORM=C22H42BNO2
##CAS REGISTRY NO=60203-39-6
##MP= -300
##BP= -300
##MW= 363
##$RETENTION INDEX=0
##$CONDENSED SPECTRUM=NO
##NPOINTS= 13
##XYDATA=(XY..XY) 1 
    41         99
    42        100
    43        160
    58         79
    68        299
    83        409
    84         79
   110         90
   124        299
   125        999
   126         99
   348         10
   363          9