##TITLE=Library Entry 36533
##JCAMP-DX=Revision 4.10 
##DATA TYPE=MASS SPECTRUM
##SAMPLE DESCRIPTION=NIST Mass Spectrometry Data Center, 1995
##NAMES=HP
##CAS NAME=Propiconazole
##MOLFORM=C15H17Cl2N3O2
##CAS REGISTRY NO=60207-90-1
##MP= -300
##BP= -300
##MW= 341
##$RETENTION INDEX=2351
##$CONDENSED SPECTRUM=NO
##NPOINTS= 123
##XYDATA=(XY..XY) 1 
    14          0
    15          7
    17          5
    18          1
    26          9
    27         98
    28        308
    29         59
    30          8
    38          8
    39         74
    41        501
    42         77
    43         78
    44         17
    45          5
    50         16
    51         15
    52          4
    53         28
    54         29
    55        171
    56         13
    57         14
    61          7
    62          3
    63         15
    64          4
    67         34
    69        999
    70         80
    71         10
    72          4
    73         16
    74         35
    75         70
    76          8
    77          8
    82         75
    83          5
    84          9
    85         19
    86         49
    87         12
    88          5
    89         14
    96         17
    97          7
    98          6
    99         24
   100         15
   101         10
   102          8
   103          5
   109         83
   110         58
   111         53
   112         20
   113         14
   114          8
   123         31
   124         17
   125         13
   126          6
   127          6
   128         98
   129          7
   133          3
   134          5
   135         23
   136         25
   137         13
   138         54
   139         47
   140         17
   141         18
   145        162
   146         19
   147        119
   148         10
   149         25
   150         10
   151          7
   156          5
   157          4
   159         54
   160          5
   161         33
   162          4
   163          7
   165          4
   170          5
   171         16
   173        880
   174         86
   175        572
   176         52
   177         91
   178          9
   184          3
   187          8
   188          3
   189          5
   190          3
   191        285
   192         35
   193        188
   194         18
   195         36
   204          8
   206         17
   207          1
   208          2
   256         11
   257          4
   259        854
   260        110
   261        555
   262         71
   263         92
   264         10
   298          9
   300          5