##TITLE=Library Entry 32451
##JCAMP-DX=Revision 4.10 
##DATA TYPE=MASS SPECTRUM
##SAMPLE DESCRIPTION=NIST Mass Spectrometry Data Center, 1990.
##NAMES=HP
##CAS NAME=3-Undecyne
##MOLFORM=C11H20
##CAS REGISTRY NO=60212-30-8
##MP= -300
##BP= -300
##MW= 152
##$RETENTION INDEX=1115
##$CONDENSED SPECTRUM=NO
##NPOINTS= 47
##XYDATA=(XY..XY) 1 
    14          2
    15          7
    27        201
    28         66
    29        170
    32          3
    39        254
    40         80
    41        516
    42         66
    43        227
    44         12
    50         22
    51         53
    52         44
    53        141
    54         65
    55        297
    56         47
    57         26
    62          5
    63         19
    64          8
    65         78
    66          5
    67        999
    68        219
    69         97
    70         14
    77         62
    78         16
    79        118
    80          8
    81        365
    82        130
    83         21
    84          4
    91         26
    93         27
    95        161
    96         36
   107          9
   109        205
   110         87
   111          8
   123         98
   124         10