##TITLE=Library Entry 87459
##JCAMP-DX=Revision 4.10 
##DATA TYPE=MASS SPECTRUM
##SAMPLE DESCRIPTION=Chemical Concepts
##NAMES=HP
##CAS NAME=1-Cyclohexen-2-ol, 3-(3-oxopropyl)-
##MOLFORM=C11H16O3
##CAS REGISTRY NO=60211-10-1
##MP= -300
##BP= -300
##MW= 196
##$RETENTION INDEX=0
##$CONDENSED SPECTRUM=NO
##NPOINTS= 109
##XYDATA=(XY..XY) 1 
    26         24
    27        222
    28          5
    29         91
    37          9
    38         21
    39        277
    40         90
    41        362
    42         79
    43        488
    44         48
    45          8
    50         22
    51         54
    52         30
    53        143
    54        191
    55        343
    56         27
    57         93
    58         49
    59          5
    60          3
    61          5
    62          4
    63         15
    64          5
    65         53
    66         48
    67        481
    68         93
    69         59
    70        165
    71        106
    72          5
    73         14
    74          7
    75          3
    76          4
    77        100
    78         34
    79        321
    80        162
    81        250
    82        155
    83        100
    84         23
    85         15
    86         74
    87          7
    89          4
    91        103
    92         60
    93        227
    94        417
    95        258
    96         55
    97        153
    98        326
    99         28
   100          4
   103          5
   104          5
   105         15
   106          5
   107        107
   108        212
   109        120
   110        999
   111        130
   113          5
   115         10
   117         17
   118         29
   119         12
   120          5
   121         39
   122         33
   123          8
   124          9
   125         27
   126         30
   127          4
   128          3
   129          3
   131          3
   133          4
   134          5
   135        110
   136        550
   137         76
   138          7
   139          4
   140          6
   147          4
   148          5
   149          6
   150         17
   152         27
   153         72
   154        153
   155         15
   168          3
   176          4
   178         16
   179          3
   196         39
   197          4