##TITLE=Library Entry 32780
##JCAMP-DX=Revision 4.10 
##DATA TYPE=MASS SPECTRUM
##SAMPLE DESCRIPTION=S.A. Rang et al., IR & MS of Unsatd. Hydrocarbons, 1977
##NAMES=HP
##CAS NAME=4-Tetradecyne
##MOLFORM=C14H26
##CAS REGISTRY NO=60212-33-1
##MP= -300
##BP= -300
##MW= 194
##$RETENTION INDEX=1407
##$CONDENSED SPECTRUM=NO
##NPOINTS= 117
##XYDATA=(XY..XY) 1 
    24          0
    25          1
    26         13
    27        171
    28         11
    29        281
    30          6
    31          1
    37          1
    38          4
    39        119
    40         31
    41        529
    42         78
    43        347
    44         11
    45          3
    49          0
    50          5
    51         24
    52         43
    53        137
    54        364
    55        480
    56         70
    57        137
    58         19
    59          2
    60         15
    61          2
    62          0
    63          5
    64          2
    65         42
    66         42
    67        999
    68        165
    69        256
    70         39
    71         37
    72          3
    73         11
    74          1
    76          0
    77         55
    78         15
    79        114
    80         37
    81        711
    82        308
    83        108
    84         15
    85         10
    86          4
    87          2
    88          0
    89          0
    91         24
    92          4
    93         32
    94         14
    95        380
    96        188
    97         46
    98          8
    99          2
   100          1
   101          1
   102          0
   103          0
   104          0
   105          3
   106          0
   107         10
   108          5
   109        194
   110         78
   111         12
   112          4
   113          1
   114          0
   115          2
   117          0
   119          0
   121          4
   122          5
   123        176
   124         96
   125          9
   126          1
   127          0
   128          0
   129          2
   131          0
   135          1
   136          1
   137         51
   138         29
   139          3
   140          0
   141          0
   151         48
   152         12
   153          1
   155          1
   163          0
   165          9
   166          1
   167          1
   169          1
   170          0
   179         13
   180          1
   181          1
   193          0
   194          4
   195          0