##TITLE=Library Entry 49984
##JCAMP-DX=Revision 4.10 
##DATA TYPE=MASS SPECTRUM
##SAMPLE DESCRIPTION=S.A. Rang et al., IR & MS of Unsatd. Hydrocarbons, 1977
##NAMES=HP
##CAS NAME=5-Tetradecyne
##MOLFORM=C14H26
##CAS REGISTRY NO=60212-34-2
##MP= -300
##BP= -300
##MW= 194
##$RETENTION INDEX=1404
##$CONDENSED SPECTRUM=NO
##NPOINTS= 129
##XYDATA=(XY..XY) 1 
    15          6
    16          0
    24          0
    25          2
    26         16
    27        249
    28         17
    29        338
    30          8
    31          3
    37          1
    38          5
    39        160
    40         39
    41        655
    42         95
    43        434
    44         16
    45          8
    46          0
    49          0
    50          6
    51         28
    52         61
    53        178
    54        913
    55        758
    56        112
    57        184
    58         23
    59          5
    60         51
    61          5
    62          1
    63          6
    64          4
    65         54
    66         59
    67        879
    68        285
    69        237
    70         45
    71         28
    72          3
    73         31
    74          3
    75          3
    76          1
    77         72
    78         20
    79        134
    80         57
    81        999
    82        374
    83        104
    84         19
    85         14
    86          2
    87          4
    88          0
    89          0
    90          0
    91         35
    92          6
    93         41
    94         23
    95        569
    96        249
    97         79
    98         14
    99          4
   100          2
   101          3
   102          0
   103          1
   104          0
   105          5
   106          1
   107         12
   108          6
   109        166
   110         87
   111         20
   112          5
   113          1
   114          1
   115          5
   116          0
   117          0
   119          1
   120          0
   121          4
   122          3
   123        118
   124         79
   125          9
   126          1
   127          2
   128          0
   129          3
   130          0
   133          0
   135          3
   136          0
   137        172
   138         73
   139          8
   140          0
   141          2
   142          0
   143          0
   149          1
   150          1
   151         30
   152         15
   153          3
   154          0
   155          1
   156          0
   158          0
   165         25
   166          4
   167          2
   168          0
   179          3
   180          0
   193          0
   194          5
   195          0