##TITLE=Library Entry 32861
##JCAMP-DX=Revision 4.10 
##DATA TYPE=MASS SPECTRUM
##SAMPLE DESCRIPTION=S.A. Rang et al., IR & MS of Unsatd. Hydrocarbons, 1977
##NAMES=HP
##CAS NAME=3-Tetradecyne
##MOLFORM=C14H26
##CAS REGISTRY NO=60212-32-0
##MP= -300
##BP= -300
##MW= 194
##$RETENTION INDEX=1414
##$CONDENSED SPECTRUM=NO
##NPOINTS= 100
##XYDATA=(XY..XY) 1 
    24          0
    25          2
    26         15
    27         23
    28         15
    29        325
    30          9
    31          1
    37          1
    38          5
    39        165
    40         51
    41        227
    42        374
    43        509
    44         20
    45          2
    46          0
    49          0
    50          4
    51         24
    52         27
    53        144
    54        160
    55        524
    56         98
    57        165
    58         72
    59          3
    62          1
    63          6
    64          3
    65         56
    66         93
    67        999
    68        490
    69        359
    70         56
    71         41
    72          5
    73          1
    76          0
    77         51
    78         14
    79        113
    80         36
    81        614
    82        479
    83        179
    84         25
    85         15
    86         32
    87          2
    91         24
    92          3
    93         36
    94         23
    95        539
    96        149
    97         46
    98          6
    99          1
   100          0
   103          0
   104          3
   106          1
   107         14
   108         16
   109        539
   110        224
   111         25
   112          4
   113          0
   115          0
   119          0
   121          5
   122          5
   123        113
   124         46
   125          5
   126          1
   135          2
   136          1
   137         14
   138         16
   139          2
   140          1
   149          2
   150          1
   151         19
   152         11
   153          1
   163          2
   164          1
   165         43
   166          6
   179          1
   193          0
   194          4
   195          0