##TITLE=Library Entry 33043
##JCAMP-DX=Revision 4.10 
##DATA TYPE=MASS SPECTRUM
##SAMPLE DESCRIPTION=NIST Mass Spectrometry Data Center, 1990.
##NAMES=HP
##CAS NAME=2-Undecyne
##MOLFORM=C11H20
##CAS REGISTRY NO=60212-29-5
##MP= -300
##BP= -300
##MW= 152
##$RETENTION INDEX=1146
##$CONDENSED SPECTRUM=NO
##NPOINTS= 53
##XYDATA=(XY..XY) 1 
    14         16
    16          7
    27        254
    28         17
    29        213
    30          5
    37          4
    39        385
    40         96
    41        740
    42        109
    43        274
    44         18
    50         46
    51        124
    52         95
    53        423
    54        342
    55        635
    56        103
    57        179
    58          8
    62          7
    63         29
    65        126
    66        116
    67        999
    68        475
    69        171
    70         45
    71          6
    77        119
    78         29
    79        253
    80         93
    81        756
    82        173
    83         28
    84          6
    91         46
    93         78
    95        962
    96        278
    97         41
    98          3
   105          5
   107         12
   109        211
   110         80
   111          7
   123         55
   124          9
   137          9