##TITLE=Library Entry 47186
##JCAMP-DX=Revision 4.10 
##DATA TYPE=MASS SPECTRUM
##SAMPLE DESCRIPTION=NIST Mass Spectrometry Data Center, 1994
##NAMES=HP
##CAS NAME=3,5-Dichlorobenzyl alcohol
##MOLFORM=C7H6Cl2O
##CAS REGISTRY NO=60211-57-6
##MP= -300
##BP= -300
##MW= 176
##$RETENTION INDEX=0
##$CONDENSED SPECTRUM=NO
##NPOINTS= 104
##XYDATA=(XY..XY) 1 
    12          3
    14          2
    15          5
    16          4
    17          9
    18         11
    25          7
    26         24
    27         42
    28         13
    29        261
    30         25
    31        180
    35         24
    36         31
    37         92
    38        118
    39         68
    40          6
    42          6
    43         40
    44         18
    47         14
    48          8
    49         63
    50        238
    51        241
    52        115
    53         22
    55         24
    56         31
    57          7
    60         31
    61         80
    62         92
    63         96
    64          8
    65          5
    70         19
    71         13
    72         27
    73        127
    74        240
    75        374
    76         59
    77        999
    78         91
    79          8
    83          6
    84         55
    85         73
    86         57
    87         57
    88         18
    89         45
    96          6
    97         25
    98          4
    99         16
   101          5
   105         11
   107          7
   108         13
   109         95
   110         44
   111        497
   112        105
   113        570
   114         54
   115        137
   116         10
   123         92
   124         18
   125         31
   126          7
   133         11
   135          8
   139        112
   140         59
   141        459
   142         52
   143        127
   144         15
   145         45
   146         28
   147        138
   148         24
   149         77
   150          7
   151         11
   159         57
   160          8
   161         34
   162          4
   163          5
   173         20
   174          9
   175         61
   176        361
   177         67
   178        253
   179         23
   180         38
   181          4