##TITLE=Library Entry 32453
##JCAMP-DX=Revision 4.10 
##DATA TYPE=MASS SPECTRUM
##SAMPLE DESCRIPTION=D.HENNEBERG, MAX-PLANCK INSTITUTE, MULHEIM, WEST GERMAN
Y
##NAMES=HP
##CAS NAME=4-Undecyne
##MOLFORM=C11H20
##CAS REGISTRY NO=60212-31-9
##MP= -300
##BP= -300
##MW= 152
##$RETENTION INDEX=1108
##$CONDENSED SPECTRUM=NO
##NPOINTS= 76
##XYDATA=(XY..XY) 1 
    26         20
    27        348
    28         43
    29        306
    30          1
    37          3
    38         22
    39        339
    40         63
    41        539
    42         77
    43        278
    44          4
    45          0
    49          0
    50         32
    51         99
    52        118
    53        204
    54        295
    55        350
    56         36
    57         12
    58          0
    61          0
    62          3
    63         27
    64          6
    65         73
    66         52
    67        999
    68        149
    69        110
    70         11
    71          1
    74          0
    75          2
    76          0
    77         83
    78         25
    79        128
    80         34
    81        532
    82        106
    83         26
    84          0
    85          0
    86          0
    87          0
    89          0
    90          0
    91         27
    92          0
    93         22
    94          5
    95        167
    96         87
    97          6
    98          0
   100          0
   103          0
   105          0
   106          0
   107          1
   108          0
   109        229
   110         52
   111          0
   115          0
   121          0
   122          0
   123        165
   124         14
   125          0
   137          0
   152          0