##TITLE=Library Entry 76507
##JCAMP-DX=Revision 4.10 
##DATA TYPE=MASS SPECTRUM
##SAMPLE DESCRIPTION=ASES Database, Dalian Institute, P.R. China
##NAMES=HP
##CAS NAME=(a-Methyl-4-fluoro)benzyl triethylsilyl ether
##MOLFORM=C14H23FOSi
##CAS REGISTRY NO=60221-77-4
##MP= -300
##BP= -300
##MW= 254
##$RETENTION INDEX=0
##$CONDENSED SPECTRUM=NO
##NPOINTS= 15
##XYDATA=(XY..XY) 1 
    47        179
    59         59
    75        437
    76         30
    77         39
    87         40
   103        999
   104         99
   105         59
   115         30
   123         99
   225        200
   226         19
   239         29
   254          9