##TITLE=Library Entry 81584
##JCAMP-DX=Revision 4.10 
##DATA TYPE=MASS SPECTRUM
##SAMPLE DESCRIPTION=D.HENNEBERG, MAX-PLANCK INSTITUTE, MULHEIM, WEST GERMAN
Y
##NAMES=HP
##CAS NAME=Cyclohexasilane, 1,2,3,4,5,6-hexaphenyl-
##MOLFORM=C36H36Si6
##CAS REGISTRY NO=60221-63-8
##MP= -300
##BP= -300
##MW= 636
##$RETENTION INDEX=0
##$CONDENSED SPECTRUM=NO
##NPOINTS= 258
##XYDATA=(XY..XY) 1 
    93         78
   105        999
   106        138
   107        151
   133         81
   161         59
   181        343
   182         68
   183        704
   184        132
   185         55
   189         76
   190         67
   208         61
   209        167
   210         82
   211        141
   212         50
   235         80
   236         60
   237         79
   238        126
   239         93
   240         50
   257         90
   259        594
   260        151
   261         52
   263         48
   264         41
   265        156
   266        291
   267        184
   268        289
   269        132
   270         74
   271         30
   273         29
   285         59
   286         27
   287         69
   288         26
   289         30
   312         47
   313         79
   314        131
   315        189
   316         84
   317         49
   318         31
   339         32
   340         48
   341        142
   342        209
   343        350
   344        700
   345        473
   346        307
   347        120
   348         44
   349         15
   363         13
   365         13
   369         32
   370         25
   371         32
   372         38
   373         65
   374        118
   375         73
   376        169
   377         76
   378         41
   379         14
   387          7
   388         12
   389         48
   390         38
   391         73
   392         42
   393         41
   394         18
   395         12
   396          5
   397          3
   399          2
   400          2
   401          2
   403          3
   404          2
   405          6
   406          3
   407          4
   408          2
   409          3
   410          2
   411          2
   415         13
   416         14
   417         47
   418         39
   419        148
   420        304
   421        378
   422        252
   423        121
   424         49
   425         18
   426          6
   427          2
   428          1
   429          2
   430          1
   431          2
   432          1
   434          1
   435          1
   443         11
   444          8
   445         24
   446         18
   447         28
   448         28
   449         61
   450         82
   451         71
   452        453
   453        244
   454        132
   455         46
   456         17
   457          4
   458          2
   459          1
   461          0
   462          0
   463          1
   464          0
   465          3
   466          3
   467          5
   468          5
   469          7
   470          4
   471          3
   472          1
   473          1
   475          1
   476          1
   477          1
   478          1
   479          2
   480          4
   481          3
   482          2
   483          1
   484          1
   485          1
   486          1
   491          4
   492          3
   493          6
   494          4
   495         11
   496         23
   497         57
   498         34
   499         24
   500         11
   501          5
   502          1
   503          1
   504          0
   505          0
   506          0
   507          0
   508          0
   511          0
   512          1
   514          0
   516          0
   517          1
   519          2
   520          2
   521          4
   523          7
   524          6
   525         15
   526         15
   527         20
   528         98
   529         71
   530        163
   531         81
   532         44
   533         15
   534          4
   535          1
   539          0
   540          0
   543          0
   544          0
   546          0
   547          0
   550          0
   552          1
   553          1
   554          0
   555          2
   556          1
   557          2
   558         28
   559         17
   560         14
   561          6
   562          3
   563          1
   564          0
   565          0
   566          0
   573          1
   574          1
   575          1
   576          1
   577          0
   578          0
   581          0
   588          0
   593          0
   599          0
   601          1
   602          1
   603          1
   604          2
   605          7
   606          4
   607          2
   608          1
   609          0
   611          0
   612          0
   615          0
   616          0
   617          0
   618          0
   620          0
   621          0
   622          0
   624          0
   626          0
   629          0
   631          1
   633          1
   636        314
   637        224
   638        139
   639         56
   640         19