##TITLE=Library Entry 114845
##JCAMP-DX=Revision 4.10 
##DATA TYPE=MASS SPECTRUM
##SAMPLE DESCRIPTION=A.A.Kutin, Moscow, Russia
##NAMES=HP
##CAS NAME=Benzonitrile, 4-azidocarbonyl-
##MOLFORM=C8H4N4O
##CAS REGISTRY NO=60236-80-8
##MP= -300
##BP= -300
##MW= 172
##$RETENTION INDEX=0
##$CONDENSED SPECTRUM=NO
##NPOINTS= 81
##XYDATA=(XY..XY) 1 
    33          2
    34          3
    36         15
    37        123
    38        145
    39         68
    40         56
    41         24
    42         35
    43         20
    44         36
    45         11
    48          8
    49         54
    50        271
    51        222
    52         85
    53         12
    54          4
    55          3
    56          2
    57          4
    58          8
    59          4
    60          8
    61         41
    62        141
    63        102
    64         85
    65         58
    66         15
    67          3
    69          2
    70          3
    71          2
    72          9
    73         28
    74         89
    75        242
    76        146
    77         16
    78          1
    83          1
    84          2
    85          5
    86          8
    87         13
    88         37
    89        119
    90         17
    91          3
    98          3
    99         22
   100         18
   102        575
   103         45
   104          2
   105          0
   114          0
   116         70
   117          8
   118          4
   119          1
   128         42
   130        999
   131         85
   132          6
   144         48
   145          4
   146          6
   147         16
   148          1
   149          1
   160          7
   161         17
   162          1
   172         22
   173          2
   174          1
   175          3
   176          0