##TITLE=Library Entry 35040
##JCAMP-DX=Revision 4.10 
##DATA TYPE=MASS SPECTRUM
##SAMPLE DESCRIPTION=NIST Mass Spectrometry Data Center, 1998.
##NAMES=HP
##CAS NAME=Methyl tetrahydroionol
##MOLFORM=C14H28O
##CAS REGISTRY NO=60241-53-4
##MP= -300
##BP= -300
##MW= 212
##$RETENTION INDEX=0
##$CONDENSED SPECTRUM=NO
##NPOINTS= 113
##XYDATA=(XY..XY) 1 
    15          4
    19         10
    26          2
    27         69
    28         13
    29        125
    30          4
    31         12
    38          2
    39        107
    40         24
    41        563
    42         70
    43        337
    44         15
    45        398
    46          9
    47          1
    50          2
    51         12
    52          7
    53        115
    54         36
    55        844
    56        305
    57        286
    58         37
    59         14
    60          1
    62          1
    63          2
    64          1
    65         33
    66         13
    67        283
    68        228
    69        999
    70        219
    71        116
    72        152
    73         15
    74          1
    77         38
    78          7
    79         65
    80         44
    81        416
    82        429
    83        409
    84         68
    85        267
    86         23
    87          3
    91         22
    92          3
    93         17
    94         25
    95        501
    96        161
    97        224
    98         77
    99        155
   100         12
   101          6
   102          1
   103          1
   109        815
   110        136
   111        102
   112         22
   113          6
   114          1
   115          7
   116          1
   123        371
   124        348
   125        100
   126         38
   127         23
   128          8
   129          1
   136          2
   137         66
   138        148
   139         38
   140          9
   141          5
   142          1
   150          2
   151         33
   152          6
   153         16
   154          2
   155         30
   156          6
   157          1
   163          1
   165         14
   166          4
   167          1
   168         21
   169          4
   179        150
   180         22
   181          2
   194         96
   195         14
   196          1
   197         13
   198          2
   212         66
   213         10
   214          1