##TITLE=Library Entry 82767
##JCAMP-DX=Revision 4.10 
##DATA TYPE=MASS SPECTRUM
##SAMPLE DESCRIPTION=Japan AIST/NIMC Database- Spectrum MS-NW-2526
##NAMES=HP
##CAS NAME=1-p-Nitrobenzyl-3-p-tolyltriazene
##MOLFORM=C14H14N4O2
##CAS REGISTRY NO=60259-80-5
##MP= -300
##BP= -300
##MW= 270
##$RETENTION INDEX=0
##$CONDENSED SPECTRUM=NO
##NPOINTS= 166
##XYDATA=(XY..XY) 1 
    14          8
    15          3
    16          1
    26          7
    27         38
    28        242
    29          8
    30        150
    31         12
    37          7
    38         16
    39         93
    40         13
    41         27
    42          9
    43          3
    44          4
    45          5
    46          2
    49          4
    50         50
    51         92
    52         60
    53         44
    54         15
    55          3
    56          1
    57          2
    58          1
    59          6
    61          6
    62         20
    63         78
    64         32
    65        140
    66         16
    67          6
    68          1
    69          2
    70          2
    71          2
    73          3
    74         10
    75         17
    76         30
    77        204
    78        169
    79        174
    80         29
    81          4
    82          3
    83         12
    84          3
    85          2
    86          4
    87          5
    88          5
    89        186
    90        138
    91        583
    92         61
    93         12
    94          3
    95          5
    96         15
    97          4
    98          4
    99          1
   101          2
   102         13
   103          9
   104         44
   105         48
   106        999
   107        438
   108         33
   109          2
   113          2
   114          1
   115         10
   116          6
   117          5
   118         52
   119        122
   120        256
   121         28
   122          1
   126          2
   127          5
   128          7
   129          3
   130          8
   131          4
   132          2
   133          4
   134          1
   135          5
   136        160
   137         35
   138          3
   139          5
   140          3
   141          5
   142          3
   143          4
   144          4
   145          1
   148          5
   149          3
   150         15
   151         39
   152         28
   153         12
   154          9
   155          3
   156          4
   157          4
   158          2
   163          5
   164          5
   165         18
   166          9
   167         15
   168         10
   169          6
   170          2
   176          4
   177          5
   178         24
   179         23
   180         68
   181         60
   182         14
   183          3
   184          2
   190          1
   191          4
   192         10
   193         51
   194         65
   195         64
   196         85
   197         16
   198          2
   207          1
   208          3
   209          9
   210         14
   211          4
   212          4
   213          1
   224          2
   225          3
   226          7
   227         40
   228          7
   238          1
   239         18
   240         70
   241         64
   242        532
   243         82
   244          9
   270         13
   271          2
   272          2