##TITLE=Library Entry 114800
##JCAMP-DX=Revision 4.10 
##DATA TYPE=MASS SPECTRUM
##SAMPLE DESCRIPTION=RADIAN CORP
##NAMES=HP
##CAS NAME=Silanediamine, N,N'-dibutyl-1,1-dimethyl-
##MOLFORM=C10H26N2Si
##CAS REGISTRY NO=6026-43-3
##MP= -300
##BP= -300
##MW= 202
##$RETENTION INDEX=0
##$CONDENSED SPECTRUM=NO
##NPOINTS= 67
##XYDATA=(XY..XY) 1 
    26          6
    27         85
    29         60
    39          4
    40          2
    41        120
    42         11
    43        110
    44         45
    45         45
    46         18
    55         20
    56         19
    57         22
    58         99
    59        377
    60         67
    61         11
    67          2
    70         19
    71          2
    72         74
    73         12
    74        130
    75         26
    77          3
    84          4
    85         14
    86         84
    87         74
    88        661
    89         69
    90         19
    92          9
    94          4
    96          8
    98         19
    99         15
   100         42
   101         88
   102         16
   103         42
   110          5
   112          5
   114        179
   115         41
   116        144
   117         35
   118          6
   120          2
   123          1
   125          3
   128        346
   129         58
   130        999
   131        128
   132         45
   133          3
   143          4
   159        651
   160         85
   161         22
   162          3
   187        114
   188         45
   189          3
   202         35