##TITLE=Library Entry 44546
##JCAMP-DX=Revision 4.10 
##DATA TYPE=MASS SPECTRUM
##SAMPLE DESCRIPTION=Chemical Concepts
##NAMES=HP
##CAS NAME=Pentanoic acid, 5-oxo-, methyl ester
##MOLFORM=C6H10O3
##CAS REGISTRY NO=6026-86-4
##MP= -300
##BP= -300
##MW= 130
##$RETENTION INDEX=0
##$CONDENSED SPECTRUM=NO
##NPOINTS= 65
##XYDATA=(XY..XY) 1 
    25          0
    26         24
    27        273
    28          8
    29        238
    30         11
    31         84
    33         13
    34          1
    35          1
    37          3
    38         13
    39        189
    40         30
    41        353
    42        482
    43        848
    44         90
    45         41
    46          1
    49          0
    50          1
    51          4
    52          2
    53         16
    54          6
    55        427
    56         19
    57         46
    58         29
    59        437
    60         13
    61          4
    66          0
    67          0
    68          7
    69         36
    70        196
    71        313
    72         15
    73          5
    74        999
    75         34
    76          4
    80          0
    81          6
    82          2
    83          0
    84          0
    85          1
    87        100
    88          4
    97         23
    98        413
    99        458
   100         26
   101         20
   102        216
   103         12
   104          0
   111          2
   112          2
   129          0
   130          1
   131          2