##TITLE=Library Entry 34493
##JCAMP-DX=Revision 4.10 
##DATA TYPE=MASS SPECTRUM
##SAMPLE DESCRIPTION=RADIAN CORP
##NAMES=HP
##CAS NAME=Pentane, 1-chloro-5-iodo-
##MOLFORM=C5H10ClI
##CAS REGISTRY NO=60274-60-4
##MP= -300
##BP= -300
##MW= 232
##$RETENTION INDEX=0
##$CONDENSED SPECTRUM=NO
##NPOINTS= 57
##XYDATA=(XY..XY) 1 
    26         10
    27         83
    28         24
    29         45
    32          5
    37          5
    38         15
    39        152
    40         30
    41        562
    42         52
    43        148
    44          8
    49         44
    50          8
    51         27
    52          4
    53         41
    54          6
    55         60
    56          4
    61          6
    62          8
    63         88
    64          3
    65         34
    67         47
    68         18
    69        999
    70         57
    75         12
    76          3
    77         13
    79          5
    80          1
    81          3
    82          3
    93          9
    95          8
   105        302
   106         21
   107        127
   108         10
   109         24
   121          1
   127        188
   128         52
   129          2
   139          1
   141         48
   154          8
   155         97
   171          1
   184          1
   216          8
   232         36
   234         10