##TITLE=Library Entry 13258
##JCAMP-DX=Revision 4.10 
##DATA TYPE=MASS SPECTRUM
##SAMPLE DESCRIPTION=R.SELF AGRICULTURAL RES., FOOD RES. INSTITUTE, NORWICH,
 U.K.
##NAMES=HP
##CAS NAME=Trisulfide, dipropyl
##MOLFORM=C6H14S3
##CAS REGISTRY NO=6028-61-1
##MP= -300
##BP= -300
##MW= 182
##$RETENTION INDEX=1328
##$CONDENSED SPECTRUM=NO
##NPOINTS= 46
##XYDATA=(XY..XY) 1 
    26         20
    27        209
    28         40
    29         53
    32         35
    33         12
    34         35
    37         12
    38         17
    39        153
    40         33
    41        466
    42        140
    43        999
    44         35
    45        115
    46         62
    47        155
    48         15
    55         12
    57         51
    58         17
    59         27
    61         15
    64         71
    66         51
    71         32
    73         97
    74         71
    75        533
    76        235
    77         35
    78         20
    79         20
    85         12
    89         19
    97         16
    98         68
   103         15
   105         26
   117         23
   118         10
   140         35
   182        577
   183         53
   184         75