##TITLE=Library Entry 67022
##JCAMP-DX=Revision 4.10 
##DATA TYPE=MASS SPECTRUM
##SAMPLE DESCRIPTION=Japan AIST/NIMC Database- Spectrum MS-NW-6467
##NAMES=HP
##CAS NAME=Aurin
##MOLFORM=C19H14O3
##CAS REGISTRY NO=603-45-2
##MP= -300
##BP= -300
##MW= 290
##$RETENTION INDEX=0
##$CONDENSED SPECTRUM=NO
##NPOINTS= 193
##XYDATA=(XY..XY) 1 
    12          1
    14          1
    15          4
    16          9
    17          2
    18          7
    24          4
    25          3
    26         11
    27         31
    28         79
    29         12
    30          4
    36          4
    37         23
    38         39
    39        151
    40         93
    41         16
    42          9
    43         10
    44         68
    45          2
    46          7
    47         35
    48        150
    49          7
    50         31
    51         39
    52          9
    53         22
    54          7
    55         76
    56          8
    57         12
    58          1
    59          3
    60          5
    61         12
    62         19
    63         31
    64        362
    65        164
    66        211
    67         19
    68         11
    69          8
    70          5
    71          6
    72          2
    73          8
    74         14
    75          7
    76          9
    77         14
    78          6
    79          9
    80          3
    81          5
    82          3
    83          6
    84          9
    85          5
    87          1
    88          3
    89          2
    91          5
    92          3
    93         16
    94        999
    95         74
    96          9
    97          5
    98          5
    99          3
   100          3
   101          4
   102          2
   105          3
   106          3
   107          5
   108          7
   109          6
   110          6
   111          4
   112          3
   113          3
   114          2
   115          5
   116          2
   117          4
   118          2
   119          2
   120          2
   121          3
   122          3
   123          2
   124          2
   125          2
   126          3
   127          3
   128          1
   129          2
   131          2
   134          1
   135          2
   137          1
   139          5
   140          3
   141          7
   142          5
   143          2
   144          3
   145          2
   147          2
   149          1
   150          2
   151          3
   152          5
   153          4
   154          2
   155          1
   157          1
   163          1
   165          4
   166          4
   167          4
   168          6
   169          6
   170         10
   171          2
   176          1
   178          2
   179          1
   181          8
   182          2
   186          3
   188          1
   189          3
   190          2
   192          1
   194          1
   195         12
   196          3
   197         11
   198         13
   199         11
   200          3
   202          3
   203          2
   204          1
   205          3
   207          1
   210          2
   211          2
   212          1
   213          2
   215          6
   216          2
   218          4
   219          2
   226          5
   227          1
   231          5
   232          2
   233          3
   234          2
   235          1
   236          3
   241          1
   242          2
   243          3
   244          4
   245          6
   246          2
   247          5
   248          2
   250          4
   258          1
   260          4
   261         17
   262          8
   263          2
   271          2
   273          6
   274          2
   275          1
   288          1
   289          9
   290         79
   291         17
   292         10
   293          2