##TITLE=Library Entry 5542
##JCAMP-DX=Revision 4.10 
##DATA TYPE=MASS SPECTRUM
##SAMPLE DESCRIPTION=NIST Mass Spectrometry Data Center
##NAMES=HP
##CAS NAME=Ethyl diacetoacetate
##MOLFORM=C8H12O4
##CAS REGISTRY NO=603-69-0
##MP= -300
##BP= -300
##MW= 172
##$RETENTION INDEX=0
##$CONDENSED SPECTRUM=NO
##NPOINTS= 63
##XYDATA=(XY..XY) 1 
    12          1
    13          3
    14         20
    15        116
    16          1
    19          7
    25          5
    26         32
    27        107
    29        119
    30         10
    31        106
    37          7
    38          9
    39         24
    40          9
    41         20
    42         53
    43        999
    44         28
    45         45
    46         17
    47          1
    50          1
    51          1
    52          2
    53          9
    54          3
    55         21
    56          4
    61         41
    66          4
    67         20
    68          8
    69         44
    70         31
    71          5
    82          3
    83          3
    84         47
    85        111
    86          6
    87         12
    89         10
    98        111
    99          8
   100          5
   101          1
   102          4
   111         22
   115          4
   125          4
   126         34
   127         61
   128          4
   129         33
   130         18
   131          1
   143          3
   157         43
   158          3
   172         35
   173          2