##TITLE=Library Entry 47473
##JCAMP-DX=Revision 4.10 
##DATA TYPE=MASS SPECTRUM
##SAMPLE DESCRIPTION=NIST Mass Spectrometry Data Center, 1998.
##NAMES=HP
##CAS NAME=2-Methyl-3-nitroaniline
##MOLFORM=C7H8N2O2
##CAS REGISTRY NO=603-83-8
##MP= -300
##BP= -300
##MW= 152
##$RETENTION INDEX=0
##$CONDENSED SPECTRUM=NO
##NPOINTS= 93
##XYDATA=(XY..XY) 1 
    15          1
    25          1
    26         10
    27         33
    28         52
    29          9
    30         74
    31          1
    36          1
    37         15
    38         39
    39        146
    40         23
    41         61
    42         39
    43          7
    44          3
    46         19
    48          1
    49         10
    50        108
    51        252
    52        231
    53        183
    54         92
    55         11
    56          1
    60          1
    61         17
    62         45
    63        118
    64         49
    65        112
    66        114
    67         59
    68         15
    69          1
    70          1
    72          1
    73          6
    74         40
    75         38
    76         61
    77        999
    78        307
    79        648
    80        509
    81         41
    82          6
    83          1
    84          1
    85          2
    86          5
    87          6
    88          2
    89         32
    90         48
    91         50
    92         48
    93         96
    94         61
    95         13
    96          1
    99          1
   100          2
   101          1
   102         16
   103         10
   104        389
   105        156
   106        342
   107        612
   108         75
   109          5
   110          1
   117         13
   118         23
   119          9
   120          3
   121          8
   122         17
   123          2
   124          1
   131          1
   132          1
   133          1
   134          5
   135        591
   136         54
   137          3
   152        761
   153         68
   154          5