##TITLE=Library Entry 695
##JCAMP-DX=Revision 4.10 
##DATA TYPE=MASS SPECTRUM
##SAMPLE DESCRIPTION=Japan AIST/NIMC Database- Spectrum MS-NW-9930
##NAMES=HP
##CAS NAME=Diethyl nitromalonate
##MOLFORM=C7H11NO6
##CAS REGISTRY NO=603-67-8
##MP= -300
##BP= -300
##MW= 205
##$RETENTION INDEX=0
##$CONDENSED SPECTRUM=NO
##NPOINTS= 96
##XYDATA=(XY..XY) 1 
    13          2
    14          7
    15         27
    16          8
    25          1
    26         24
    27        237
    28        128
    29        999
    30         91
    31        130
    32          3
    33          3
    38          2
    39         10
    40          3
    41         65
    42         78
    43        138
    44        200
    45        248
    46         42
    47         35
    48          1
    50          3
    51          5
    52          2
    53          1
    54         13
    55         28
    56         10
    57         14
    58         16
    59         15
    60          7
    61         22
    62          3
    63          6
    64          1
    65          9
    66          1
    68          4
    69        220
    70         25
    71         29
    72         10
    73         37
    74         58
    75        507
    76         13
    77          6
    81          1
    84          6
    85          7
    86        103
    87        172
    88        217
    89         47
    90         19
    91         91
    92         65
    93          5
    96          2
    98          1
    99          3
   100          3
   101          6
   102          1
   103        661
   104         35
   105        147
   106          9
   107          2
   113         15
   114         13
   115         69
   116         11
   117          6
   118          7
   129          2
   130          2
   131        193
   132         52
   133         16
   134          2
   143          3
   144          3
   145          1
   150          3
   159        199
   160        130
   161         12
   162          6
   178          4
   205          2
   206          4