##TITLE=Library Entry 84595
##JCAMP-DX=Revision 4.10 
##DATA TYPE=MASS SPECTRUM
##SAMPLE DESCRIPTION=Asinex Ltd, Moscow, Russia
##NAMES=HP
##CAS NAME=Benzene, 1,1',1''-methylidynetris[4-nitro-
##MOLFORM=C19H13N3O6
##CAS REGISTRY NO=603-49-6
##MP= -300
##BP= -300
##MW= 379
##$RETENTION INDEX=0
##$CONDENSED SPECTRUM=NO
##NPOINTS= 244
##XYDATA=(XY..XY) 1 
    34          9
    37          4
    38         20
    39        107
    40         80
    41         43
    42         24
    43         75
    44        267
    45         42
    46         31
    50        134
    51        113
    52         36
    53         26
    54         13
    55         47
    56         12
    57         26
    58          5
    59          4
    60         25
    61         10
    62         38
    63        140
    64         40
    65         62
    66         14
    67         10
    68          4
    69         23
    70         14
    71         15
    73         15
    74         47
    75        110
    76        190
    77        292
    78         61
    79         26
    80         12
    81         29
    82         11
    83         16
    84         13
    85         11
    86         21
    87         47
    88         42
    89         69
    90         23
    91         37
    92         68
    93         28
    94         63
    95         12
    96          8
    97         13
    98         20
    99         25
   100         23
   101         65
   102         40
   103         22
   104        131
   105        105
   107        999
   108         78
   109         14
   110          7
   111         16
   112         25
   113         92
   114         45
   115        111
   116         21
   117          9
   118        105
   119        212
   120         97
   121         13
   122         12
   123         15
   124         12
   126         81
   127         60
   128         46
   129          7
   130         16
   131          8
   132          8
   133         19
   134         16
   135         20
   136         13
   137         29
   139        192
   140         46
   141         55
   142         13
   143         19
   144          3
   146          2
   147          5
   148          2
   149         61
   150        455
   151        254
   152        491
   153        226
   154         35
   155         11
   156         19
   157          2
   161         14
   162         44
   163        324
   164        352
   165        401
   166         73
   167         28
   168         34
   169         22
   170          4
   173          3
   174         14
   175         12
   176         29
   177         16
   178         15
   179         19
   180         94
   181        117
   182         58
   183         12
   184         18
   187         56
   188         25
   189         62
   190         17
   191          4
   193          6
   194         16
   195         16
   196         13
   197         51
   198         53
   199         42
   200         48
   201         46
   202         88
   203         20
   204          3
   205          5
   207         12
   209         40
   210         80
   211         97
   212         45
   213         74
   214         57
   215         49
   216         11
   217          8
   218          4
   219          3
   220          2
   223          6
   224         23
   225         39
   226        198
   227        192
   228        330
   229         93
   230         24
   231          6
   233          3
   235         10
   236         16
   237        117
   238         81
   239        525
   240        294
   241        141
   242         34
   244        103
   245         24
   246          7
   251          5
   252          8
   253         14
   254         16
   255         29
   256         46
   257        166
   258         33
   259          8
   260          9
   261          3
   268          9
   269         14
   270         15
   271          9
   273        225
   274         43
   275         21
   276         17
   284          4
   285         32
   286         83
   287        128
   288         32
   289         14
   297          3
   298          4
   299          3
   300          4
   301          5
   302         25
   303         25
   304          8
   315         15
   316         32
   317         19
   318          6
   319          8
   331         17
   332        208
   333        404
   334         84
   335         16
   345          3
   347         19
   348         10
   349         47
   350         11
   362        333
   363        173
   364         39
   365          4
   378         32
   379        553
   380        122
   381         22