##TITLE=Library Entry 90717
##JCAMP-DX=Revision 4.10 
##DATA TYPE=MASS SPECTRUM
##SAMPLE DESCRIPTION=Japan AIST/NIMC Database- Spectrum MS-NW-8525
##NAMES=HP
##CAS NAME=3-Dipropylamino-1,2-propanediol
##MOLFORM=C9H21NO2
##CAS REGISTRY NO=60302-96-7
##MP= -300
##BP= -300
##MW= 175
##$RETENTION INDEX=0
##$CONDENSED SPECTRUM=NO
##NPOINTS= 70
##XYDATA=(XY..XY) 1 
    14          1
    15         25
    17          2
    18          7
    19          3
    26          4
    27         97
    28         47
    29         37
    30        318
    31         38
    32          1
    38          1
    39         26
    40          4
    41        154
    42        191
    43        288
    44        121
    45         14
    53          1
    54          7
    55          8
    56         35
    57         31
    58         28
    59          3
    60         78
    61          4
    67          2
    68          5
    69          2
    70         48
    71          7
    72        266
    73         13
    74          3
    75          2
    82          2
    84         25
    85          2
    86        220
    87         13
    88          1
    98          7
    99          1
   100          9
   101          5
   102         37
   103          2
   104          2
   110          1
   112          7
   113          2
   114        999
   115         82
   116          7
   118          4
   128         13
   129          1
   132          1
   142          1
   144        129
   145         11
   146         73
   147          6
   160          1
   174          3
   175          8
   176          2