##TITLE=Library Entry 89481
##JCAMP-DX=Revision 4.10 
##DATA TYPE=MASS SPECTRUM
##SAMPLE DESCRIPTION=W.GOMBLER UNIV. SARLANDES, SAARBRUCKEN, GERMANY, F.R.G.
##NAMES=HP
##CAS NAME=Disulfide, fluoromethyl methyl
##MOLFORM=C2H5FS2
##CAS REGISTRY NO=60307-49-5
##MP= -300
##BP= -300
##MW= 112
##$RETENTION INDEX=0
##$CONDENSED SPECTRUM=NO
##NPOINTS= 18
##XYDATA=(XY..XY) 1 
    32         50
    33        170
    44         50
    45        490
    46        250
    47        190
    48        200
    63         30
    64        130
    65         30
    76         50
    78         90
    79        880
    92         30
    93        170
    97         80
   111         30
   112        999