##TITLE=Library Entry 80422
##JCAMP-DX=Revision 4.10 
##DATA TYPE=MASS SPECTRUM
##SAMPLE DESCRIPTION=CONTINENTAL OIL CO., PONCA CITY, OKLA, USA
##NAMES=HP
##CAS NAME=Benzene, (1-methylpentyl)-
##MOLFORM=C12H18
##CAS REGISTRY NO=6031-02-3
##MP= -300
##BP= -300
##MW= 162
##$RETENTION INDEX=1182
##$CONDENSED SPECTRUM=NO
##NPOINTS= 82
##XYDATA=(XY..XY) 1 
    27         44
    28          5
    29         28
    30          0
    37          0
    38          2
    39         28
    40          2
    41         27
    42          2
    43          5
    44          0
    49          0
    50          7
    51         25
    52          6
    53          6
    54          0
    55          5
    56          1
    57          1
    58          0
    61          0
    62          1
    63          8
    64          2
    65         13
    66          1
    67          0
    69          1
    70          0
    71          0
    74          5
    75          6
    76          6
    77         89
    78         36
    79         58
    80          3
    81          0
    84          0
    85          0
    86          0
    87          1
    88          0
    89          7
    90          2
    91        145
    92         11
    93          0
    98          0
    99          0
   101          2
   102          9
   103         46
   104         48
   105        999
   106        105
   107          5
   113          0
   114          0
   115         16
   116          5
   117         11
   118          3
   119          5
   120          1
   126          0
   127          1
   128          2
   129          1
   130          0
   131          1
   132          0
   133          0
   141          0
   146          0
   147          8
   148          1
   162        127
   163         17
   164          6