##TITLE=Library Entry 12109
##JCAMP-DX=Revision 4.10 
##DATA TYPE=MASS SPECTRUM
##SAMPLE DESCRIPTION=A.A.Kutin, Moscow, Russia
##NAMES=HP
##CAS NAME=N-(5-Chloro-[1,3,4]thiadiazol-2-yl)-acetamide
##MOLFORM=C4H4ClN3OS
##CAS REGISTRY NO=60320-32-3
##MP= -300
##BP= -300
##MW= 177
##$RETENTION INDEX=0
##$CONDENSED SPECTRUM=NO
##NPOINTS= 83
##XYDATA=(XY..XY) 1 
    33          2
    34          2
    35          7
    36          6
    37          2
    38          4
    39          3
    40         20
    41         17
    42         68
    43        999
    44         60
    45         20
    46         16
    47         22
    48          7
    49          6
    50          2
    51          1
    52          1
    53          1
    54          1
    55          1
    56          1
    58         35
    59         22
    60         22
    61          7
    62          5
    63          3
    64          2
    66          0
    67          5
    68          2
    69          2
    70          9
    71          9
    72          9
    74        105
    76         18
    77          3
    79        132
    80         10
    81         47
    82          3
    83          2
    84          1
    86          1
    88          5
    89          1
    91          1
    93         17
    94          0
    95          6
    99          5
   100          7
   101          1
   102          1
   103          2
   104          0
   105          1
   106          0
   107          1
   108          0
   135        472
   137        185
   138          7
   139          6
   140          0
   148          1
   149         28
   151         11
   152          0
   153          0
   162          4
   163          0
   164          1
   175          1
   177        107
   178          7
   179         37
   180          2
   181          1