##TITLE=Library Entry 4016
##JCAMP-DX=Revision 4.10 
##DATA TYPE=MASS SPECTRUM
##SAMPLE DESCRIPTION=Chemical Concepts
##NAMES=HP
##CAS NAME=Bicyclo[3.2.1]octan-8-ol, 1,5-dimethyl-
##MOLFORM=C10H18O
##CAS REGISTRY NO=60329-20-6
##MP= -300
##BP= -300
##MW= 154
##$RETENTION INDEX=0
##$CONDENSED SPECTRUM=NO
##NPOINTS= 87
##XYDATA=(XY..XY) 1 
    26         13
    27        376
    28         20
    29        348
    30          9
    31         60
    38          6
    39        415
    40         50
    41        999
    42         74
    43        485
    44         22
    45         90
    46          4
    50         10
    51         39
    52         24
    53        267
    54         62
    55        395
    56        228
    57        109
    58         29
    59         10
    61          3
    63          8
    64          3
    65         73
    66         26
    67        342
    68        246
    69        244
    70         67
    71        313
    72         52
    73          5
    77        112
    78         25
    79        397
    80        107
    81        634
    82        145
    83        177
    84        261
    85         67
    86          9
    91        124
    92         61
    93        418
    94        249
    95        524
    96        192
    97        251
    98        115
    99         16
   103          5
   105         41
   106         25
   107        915
   108        694
   109         94
   110         32
   111        165
   112         54
   113          5
   115          1
   117          1
   119          5
   120          2
   121        271
   122         68
   123        949
   124         79
   125         34
   126        102
   127          9
   135          7
   136        406
   137         41
   138          3
   139         24
   140          3
   153          2
   154        515
   155         60
   156          3