##TITLE=Library Entry 96565
##JCAMP-DX=Revision 4.10 
##DATA TYPE=MASS SPECTRUM
##SAMPLE DESCRIPTION=Japan AIST/NIMC Database- Spectrum MS-IW-4533
##NAMES=HP
##CAS NAME=(+-)-2-Acetamido-4-(methylthio)butyramide
##MOLFORM=C7H14N2O2S
##CAS REGISTRY NO=60325-30-6
##MP= -300
##BP= -300
##MW= 190
##$RETENTION INDEX=0
##$CONDENSED SPECTRUM=NO
##NPOINTS= 127
##XYDATA=(XY..XY) 1 
    14          3
    15         21
    16          1
    17          1
    25          1
    26          9
    27         54
    28         63
    29         12
    30         21
    31          1
    32          2
    33          2
    34          2
    35         19
    37          2
    38          4
    39         18
    40          9
    41         43
    42         52
    43        345
    44         66
    45         51
    46         19
    47         91
    48         64
    49         12
    50          5
    51          6
    52         13
    53          9
    54         32
    55         33
    56        332
    57        102
    58         10
    59         12
    60         12
    61        399
    62         17
    63         17
    64          2
    65          1
    66          3
    67          5
    68         13
    69          7
    70          7
    71         17
    72          9
    73        135
    74        166
    75         58
    76          5
    77          3
    78          2
    79          8
    80          4
    81          4
    82         10
    83          9
    84         14
    85          9
    86         16
    87         31
    88         26
    89          4
    90          4
    91          1
    92          1
    93          1
    94          1
    95          2
    96          1
    97         11
    98         84
    99        469
   100         31
   101         13
   102         13
   103          2
   104        185
   105         13
   106         10
   107          1
   108          3
   110          1
   111         35
   112         84
   113          7
   114          4
   115          4
   116        999
   117         53
   118          9
   119          1
   120          1
   124         13
   125          7
   126          7
   127          2
   128          1
   129         16
   130          8
   131          5
   132          3
   133          1
   139          1
   143          3
   144          1
   145          8
   146         39
   147          6
   148          3
   149          1
   154          2
   157          1
   158          5
   160          1
   172         15
   173         37
   174          4
   175          3
   190         58
   191          6
   192          3