##TITLE=Library Entry 36304
##JCAMP-DX=Revision 4.10 
##DATA TYPE=MASS SPECTRUM
##SAMPLE DESCRIPTION=NIST Mass Spectrometry Data Center, 2010
##NAMES=HP
##CAS NAME=2,2,3,3,3-Pentafluoropropyl 2,2,2-trifluoroacetate
##MOLFORM=C5H2F8O2
##CAS REGISTRY NO=603312-66-9
##MP= -300
##BP= -300
##MW= 246
##$RETENTION INDEX=0
##$CONDENSED SPECTRUM=NO
##NPOINTS= 67
##XYDATA=(XY..XY) 1 
    26          1
    29         27
    30          4
    31         19
    33         24
    42          1
    44          9
    45         30
    46          1
    47          3
    49          2
    50         38
    51        150
    52          2
    54          1
    56          1
    57          1
    59          7
    61          6
    62          1
    63          7
    64         47
    65          3
    67          1
    68          1
    69        999
    70         11
    75          3
    78         18
    79          2
    80          2
    81          1
    82          4
    83         56
    84          1
    85          1
    91          3
    93          1
    95          1
    97        123
    98          3
    99        139
   100         27
   101          4
   107          1
   109          1
   110          2
   111         60
   112          2
   113         23
   114          1
   117          7
   119         16
   127        124
   128          4
   129          2
   131          2
   133        240
   134          8
   148          1
   157          1
   177        100
   178          4
   179          8
   199          1
   207          5
   227          5