##TITLE=Library Entry 88615
##JCAMP-DX=Revision 4.10 
##DATA TYPE=MASS SPECTRUM
##SAMPLE DESCRIPTION=D.HENNEBERG, MAX-PLANCK INSTITUTE, MULHEIM, WEST GERMAN
Y
##NAMES=HP
##CAS NAME=3-Cyclobutene-1,2-dicarboxylic acid, dimethyl ester
##MOLFORM=C8H10O4
##CAS REGISTRY NO=60333-14-4
##MP= -300
##BP= -300
##MW= 170
##$RETENTION INDEX=0
##$CONDENSED SPECTRUM=NO
##NPOINTS= 90
##XYDATA=(XY..XY) 1 
    27         31
    28         95
    29         72
    30          7
    31          6
    33          1
    37          0
    38          1
    39         56
    40         18
    41         42
    42          9
    43         21
    44         10
    45          6
    47          0
    49          0
    50         18
    51         79
    52        117
    53        121
    54         14
    55        122
    56          5
    57          7
    58          1
    59        133
    60          2
    61          1
    62          1
    63          2
    64          0
    65         14
    66         16
    67         53
    68         93
    69         14
    70          0
    71          4
    72          1
    73          0
    74          0
    75          0
    77          1
    78          0
    79         65
    80         23
    81         17
    82         10
    83         97
    84          8
    85          6
    87          0
    89          0
    93          4
    94          2
    95         38
    96         10
    97          5
    98          1
    99         17
   100          1
   101          0
   105          0
   107          6
   108          4
   109          3
   110         15
   111        999
   112         68
   113         15
   114          1
   123         26
   124          2
   125          7
   126          0
   127          1
   137          0
   138         10
   139        150
   140         12
   141          2
   142         81
   143          6
   144          0
   155          7
   156          0
   169          0
   170         19
   171          1