##TITLE=Library Entry 16985
##JCAMP-DX=Revision 4.10 
##DATA TYPE=MASS SPECTRUM
##SAMPLE DESCRIPTION=Chuck Anderson, Aldrich Chemical Co.
##NAMES=HP
##CAS NAME=2-Heptanol, (S)-
##MOLFORM=C7H16O
##CAS REGISTRY NO=6033-23-4
##MP= -300
##BP= -300
##MW= 116
##$RETENTION INDEX=0
##$CONDENSED SPECTRUM=NO
##NPOINTS= 36
##XYDATA=(XY..XY) 1 
    15          2
    19          5
    26          2
    27         53
    28         10
    29         68
    30          1
    31         18
    38          1
    39         37
    40          7
    41        122
    42         37
    43        124
    44         73
    45        999
    46         19
    47          3
    51          2
    53          6
    54          3
    55        142
    56         39
    57         28
    58          5
    59          4
    67          1
    68          2
    69         17
    70         34
    71          5
    83         48
    84          2
    97          2
    98         14
   101         17