##TITLE=Library Entry 61277
##JCAMP-DX=Revision 4.10 
##DATA TYPE=MASS SPECTRUM
##SAMPLE DESCRIPTION=V.Zaikin,Inst.Petrochem.Synth.,RAS,Moscow
##NAMES=HP
##CAS NAME=5-Bromopentanoic acid, benzyl ester
##MOLFORM=C12H15BrO2
##CAS REGISTRY NO=60343-28-4
##MP= -300
##BP= -300
##MW= 270
##$RETENTION INDEX=0
##$CONDENSED SPECTRUM=NO
##NPOINTS= 94
##XYDATA=(XY..XY) 1 
    25          3
    26         24
    27        125
    28          9
    29         72
    30          4
    39        135
    40         21
    41        118
    42         86
    43         39
    50         34
    51         82
    52         27
    53         25
    54         11
    55        315
    56         68
    57         24
    58          5
    59          3
    61          4
    62         14
    63         43
    64         16
    65        125
    66         10
    67          3
    68          3
    69          9
    70         26
    71         12
    73          4
    74          3
    75          4
    76          7
    77         91
    78         23
    79         76
    80          7
    81          4
    82          6
    83         15
    84          5
    85          6
    88          4
    89         49
    90        155
    91        999
    92         98
    93          5
    95          5
    99          3
   100         13
   101          7
   103          2
   104         30
   105         39
   106         16
   107         69
   108        962
   109         84
   110          4
   113          3
   117          3
   118          3
   119         10
   121          3
   126          5
   127          2
   128          2
   129          2
   130          4
   131          2
   135         67
   136          9
   137         57
   138          3
   162          3
   163         60
   164          4
   165         59
   166          4
   169         19
   170          3
   171         16
   172          3
   173         12
   190          7
   191          3
   270         31
   271          7
   272         31
   273          4