##TITLE=Library Entry 20166
##JCAMP-DX=Revision 4.10 
##DATA TYPE=MASS SPECTRUM
##SAMPLE DESCRIPTION=D.HENNEBERG, MAX-PLANCK INSTITUTE, MULHEIM, WEST GERMAN
Y
##NAMES=HP
##CAS NAME=4-Decene, 4-methyl-, (E)-
##MOLFORM=C11H22
##CAS REGISTRY NO=60366-66-7
##MP= -300
##BP= -300
##MW= 154
##$RETENTION INDEX=0
##$CONDENSED SPECTRUM=NO
##NPOINTS= 70
##XYDATA=(XY..XY) 1 
    25          4
    26          3
    27        159
    29        157
    30          7
    35          3
    36          5
    37          4
    38          2
    39         89
    40         13
    41        270
    42         50
    43        131
    44         18
    46          3
    48          3
    49          3
    50          4
    51          5
    52          5
    53         60
    54         19
    55        999
    56        301
    57         43
    58          8
    63          5
    64          0
    65         13
    66          4
    67         57
    68         37
    69        402
    70        117
    71         15
    72          3
    75          3
    77         10
    78          7
    79          8
    80          2
    81         27
    82          9
    83         29
    84         99
    85         40
    86          5
    91          2
    93          6
    94          2
    95          7
    96          7
    97        124
    98          8
   101          1
   103          3
   105          0
   107          0
   109          2
   110         11
   111         91
   112         15
   116          2
   126          2
   127          1
   139          2
   152          3
   154         40
   155          1