##TITLE=Library Entry 89278
##JCAMP-DX=Revision 4.10 
##DATA TYPE=MASS SPECTRUM
##SAMPLE DESCRIPTION=A.A.Kutin, Moscow, Russia
##NAMES=HP
##CAS NAME=Azacyclohexan-3-one, 1-isopropyl-5-methyl-
##MOLFORM=C9H17NO
##CAS REGISTRY NO=60374-34-7
##MP= -300
##BP= -300
##MW= 155
##$RETENTION INDEX=0
##$CONDENSED SPECTRUM=NO
##NPOINTS= 90
##XYDATA=(XY..XY) 1 
    39        109
    40         29
    41        257
    42        287
    43        342
    44         49
    45          1
    47          0
    48          2
    50          1
    51          4
    52          4
    53         15
    54         22
    55         73
    56        192
    57         37
    58          8
    59          0
    60          0
    63          1
    64          0
    65          1
    66          1
    67          8
    68         18
    69         29
    70         58
    71         15
    72          5
    73          0
    74          0
    77          1
    78          0
    79          2
    80          4
    81          3
    82         12
    83         13
    84         79
    85         52
    86          5
    87          0
    91          0
    92          0
    93          0
    94          3
    95          1
    96          6
    97          3
    98          9
    99          0
   100          0
   105          0
   106          0
   107          0
   108          0
   109          0
   110          7
   112        999
   113         83
   114          4
   115          0
   117          0
   119          0
   121          0
   122          1
   123          0
   124          4
   126         33
   127          3
   128          0
   130          0
   136          0
   138          2
   139          2
   140        229
   141         23
   142         22
   143          1
   144          0
   145          0
   149          0
   152          0
   153          1
   154         11
   155        228
   156         26
   157          3
   158          0