##TITLE=Library Entry 83417
##JCAMP-DX=Revision 4.10 
##DATA TYPE=MASS SPECTRUM
##SAMPLE DESCRIPTION=J. SHAW, BORRISTON RESEARCH, ROCKVILLE, MD, USA
##NAMES=HP
##CAS NAME=8-Hydroxybentazone
##MOLFORM=C10H12N2O4S
##CAS REGISTRY NO=60374-43-8
##MP= -300
##BP= -300
##MW= 256
##$RETENTION INDEX=0
##$CONDENSED SPECTRUM=NO
##NPOINTS= 167
##XYDATA=(XY..XY) 1 
    12          3
    13          3
    14         19
    15        234
    16         52
    17        360
    18          9
    19          7
    20          3
    25          3
    26         50
    27        260
    28          2
    29         80
    30         27
    31         16
    32          0
    33          2
    34          3
    36          4
    37         13
    38         41
    39        200
    40         49
    41        240
    42        194
    43        223
    44        111
    45         37
    46          4
    47          2
    48         23
    49          8
    50         93
    51        264
    52        503
    53        213
    54         55
    55         46
    56         23
    57         29
    58        118
    59         14
    60         11
    61          9
    62         15
    63         38
    64         48
    65         41
    66         49
    67         47
    68         19
    69         14
    70         13
    71          8
    72          4
    73          9
    74          7
    75         18
    76         50
    77        100
    78        268
    79        255
    80         78
    81         13
    82          4
    83          8
    84          5
    85          5
    86          3
    87          5
    88          6
    89          4
    90         10
    91         13
    92         13
    93         33
    94         78
    95         43
    96          7
    97          6
    98          4
    99          2
   100          2
   101          2
   102          1
   103          6
   104         19
   105        152
   106        246
   107        999
   108        104
   109         13
   110          2
   111          3
   112          1
   113          2
   114          1
   115          2
   116          1
   117          2
   118          4
   119          8
   120          8
   121         62
   122         88
   123         11
   124          2
   125          2
   126          1
   127          1
   129          1
   131          2
   132          9
   133         82
   134        156
   135        411
   136         97
   137          9
   138         10
   139          1
   141          1
   143          1
   145          1
   146          2
   147          3
   148          5
   149         24
   150        234
   151         20
   152          4
   153          1
   159          2
   160          8
   161          3
   162          4
   163          3
   164          2
   167          1
   174          1
   175          1
   176          5
   177        147
   178         16
   179          1
   181          1
   182          1
   185          2
   191          3
   192          1
   194          2
   196          1
   197          4
   198          2
   213         11
   214        336
   215         35
   216         18
   217          1
   228          7
   241         25
   242          3
   243          1
   252          1
   256         97
   257         12
   258          5