##TITLE=Library Entry 9647
##JCAMP-DX=Revision 4.10 
##DATA TYPE=MASS SPECTRUM
##SAMPLE DESCRIPTION=NIST Mass Spectrometry Data Center
##NAMES=HP
##CAS NAME=CH3C(O)OCH(CH3)CH2C(CH3)3
##MOLFORM=C9H18O2
##CAS REGISTRY NO=60388-83-2
##MP= -300
##BP= -300
##MW= 158
##$RETENTION INDEX=960
##$CONDENSED SPECTRUM=NO
##NPOINTS= 69
##XYDATA=(XY..XY) 1 
    14          1
    15         13
    16          1
    19          1
    26          2
    27         33
    28          9
    29         80
    30          2
    31          4
    37          1
    38          3
    39         81
    40         17
    41        265
    42         64
    43        999
    44         25
    45         23
    46          1
    50          2
    51          6
    52          3
    53         21
    54          5
    55        272
    56        364
    57        532
    58         58
    59         29
    61        346
    62          8
    63          2
    64          1
    65          4
    66          2
    67         17
    68          2
    69         31
    70         33
    71          7
    72          1
    73          1
    77          2
    79          2
    81          4
    83        668
    84         46
    85          6
    86          4
    87        193
    88          9
    89          1
    96          1
    97          2
    98         81
    99         15
   100          1
   101         55
   102         79
   103         16
   104          1
   114          5
   115          5
   116         10
   117          6
   143         17
   144          2
   158          1