##TITLE=Library Entry 11341
##JCAMP-DX=Revision 4.10 
##DATA TYPE=MASS SPECTRUM
##SAMPLE DESCRIPTION=Japan AIST/NIMC Database- Spectrum MS-NW-8113
##NAMES=HP
##CAS NAME=.beta.-D-Glucopyranose pentaacetate
##MOLFORM=C16H22O11
##CAS REGISTRY NO=604-69-3
##MP= -300
##BP= -300
##MW= 390
##$RETENTION INDEX=0
##$CONDENSED SPECTRUM=NO
##NPOINTS= 123
##XYDATA=(XY..XY) 1 
    15         17
    17          3
    18          9
    27          1
    28          3
    29          3
    30          1
    31          1
    39          2
    41          3
    42          8
    43        999
    44         24
    45          5
    51          1
    52          2
    53          2
    54          1
    55          4
    56          2
    57          4
    60          7
    61          9
    65          1
    67          1
    68          2
    69         21
    70         13
    71          7
    73         45
    74          2
    77          1
    79          2
    80         15
    81         32
    82          4
    83          1
    84          4
    85         33
    86         16
    87          2
    89          1
    92          1
    95          2
    96          3
    97         39
    98        228
    99         24
   100          2
   101          4
   102         15
   103         98
   104          5
   107          1
   109         23
   110          3
   111          2
   112         14
   113         16
   114         24
   115        295
   116         25
   117          3
   122          4
   123          1
   125          4
   126         33
   127         19
   128          3
   129          2
   131         11
   138          2
   139         20
   140        102
   141         13
   142          2
   143         12
   144          8
   145         70
   146          5
   153          5
   155         22
   156          5
   157        200
   158         58
   159          5
   167          1
   168         33
   169         31
   170          3
   171          2
   173          2
   182         16
   183          2
   185          3
   186          7
   187          5
   197         12
   198          1
   199         32
   200         96
   201          9
   202          1
   203          6
   210          4
   211         10
   212          1
   215         21
   216          2
   217          1
   228         12
   229          4
   242        116
   243         15
   244          2
   245         10
   246          1
   259          1
   270          1
   287          1
   288          2
   317          3
   331          4