##TITLE=Library Entry 14717
##JCAMP-DX=Revision 4.10 
##DATA TYPE=MASS SPECTRUM
##SAMPLE DESCRIPTION=DENNIS H SMITH DEPT OF CHEM STANFORD UNIV STANFORD CALI
F 9430
##NAMES=HP
##CAS NAME=Pregn-4-ene-3,20-dione, 6-hydroxy-, (6.beta.)-
##MOLFORM=C21H30O3
##CAS REGISTRY NO=604-19-3
##MP= -300
##BP= -300
##MW= 330
##$RETENTION INDEX=0
##$CONDENSED SPECTRUM=NO
##NPOINTS= 146
##XYDATA=(XY..XY) 1 
    41        204
    43        999
    45         12
    51          8
    52          7
    53         79
    54         18
    55        264
    57         15
    65         39
    66         15
    67        187
    68         36
    69         72
    71        142
    77        118
    78         20
    79        193
    80         38
    81        168
    82         10
    83         49
    84         96
    85         86
    91        172
    92         26
    93        175
    94         40
    95        193
    96         10
    97         30
   103         14
   104          7
   105        112
   106         28
   107        135
   108         43
   109        118
   110         99
   111         61
   115         20
   116          8
   117         61
   118         22
   119        102
   120         14
   121         96
   122         46
   123         64
   124         35
   125         22
   128         18
   129         34
   130         13
   131         82
   132         22
   133        135
   134         46
   135         88
   136         76
   137         69
   138         60
   139         77
   140         40
   141         17
   143         28
   144         18
   145         81
   146         19
   147         82
   148         10
   149        110
   150         19
   151         27
   152        288
   153         39
   155         33
   156         11
   157         36
   159         80
   160         13
   161         47
   162          9
   163         18
   169         14
   171         27
   173         54
   174         18
   175         61
   176         15
   177         45
   179          9
   181         10
   183         18
   185         41
   186         13
   187         22
   189         16
   191         26
   192         12
   195          8
   197          7
   198         11
   199         31
   209         25
   211         18
   213         17
   214          7
   215         10
   221         11
   225         13
   227        143
   228         28
   229         18
   231         12
   239         21
   241         15
   242         20
   245         53
   247         18
   248         11
   254         15
   255         25
   259         29
   260         27
   261         12
   268          9
   269         41
   270         37
   272         16
   273         13
   274         11
   279          8
   283          8
   286         22
   287         44
   288          9
   294         18
   297         38
   301         32
   302         15
   312        141
   315        165
   330        517
   331        119
   332         13