##TITLE=Library Entry 82246
##JCAMP-DX=Revision 4.10 
##DATA TYPE=MASS SPECTRUM
##SAMPLE DESCRIPTION=Japan AIST/NIMC Database- Spectrum MS-NW-2866
##NAMES=HP
##CAS NAME=Cholesteryl benzoate
##MOLFORM=C34H50O2
##CAS REGISTRY NO=604-32-0
##MP= -300
##BP= -300
##MW= 490
##$RETENTION INDEX=0
##$CONDENSED SPECTRUM=NO
##NPOINTS= 335
##XYDATA=(XY..XY) 1 
    15          7
    17          4
    18         14
    25          2
    26         10
    27         67
    28         49
    29        125
    30          5
    31          1
    32          5
    36          2
    37         15
    38         22
    39         86
    40         14
    41        334
    42         35
    43        434
    44         30
    45         11
    47          4
    48          1
    49          9
    50         81
    51        174
    52         44
    53         61
    54         12
    55        384
    56         45
    57        370
    58         15
    59          1
    60          4
    61          7
    62          4
    63         11
    64          3
    65         44
    66         22
    67        262
    68         37
    69        274
    70         27
    71        205
    72         11
    73          9
    74         26
    75         16
    76         35
    77        557
    78        151
    79        235
    80         49
    81        633
    82         69
    83        205
    84         18
    85         47
    86          4
    87          2
    88          1
    89          5
    90          2
    91        318
    92        102
    93        332
    94        111
    95        432
    96         46
    97        124
    98         16
    99         12
   100          3
   101          3
   102          4
   103         25
   104         37
   105        999
   106        236
   107        449
   108        180
   109        278
   110         38
   111         89
   112         10
   113         16
   114          7
   115         47
   116         24
   117        137
   118        105
   119        232
   120        281
   121        397
   122        512
   123        137
   124         19
   125         28
   126          5
   127         13
   128         61
   129         94
   130         51
   131        223
   132         66
   133        262
   134         90
   135        268
   136         56
   137         67
   138         10
   139         14
   140          3
   141         68
   142         59
   143        213
   144         95
   145        551
   146        201
   147        635
   148        158
   149        168
   150         25
   151         46
   152         12
   153         13
   154         10
   155         40
   156         28
   157        115
   158        116
   159        277
   160        218
   161        219
   162         65
   163        121
   164         17
   165         38
   166          9
   167         12
   168          8
   169         19
   170         15
   171         64
   172         34
   173         99
   174         44
   175         60
   176         17
   177         39
   178         10
   179         24
   180          9
   181         14
   182          9
   183         20
   184         11
   185         69
   186         27
   187         44
   188         13
   189         22
   190          6
   191         42
   192         14
   193         53
   194         12
   195         17
   196          7
   197         47
   198         19
   199         86
   200         48
   201         79
   202         20
   203         13
   204          9
   205         71
   206         68
   207         33
   208          9
   209          9
   210          6
   211         49
   212         28
   213        265
   214         78
   215         61
   216         22
   217         12
   218          9
   219         33
   220         12
   221          7
   222          4
   223          4
   224          3
   225          9
   226         14
   227         38
   228         71
   229         49
   230         15
   231         16
   232          8
   233         13
   234          4
   235          9
   236          3
   237         12
   238          5
   239         13
   240          7
   241         25
   242         10
   243          9
   244          5
   245         45
   246         56
   247        438
   248        101
   249         15
   250          8
   251         10
   252          5
   253         31
   254         14
   255        328
   256         72
   257         27
   258         12
   259         35
   260        220
   261         83
   262         16
   263          4
   264          1
   265          2
   266          1
   267          3
   268          2
   269          4
   270          2
   271          6
   272          3
   273         10
   274         24
   275         22
   276          6
   277          6
   278          1
   279          3
   280          1
   281          4
   282          3
   283         26
   284         10
   285          6
   286          3
   287          6
   288          5
   289          2
   293          1
   294          1
   295          1
   296          1
   297          6
   298          3
   299          4
   300          3
   301          7
   302          3
   303          1
   309          1
   310          1
   311          5
   312          3
   313          6
   314         29
   315          8
   316          2
   317          1
   318          1
   324          1
   325          5
   326         24
   327          9
   328          2
   329          1
   330          1
   331          1
   332          1
   333          1
   334          1
   335          1
   336          1
   337          1
   338          2
   339          7
   340          7
   341          3
   342          2
   343          1
   344          2
   345          2
   346          4
   347          2
   348          7
   349          4
   350          9
   351         10
   352          9
   353        199
   354         58
   355         18
   356          6
   357          1
   358          2
   359          1
   360          4
   361          2
   362          6
   363          3
   364          8
   365          4
   366         37
   367         19
   368        783
   369        235
   370         48
   371          9
   372          1
   382          1