##TITLE=Library Entry 53236
##JCAMP-DX=Revision 4.10 
##DATA TYPE=MASS SPECTRUM
##SAMPLE DESCRIPTION=Finnigan MAT: Toxicological Library (LIBR-TX)
##NAMES=HP
##CAS NAME=8-Azabicyclo[3.2.1]octane, 3-[(10,11-dihydro-5H-dibenzo[a,d]cyclo
hepten-5-yl)oxy]-8-methyl-, endo-
##MOLFORM=C23H27NO
##CAS REGISTRY NO=604-51-3
##MP= -300
##BP= -300
##MW= 333
##$RETENTION INDEX=2633
##$CONDENSED SPECTRUM=NO
##NPOINTS= 28
##XYDATA=(XY..XY) 1 
    42        330
    43        416
    57         92
    58         91
    67        102
    82        728
    83        999
    84        199
    96        378
    97        324
    98         70
   112         51
   113         50
   115        112
   124        516
   125        162
   129         69
   140        983
   141        171
   165         41
   178        151
   179         41
   191         80
   192         93
   193        233
   304         29
   333        119
   334         31