##TITLE=Library Entry 91187
##JCAMP-DX=Revision 4.10 
##DATA TYPE=MASS SPECTRUM
##SAMPLE DESCRIPTION=RADIAN CORP
##NAMES=HP
##CAS NAME=.alpha.-Naphthoflavone
##MOLFORM=C19H12O2
##CAS REGISTRY NO=604-59-1
##MP= -300
##BP= -300
##MW= 272
##$RETENTION INDEX=0
##$CONDENSED SPECTRUM=NO
##NPOINTS= 69
##XYDATA=(XY..XY) 1 
    27         10
    38          5
    39         39
    50         74
    51         93
    52         46
    53         14
    57          8
    61          6
    62         70
    63        160
    64         30
    65          6
    69         10
    71          3
    74        108
    75        113
    76        181
    77         75
    81          3
    82          2
    85          4
    86         47
    87         86
    88        182
    89         48
    90          1
    94          5
    95         38
    98         21
    99         16
   100          9
   101         19
   102        263
   103         21
   105         14
   107         37
   108         56
   110          4
   111          7
   112          2
   113        262
   114        999
   115        111
   121          3
   122        131
   126         29
   129          9
   137          4
   139         25
   142        109
   143         10
   163          9
   169          6
   170        966
   171        119
   172          8
   187          9
   189         18
   213         36
   214          9
   215         64
   216         10
   244        197
   245         38
   271         52
   272        941
   273        199
   274         23