##TITLE=Library Entry 11340
##JCAMP-DX=Revision 4.10 
##DATA TYPE=MASS SPECTRUM
##SAMPLE DESCRIPTION=Japan AIST/NIMC Database- Spectrum MS-NW-7031
##NAMES=HP
##CAS NAME=.alpha.-D-Glucopyranose, pentaacetate
##MOLFORM=C16H22O11
##CAS REGISTRY NO=604-68-2
##MP= -300
##BP= -300
##MW= 390
##$RETENTION INDEX=2257
##$CONDENSED SPECTRUM=NO
##NPOINTS= 112
##XYDATA=(XY..XY) 1 
    14          3
    15         35
    17          3
    18         13
    27          4
    28          9
    29          4
    31          2
    39          3
    41          5
    42         10
    43        999
    44         23
    45          6
    52          1
    53          3
    54          1
    55          5
    56          3
    57          5
    60          8
    61         10
    68          2
    69         16
    70          9
    71          6
    72          1
    73         37
    74          3
    80          9
    81         22
    82          3
    83          1
    84          4
    85         18
    86         11
    87          2
    89          1
    96          3
    97         29
    98        132
    99         16
   100          2
   101          4
   102         10
   103         61
   104          3
   109         46
   110          5
   111          2
   112          9
   113          8
   114         15
   115        173
   116         17
   117          2
   122          1
   125          3
   126         17
   127         20
   128          3
   129          1
   131          7
   138          1
   139         15
   140         56
   141          9
   142          1
   143          8
   144          6
   145         39
   146          3
   153          1
   155          9
   156          3
   157        108
   158         31
   159          4
   168          9
   169         54
   170          6
   171          2
   173          1
   182          9
   183          1
   185          2
   186          5
   187          4
   197          7
   198          1
   199         15
   200         47
   201          5
   202          1
   203          4
   210          3
   211          8
   212          1
   215          6
   217          1
   228          4
   229          3
   242         70
   243          9
   244          1
   245          6
   246          1
   270          1
   271          3
   288          1
   331          9
   332          2