##TITLE=Library Entry 47663
##JCAMP-DX=Revision 4.10 
##DATA TYPE=MASS SPECTRUM
##SAMPLE DESCRIPTION=NIST Mass Spectrometry Data Center
##NAMES=HP
##CAS NAME=Oxazepam
##MOLFORM=C15H11ClN2O2
##CAS REGISTRY NO=604-75-1
##MP= -300
##BP= -300
##MW= 286
##$RETENTION INDEX=2348
##$CONDENSED SPECTRUM=NO
##NPOINTS= 181
##XYDATA=(XY..XY) 1 
    26          3
    27         15
    28          4
    29         70
    30          1
    35          1
    36          3
    37          7
    38         18
    39         52
    40          3
    41          1
    43          1
    47          1
    48          1
    49          9
    50        183
    51        482
    52         71
    53         10
    54          1
    55          3
    56          2
    60          4
    61         31
    62         66
    63         96
    64         24
    65          7
    66          1
    67          2
    68          3
    69          2
    70          1
    72          4
    73         31
    74        147
    75        346
    76        178
    77        999
    78        127
    79          7
    80          5
    81          6
    84         22
    85         27
    86         48
    87         58
    88         77
    93         13
    94          5
    95          1
    96          2
    97          9
    98         47
    99         80
   100        195
   101         67
   102        163
   104        325
   105         28
   106         13
   108          4
   109         26
   110        157
   111         48
   112         62
   113         31
   114         21
   115          7
   116          2
   120         27
   122         14
   123         31
   124         28
   125         46
   126         69
   127         55
   128         15
   129          8
   130          1
   132          1
   133          2
   134          9
   135         11
   136         94
   137         63
   138         55
   139         30
   140         12
   141          2
   145          1
   146          2
   147          5
   148          8
   149         55
   150        173
   151        249
   152         92
   153         22
   154          3
   159          2
   160          4
   161         10
   162         18
   163        102
   164         25
   165         29
   166          4
   167          1
   171          1
   172          1
   173          2
   174          9
   175         52
   176        159
   177        330
   178        106
   179         21
   180          2
   183          1
   184          2
   185          8
   186         15
   187          7
   188          8
   189          5
   190          4
   193          1
   197          1
   198          3
   199         16
   200          3
   201          8
   202         37
   203         94
   204        122
   205        896
   206        141
   207         10
   210          1
   211         16
   212         11
   213         21
   214         25
   215          7
   216          7
   217          3
   219          2
   224          4
   225          1
   226          1
   231          1
   232          2
   233        598
   234        100
   235          9
   236          1
   237          6
   238         32
   239        697
   240        339
   241        268
   242        107
   243         16
   244          1
   253          1
   254          1
   255          1
   256          1
   261          1
   263          1
   264          1
   265          1
   266          1
   267        615
   268        644
   269        303
   270        212
   271         34
   272          4