##TITLE=Library Entry 14712
##JCAMP-DX=Revision 4.10 
##DATA TYPE=MASS SPECTRUM
##SAMPLE DESCRIPTION=Patti Price, Georgia Bureau of Investigation, Decatur,
 Georgia
##NAMES=HP
##CAS NAME=17.alpha.-Hydroxyprogesterone
##MOLFORM=C21H30O3
##CAS REGISTRY NO=604-09-1
##MP= -300
##BP= -300
##MW= 330
##$RETENTION INDEX=0
##$CONDENSED SPECTRUM=NO
##NPOINTS= 156
##XYDATA=(XY..XY) 1 
    43        999
    45         31
    51         63
    52         30
    53        205
    54         39
    55        435
    57        129
    58         49
    59         44
    64         12
    65        147
    66         68
    67        368
    68         55
    69        105
    70         20
    71        227
    72         27
    73          7
    74         17
    77        502
    79        681
    80         94
    81        258
    82         39
    83        136
    84         39
    85         43
    87        154
    89          8
    91        724
    92        128
    93        309
    94         98
    95        264
    96         62
    97        227
   100         40
   103         97
   104         60
   105        349
   106         71
   107        357
   108        128
   109        279
   110         49
   111         52
   115        148
   116         45
   117        131
   118         57
   119        260
   120        122
   121        318
   122        217
   123        325
   124        327
   125         55
   127         26
   128         78
   129         91
   130         43
   131        187
   132         58
   133        176
   134        105
   135        167
   136        185
   137        115
   138         30
   141         55
   143        111
   144         40
   145        230
   146         78
   147        250
   148        139
   149        128
   150         19
   151         20
   154         26
   155         34
   157         83
   158         54
   159        162
   160         75
   161        154
   162         63
   163         73
   165         19
   167         21
   168         16
   169         46
   171         86
   172         44
   174        118
   177         21
   178         17
   183         16
   184         33
   185         72
   187         84
   190         20
   191         27
   195         19
   196          9
   197         38
   198         34
   199         92
   200         70
   201        116
   202         92
   203         39
   207         21
   209         25
   211        128
   212         25
   213         71
   214         34
   215         59
   217         33
   224         11
   226         50
   227         81
   228         63
   229        705
   230        172
   232         13
   237          9
   241         41
   242        147
   243        149
   244        254
   245        102
   251         34
   255         10
   260         19
   269        178
   270         35
   280         13
   284         38
   285         19
   287        230
   288         52
   295          4
   297         65
   302        194
   303         53
   312        158
   313         48
   314          3
   315         49
   330        737
   331        197
   332         19