##TITLE=Library Entry 36859
##JCAMP-DX=Revision 4.10 
##DATA TYPE=MASS SPECTRUM
##SAMPLE DESCRIPTION=A.Pleshkova, Nesmeyanov Inst.Org.Elem.Cpds, Moscow
##NAMES=HP
##CAS NAME=Perfluorodecaline, cis-
##MOLFORM=C10F18
##CAS REGISTRY NO=60433-11-6
##MP= -300
##BP= -300
##MW= 462
##$RETENTION INDEX=0
##$CONDENSED SPECTRUM=NO
##NPOINTS= 72
##XYDATA=(XY..XY) 1 
    31        220
    32          2
    50        280
    51          3
    69        999
    70         11
    93          5
   100         42
   101          1
   119        113
   120          2
   131        586
   132         19
   133          2
   143          9
   155          8
   162         14
   163          1
   169         87
   170          3
   174          1
   181         94
   182          4
   186          3
   193         59
   194          3
   200         21
   201          1
   205         38
   206          2
   212          7
   217          2
   219         21
   220          1
   224          6
   231         15
   232          1
   236          6
   243        476
   244         31
   245          8
   255         57
   256          4
   257          1
   267          8
   268          1
   293        674
   294         51
   295         16
   305        406
   306         35
   307          1
   331         12
   332          1
   343        156
   344         13
   345          4
   355         59
   356          6
   357          2
   374         25
   375          2
   376          1
   393        545
   394         53
   395         26
   412          2
   443         27
   444          3
   445          1
   462         12
   463          1