##TITLE=Library Entry 109738
##JCAMP-DX=Revision 4.10 
##DATA TYPE=MASS SPECTRUM
##SAMPLE DESCRIPTION=NIST Mass Spectrometry Data Center, 1994
##NAMES=HP
##CAS NAME=Bis(p-chlorobenzylidene)ethylene diamine
##MOLFORM=C16H14Cl2N2
##CAS REGISTRY NO=60434-95-9
##MP= -300
##BP= -300
##MW= 304
##$RETENTION INDEX=0
##$CONDENSED SPECTRUM=NO
##NPOINTS= 93
##XYDATA=(XY..XY) 1 
    17          5
    18         13
    26          0
    27         24
    28        109
    32          2
    35          3
    36          6
    37          6
    38         19
    39         66
    40         16
    41         69
    42         13
    44          1
    49          8
    50         75
    51         79
    52         13
    53          3
    54         22
    55          3
    58          4
    61         10
    62         42
    63        142
    64         24
    65         22
    66          3
    73         38
    74         17
    75        159
    76         43
    77         84
    78         10
    79          2
    84          5
    85         16
    86         10
    87         20
    88          2
    89        433
    90        159
    91         16
    92          1
    97          5
    99         71
   100         10
   101         36
   102         66
   103         70
   104         14
   105          5
   111         81
   112         36
   113         31
   114         14
   115          8
   116         27
   117         71
   118          9
   123         22
   125        999
   126         90
   127        331
   128         25
   129          7
   130         28
   131          7
   132        210
   133         22
   138        540
   139        247
   140        194
   141         70
   142          7
   151         55
   152        259
   153         42
   154         78
   155          7
   164         12
   166        327
   167        455
   168        140
   169        158
   170         14
   275          2
   303          4
   304          2
   305          4
   306          2
   307          1