##TITLE=Library Entry 22429
##JCAMP-DX=Revision 4.10 
##DATA TYPE=MASS SPECTRUM
##SAMPLE DESCRIPTION=Institute of Organic Chemistry, Novosibirsk, USSR 1988
##NAMES=HP
##CAS NAME=3,4,4,6-Tetramethyltetrahydro-1,3-thiazin-2-one
##MOLFORM=C8H15NOS
##CAS REGISTRY NO=60431-75-6
##MP= -300
##BP= -300
##MW= 173
##$RETENTION INDEX=0
##$CONDENSED SPECTRUM=NO
##NPOINTS= 83
##XYDATA=(XY..XY) 1 
    12          4
    13          4
    14         82
    15         22
    16        140
    17        279
    18          1
    26          8
    27         97
    28         87
    29         90
    30         35
    31          6
    32          8
    33          2
    34          1
    35          4
    37          1
    38          5
    39        311
    40         35
    41        727
    42        245
    43        442
    44         31
    45         38
    46          6
    47         15
    50          2
    51          8
    52          8
    53         30
    54         19
    55        205
    56        999
    57        783
    58         40
    59        137
    60        777
    61        509
    62         49
    63          6
    65         10
    66          6
    67         55
    68         19
    69        107
    70         88
    71        164
    72         30
    73         52
    74         62
    75          3
    79          3
    80          1
    81         11
    82         20
    83        101
    84          6
    85          6
    86          1
    87          8
    88          1
    94          1
    95          0
    96          4
    97          3
    98        212
    99         19
   101        152
   102          2
   115          1
   116         30
   130        121
   131         68
   132          6
   140         14
   158        429
   159          6
   160          4
   173        277
   174         29
   175         14