##TITLE=Library Entry 83359
##JCAMP-DX=Revision 4.10 
##DATA TYPE=MASS SPECTRUM
##SAMPLE DESCRIPTION=Japan AIST/NIMC Database- Spectrum MS-NW-8535
##NAMES=HP
##CAS NAME=Acetic acid, copper(2+) salt, monohydrate
##MOLFORM=C4H6CuO4
##CAS REGISTRY NO=6046-93-1
##MP= -300
##BP= -300
##MW= 181
##$RETENTION INDEX=0
##$CONDENSED SPECTRUM=NO
##NPOINTS= 113
##XYDATA=(XY..XY) 1 
    12         19
    13         38
    14        291
    15        240
    16         40
    24          7
    25         12
    26          9
    27          2
    28        279
    29         91
    30          9
    31         16
    32          2
    39          8
    40         29
    41        161
    42        797
    43        931
    44        529
    45        665
    46          9
    47          3
    55          1
    56          2
    58          1
    60        553
    61         16
    62          3
    63        474
    64          9
    65        214
    66          5
    67          1
    68          2
    69          3
    70          1
    71          2
    72          2
    73          2
    75          1
    76          7
    77         10
    78         28
    79         57
    80         30
    81         44
    82          9
    83          9
    84          2
    91         33
    92          1
    93         33
    94          6
    95         19
    96          3
    97          6
   103          1
   104         13
   105         29
   106          7
   107        999
   108         13
   109        443
   110          6
   111          2
   112          1
   113          1
   114          2
   115         13
   116          1
   117          1
   121          1
   122        724
   123         54
   124        323
   125         29
   126         38
   127          9
   128         32
   129          2
   130          7
   132          2
   135          2
   137          7
   138          1
   139          4
   140          5
   141         69
   142         41
   143         74
   144         33
   145         32
   146          8
   147          5
   148          1
   149          1
   151        174
   152          4
   153         79
   154          2
   155          1
   165          1
   166        643
   167         32
   168        292
   169         15
   170          6
   171          3
   181        139
   182         10
   183         63
   184          6