##TITLE=Library Entry 90284
##JCAMP-DX=Revision 4.10 
##DATA TYPE=MASS SPECTRUM
##SAMPLE DESCRIPTION=NIST Mass Spectrometry Data Center
##NAMES=HP
##CAS NAME=Hexacosane-7,9-dione
##MOLFORM=C26H50O2
##CAS REGISTRY NO=60462-05-7
##MP= -300
##BP= -300
##MW= 394
##$RETENTION INDEX=2885
##$CONDENSED SPECTRUM=NO
##NPOINTS= 157
##XYDATA=(XY..XY) 1 
    27          4
    29         18
    39         11
    40          2
    41        103
    42         25
    43        358
    44         12
    53          8
    54          6
    55        151
    56         30
    57        200
    58         30
    67         35
    68         20
    69        155
    70         26
    71        202
    72         10
    77          6
    79          9
    80         12
    81         33
    83         68
    84         65
    85        251
    86         19
    87          5
    89          2
    91          7
    93         12
    94         72
    95         75
    96         11
    97        117
    98         56
   100        724
   101         62
   102          7
   107         13
   108         16
   109         59
   110         31
   111         51
   112         71
   113        999
   114        107
   120          3
   121         13
   122          5
   123         18
   124         37
   125         22
   126          7
   127         10
   128         91
   129         22
   130         32
   131          5
   133          5
   135         13
   137         40
   138         57
   139         12
   140          5
   147         11
   148          7
   149         14
   151          5
   152         97
   153         14
   154         12
   155        320
   161          7
   163          4
   165          7
   168          4
   170        324
   171         95
   172         10
   175         12
   179          2
   181          4
   183         88
   184         15
   185          3
   189          8
   190          5
   193          3
   194         13
   195          3
   196          2
   197          5
   204         30
   205         15
   206          3
   207         10
   208         18
   209          4
   210          6
   212         21
   217          4
   221          5
   222          5
   223          2
   224          3
   226          6
   233          4
   236          3
   239          7
   240          2
   248         86
   249         21
   250          4
   251          2
   253          3
   254          2
   263          8
   264          7
   265          3
   266         19
   267        100
   268         21
   269          2
   273          2
   282          5
   283          2
   288          3
   291         26
   292          6
   306         75
   307         17
   308          2
   309         98
   310         21
   311          4
   319          2
   324         12
   325          5
   337         25
   338          5
   347          1
   351          6
   352          5
   353          1
   358          1
   365          2
   372          2
   376         45
   377         13
   378          2
   379          3
   393          5
   394         21
   395          7
   396          1