##TITLE=Library Entry 63826
##JCAMP-DX=Revision 4.10 
##DATA TYPE=MASS SPECTRUM
##SAMPLE DESCRIPTION=Chemical Concepts
##NAMES=HP
##CAS NAME=1-Propanol, 2-(dibenzylamino)-, (S)-
##MOLFORM=C17H21NO
##CAS REGISTRY NO=60479-65-4
##MP= -300
##BP= -300
##MW= 255
##$RETENTION INDEX=0
##$CONDENSED SPECTRUM=NO
##NPOINTS= 111
##XYDATA=(XY..XY) 1 
    26          0
    27          2
    28          1
    29          1
    30          0
    31         10
    38          0
    39         11
    41         10
    42          2
    43          0
    44          5
    45          0
    50          1
    51          7
    52          1
    53          0
    54          1
    55          1
    56         50
    57          2
    58          0
    59          1
    62          0
    63          6
    64          1
    65         76
    66          4
    67          0
    70          0
    72          0
    75          0
    76          0
    77          8
    78          2
    79          4
    80          0
    86          0
    89         12
    90          8
    91        999
    92         79
    93          2
   102          0
   103          2
   104          4
   105         14
   106          5
   107          0
   108          0
   112          8
   115          1
   116          1
   117          3
   118          2
   119          0
   120          0
   122          0
   128          0
   130          1
   131          0
   132         33
   133          3
   134          8
   135          0
   141          0
   144          0
   146          3
   147          0
   148          0
   149          0
   152          0
   153          0
   160          0
   162          1
   163          0
   164          6
   165          5
   166          6
   167          1
   176          2
   177          0
   178          3
   179          3
   180          1
   181        111
   182         17
   183          1
   194          0
   195          0
   196          2
   197          0
   208          0
   210          3
   211          0
   222          0
   223          2
   224        871
   225        153
   226         13
   227          0
   236          0
   237          0
   238          0
   240          1
   241          0
   252          0
   253          0
   254          1
   255          5
   256          1