##TITLE=Library Entry 10371
##JCAMP-DX=Revision 4.10 
##DATA TYPE=MASS SPECTRUM
##SAMPLE DESCRIPTION=H.Buttkus ET.AL. JAOCS, 54,212(1977)
##NAMES=HP
##CAS NAME=Artemiseole
##MOLFORM=C10H16O
##CAS REGISTRY NO=60485-46-3
##MP= -300
##BP= -300
##MW= 152
##$RETENTION INDEX=967
##$CONDENSED SPECTRUM=NO
##NPOINTS= 54
##XYDATA=(XY..XY) 1 
    38         40
    39        423
    40         59
    41        464
    42         46
    43        999
    44         25
    45         17
    50         38
    51         84
    52         48
    53        222
    54         31
    55        347
    56         17
    57         56
    58         10
    59         13
    63         27
    64         17
    65         86
    66         33
    67        519
    68         33
    69         44
    70         27
    77        226
    78         50
    79        592
    80         61
    81        393
    82         44
    83         15
    91        128
    92         33
    93        132
    94        339
    95        607
    97         52
    98         19
   104          6
   106         15
   108         19
   109         71
   110         19
   119         19
   121         10
   123         44
   124         13
   137        167
   138         13
   151         10
   152        207
   153         13