##TITLE=Library Entry 67948
##JCAMP-DX=Revision 4.10 
##DATA TYPE=MASS SPECTRUM
##SAMPLE DESCRIPTION=W.Epstein ET AL.J.Chem.Eng.Data,21,500(1976)
##NAMES=HP
##CAS NAME=Santolina epoxide
##MOLFORM=C10H16O
##CAS REGISTRY NO=60485-45-2
##MP= -300
##BP= -300
##MW= 152
##$RETENTION INDEX=0
##$CONDENSED SPECTRUM=NO
##NPOINTS= 57
##XYDATA=(XY..XY) 1 
    41        473
    42         23
    43        242
    44         17
    45          6
    50         30
    51         81
    52        183
    53        185
    54         23
    55        399
    56         34
    57        108
    58         21
    59         11
    63         32
    64          8
    65         85
    66         30
    67        537
    68         89
    69        110
    70         19
    77        212
    78         40
    79        312
    80         79
    81        127
    82         30
    83         19
    84         17
    91        223
    92         40
    93        159
    94         81
    95        999
    96         89
    97         21
   103          8
   105         64
   106         11
   107        178
   108         23
   109         72
   110         21
   111          6
   116          4
   118          8
   119         40
   120          4
   121         23
   122         51
   123         30
   124          8
   137        102
   138         13
   152          8