##TITLE=Library Entry 48826
##JCAMP-DX=Revision 4.10 
##DATA TYPE=MASS SPECTRUM
##SAMPLE DESCRIPTION=NIST Mass Spectrometry Data Center
##NAMES=HP
##CAS NAME=2,3-Pyridinedicarboxylic acid, dimethyl ester
##MOLFORM=C9H9NO4
##CAS REGISTRY NO=605-38-9
##MP= -300
##BP= -300
##MW= 195
##$RETENTION INDEX=1520
##$CONDENSED SPECTRUM=NO
##NPOINTS= 88
##XYDATA=(XY..XY) 1 
    14          2
    15         58
    16          1
    25          1
    26         25
    27         10
    28         15
    29         44
    30         14
    31          7
    36          1
    37         10
    38         31
    39         77
    40          6
    41          4
    42         28
    43          3
    44          5
    45          8
    48          3
    49         36
    50        236
    51        190
    52         57
    53        107
    54         10
    55          2
    56          1
    58          6
    59        101
    60          3
    61          3
    62          4
    63         12
    64         28
    65        105
    66         46
    67         20
    68          4
    69          2
    74          4
    75         64
    76        202
    77        326
    78        970
    79        999
    80        167
    81         12
    82          1
    84          1
    88          1
    90          4
    91         19
    92        114
    93        197
    94         18
    95          2
   102          1
   104         21
   105        140
   106        425
   107        893
   108         90
   109          8
   110          1
   119          3
   120         19
   121          2
   122          5
   123          1
   133          2
   134          3
   136        919
   137        717
   138         61
   139          5
   150         17
   151          6
   152          1
   162          1
   164        736
   165        526
   166         50
   167          5
   195         15
   196          4
   197          1