##TITLE=Library Entry 39940
##JCAMP-DX=Revision 4.10 
##DATA TYPE=MASS SPECTRUM
##SAMPLE DESCRIPTION=Zaikin V.G., TIPS RAS, Moscow, Russia
##NAMES=HP
##CAS NAME=1,2-Benzenedicarboxylic acid, bis(2-ethoxyethyl) ester
##MOLFORM=C16H22O6
##CAS REGISTRY NO=605-54-9
##MP= -300
##BP= -300
##MW= 310
##$RETENTION INDEX=2103
##$CONDENSED SPECTRUM=NO
##NPOINTS= 68
##XYDATA=(XY..XY) 1 
    26          4
    27         34
    28          6
    29        104
    30          3
    31        108
    39          7
    41          7
    43        126
    44        194
    45        785
    46         16
    50         30
    51         10
    52          6
    55          3
    57          4
    59        121
    60          2
    65         51
    66         39
    72        999
    73        995
    74         48
    75         14
    76        125
    77         36
    78          4
    88          6
    89        104
    90          9
    91         27
    92          4
    93         52
    94          2
   103          2
   104        230
   105         77
   106          4
   118          4
   121         43
   122         13
   132         85
   133         76
   134          6
   135          6
   147          5
   148         64
   149        697
   150         68
   151          6
   162          3
   163         15
   167          9
   176        169
   177         27
   191          5
   193        194
   194         43
   195          4
   220          6
   221        102
   222         24
   237          6
   239          6
   265         18
   266         41
   267          4