##TITLE=Library Entry 25608
##JCAMP-DX=Revision 4.10 
##DATA TYPE=MASS SPECTRUM
##SAMPLE DESCRIPTION=Japan AIST/NIMC Database- Spectrum MS-IW-5916
##NAMES=HP
##CAS NAME=Propanamide, N-(1-oxopropyl)-
##MOLFORM=C6H11NO2
##CAS REGISTRY NO=6050-26-6
##MP= -300
##BP= -300
##MW= 129
##$RETENTION INDEX=0
##$CONDENSED SPECTRUM=NO
##NPOINTS= 47
##XYDATA=(XY..XY) 1 
    14          2
    15          4
    16          1
    17          3
    18         10
    25          1
    26         21
    27        116
    28         94
    29        508
    30         17
    31          2
    39          2
    40          1
    41          4
    42         14
    43          9
    44         84
    45         14
    46          3
    51          1
    52          3
    53          4
    54         13
    55         41
    56        129
    57        999
    58         49
    59          4
    70          9
    71          2
    72        134
    73        906
    74        467
    75         18
    76          1
    82          1
    86         11
    87          1
   100         12
   101        101
   102          8
   114          4
   115          1
   129        339
   130         36
   131          3