##TITLE=Library Entry 33428
##JCAMP-DX=Revision 4.10 
##DATA TYPE=MASS SPECTRUM
##SAMPLE DESCRIPTION=Chemical Concepts
##NAMES=HP
##CAS NAME=2(3H)-Benzofuranone, hexahydro-
##MOLFORM=C8H12O2
##CAS REGISTRY NO=6051-03-2
##MP= -300
##BP= -300
##MW= 140
##$RETENTION INDEX=0
##$CONDENSED SPECTRUM=NO
##NPOINTS= 55
##XYDATA=(XY..XY) 1 
    26         37
    27        352
    28         95
    29        174
    31          9
    37          7
    38         28
    39        447
    40         98
    41        618
    42        136
    43        109
    44         48
    45         17
    50         18
    51         45
    52         28
    53        182
    54        385
    55        526
    56        108
    57        152
    58         16
    63         12
    65         32
    66        262
    67        980
    68        999
    69        113
    70        108
    71         53
    77         28
    78         10
    79        257
    80         22
    81        348
    82         27
    83         75
    84         62
    85          6
    91         23
    93         38
    94         48
    95         39
    96        305
    97         84
    98         27
    99          7
   111         52
   112         20
   121         37
   122          7
   139         76
   140         35
   141         17