##TITLE=Library Entry 3221
##JCAMP-DX=Revision 4.10 
##DATA TYPE=MASS SPECTRUM
##SAMPLE DESCRIPTION=Exported from NIST MS Search
##NAMES=HP
##CAS NAME=1,1':3',1''-Tercyclopentane
##MOLFORM=C15H26
##CAS REGISTRY NO=6051-40-7
##MP= -300
##BP= -300
##MW= 206
##$RETENTION INDEX=0
##$CONDENSED SPECTRUM=NO
##NPOINTS= 127
##XYDATA=(XY..XY) 1 
    36          1
    37          3
    38         10
    39        292
    40         69
    41        999
    42        126
    43         62
    44          2
    45          1
    46          1
    47          1
    48          2
    49          1
    50          6
    51         25
    52         19
    53        151
    54        103
    55        318
    56         20
    57         25
    58          2
    59          1
    60          1
    61          1
    62          1
    63          6
    64          3
    65         56
    66        127
    67        745
    68        508
    69        436
    70         26
    71         10
    72          1
    74          1
    75          1
    76          1
    77         69
    78         19
    79        128
    80         63
    81        543
    82        125
    83         66
    84          5
    85          5
    86          1
    89          1
    90          1
    91         47
    92         10
    93         75
    94         81
    95        592
    96        160
    97         43
    98          3
    99          1
   102          1
   103          3
   104          1
   105          8
   106          3
   107         32
   108         58
   109         69
   110        109
   111         45
   112          5
   113          1
   115          2
   116          1
   117          2
   118          1
   119          2
   120          1
   121         52
   122         15
   123         18
   124         25
   125          7
   126          1
   127          1
   128          1
   129          1
   131          1
   132          1
   133          3
   134          6
   135        223
   136        388
   137        580
   138         82
   139          6
   140          1
   141          1
   147          1
   148          1
   149         39
   150         23
   151          4
   152          1
   153          1
   155          1
   159          1
   161          1
   162          1
   163         18
   164         12
   165          3
   166          1
   169          1
   175          1
   176          1
   177          9
   178         15
   179          2
   191          1
   202          1
   204          2
   205          1
   206         66
   207         11
   208          1