##TITLE=Library Entry 65218
##JCAMP-DX=Revision 4.10 
##DATA TYPE=MASS SPECTRUM
##SAMPLE DESCRIPTION=A.A.Kutin, Moscow, Russia
##NAMES=HP
##CAS NAME=Isoindole-1,3(1H,3H)-dione, 4,5,6,7-tetrachloro-2-(6-methyl-2-pyr
idyl)-
##MOLFORM=C14H6Cl4N2O2
##CAS REGISTRY NO=60517-88-6
##MP= -300
##BP= -300
##MW= 374
##$RETENTION INDEX=0
##$CONDENSED SPECTRUM=NO
##NPOINTS= 230
##XYDATA=(XY..XY) 1 
    33         24
    35         45
    36        115
    37         83
    38        258
    39        422
    40        145
    41         76
    42        100
    43         24
    44         13
    45         11
    47         22
    49         21
    50         58
    51        118
    52        162
    53        115
    54         25
    55         18
    56          4
    57          3
    59          3
    60         19
    61         11
    62         32
    63        131
    64        340
    65        531
    66        123
    67         49
    69         29
    70         21
    71         58
    72         50
    73         23
    75         16
    76         21
    77         24
    78         84
    79         79
    80         62
    81          6
    82          5
    83         16
    84          8
    85         12
    86         21
    87         40
    89         27
    91        795
    92        999
    93         66
    95         34
    96          9
    97         12
    98         10
    99          6
   100         12
   102          3
   103         10
   105        110
   106        118
   107        267
   108         72
   109         79
   110         16
   111         19
   112          6
   113          5
   118         92
   119         19
   120         64
   121         31
   122         19
   123         11
   124         16
   125         10
   126          8
   127         41
   129         25
   130         11
   131          4
   132         14
   133         30
   134         70
   135        104
   136         21
   137         27
   138         10
   139          9
   142        483
   143         69
   144        270
   145         29
   146         45
   147          6
   151          5
   153          5
   154          3
   156         37
   157         13
   158         14
   159          3
   160          4
   161          3
   165          4
   167          7
   168          7
   169          3
   170         10
   171          6
   172         11
   173         26
   174         27
   175         22
   177        327
   179        316
   180         39
   181         86
   182         11
   183         10
   184          3
   185          4
   187         78
   188         84
   189         40
   190          7
   203         15
   205        110
   207        105
   208         13
   209         31
   212        550
   213        130
   214        595
   215         97
   216        283
   217         37
   218         62
   219         16
   220          9
   221         10
   222          3
   223          4
   226          7
   228         11
   229          3
   230          5
   232          3
   233          4
   234          3
   238         15
   240        157
   241         54
   242        166
   243         47
   244         77
   245         18
   246         20
   247         25
   248         17
   249         16
   250          9
   251          3
   260          3
   266         36
   268         53
   269         10
   270         21
   271          6
   272          6
   276         48
   277         12
   278         23
   279          5
   280          4
   281          4
   282          8
   283         22
   284         13
   285         20
   286          8
   287          6
   294          3
   295          4
   296          4
   297          3
   311        106
   312         26
   313         77
   314         19
   315         25
   316          5
   317          8
   318         22
   319         12
   320         27
   321          7
   322         11
   324          3
   329         27
   331         36
   332         13
   333         14
   334          8
   335          3
   336          3
   338          3
   339         16
   340          6
   341         12
   342          6
   343          9
   346        449
   348        597
   349        102
   350        229
   351         38
   352         48
   353          6
   354          3
   359          3
   361          4
   374        243
   376        318
   377        161
   379         21
   380         24
   381          4