##TITLE=Library Entry 76840
##JCAMP-DX=Revision 4.10 
##DATA TYPE=MASS SPECTRUM
##SAMPLE DESCRIPTION=Japan AIST/NIMC Database- Spectrum MS-IW-2614
##NAMES=HP
##CAS NAME=Tartaramide
##MOLFORM=C4H8N2O4
##CAS REGISTRY NO=6051-30-5
##MP= -300
##BP= -300
##MW= 148
##$RETENTION INDEX=0
##$CONDENSED SPECTRUM=NO
##NPOINTS= 62
##XYDATA=(XY..XY) 1 
    13          1
    14          9
    15         47
    16         27
    17         53
    18        604
    19         36
    25          1
    26          9
    27         11
    28        161
    29        146
    30         83
    31         99
    32          4
    38          1
    39          2
    40          8
    41         17
    42         96
    43        251
    44        544
    45         71
    46         41
    47          5
    48          1
    51          1
    52          3
    53          5
    54          2
    55          2
    56          2
    57         59
    58        139
    59         80
    60         87
    61        712
    62         17
    63          3
    68          7
    69         33
    70         53
    71        297
    72         10
    73          4
    74         25
    75        484
    76         15
    77          2
    86         55
    87        629
    88        116
    89          6
   102          1
   103          5
   104        999
   105         95
   106          9
   131          1
   133          1
   148          6
   149          4