##TITLE=Library Entry 71590
##JCAMP-DX=Revision 4.10 
##DATA TYPE=MASS SPECTRUM
##SAMPLE DESCRIPTION=Exported from NIST MS Search
##NAMES=HP
##CAS NAME=2(1H)-Pyridinone, 4-hydroxy-1,6-dimethyl-
##MOLFORM=C7H9NO2
##CAS REGISTRY NO=6052-75-1
##MP= -300
##BP= -300
##MW= 139
##$RETENTION INDEX=0
##$CONDENSED SPECTRUM=NO
##NPOINTS= 37
##XYDATA=(XY..XY) 1 
    51         32
    52         36
    53         54
    54         46
    55        104
    56        254
    57         36
    58         39
    62          7
    63         18
    64          7
    65         11
    66         21
    67         36
    68         54
    69        125
    70         29
    80         18
    81         25
    82        139
    83         18
    84         21
    94         32
    95         18
    96         54
    97         54
    98        999
    99         29
   110        357
   111        207
   122         18
   123         14
   124         39
   138         18
   139        857
   140         82
   141         18