##TITLE=Library Entry 59043
##JCAMP-DX=Revision 4.10 
##DATA TYPE=MASS SPECTRUM
##SAMPLE DESCRIPTION=Humboldt-Universitat zu Berlin, Department of Chemistry
, Analytical Group
##NAMES=HP
##CAS NAME=3-Methyl-2-[methyl-(toluen-4-sulfonyl)-amino]-butanoic acid
##MOLFORM=C13H19NO4S
##CAS REGISTRY NO=60522-10-3
##MP= -300
##BP= -300
##MW= 285
##$RETENTION INDEX=0
##$CONDENSED SPECTRUM=NO
##NPOINTS= 155
##XYDATA=(XY..XY) 1 
    12          1
    14          2
    15         63
    16          7
    17         25
    18         90
    19          1
    26          4
    27        107
    28         57
    29         39
    30         30
    31          9
    32          4
    33          0
    36          0
    37          2
    38          9
    39        137
    40         15
    41        155
    42        816
    43        123
    44         25
    45         44
    46          2
    47          1
    48          2
    49          1
    50         17
    51         37
    52         11
    53         12
    54          7
    55         48
    56         25
    57         13
    58          6
    59          7
    60          6
    61          2
    62         12
    63         60
    64         16
    65        285
    66         18
    67         10
    68         18
    69         15
    70         80
    71         17
    72          9
    73          3
    74         13
    75          4
    76          3
    77         22
    78          9
    79          8
    80          3
    81          1
    82          8
    83          7
    84        159
    85         48
    86         91
    87          9
    88         35
    89         72
    90         46
    91        999
    92        119
    93         11
    94          1
    95          2
    96          1
    97          1
    98          1
    99          1
   100          1
   101          1
   102          2
   103          1
   104          0
   105          5
   106          2
   107         11
   108          4
   109          2
   110          1
   111          3
   112          1
   113          1
   114          1
   115          1
   116          1
   117          2
   118          4
   119          3
   120          4
   121          4
   122          2
   123          2
   124          1
   125          1
   129          1
   130          8
   131          1
   132          3
   133          2
   134          2
   139         38
   140          6
   141          2
   143          0
   144          1
   145          2
   146          1
   147          1
   149          1
   155        610
   156         58
   157         45
   158          4
   159          1
   160          1
   171          1
   173          4
   175          1
   176          1
   177          0
   178          0
   184          0
   185          1
   186          1
   196          0
   198          1
   214          1
   220          1
   224          1
   226         24
   227          3
   228          3
   229          0
   238          1
   240        567
   241         87
   242        176
   243         20
   244          9
   245          1
   283          0
   284          0
   285          2
   286          0