##TITLE=Library Entry 66676
##JCAMP-DX=Revision 4.10 
##DATA TYPE=MASS SPECTRUM
##SAMPLE DESCRIPTION=Japan AIST/NIMC Database- Spectrum MS-NW-8055
##NAMES=HP
##CAS NAME=para-Hexadecylsulfonylaniline
##MOLFORM=C22H39NO2S
##CAS REGISTRY NO=6052-20-6
##MP= -300
##BP= -300
##MW= 381
##$RETENTION INDEX=0
##$CONDENSED SPECTRUM=NO
##NPOINTS= 106
##XYDATA=(XY..XY) 1 
    27          9
    28          9
    29         40
    30          1
    32          1
    39         13
    40          2
    41        100
    42         14
    43        136
    44          5
    51          1
    52          2
    53          6
    54          6
    55        103
    56         16
    57         77
    58          3
    63          5
    64          3
    65         40
    66          8
    67         11
    68          6
    69         55
    70          9
    71         26
    72          1
    77          2
    78          1
    79          2
    80          5
    81          8
    82          6
    83         29
    84          6
    85         12
    90          1
    91          5
    92         79
    93        999
    94         89
    95          8
    96          3
    97         17
    98          3
    99          2
   105          1
   106         26
   107          6
   108        118
   109         11
   110          2
   111          7
   112          2
   113          1
   119          2
   120          3
   121          1
   123          1
   124          5
   125          5
   126          1
   132          9
   133          2
   134          3
   135          8
   139          1
   140        155
   141         19
   142          8
   143          1
   146          1
   148          2
   149          1
   156        113
   157        381
   158        120
   159         25
   160          6
   162          1
   170          1
   171         20
   172          2
   173          1
   176          1
   177          1
   183          2
   184         16
   185          2
   212          5
   226          2
   240          1
   274          3
   275          1
   288          6
   289          3
   316          1
   317          6
   318          1
   349          1
   381        267
   382         69
   383         20
   384          4