##TITLE=Library Entry 2633
##JCAMP-DX=Revision 4.10 
##DATA TYPE=MASS SPECTRUM
##SAMPLE DESCRIPTION=Exported from NIST MS Search
##NAMES=HP
##CAS NAME=Cyclopentaneundecanoic acid
##MOLFORM=C16H30O2
##CAS REGISTRY NO=6053-49-2
##MP= -300
##BP= -300
##MW= 254
##$RETENTION INDEX=0
##$CONDENSED SPECTRUM=NO
##NPOINTS= 93
##XYDATA=(XY..XY) 1 
    26         60
    27        430
    28        270
    29        410
    30         30
    31         60
    32          4
    36         10
    37         10
    38         20
    39        380
    40        100
    41        999
    42        270
    43        350
    44         90
    45        260
    46         10
    50         10
    51         30
    52         20
    53        120
    54        100
    55        620
    56        200
    57        110
    58         20
    59         50
    60        240
    61         20
    63         10
    65         40
    66         40
    67        340
    68        120
    69        340
    70         80
    71         60
    72         10
    73        140
    74         30
    75         10
    77         30
    78         10
    79         60
    80         30
    81         70
    82         90
    83        140
    84         60
    85         40
    86         10
    87         40
    91         20
    92         10
    93         20
    94         10
    95         40
    96         40
    97         60
    98         40
    99         10
   100         10
   101         20
   107         10
   109         10
   110         10
   111         30
   112         10
   113         20
   114         10
   115         20
   116         10
   124         10
   125         10
   126         10
   128         20
   129         60
   130         40
   136         10
   137         10
   138         10
   140         20
   141         10
   142         10
   155         10
   169         10
   171         10
   185         30
   186         10
   187         10
   211         10
   254         10