##TITLE=Library Entry 32099
##JCAMP-DX=Revision 4.10 
##DATA TYPE=MASS SPECTRUM
##SAMPLE DESCRIPTION=Japan AIST/NIMC Database- Spectrum MS-NW-5933
##NAMES=HP
##CAS NAME=1H-Cyclopenta[1,2-c:3,4-c']difuran-1,3,4,6(3aH)-tetrone, tetrahyd
ro-
##MOLFORM=C9H6O6
##CAS REGISTRY NO=6053-68-5
##MP= -300
##BP= -300
##MW= 210
##$RETENTION INDEX=0
##$CONDENSED SPECTRUM=NO
##NPOINTS= 83
##XYDATA=(XY..XY) 1 
    13          2
    14          2
    15          6
    16          4
    25          4
    26         32
    27         58
    28         11
    29         17
    31         16
    32         15
    33         20
    36          1
    37         20
    38         48
    39        182
    40         64
    41         58
    42          7
    43         13
    44         17
    45         58
    46          7
    47         17
    49          4
    50         12
    51         20
    52          4
    53         12
    54          5
    55         29
    56          3
    57          3
    60          2
    61          9
    62         13
    63         23
    64          9
    65         89
    66        999
    67        281
    68         24
    69          4
    70          1
    71          3
    72          1
    73          1
    77          2
    78          1
    79          9
    80          1
    81          6
    82         53
    83         34
    84         10
    85          1
    86          4
    92          5
    93         24
    94         51
    95          6
    96          1
    97         24
    98          2
    99         10
   100          1
   109          1
   110        270
   111         85
   112        115
   113          9
   114          1
   121          1
   122          1
   137          1
   138        148
   139         13
   140          2
   166         23
   167          3
   168          1
   210          5
   211          1