##TITLE=Library Entry 76960
##JCAMP-DX=Revision 4.10 
##DATA TYPE=MASS SPECTRUM
##SAMPLE DESCRIPTION=Chemical Concepts
##NAMES=HP
##CAS NAME=Cyclobuta[a]dibenzo[c,f]cycloheptadiene, 7-oxo-
##MOLFORM=C17H14O
##CAS REGISTRY NO=60548-96-1
##MP= -300
##BP= -300
##MW= 234
##$RETENTION INDEX=0
##$CONDENSED SPECTRUM=NO
##NPOINTS= 195
##XYDATA=(XY..XY) 1 
    20          2
    25          0
    26          5
    27         22
    28        123
    29         24
    30          1
    31         26
    32         40
    33          1
    34          2
    36          1
    37          3
    38          5
    39         33
    40          6
    41         22
    42          9
    43         74
    44         21
    45         49
    46          1
    47          2
    48          1
    49          3
    50         35
    51         74
    52         23
    53          7
    54          2
    55         21
    56          7
    57         25
    58          2
    59         16
    60         25
    61         11
    62         10
    63         36
    64          5
    65         21
    66          2
    67          5
    68          2
    69         12
    70          8
    71         15
    72          2
    73         13
    74         27
    75         29
    76         63
    77         91
    78        127
    79         12
    80          2
    81          7
    82          4
    83          9
    84          3
    85          8
    86          4
    87          8
    88         13
    89         32
    90          5
    91         56
    92          5
    93          2
    94          3
    95          9
    96          3
    97          7
    98          5
    99          5
   100          4
   101         26
   102         92
   103        115
   104        999
   105         99
   106          5
   107          3
   108          3
   109          4
   110          2
   111          5
   112          2
   113          5
   114          3
   115         19
   116          6
   117          6
   118          2
   119          2
   120          1
   121          1
   122          1
   123          2
   124          1
   125          3
   126          6
   127         11
   128         19
   129         11
   130         64
   131         28
   132         22
   133          3
   134          1
   135          2
   136          1
   137          2
   138          1
   139          4
   140          0
   141          1
   142          0
   143          1
   144          0
   145          1
   146          1
   147          1
   149          5
   150          7
   151         10
   152         16
   153          3
   154          1
   155          1
   156          1
   157          2
   158          0
   159          0
   161          0
   162          1
   163          3
   164          2
   165          7
   166          1
   167          1
   168          0
   169          0
   174          1
   175          1
   176          9
   177          4
   178         16
   179          6
   180          9
   181          3
   182          2
   183          7
   184          1
   185          6
   186          0
   187          1
   188          1
   189          8
   190          3
   191          4
   192          1
   193          1
   194          0
   195          0
   197          0
   198          0
   199          1
   200          3
   201          4
   202         14
   203          9
   204          3
   205          3
   206         13
   207          4
   208          8
   209          1
   210          0
   211          0
   213          1
   214          0
   215          7
   216          5
   217          2
   218          1
   219          2
   220          0
   223          0
   231          1
   232          0
   233          3
   234         67
   235         13
   236          1