##TITLE=Library Entry 56395
##JCAMP-DX=Revision 4.10 
##DATA TYPE=MASS SPECTRUM
##SAMPLE DESCRIPTION=NIST Mass Spectrometry Data Center
##NAMES=HP
##CAS NAME=N,N,N',N'-Tetraethyl-1,3-propanediamine
##MOLFORM=C11H26N2
##CAS REGISTRY NO=60558-96-5
##MP= -300
##BP= -300
##MW= 186
##$RETENTION INDEX=0
##$CONDENSED SPECTRUM=NO
##NPOINTS= 54
##XYDATA=(XY..XY) 1 
    13          1
    15         21
    18         21
    27         79
    28        199
    29        222
    30        349
    39         16
    41         94
    42        233
    43         35
    44         94
    50          1
    52          2
    53          2
    54         22
    56        237
    57         80
    58        313
    63          2
    64          4
    67          4
    68         11
    70        148
    71        112
    72        167
    73          6
    78         19
    80          1
    81          1
    82          7
    84        300
    85        138
    86        999
    87         57
    88          1
    93          1
    96          4
    98        665
    99         60
   100         91
   101          5
   110          1
   111          2
   113        306
   114         35
   115          5
   127          2
   128          1
   141          4
   155          6
   157          6
   186         13
   187          1