##TITLE=Library Entry 12939
##JCAMP-DX=Revision 4.10 
##DATA TYPE=MASS SPECTRUM
##SAMPLE DESCRIPTION=A.A.Kutin, Moscow, Russia
##NAMES=HP
##CAS NAME=1-[3-(3-Chloro-4-propoxyphenyl)propyl]guanidine
##MOLFORM=C13H20ClN3O
##CAS REGISTRY NO=60557-64-4
##MP= -300
##BP= -300
##MW= 269
##$RETENTION INDEX=0
##$CONDENSED SPECTRUM=NO
##NPOINTS= 139
##XYDATA=(XY..XY) 1 
    33          5
    34          0
    35          0
    36          0
    38          0
    39         30
    41        132
    42         90
    43        999
    44        105
    45         86
    46         34
    47         90
    48         67
    49          6
    50          2
    51         22
    52          0
    56         19
    57         28
    58          3
    59          6
    60          2
    61          1
    62          1
    63          5
    64          1
    65         14
    66          2
    72          0
    74         18
    75          4
    76          1
    77         50
    78         10
    79          5
    86          0
    88          0
    89          8
    90         57
    91         33
    92          3
    93          1
    94          2
    99          3
   101          0
   102          3
   103         12
   104          3
   105         16
   106          2
   107         32
   112          1
   115          8
   116          3
   117          4
   118          1
   119          6
   120         13
   121          5
   122          1
   125          2
   126          2
   127          2
   128          4
   129          0
   130          2
   131          8
   132         10
   133        267
   134        101
   135          7
   138          0
   139          2
   140          2
   141         73
   142         22
   143         23
   144          7
   145          0
   146          0
   147          0
   148          4
   149         15
   150          2
   151          5
   152          0
   153          5
   154         21
   155         18
   156         14
   157          5
   158          2
   159          1
   163          0
   164          0
   165          0
   166          1
   167         30
   168        303
   169         42
   170        104
   171          9
   172          0
   174          0
   175         46
   176         35
   177          4
   178          0
   180          0
   182          1
   183          1
   184          4
   185          1
   186          1
   190          0
   191          0
   193          4
   194          1
   195          0
   196          0
   197          0
   198          0
   200          0
   204          0
   210        100
   211         12
   212         29
   213          3
   214          0
   215          0
   226          0
   227         13
   228          5
   229          4
   230          1
   238          1
   239          0
   269          0