##TITLE=Library Entry 64503
##JCAMP-DX=Revision 4.10 
##DATA TYPE=MASS SPECTRUM
##SAMPLE DESCRIPTION=Japan AIST/NIMC Database- Spectrum MS-IW-1521
##NAMES=HP
##CAS NAME=Ethyl 5-acetyl-2-benzyloxybenzoate
##MOLFORM=C18H18O4
##CAS REGISTRY NO=60561-28-6
##MP= -300
##BP= -300
##MW= 298
##$RETENTION INDEX=0
##$CONDENSED SPECTRUM=NO
##NPOINTS= 88
##XYDATA=(XY..XY) 1 
    27          3
    28          2
    29          8
    38          1
    39         12
    40          1
    41          6
    43         18
    44          2
    50          2
    51          8
    52          2
    53          2
    55          1
    57          2
    62          2
    63         12
    64          4
    65         64
    66          3
    67          1
    74          1
    75          2
    76          3
    77          8
    78          2
    79          8
    89         10
    90          6
    91        999
    92         85
    93          3
    95          1
   103          1
   104          2
   105          3
   106          1
   107          8
   108          1
   119          5
   120         16
   121          2
   123          3
   127          1
   133          1
   135          6
   147         33
   148          5
   149          2
   151          3
   152          4
   153          2
   162         10
   163         26
   164          3
   165          2
   177          1
   179          2
   180          2
   181          4
   182          1
   191          4
   193          5
   207          1
   208          3
   209          3
   210          2
   211          5
   219          4
   220          7
   221          1
   223          1
   225          1
   226          2
   235          1
   237          3
   251         27
   252        144
   253         86
   254         13
   255          2
   269         42
   270          7
   271          1
   283          2
   298        159
   299         32
   300          4