##TITLE=Library Entry 107479
##JCAMP-DX=Revision 4.10 
##DATA TYPE=MASS SPECTRUM
##SAMPLE DESCRIPTION=NIST Mass Spectral Data Center
##NAMES=HP
##CAS NAME=Furmecyclox
##MOLFORM=C14H21NO3
##CAS REGISTRY NO=60568-05-0
##MP= -300
##BP= -300
##MW= 251
##$RETENTION INDEX=0
##$CONDENSED SPECTRUM=NO
##NPOINTS= 16
##XYDATA=(XY..XY) 1 
    43         53
    51         13
    53        100
    81        104
    94         12
    95         10
   122         21
   123        999
   124         80
   138         12
   139         18
   169         57
   220         56
   221         32
   251        110
   252         17