##TITLE=Library Entry 32210
##JCAMP-DX=Revision 4.10 
##DATA TYPE=MASS SPECTRUM
##SAMPLE DESCRIPTION=NIST Mass Spectrometry Data Center
##NAMES=HP
##CAS NAME=Methanone, bicyclo[2.2.1]hept-5-en-2-ylphenyl-
##MOLFORM=C14H14O
##CAS REGISTRY NO=6056-35-5
##MP= -300
##BP= -300
##MW= 198
##$RETENTION INDEX=0
##$CONDENSED SPECTRUM=NO
##NPOINTS= 108
##XYDATA=(XY..XY) 1 
    26          3
    27         46
    29          1
    37          3
    38         13
    39        120
    40         51
    41         36
    42          1
    43          1
    49          2
    50         58
    51        213
    52         27
    53         26
    54          4
    55        187
    56          5
    57          1
    61          2
    62         10
    63         33
    64          9
    65        134
    66        999
    67         58
    68          1
    70          1
    71          2
    73          1
    74         15
    75         13
    76         27
    77        604
    78        109
    79         37
    80          2
    82          1
    83          1
    84          1
    85          4
    86          2
    87          2
    88          1
    89         14
    90          4
    91        124
    92         32
    93         44
    94          3
    98          1
   101          1
   102          9
   103         16
   104         15
   105        949
   106         76
   107         11
   113          1
   114          1
   115         53
   116          9
   117          2
   118          2
   119          2
   120        269
   121         24
   122          1
   126          1
   127          7
   128         17
   129          7
   130          1
   131         13
   132         20
   133        610
   134         60
   135          3
   139          2
   141          8
   142          4
   143          1
   144         20
   145          2
   151          1
   152          6
   153          6
   154          3
   155          5
   156          1
   157          9
   158          1
   165         12
   166          2
   167          2
   169          2
   170          5
   171          1
   178          5
   179         10
   180          3
   181          2
   182          1
   183          5
   197          7
   198         99
   199         15
   200          1