##TITLE=Library Entry 9503
##JCAMP-DX=Revision 4.10 
##DATA TYPE=MASS SPECTRUM
##SAMPLE DESCRIPTION=LAC, NIDDK, NIH, Bethesda, MD 20892
##NAMES=HP
##CAS NAME=Pregnane-3,20-diol, diacetate, (3.beta.,5.alpha.,20R)-
##MOLFORM=C25H40O4
##CAS REGISTRY NO=6057-94-9
##MP= -300
##BP= -300
##MW= 404
##$RETENTION INDEX=0
##$CONDENSED SPECTRUM=NO
##NPOINTS= 107
##XYDATA=(XY..XY) 1 
    41         55
    43        999
    45         30
    47          2
    49         16
    51          6
    53         20
    54          6
    55         86
    57         12
    61         59
    65          4
    67         69
    68         16
    69         34
    71         13
    77         24
    79        105
    81        122
    82          5
    83         13
    84          4
    86          5
    87         47
    91         67
    93         83
    94         14
    95         66
    97         13
   105         63
   106         22
   107        103
   108         32
   109         35
   111          2
   115          4
   117         13
   118          8
   119         38
   120          6
   121         58
   122         47
   123         19
   129          1
   131         20
   132          2
   133         45
   134         14
   135         36
   136          2
   137          3
   143          5
   145         29
   147         55
   148         12
   149         15
   157          1
   159         23
   160          8
   161         31
   162          3
   163         13
   173         12
   174          2
   175         13
   176         32
   177         15
   185          4
   187         14
   188          9
   189          6
   190          2
   191          2
   199          5
   201         26
   202         10
   203          2
   213         17
   214          2
   215         53
   216         34
   218          7
   227          1
   229         16
   230         20
   231          3
   242          2
   255          8
   260         12
   261          4
   269         45
   270          5
   274          7
   275         11
   276         27
   277          4
   284         35
   285         18
   286          2
   288         14
   290          7
   315         11
   329         29
   330          6
   344         91
   345         25
   346          1