##TITLE=Library Entry 50697
##JCAMP-DX=Revision 4.10 
##DATA TYPE=MASS SPECTRUM
##SAMPLE DESCRIPTION=G.Castillo ET AL.JAOAC,61,1(1978)
##NAMES=HP
##CAS NAME=4,7-Methanoindan, 3a,4,7,7a-tetrahydro-1,2-epoxy-4,5,6,7,8,8-hexa
chloro-
##MOLFORM=C10H6Cl6O
##CAS REGISTRY NO=6058-23-7
##MP= -300
##BP= -300
##MW= 352
##$RETENTION INDEX=1879
##$CONDENSED SPECTRUM=NO
##NPOINTS= 165
##XYDATA=(XY..XY) 1 
    39        215
    40         48
    41         72
    43         55
    50         56
    51        104
    52         34
    53        396
    54        191
    55        101
    56         65
    57        137
    61         35
    62         40
    63         94
    65         52
    66         46
    69         63
    73        168
    74         75
    75        131
    77         46
    81        999
    82        162
    83         82
    84         51
    85        100
    86         57
    87         87
    89        177
    91         95
    96         47
    97         84
    98         46
    99         68
   107         98
   109        141
   110         42
   111         64
   113         79
   115         57
   117        770
   118         49
   119        282
   120         50
   121         91
   122         30
   123         70
   130         47
   131         53
   132         42
   133         80
   135         46
   141        112
   143        122
   145         68
   147        117
   148         62
   149        270
   150         31
   151        280
   152         33
   153        107
   155         47
   157         86
   159         72
   165         48
   167         82
   168         42
   169         61
   170         51
   171         43
   180         47
   181         64
   183        261
   184         72
   185        165
   186         33
   187         31
   191        119
   192         46
   193        142
   194         38
   195         66
   203         39
   204         56
   205         42
   206         56
   214         43
   216         70
   217        225
   218        137
   219        223
   220        120
   221        102
   222         53
   227         65
   228         47
   229         59
   235        168
   236         28
   237        276
   238         67
   239        223
   240         47
   241        115
   242         18
   246         70
   247         33
   248         88
   249         49
   250         52
   251         69
   252         27
   253        121
   254         38
   255        151
   256         46
   257         79
   258         21
   261        226
   262         29
   263        345
   264         51
   265        233
   266         38
   267         66
   270         92
   271         32
   272        180
   273         39
   274        145
   275         21
   276         57
   277         21
   281        103
   282         27
   283        128
   284         32
   285         69
   286         21
   287         21
   289         26
   291         27
   293         16
   299         19
   301         21
   303         20
   308         22
   310         30
   312         29
   314         15
   317        358
   318         36
   319        574
   320         56
   321        361
   322         39
   323        120
   324         19
   325         22
   352         57
   354        110
   356         95
   358         37