##TITLE=Library Entry 77262
##JCAMP-DX=Revision 4.10 
##DATA TYPE=MASS SPECTRUM
##SAMPLE DESCRIPTION=Chemical Concepts
##NAMES=HP
##CAS NAME=Benzeneacetic acid, .alpha.-[[(phenylmethoxy)carbonyl]amino]-
##MOLFORM=C16H15NO4
##CAS REGISTRY NO=60584-76-1
##MP= -300
##BP= -300
##MW= 285
##$RETENTION INDEX=0
##$CONDENSED SPECTRUM=NO
##NPOINTS= 105
##XYDATA=(XY..XY) 1 
    27         18
    28          4
    29        110
    30         34
    37         22
    38         58
    39        148
    40         17
    41         38
    42          9
    43         43
    44         19
    45         16
    46          3
    49          7
    50        180
    51        363
    52        115
    53         48
    54         14
    55         31
    56         11
    57         37
    58          5
    59          5
    60         13
    61         23
    62         54
    63        107
    64         34
    65         71
    66          7
    67          9
    68          6
    69         25
    70          9
    71         22
    72          3
    73         22
    74         69
    75         49
    76         63
    77        588
    78        336
    79        645
    80         76
    89        124
    90        114
    91        272
    92         27
    93          5
    94          3
    95          8
    96          5
    97         16
    98          5
    99          8
   100          2
   101          2
   102          4
   103         29
   104        999
   105        809
   106        103
   107        439
   108        529
   109         48
   110          6
   111          8
   112          3
   113          5
   115          3
   123          8
   124          3
   125          5
   126          2
   127          6
   129          4
   132         64
   133        327
   134         35
   135          7
   136          4
   137          3
   138          2
   139          3
   140          3
   141          3
   143          2
   149         25
   150         25
   151          3
   155          5
   177         91
   178         11
   179          3
   194          5
   195          2
   196         27
   197          5
   240         38
   241          7
   256          2
   257          2
   285          4