##TITLE=Library Entry 30436
##JCAMP-DX=Revision 4.10 
##DATA TYPE=MASS SPECTRUM
##SAMPLE DESCRIPTION=Chuck Anderson, Aldrich Chemical Co.
##NAMES=HP
##CAS NAME=S-(+)-5-(1-Hydroxy-1-methylethyl)-2-methyl-2-cyclohexen-1-one
##MOLFORM=C10H16O2
##CAS REGISTRY NO=60593-11-5
##MP= -300
##BP= -300
##MW= 168
##$RETENTION INDEX=1424
##$CONDENSED SPECTRUM=NO
##NPOINTS= 106
##XYDATA=(XY..XY) 1 
    14          1
    15         13
    16          0
    17          0
    18          0
    19          1
    26          4
    27         59
    28         17
    29         35
    30          1
    31         99
    32          1
    33          0
    36          0
    37          1
    38          7
    39        149
    40         26
    41        207
    42         22
    43        279
    44          8
    45         61
    46          1
    47          0
    48          0
    49          0
    50         11
    51         30
    52         20
    53         93
    54         65
    55         49
    56          4
    57          9
    59        999
    60         33
    61          4
    62          3
    63          7
    64          1
    65         27
    66         30
    67         74
    68         15
    69         29
    70          3
    71         15
    72          1
    73          0
    74          1
    75          1
    76          0
    77         50
    78          8
    79         78
    80         16
    81         63
    82         95
    83         10
    84          1
    85          9
    86          0
    87          0
    89          1
    90          1
    91         41
    92         10
    93         20
    95        399
    96         24
    97          3
    99          3
   100          0
   103          1
   105          6
   106          0
   107         59
   108         38
   109        287
   110        522
   111         44
   112          3
   113          0
   115          2
   116          0
   117          1
   119          0
   121          2
   122          2
   123          2
   124          0
   125          1
   133          0
   135         23
   136          2
   137          0
   149          0
   150         97
   151         12
   152          0
   153         20
   154          1
   168          0
   169          0