##TITLE=Library Entry 45616
##JCAMP-DX=Revision 4.10 
##DATA TYPE=MASS SPECTRUM
##SAMPLE DESCRIPTION=V.G. Zaikin, TIPS RAS, Moscow, Russia
##NAMES=HP
##CAS NAME=Ethyl(dimethyl)isopropoxysilane
##MOLFORM=C7H18OSi
##CAS REGISTRY NO=60592-86-1
##MP= -300
##BP= -300
##MW= 146
##$RETENTION INDEX=0
##$CONDENSED SPECTRUM=NO
##NPOINTS= 62
##XYDATA=(XY..XY) 1 
    26         15
    27         66
    29         35
    30          5
    31         35
    36         11
    39         39
    40          7
    41         43
    42         25
    43        144
    44         41
    45        265
    46         15
    47         75
    48          9
    50          6
    51         16
    53          9
    55         19
    57         18
    58         64
    59        307
    60         49
    61        332
    62         23
    63         16
    65          8
    67          6
    69          6
    71          7
    72          7
    73         29
    74         18
    75        999
    76         74
    77         45
    79          9
    81          6
    86          7
    87        269
    88         29
    89        236
    90         19
    91          9
    93         28
    95         13
   101         13
   102         11
   103         45
   105          5
   107          5
   109          5
   117        777
   118         85
   119         36
   131        188
   132         21
   133          8
   135          7
   145         12
   146          4