##TITLE=Library Entry 1410
##JCAMP-DX=Revision 4.10 
##DATA TYPE=MASS SPECTRUM
##SAMPLE DESCRIPTION=NIST Mass Spectrometry Data Center, 1994
##NAMES=HP
##CAS NAME=1-Chloro-2,6-dinitrobenzene
##MOLFORM=C6H3ClN2O4
##CAS REGISTRY NO=606-21-3
##MP= -300
##BP= -300
##MW= 202
##$RETENTION INDEX=0
##$CONDENSED SPECTRUM=NO
##NPOINTS= 102
##XYDATA=(XY..XY) 1 
    12          1
    16          5
    17          0
    18          0
    25          3
    26         12
    28         11
    30        999
    35          9
    36         11
    37         54
    38         40
    39         18
    40          1
    42          1
    44          1
    46         47
    47          7
    48          7
    49         43
    50         56
    51         24
    52          6
    53          9
    54          3
    55         13
    60         11
    61         35
    62         65
    63        300
    64         28
    65         15
    66          2
    67          1
    68          1
    69          2
    72         39
    73        108
    74        326
    75        597
    76         58
    77          6
    78          1
    79         46
    80          3
    81          1
    84        122
    85         19
    86         77
    87         38
    88         19
    89         11
    90          1
    91        121
    92          8
    93          3
    96          4
    97         19
    98         81
    99         12
   100         29
   101          2
   102          1
   105          0
   107         70
   108         17
   109         49
   110        220
   111         28
   112         71
   113         13
   114         28
   116         21
   117          1
   118          4
   121         86
   122          7
   123          1
   124          2
   126         23
   127          5
   128         11
   129          1
   140         12
   141         18
   142          7
   143          7
   144          1
   156          7
   157          0
   158          2
   172         56
   173          4
   174         22
   175          1
   186         18
   188          6
   202        645
   203         58
   204        202
   205         16
   206          2