##TITLE=Library Entry 81451
##JCAMP-DX=Revision 4.10 
##DATA TYPE=MASS SPECTRUM
##SAMPLE DESCRIPTION=J. W. BURNHAM - E. J. EISENBRAUN
##NAMES=HP
##CAS NAME=1-Propanone, 1,3,3-triphenyl-
##MOLFORM=C21H18O
##CAS REGISTRY NO=606-86-0
##MP= -300
##BP= -300
##MW= 286
##$RETENTION INDEX=0
##$CONDENSED SPECTRUM=NO
##NPOINTS= 133
##XYDATA=(XY..XY) 1 
    12          0
    13          1
    14          6
    15         16
    16          1
    17          6
    18         15
    25          1
    26          5
    27         22
    28         11
    29         11
    31          3
    32          0
    37          2
    38          4
    39         36
    40         14
    41         10
    42          7
    43         58
    44          6
    45          2
    50         27
    51        126
    52         15
    53          6
    54          1
    55          5
    56          2
    57          7
    58         11
    60          1
    62          4
    63         19
    64          4
    65         16
    69          1
    70          3
    73          3
    74          6
    75         10
    76         18
    77        335
    78         42
    79          8
    80          1
    81          3
    82          4
    83          6
    84          1
    85          2
    86          3
    87          7
    88          4
    89         20
    90          7
    91         33
    92          3
    95          2
    96          1
    97          2
    98          2
    99          2
   100          1
   101          6
   102         30
   103        228
   104         74
   105        999
   106         87
   107          8
   108          0
   109          1
   110          1
   111          2
   113          4
   114          3
   115         34
   116          4
   119          2
   120          2
   125          1
   126          7
   127          7
   128         18
   129          4
   130          2
   131         13
   132          1
   133          1
   137          1
   138          3
   139         19
   140          4
   141         11
   142          2
   147          2
   149          2
   150          4
   151         15
   152         90
   153         18
   154          4
   155          2
   162          2
   163         14
   164         20
   165        214
   166         83
   167        505
   168         71
   169          5
   176          8
   177         10
   178         38
   179         34
   180         50
   181         66
   182          9
   183          2
   189          3
   191          9
   192          4
   193          3
   194          5
   195          8
   208          1
   209          0
   229          2
   268         19
   286        125
   287         28