##TITLE=Library Entry 7121
##JCAMP-DX=Revision 4.10 
##DATA TYPE=MASS SPECTRUM
##SAMPLE DESCRIPTION=CARL DJERASSI DEPT OF CHEM STANFORD UNIV STANFORD CALIF
 94305
##NAMES=HP
##CAS NAME=Cholest-8-en-3-ol, 14-methyl-, (3.beta.,5.alpha.)-
##MOLFORM=C28H48O
##CAS REGISTRY NO=6062-47-1
##MP= -300
##BP= -300
##MW= 400
##$RETENTION INDEX=3140
##$CONDENSED SPECTRUM=NO
##NPOINTS= 153
##XYDATA=(XY..XY) 1 
    41        620
    42        100
    43        999
    44        300
    45         20
    53         70
    54         20
    55        650
    56         70
    57        450
    58         20
    65         20
    66         10
    67        220
    68         50
    69        400
    70         60
    71        200
    72         10
    73         10
    77         60
    78         10
    79        170
    80         40
    81        300
    82         60
    83        270
    84         30
    85         60
    91        180
    92         40
    93        200
    94         40
    95        300
    96         50
    97        150
    98         10
   105        170
   106         40
   107        250
   108         40
   109        130
   110         20
   111         60
   115         10
   117         40
   118         10
   119        150
   120         40
   121        120
   122         20
   123         40
   124         20
   125         20
   127         10
   128         10
   129         20
   130         10
   131         60
   132         10
   133        100
   134         30
   135         80
   136         10
   137         30
   141         10
   143         30
   144         10
   145         70
   146         10
   147         80
   148         30
   149         40
   150         10
   151         10
   157         20
   159         60
   160         20
   161         70
   162         10
   163         20
   165         10
   171         20
   173         20
   174         10
   175         30
   176         10
   177         10
   178         40
   179         20
   185         10
   187         30
   189         10
   191         10
   192         10
   193         10
   199         40
   200         10
   201         60
   202         10
   203         30
   204         10
   205         30
   206         10
   207         10
   213         30
   214         10
   215         40
   216         10
   217         60
   218         10
   219         70
   220         10
   227         60
   228         10
   229         30
   231         60
   232         10
   233         10
   241         20
   242         30
   243         20
   244         10
   245         70
   246         10
   247         50
   248         10
   253         10
   255         10
   257         20
   258         10
   259         60
   260         40
   261         20
   262         20
   269         20
   271         30
   273         50
   274         10
   275         20
   285         10
   287         20
   367         90
   368         20
   369         10
   383         60
   384         10
   385        290
   386        100
   387         20
   398         10
   400         40
   401         10