##TITLE=Library Entry 31688
##JCAMP-DX=Revision 4.10 
##DATA TYPE=MASS SPECTRUM
##SAMPLE DESCRIPTION=NIST Mass Spectrometry Data Center, 1994
##NAMES=HP
##CAS NAME=2-Bromo-4-chloroanisole
##MOLFORM=C7H6BrClO
##CAS REGISTRY NO=60633-25-2
##MP= -300
##BP= -300
##MW= 220
##$RETENTION INDEX=1345
##$CONDENSED SPECTRUM=NO
##NPOINTS= 113
##XYDATA=(XY..XY) 1 
    12         23
    13         57
    14        129
    15        354
    16         23
    24          8
    25         27
    26         71
    27         32
    28          8
    29        390
    30         94
    31         27
    35         54
    36         52
    37        279
    38        180
    39         46
    41         10
    42          7
    43         10
    47         39
    48         35
    49        127
    50        301
    51        114
    52         26
    53        117
    55          9
    56          7
    60         94
    61        351
    62        546
    63        999
    64         63
    65         11
    71         38
    72        132
    73        252
    74        463
    75        548
    76        101
    77         93
    78         58
    79         94
    80         26
    81         92
    82         18
    83         18
    84         49
    85         37
    86         19
    87         11
    90          7
    91         17
    92          8
    93         14
    95          9
    97        106
    98        151
    99         45
   100         50
   104          9
   106          9
   108         14
   109         47
   110         98
   111        192
   112         63
   113         76
   114         10
   115         10
   116         22
   117         39
   118         24
   119         42
   126        214
   127         56
   128         83
   129         50
   130         11
   131         17
   140          9
   141         43
   142         25
   143         27
   144         12
   151         26
   152          9
   153         44
   154          8
   155         29
   157         10
   170         18
   172         24
   177        518
   179        662
   180         64
   181        171
   182         10
   189         22
   191         22
   205        589
   207        737
   208         60
   209        189
   210         14
   220        727
   221         56
   222        949
   223         73
   224        238
   225         18