##TITLE=Library Entry 8909
##JCAMP-DX=Revision 4.10 
##DATA TYPE=MASS SPECTRUM
##SAMPLE DESCRIPTION=NIST Mass Spectrometry Data Center, 1990.
##NAMES=HP
##CAS NAME=6-Dodecanone
##MOLFORM=C12H24O
##CAS REGISTRY NO=6064-27-3
##MP= -300
##BP= -300
##MW= 184
##$RETENTION INDEX=1354
##$CONDENSED SPECTRUM=NO
##NPOINTS= 56
##XYDATA=(XY..XY) 1 
    14         12
    27        155
    28         27
    29        218
    31          7
    39        134
    41        465
    42        175
    43        999
    44         39
    45          6
    51          9
    52          6
    53         50
    54          6
    55        289
    56         78
    57        216
    58        664
    59        211
    60          8
    65          9
    67         42
    68         69
    69         64
    70          8
    71        811
    72        203
    73         11
    77          8
    79         10
    80          6
    81         45
    82          7
    83         28
    84          6
    85        393
    86         88
    95         49
    96         19
    97         14
    98          7
    99        491
   100         43
   109          7
   110         18
   113        467
   114         94
   115         41
   127         64
   128         50
   129         15
   141         45
   142         11
   155          8
   184         14