##TITLE=Library Entry 6119
##JCAMP-DX=Revision 4.10 
##DATA TYPE=MASS SPECTRUM
##SAMPLE DESCRIPTION=NIST Mass Spectrometry Data Center, 1994
##NAMES=HP
##CAS NAME=7-Heptadecanone
##MOLFORM=C17H34O
##CAS REGISTRY NO=6064-42-2
##MP= -300
##BP= -300
##MW= 254
##$RETENTION INDEX=0
##$CONDENSED SPECTRUM=NO
##NPOINTS= 80
##XYDATA=(XY..XY) 1 
    18          4
    27         87
    28         25
    29        230
    39        102
    40         23
    41        527
    42        130
    43        999
    44         25
    51          3
    53         28
    54         23
    55        276
    56         65
    57        328
    58        412
    59         44
    60          0
    65          6
    66          4
    67         58
    68         60
    69         87
    70         48
    71        342
    72         74
    77          4
    79         10
    80          4
    81         57
    82         47
    83         43
    84         23
    85        274
    86         60
    87          5
    91          2
    93          3
    94          4
    95         88
    96         42
    97         27
    98         13
    99         31
   100         22
   101          3
   107          1
   109         26
   110         27
   111         10
   112          1
   113        268
   114         32
   115          2
   123          5
   124         42
   125          4
   126         14
   127         22
   128         61
   129         64
   130          5
   137          2
   141         44
   142          9
   151          4
   152          2
   155         10
   156          2
   166          5
   169        135
   170         17
   184         19
   185         10
   197         12
   198          2
   211          6
   254          3
   255          2