##TITLE=Library Entry 44728
##JCAMP-DX=Revision 4.10 
##DATA TYPE=MASS SPECTRUM
##SAMPLE DESCRIPTION=NIST Mass Spectrometry Data Center
##NAMES=HP
##CAS NAME=Heneicosanoic acid, methyl ester
##MOLFORM=C22H44O2
##CAS REGISTRY NO=6064-90-0
##MP= -300
##BP= -300
##MW= 340
##$RETENTION INDEX=2429
##$CONDENSED SPECTRUM=NO
##NPOINTS= 177
##XYDATA=(XY..XY) 1 
    15          4
    26          1
    27         19
    28          5
    29         66
    30          2
    31          3
    33          1
    38          1
    39         24
    41        252
    42         59
    43        459
    44         16
    45         11
    51          1
    52          1
    53         17
    54         27
    55        376
    56         78
    57        317
    58         20
    59         96
    60          5
    61          3
    65          3
    66          2
    67         44
    68         21
    69        190
    70         37
    71        105
    72          7
    74        999
    75        290
    76         13
    77          3
    78          1
    79         11
    80          4
    81         37
    82         17
    83        130
    84         44
    85         56
    87        768
    88         65
    89          5
    91          2
    92          1
    93          9
    94          3
    95         32
    96         15
    97        109
    98         41
    99         12
   100          3
   101         70
   102          7
   103          1
   105          1
   107          9
   108          2
   109         17
   110          7
   111         45
   112         11
   113          7
   114          2
   115         26
   116         13
   117          1
   119          1
   121         12
   122          2
   123          9
   124          4
   125         21
   126          4
   127          3
   129         82
   130         21
   131          2
   133          1
   135         11
   136          2
   137          4
   138          2
   139         11
   140          2
   141          2
   143        231
   144         23
   145          2
   149          7
   150          1
   151          2
   152          2
   153          7
   154          2
   155          1
   157         19
   158          3
   163          4
   164          1
   165          1
   166          1
   167          4
   168          1
   169          1
   171         12
   172          4
   173          1
   177          2
   179          1
   180          1
   181          2
   182          1
   185         44
   186          8
   187          1
   191          2
   194          1
   195          2
   196          1
   199         57
   200          9
   201          1
   205          1
   208          1
   209          2
   210          1
   213         10
   214          2
   219          1
   222          1
   223          1
   224          1
   227         12
   228          4
   229          1
   233          1
   237          1
   238          1
   241         56
   242         11
   243          1
   251          1
   255         37
   256          7
   257          1
   264          1
   265          1
   266          2
   269          8
   270          2
   279          1
   283         16
   284          4
   285          1
   289          1
   291          1
   297        104
   298         22
   299          3
   307          1
   309         34
   310          8
   311         20
   312          5
   313          1
   340        193
   341         48
   342          6
   343          1