##TITLE=Library Entry 6118
##JCAMP-DX=Revision 4.10 
##DATA TYPE=MASS SPECTRUM
##SAMPLE DESCRIPTION=NIST Mass Spectrometry Data Center, 1994
##NAMES=HP
##CAS NAME=7-Pentadecanone
##MOLFORM=C15H30O
##CAS REGISTRY NO=6064-38-6
##MP= -300
##BP= -300
##MW= 226
##$RETENTION INDEX=0
##$CONDENSED SPECTRUM=NO
##NPOINTS= 83
##XYDATA=(XY..XY) 1 
    12          0
    15         10
    17          3
    18          9
    26         11
    27        237
    28         69
    29        401
    30          9
    39        117
    40         30
    41        575
    42        156
    43        999
    44         35
    45          2
    50          1
    51          3
    52          3
    53         33
    54         22
    55        274
    56         61
    57        376
    58        453
    59        133
    60          4
    65          6
    67         51
    68         58
    69         65
    70         43
    71        422
    72         78
    73          7
    77          4
    79          7
    81         75
    82         30
    83         30
    84         18
    85        211
    86         52
    87          3
    91          1
    93          2
    94          2
    95         38
    96         71
    97         18
    98         25
    99         27
   100         26
   101          2
   109         10
   110         14
   111          6
   112          2
   113        279
   114         33
   115          2
   123         14
   124          2
   127         22
   128         50
   129         37
   130          3
   138          8
   139          2
   141        183
   142         18
   143          1
   155          7
   156         27
   157         13
   158          1
   169         18
   170          4
   183          7
   184          2
   197          4
   226          4
   227          2