##TITLE=Library Entry 23243
##JCAMP-DX=Revision 4.10 
##DATA TYPE=MASS SPECTRUM
##SAMPLE DESCRIPTION=Chemical Concepts
##NAMES=HP
##CAS NAME=Platinum, bis[tris(1,1-dimethylethyl)phosphine]-
##MOLFORM=C24H54P2Pt
##CAS REGISTRY NO=60648-70-6
##MP= -300
##BP= -300
##MW= 599
##$RETENTION INDEX=0
##$CONDENSED SPECTRUM=NO
##NPOINTS= 349
##XYDATA=(XY..XY) 1 
    26         37
    27        103
    28         45
    29        455
    30          7
    31          3
    33          0
    34          1
    35          0
    36          0
    37          9
    38         20
    39        176
    40         29
    41        472
    42         29
    43         20
    44          1
    45         10
    46          2
    47          4
    48          2
    49          4
    50         13
    51         13
    52          3
    53         20
    54          4
    55         68
    56         91
    57        999
    58         33
    59          7
    60          1
    61         23
    62          2
    63          0
    65          0
    66          0
    67          0
    69          0
    70          0
    71          2
    72          0
    73          2
    74          0
    75          7
    77          0
    79          0
    80          0
    81          0
    83          0
    85          0
    86          0
    87          1
    88          1
    89         18
    90         44
    91         35
    92          1
    93          1
    97          0
   103          0
   104          1
   105          0
   106          0
   107          0
   119          0
   122          1
   131          2
   144          0
   145          1
   146         36
   147          7
   148          0
   178          0
   187          0
   202         15
   203          5
   204          0
   227          0
   228          0
   229          0
   233          0
   234          0
   235          0
   236          0
   237          0
   238          0
   239          1
   240          1
   241          1
   242          0
   243          0
   244          0
   245          0
   247          1
   248          1
   249          5
   250          4
   251          3
   252          0
   253          1
   254          0
   255          0
   256          9
   257         15
   258         15
   259          6
   260          6
   261          5
   262          3
   263          3
   264          2
   265          4
   266          5
   267          6
   268          3
   269          5
   270          3
   271          6
   272          7
   273          8
   274          6
   275          4
   276          3
   277          7
   278          7
   279         14
   280         14
   281         30
   282         25
   283         42
   284         28
   285         27
   286          4
   287          9
   288          2
   289          1
   290          0
   291          1
   292          0
   293          1
   294          1
   295          4
   296          4
   297         10
   298         10
   299         11
   300          6
   301          5
   302          2
   303          1
   304          0
   305          2
   306          2
   307          3
   308          3
   309         10
   310         10
   311         44
   312         56
   313         55
   314         36
   315         42
   316         35
   317         24
   318         18
   319         19
   320         11
   321          4
   322          6
   323          7
   324          6
   325          8
   326          6
   327          7
   328          5
   329          5
   330          3
   331          3
   332          2
   333          4
   334          4
   335         10
   336          9
   337         36
   338         35
   339         38
   340         21
   341         22
   342          3
   343          5
   344          0
   345          0
   346          0
   347          0
   348          0
   349          0
   350          0
   351          2
   352          1
   353          2
   354          2
   355          5
   356          6
   357          6
   358          3
   359          2
   360          0
   361          1
   362          1
   363          2
   364          3
   365          7
   366          7
   367         13
   368         10
   369         30
   370         33
   371         71
   372         63
   373         53
   374         87
   375         95
   376         61
   377          8
   378         19
   379          5
   381          8
   382          6
   383          5
   384          3
   385          2
   386          1
   387          1
   388          0
   389          0
   391          1
   392          1
   393          6
   394          7
   395         24
   396         23
   397         18
   398          3
   399          4
   400          0
   401          0
   402          0
   403          0
   405          0
   406          0
   407          0
   408          0
   409          0
   410          1
   411          2
   412          2
   413          3
   414          2
   415          2
   416          0
   417          0
   419          0
   421          1
   422          2
   423          7
   424          7
   425         27
   426         26
   427         95
   428         97
   429         98
   430        102
   431        112
   432         62
   433         12
   434         17
   435          3
   436          3
   437          3
   438          2
   439          1
   441          0
   442          0
   443          0
   444          0
   445          0
   446          0
   447          0
   452          0
   453          0
   454          0
   455          0
   456          0
   460          0
   461          0
   464          0
   466          0
   467          0
   468          0
   469          0
   470          0
   471          0
   472          0
   473          0
   474          0
   476          0
   477          0
   479          1
   481          9
   482         10
   483         53
   484         64
   485         73
   486        109
   487        118
   488         70
   489         16
   490         16
   491          3
   492          1
   494          1
   497          0
   498          0
   501          0
   525          0
   537          0
   538          0
   539          2
   540          3
   541          5
   542         12
   543         12
   544          8
   545          2
   546          1
   547          0
   583          0
   584          0
   585          0
   596          1
   598         41
   599         52
   600         47
   601         10
   602         11
   603          2