##TITLE=Library Entry 9334
##JCAMP-DX=Revision 4.10 
##DATA TYPE=MASS SPECTRUM
##SAMPLE DESCRIPTION=Chemical Concepts
##NAMES=HP
##CAS NAME=Platinum, bis[tris(1-methylethyl)phosphine]-
##MOLFORM=C18H42P2Pt
##CAS REGISTRY NO=60648-71-7
##MP= -300
##BP= -300
##MW= 515
##$RETENTION INDEX=0
##$CONDENSED SPECTRUM=NO
##NPOINTS= 273
##XYDATA=(XY..XY) 1 
    26         59
    27        375
    29         33
    31          0
    33          2
    34          3
    35         28
    36          2
    37         21
    38         23
    39        124
    40         40
    41        459
    43        999
    44         24
    45        114
    46         31
    47        111
    48         42
    49         14
    55         32
    57         48
    58         22
    59         61
    60          6
    61        179
    62          5
    63         14
    69        105
    70          9
    71         34
    73         79
    74         83
    75        443
    76        936
    77         83
    83         17
    84          2
    85          4
    87          9
    88          3
    89         83
    90         45
    92          2
    97          3
   101          6
   102          3
   103         85
   104          5
   115          3
   116         10
   117         86
   118        430
   119         40
   120          2
   132          1
   133          1
   134          3
   145         99
   146          8
   150          1
   158          4
   159         14
   160        288
   161         59
   162          4
   226          1
   227          1
   229          1
   235          3
   236          3
   237          2
   238          1
   239          6
   240          6
   241          4
   242          1
   243          2
   251          3
   252          4
   253          5
   254          2
   255          2
   256         17
   257         28
   258         27
   259         11
   260          8
   261          5
   262          3
   263          4
   264          4
   265         23
   266         35
   267         69
   268         55
   269         52
   270         22
   271         23
   272          8
   273          8
   274          3
   275          3
   276          1
   277          2
   278          2
   279          2
   280          2
   281          4
   282          2
   283          7
   284          7
   285          9
   286          6
   287          6
   288          2
   289          2
   291          1
   293          3
   294          3
   295          9
   296         13
   297         46
   298         62
   299         69
   300         54
   301         54
   302         33
   303         18
   304         16
   305         15
   306         13
   307         22
   308         30
   309         52
   310         42
   311         40
   312         16
   313         15
   314          5
   315          5
   316          2
   317          1
   321          2
   322          2
   323          4
   324          2
   325          6
   326          5
   327          7
   328          4
   329          5
   330          2
   331          1
   333          2
   334          1
   335          5
   336          6
   337         13
   338         13
   339         25
   340         26
   341         66
   342         89
   343         92
   344         62
   345         37
   346         87
   347         85
   348         57
   349         10
   350         24
   351         18
   352         14
   353         18
   354         12
   355         12
   356          4
   357          4
   358          1
   359          2
   360          1
   361          1
   365          1
   366          2
   367          4
   368          4
   369          6
   370          4
   371          3
   372          1
   373          2
   374          1
   377          2
   378          3
   379          8
   380         10
   381         40
   382         46
   383         85
   384        111
   385        123
   386         97
   387         64
   388        178
   389        171
   390        132
   391         17
   392         46
   393         13
   394          7
   395          4
   396          2
   397          1
   402          1
   403          1
   407          1
   408          1
   409          2
   410          2
   411          2
   412          2
   413          2
   414          2
   415          1
   416          1
   419          1
   421          7
   422          7
   423         24
   424         24
   425         54
   426         65
   427         79
   428        106
   429         91
   430        200
   431        183
   432        153
   433         21
   434         39
   435          9
   436          3
   437          1
   455          1
   456          2
   457          1
   463          1
   465          3
   466          4
   467         13
   468         15
   469         28
   470         31
   471         35
   472         75
   473         72
   474         53
   475          9
   476         12
   477          2
   499          2
   500          1
   510          1
   511          2
   512          5
   513          5
   514         96
   515        121
   516        104
   517         22
   518         29
   519          5