##TITLE=Library Entry 52079
##JCAMP-DX=Revision 4.10 
##DATA TYPE=MASS SPECTRUM
##SAMPLE DESCRIPTION=NIST Mass Spectrometry Data Center
##NAMES=HP
##CAS NAME=2-Methyl-5-octyn-4-ol
##MOLFORM=C9H16O
##CAS REGISTRY NO=60657-70-7
##MP= -300
##BP= -300
##MW= 140
##$RETENTION INDEX=0
##$CONDENSED SPECTRUM=NO
##NPOINTS= 73
##XYDATA=(XY..XY) 1 
    12          1
    15         37
    17          1
    18          1
    19          1
    27        237
    28         37
    29        294
    30          8
    31         22
    37          7
    39        285
    40         40
    41        272
    42         40
    43        231
    44         17
    45         14
    50         30
    51         58
    52         23
    53        131
    55        469
    56         54
    57         72
    58          6
    59          4
    61          2
    62          7
    63         18
    64          5
    65         42
    66         16
    67         24
    68         12
    69         45
    70          5
    71         11
    72          1
    74          3
    75          2
    77         46
    78         11
    79         64
    80         13
    81         38
    83        999
    84        101
    85         21
    86          3
    87          1
    89          1
    91         25
    92          4
    93         14
    94          2
    95          6
    96          3
    97         15
    98         24
    99          1
   103          1
   105          4
   107         11
   108          1
   109          2
   111        145
   112         11
   122          1
   123          1
   125         48
   126          4
   139          1