##TITLE=Library Entry 18006
##JCAMP-DX=Revision 4.10 
##DATA TYPE=MASS SPECTRUM
##SAMPLE DESCRIPTION=NIST Mass Spectrometry Data Center, 1994
##NAMES=HP
##CAS NAME=Acetic acid, diethoxy-, ethyl ester
##MOLFORM=C8H16O4
##CAS REGISTRY NO=6065-82-3
##MP= -300
##BP= -300
##MW= 176
##$RETENTION INDEX=1092
##$CONDENSED SPECTRUM=NO
##NPOINTS= 40
##XYDATA=(XY..XY) 1 
    12          1
    14          5
    15         23
    16          1
    19         78
    26         27
    27        194
    28         75
    29        536
    30         35
    31         77
    32          2
    39          1
    41          7
    42          6
    43         32
    44          8
    45         81
    46          1
    47        999
    48          9
    49          4
    55          0
    56          2
    57         20
    58         22
    59          4
    60         10
    73          5
    75        661
    76         23
    77          3
    86         11
    88          2
    91          2
   103        718
   104         41
   105          4
   131         28
   132          4