##TITLE=Library Entry 56074
##JCAMP-DX=Revision 4.10 
##DATA TYPE=MASS SPECTRUM
##SAMPLE DESCRIPTION=Div. of Experiment Therapeutics WRAIR, WRAMC, Washingto
n DC 20307
##NAMES=HP
##CAS NAME=Valeronitrile 5-[diethylamino]-
##MOLFORM=C9H18N2
##CAS REGISTRY NO=6066-93-9
##MP= -300
##BP= -300
##MW= 154
##$RETENTION INDEX=0
##$CONDENSED SPECTRUM=NO
##NPOINTS= 55
##XYDATA=(XY..XY) 1 
    41         94
    42        127
    44        184
    45          4
    46          5
    47          1
    49          7
    51          4
    52          7
    54         45
    55         58
    56         60
    57         25
    58        222
    59         12
    67          4
    68          8
    70         32
    72         82
    73          8
    74          0
    77          1
    80          3
    82         21
    84         24
    86        999
    87         37
    88          2
    94          1
    95          1
    96          4
    98         20
   100         55
   102          3
   105          1
   106          3
   108          0
   109          0
   112         18
   113          1
   114          6
   115          1
   116          0
   124          2
   125          6
   126          6
   127          1
   128          8
   137          2
   139         79
   140         10
   153         11
   154         20
   155          2
   156          2