##TITLE=Library Entry 207
##JCAMP-DX=Revision 4.10 
##DATA TYPE=MASS SPECTRUM
##SAMPLE DESCRIPTION=Japan AIST/NIMC Database- Spectrum MS-NW-2982
##NAMES=HP
##CAS NAME=2,5-Pyrrolidinedione, 1-hydroxy-
##MOLFORM=C4H5NO3
##CAS REGISTRY NO=6066-82-6
##MP= -300
##BP= -300
##MW= 115
##$RETENTION INDEX=0
##$CONDENSED SPECTRUM=NO
##NPOINTS= 75
##XYDATA=(XY..XY) 1 
    12          9
    13         12
    14         42
    15         45
    16          9
    17          4
    18         17
    24          7
    25         33
    26        286
    27        408
    28        999
    29        148
    30         58
    31         95
    32          5
    33          1
    36          5
    37          9
    38         15
    39         21
    40         22
    41         40
    42        310
    43        291
    44        129
    45         22
    46          9
    50          6
    51         21
    52         45
    53         57
    54         92
    55        945
    56        321
    57         77
    58          6
    59        197
    60         11
    61          2
    64          2
    66          1
    67          2
    68          4
    69         46
    70        115
    71         12
    72         35
    73          3
    74          1
    78          2
    80         26
    81         10
    82          6
    83          4
    84          8
    85          2
    86          1
    87        488
    88         19
    89          3
    95          1
    96          4
    97         79
    98         31
    99        200
   100         10
   101          1
   111          1
   112          1
   113          2
   114          2
   115        911
   116         48
   117          7