##TITLE=Library Entry 21136
##JCAMP-DX=Revision 4.10 
##DATA TYPE=MASS SPECTRUM
##SAMPLE DESCRIPTION=NIST Mass Spectrometry Data Center, 1998.
##NAMES=HP
##CAS NAME=Cyclohexane, 1-methyl-4-(1-methylethyl)-, cis-
##MOLFORM=C10H20
##CAS REGISTRY NO=6069-98-3
##MP= -300
##BP= -300
##MW= 140
##$RETENTION INDEX=1005
##$CONDENSED SPECTRUM=NO
##NPOINTS= 61
##XYDATA=(XY..XY) 1 
    15          2
    26          2
    27         57
    29         57
    30          1
    37          1
    38          3
    39        107
    40         18
    41        256
    42         41
    43        104
    44          3
    46          1
    50          4
    51         15
    52          8
    53         63
    54         64
    55        999
    56         82
    57         33
    58          2
    62          1
    63          3
    64          1
    65         16
    66          9
    67         77
    68         38
    69        190
    70         24
    71          4
    77         18
    78          4
    79         22
    80          5
    81        270
    82         27
    83         66
    84          7
    85          1
    91          7
    92          1
    93          3
    94          1
    95         15
    96        494
    97        814
    98         73
    99          3
   109          1
   111          1
   112          1
   123          1
   125          7
   126          1
   139          1
   140        141
   141         15
   142          1