##TITLE=Library Entry 39789
##JCAMP-DX=Revision 4.10 
##DATA TYPE=MASS SPECTRUM
##SAMPLE DESCRIPTION=A.A.Kutin, Moscow, Russia
##NAMES=HP
##CAS NAME=Methylphosphonic acid, di(2-ethoxyethyl) ester
##MOLFORM=C9H21O5P
##CAS REGISTRY NO=6069-07-4
##MP= -300
##BP= -300
##MW= 240
##$RETENTION INDEX=0
##$CONDENSED SPECTRUM=NO
##NPOINTS= 130
##XYDATA=(XY..XY) 1 
    41         56
    42         28
    43        400
    44        441
    45        975
    46         23
    47         66
    48          7
    49         12
    50          1
    51          2
    54         23
    55          7
    56          1
    57         18
    58         16
    59        321
    60         14
    61         10
    62         22
    63         42
    64          5
    65         43
    66          0
    67          0
    68          3
    69          2
    70          7
    72        999
    73        478
    74         25
    75          3
    76          1
    77         19
    79        294
    80        109
    81         33
    82          4
    83          1
    84          1
    85          0
    86          2
    87          3
    88          1
    89          2
    91         69
    92         13
    93         45
    94         32
    95          6
    97        385
    98          5
    99         11
   100          1
   101          2
   103          1
   104          1
   105          9
   106         17
   107         12
   108         14
   109          7
   110         35
   111        151
   112          3
   113          0
   115          0
   117          1
   118          1
   119          0
   121         33
   122         23
   123        454
   124         97
   125        188
   126          6
   127          1
   133          1
   134          1
   135          4
   136          6
   137         34
   138         14
   139         44
   140          1
   141          1
   149          5
   150         47
   151         59
   152         52
   153         47
   154          3
   155          1
   156          0
   157          0
   158          0
   164          1
   165         11
   166          2
   167         10
   169        291
   170         18
   171          3
   172          0
   175          1
   179          1
   181          2
   183         10
   184          1
   185          0
   186          0
   191          0
   193          0
   195          1
   196          2
   197          5
   199          1
   207          0
   208          1
   209          1
   210          1
   211          1
   212          2
   213          0
   215          1
   225          1
   226          0
   227          0
   241         13
   242          2