##TITLE=Library Entry 3224
##JCAMP-DX=Revision 4.10 
##DATA TYPE=MASS SPECTRUM
##SAMPLE DESCRIPTION=Chemical Concepts
##NAMES=HP
##CAS NAME=Bicyclo[4.1.0]heptane, 3,7,7-trimethyl-, [1S-(1.alpha.,3.alpha.,6
.alpha.)]-
##MOLFORM=C10H18
##CAS REGISTRY NO=6069-97-2
##MP= -300
##BP= -300
##MW= 138
##$RETENTION INDEX=0
##$CONDENSED SPECTRUM=NO
##NPOINTS= 78
##XYDATA=(XY..XY) 1 
    26         21
    27        382
    28         80
    29        293
    30          6
    31          0
    36          1
    37          6
    38         25
    39        535
    40        100
    41        999
    42         99
    43        177
    44          7
    45          3
    46          2
    50         21
    51         79
    52         41
    53        236
    54        113
    55        583
    56         70
    57         69
    58          7
    59          3
    61          1
    62          5
    63         15
    64          4
    65         77
    66         39
    67        951
    68        194
    69        235
    70         30
    71          2
    73          0
    74          2
    75          2
    77         92
    78         21
    79        176
    80         75
    81        899
    82        296
    83         58
    84          5
    89          2
    91         42
    92          7
    93         61
    94         90
    95        932
    96        156
    97         13
    98          1
   103          1
   104          1
   105          4
   106          2
   107          8
   108          5
   109         54
   110         12
   111          1
   115          1
   119          1
   121          4
   123        158
   124         20
   125          1
   133          1
   134          1
   136          1
   138         96
   139         11