##TITLE=Library Entry 98086
##JCAMP-DX=Revision 4.10 
##DATA TYPE=MASS SPECTRUM
##SAMPLE DESCRIPTION=Organic Synthesis Lab, MSU, Moscow.TRC 2187
##NAMES=HP
##CAS NAME=(3Z)-1H-Indole-2,3-dione 3-oxime
##MOLFORM=C8H6N2O2
##CAS REGISTRY NO=607-28-3
##MP= -300
##BP= -300
##MW= 162
##$RETENTION INDEX=0
##$CONDENSED SPECTRUM=NO
##NPOINTS= 21
##XYDATA=(XY..XY) 1 
    63        133
    64        142
    65         55
    89         37
    90        125
    91        400
    92         15
   102         20
   104         36
   105         20
   116         66
   117        138
   118        999
   119         47
   131         60
   132        114
   144        195
   145        119
   146         26
   162        304
   163         95