##TITLE=Library Entry 9232
##JCAMP-DX=Revision 4.10 
##DATA TYPE=MASS SPECTRUM
##SAMPLE DESCRIPTION=NIST Mass Spectrometry Data Center, 1998.
##NAMES=HP
##CAS NAME=Ethyl 2-acetylbutyrate
##MOLFORM=C8H14O3
##CAS REGISTRY NO=607-97-6
##MP= -300
##BP= -300
##MW= 158
##$RETENTION INDEX=0
##$CONDENSED SPECTRUM=NO
##NPOINTS= 73
##XYDATA=(XY..XY) 1 
    14          1
    15         17
    26         11
    27         92
    28         12
    29        138
    30          5
    31          9
    37          2
    38          8
    39         79
    40         15
    41         94
    42         65
    43        999
    44         28
    45         51
    46          2
    47          1
    50          3
    51          4
    52          1
    53         13
    54          4
    55        257
    56         11
    57          4
    58          6
    59          5
    60         12
    61         17
    62          1
    63          1
    65          3
    66          2
    67         10
    68         11
    69         95
    70        100
    71        139
    72          7
    73        584
    74         19
    75          3
    83          1
    84         35
    85         21
    86         13
    87         71
    88        168
    89         54
    90          3
    97         10
    98          1
    99          3
   100          1
   101        521
   102         39
   103          4
   111          1
   112          4
   113        180
   114         13
   115         20
   116        544
   117         36
   118          3
   130         96
   131          6
   132          1
   143          8
   158          5
   159          4