##TITLE=Library Entry 63916
##JCAMP-DX=Revision 4.10 
##DATA TYPE=MASS SPECTRUM
##SAMPLE DESCRIPTION=D.HENNEBERG, MAX-PLANCK INSTITUTE, MULHEIM, WEST GERMAN
Y
##NAMES=HP
##CAS NAME=Naphthalene, 1-(phenylmethoxy)-
##MOLFORM=C17H14O
##CAS REGISTRY NO=607-58-9
##MP= -300
##BP= -300
##MW= 234
##$RETENTION INDEX=0
##$CONDENSED SPECTRUM=NO
##NPOINTS= 107
##XYDATA=(XY..XY) 1 
    27          3
    28         19
    29          1
    30          0
    31          2
    38          0
    39         12
    40          1
    41          9
    42          2
    43          2
    44          9
    45          1
    50          1
    51          6
    52          2
    53          0
    55          1
    56          0
    57          2
    59          0
    62          0
    63          7
    64          1
    65         85
    66          4
    67          0
    69          1
    70          0
    71          1
    74          0
    75          1
    76          2
    77          6
    78          1
    79          0
    81          0
    82          0
    83          0
    85          0
    87          0
    88          1
    89         17
    90          5
    91        999
    92         79
    93          2
    97          0
    99          0
   101          2
   102          0
   103          4
   104          1
   105          1
   106          1
   107          0
   109          0
   111          0
   113          1
   114          4
   115         73
   116          8
   117          1
   118          1
   119          0
   125          0
   126          3
   127         11
   128          4
   129          1
   130          0
   141          3
   142          0
   143          3
   144          4
   145          0
   149          0
   152          0
   155          1
   156          9
   157          1
   165          1
   177          0
   178          1
   179          0
   189          1
   190          1
   191          0
   200          0
   201          0
   202          3
   203          3
   204          2
   205          2
   206          2
   207          0
   215          2
   216          0
   217          0
   218          0
   219          0
   231          1
   232          0
   233          2
   234        244
   235         45
   236          4