##TITLE=Library Entry 52017
##JCAMP-DX=Revision 4.10 
##DATA TYPE=MASS SPECTRUM
##SAMPLE DESCRIPTION=Chemical Concepts
##NAMES=HP
##CAS NAME=4-Heptyl-2,2-dimethyl-[1,3]dioxane
##MOLFORM=C13H26O2
##CAS REGISTRY NO=6071-26-7
##MP= -300
##BP= -300
##MW= 214
##$RETENTION INDEX=0
##$CONDENSED SPECTRUM=NO
##NPOINTS= 110
##XYDATA=(XY..XY) 1 
    26          3
    27         53
    28         10
    29        100
    30          2
    31         23
    38          1
    39         41
    40          8
    41        176
    42         34
    43        315
    44         14
    45          8
    51          1
    52          1
    53         16
    54         36
    55        290
    56         40
    57        186
    58         98
    59        215
    60         10
    61         19
    62          0
    63          1
    65          3
    66          3
    67         57
    68         32
    69        259
    70         29
    71         51
    72         14
    73         42
    74          2
    75          1
    76          0
    77          3
    78          0
    79          6
    80          2
    81         43
    82         16
    83        999
    84         41
    85         15
    86         72
    87          4
    88          0
    89          1
    91          3
    92          0
    93          2
    94          1
    95         19
    96         12
    97        192
    98         19
    99          3
   100          2
   101          4
   102          0
   103          3
   104          0
   105          0
   106          0
   107          1
   108          0
   109          8
   110          5
   111          7
   112          2
   113          1
   114          2
   115         96
   116          5
   117          0
   119          0
   121          0
   122          0
   123          1
   125          1
   126          1
   127          3
   128          7
   129          3
   130          0
   131          0
   132          0
   133          0
   134          0
   135          0
   136          0
   139         18
   140          2
   141          3
   142          1
   143          0
   144          0
   154          1
   155          4
   156          2
   157          7
   158          0
   181          1
   199        142
   200         19
   201          1