##TITLE=Library Entry 37213
##JCAMP-DX=Revision 4.10 
##DATA TYPE=MASS SPECTRUM
##SAMPLE DESCRIPTION=Chemical Concepts
##NAMES=HP
##CAS NAME=1H-1,2,4-Triazole, 1-octadecanoyl-
##MOLFORM=C20H37N3O
##CAS REGISTRY NO=60718-55-0
##MP= -300
##BP= -300
##MW= 335
##$RETENTION INDEX=0
##$CONDENSED SPECTRUM=NO
##NPOINTS= 154
##XYDATA=(XY..XY) 1 
    27         32
    28         13
    29         93
    30          3
    31          1
    33          1
    37          1
    38          1
    39         24
    40         10
    41        216
    42         60
    43        324
    44         13
    45          9
    50          1
    51          1
    52          1
    53         13
    54         26
    55        223
    56         58
    57        236
    58         23
    59          6
    60          3
    61          1
    63          1
    65          3
    66          3
    67         36
    68         23
    69        117
    70        999
    71        126
    72         15
    79          7
    80          6
    81         35
    82         26
    83         87
    84        127
    85         58
    86          6
    87          1
    91          2
    93          6
    94          5
    95         33
    96         15
    97         63
    98        190
    99         24
   100          2
   101          1
   102          1
   104          1
   105          2
   107          4
   108          3
   109         19
   110         10
   111         64
   112         55
   113         11
   114          2
   115          1
   119          1
   121          6
   122          3
   123         10
   124          7
   125         13
   126          9
   127          6
   128          2
   129          1
   135          5
   136          3
   137          7
   138         12
   139         12
   140          5
   141          3
   142          1
   143          1
   151          3
   152          7
   153          9
   154          5
   155          3
   163          1
   164          1
   165          2
   166          4
   167         12
   168          5
   169          2
   170          1
   177          1
   178          1
   179          1
   180          5
   181          4
   182          5
   183          1
   191          1
   192          1
   193          1
   194          3
   195          4
   196          6
   197          1
   206          1
   207          1
   208          3
   209          3
   210          6
   211          1
   222          4
   223          4
   224          5
   225          1
   236          3
   237          3
   238          3
   239          1
   248          2
   249          1
   250          3
   251          2
   252          1
   253          1
   264          4
   265          3
   266         37
   267         69
   268         16
   278          3
   279          2
   280          2
   290          1
   291          1
   292          6
   293          1
   306          4
   307          4
   308          1
   318          3
   319          1
   320          0
   334         10
   335          9
   336          2