##TITLE=Library Entry 71007
##JCAMP-DX=Revision 4.10 
##DATA TYPE=MASS SPECTRUM
##SAMPLE DESCRIPTION=Div. of Experiment Therapeutics WRAIR, WRAMC, Washingto
n DC 20307
##NAMES=HP
##CAS NAME=4-Piperidinemethanol, .alpha.,.alpha.-diphenyl-1-methyl-
##MOLFORM=C19H23NO
##CAS REGISTRY NO=6071-92-7
##MP= -300
##BP= -300
##MW= 281
##$RETENTION INDEX=0
##$CONDENSED SPECTRUM=NO
##NPOINTS= 71
##XYDATA=(XY..XY) 1 
    42        256
    43         74
    44        236
    45          6
    50          5
    51         46
    53         31
    54          7
    55        358
    57         94
    58         23
    63          2
    65         10
    67          8
    68         13
    70        190
    71         18
    74          7
    76         10
    77        230
    78         19
    79          1
    80          3
    81          8
    82         31
    83          7
    84         11
    91         29
    94         42
    96         94
    98        999
    99        194
   100         12
   102          4
   103          5
   105        343
   106         12
   115         23
   117          6
   120          1
   126          3
   127          6
   128          9
   146          1
   151          1
   152         13
   153          8
   154          1
   165         20
   166          6
   174          5
   178          2
   181          9
   183        209
   184         19
   186          5
   189          1
   191          4
   202          3
   203         32
   204         54
   205          7
   206          2
   263         28
   264          8
   265         27
   266          4
   280         29
   281         94
   282         19
   283          3