##TITLE=Library Entry 30496
##JCAMP-DX=Revision 4.10 
##DATA TYPE=MASS SPECTRUM
##SAMPLE DESCRIPTION=Chemical Concepts
##NAMES=HP
##CAS NAME=2-Methyl-5-(2,6,6-trimethyl-cyclohex-1-enyl)-pentane-2,3-diol
##MOLFORM=C15H28O2
##CAS REGISTRY NO=60714-01-4
##MP= -300
##BP= -300
##MW= 240
##$RETENTION INDEX=0
##$CONDENSED SPECTRUM=NO
##NPOINTS= 132
##XYDATA=(XY..XY) 1 
    29        427
    30         85
    31          2
    33         93
    39         60
    40         14
    41        312
    42         18
    43        325
    44         12
    45          9
    51          9
    52          6
    53         70
    54         12
    55        215
    56         42
    57        102
    58          2
    59        999
    60         36
    61          2
    63          2
    65         26
    66         10
    67        161
    68         53
    69        317
    70         28
    71        175
    72         38
    74          4
    75          2
    77         63
    78         10
    79        167
    80         33
    81        362
    82        208
    83        123
    84         48
    85         31
    86          5
    87          9
    89          6
    90          7
    91         92
    92          8
    93        220
    94        127
    95        380
    96         81
    97         62
    98         29
    99         34
   100          2
   101          3
   102        122
   103         21
   104         16
   105         63
   106          8
   107        194
   108         48
   109        153
   110         15
   111         30
   112         10
   113          6
   114          7
   115         30
   116          6
   117          8
   118         10
   119         58
   120         10
   121        253
   122         79
   123        490
   124         64
   125         64
   126         31
   127          9
   128          4
   129          4
   131          2
   133         39
   134          8
   135        200
   136        123
   137        100
   138         39
   139         54
   140         28
   141          5
   145          5
   147         26
   148         29
   149         93
   150        129
   151         33
   152          9
   153         10
   154          2
   155          2
   161         21
   162          4
   163         60
   164         11
   165         11
   166         32
   167         50
   168          6
   177          3
   178          3
   179         12
   180          4
   181         10
   182         18
   183          3
   189         56
   190          8
   191          3
   204         17
   205          4
   207         35
   208          5
   222         35
   223          6
   225          5
   240         26
   241          3