##TITLE=Library Entry 52434
##JCAMP-DX=Revision 4.10 
##DATA TYPE=MASS SPECTRUM
##SAMPLE DESCRIPTION=Chemical Concepts
##NAMES=HP
##CAS NAME=1H-Imidazole, 1-(cyclohexylcarbonyl)-
##MOLFORM=C10H14N2O
##CAS REGISTRY NO=60718-45-8
##MP= -300
##BP= -300
##MW= 178
##$RETENTION INDEX=0
##$CONDENSED SPECTRUM=NO
##NPOINTS= 85
##XYDATA=(XY..XY) 1 
    26          5
    27         39
    28          5
    29         22
    38          7
    39         72
    40         68
    41        207
    42         20
    43         16
    44          6
    45          2
    50          5
    51         13
    52          9
    53         43
    54         63
    55        414
    56         33
    57          8
    60          6
    61          2
    62          2
    63          2
    64          1
    65          8
    66          8
    67        144
    68        236
    69        233
    70         11
    71          3
    72          1
    73         27
    74          3
    75          1
    76          1
    77         11
    78          5
    79         18
    80          6
    81         42
    82         20
    83        999
    84         73
    85          4
    86          4
    87          4
    91          1
    92          3
    93          1
    94          3
    95         13
    96          2
    97          2
    98          1
    99          7
   100          1
   104          1
   105          1
   106          1
   107          2
   108          2
   109          5
   110        109
   111        380
   112         31
   113          3
   114          1
   115          1
   118          1
   119          1
   120          2
   121          1
   122          3
   127          1
   128         13
   129          1
   135          1
   149          2
   150          6
   151          1
   177          3
   178         47
   179          7