##TITLE=Library Entry 68348
##JCAMP-DX=Revision 4.10 
##DATA TYPE=MASS SPECTRUM
##SAMPLE DESCRIPTION=Chemical Concepts
##NAMES=HP
##CAS NAME=2-Cyclopentene-1-butanal, .gamma.,.gamma.,2,3-tetramethyl-
##MOLFORM=C13H22O
##CAS REGISTRY NO=60714-25-2
##MP= -300
##BP= -300
##MW= 194
##$RETENTION INDEX=0
##$CONDENSED SPECTRUM=NO
##NPOINTS= 53
##XYDATA=(XY..XY) 1 
    27         23
    28          4
    29         32
    31          3
    39         30
    40          5
    41         70
    42          5
    43         40
    51          8
    52          3
    53         32
    54          3
    55         75
    56         10
    57          8
    65         12
    66          4
    67         75
    68          5
    69         10
    71          6
    77         32
    78          6
    79         49
    80         12
    81         68
    82          5
    83         13
    91         26
    92          4
    93         28
    94        106
    95        999
    96        115
    97          7
    99         30
   105         11
   106          8
   107         14
   109          5
   119          8
   120          4
   121         18
   122          3
   123          8
   135          9
   136          6
   137         14
   161          9
   176          5
   179          3
   194         15