##TITLE=Library Entry 9700
##JCAMP-DX=Revision 4.10 
##DATA TYPE=MASS SPECTRUM
##SAMPLE DESCRIPTION=NIST Mass Spectrometry Data Center, 1998.
##NAMES=HP
##CAS NAME=N.alpha.-Acetyl-l-lysine methyl ester
##MOLFORM=C9H18N2O3
##CAS REGISTRY NO=6072-02-2
##MP= -300
##BP= -300
##MW= 202
##$RETENTION INDEX=0
##$CONDENSED SPECTRUM=NO
##NPOINTS= 59
##XYDATA=(XY..XY) 1 
    15         28
    27         23
    29         91
    30        636
    31         54
    33         29
    39         50
    41         93
    42        189
    43        999
    44        315
    45         76
    46         29
    53         43
    54         56
    55        178
    56        541
    57        140
    58         49
    59        364
    60         72
    67         52
    69         44
    70        240
    71         76
    72        331
    73         45
    82        269
    83        203
    84        941
    85        247
    86        237
    87        100
    88        167
    89         60
    96         28
    97         24
    98         98
    99        182
   100         71
   102         30
   110         85
   111         92
   112        146
   113        126
   114        615
   115         50
   127         69
   128         78
   129        154
   130        222
   131        111
   141         90
   142         88
   143         94
   144         38
   158         69
   170         35
   202         33