##TITLE=Library Entry 61082
##JCAMP-DX=Revision 4.10 
##DATA TYPE=MASS SPECTRUM
##SAMPLE DESCRIPTION=Chemical Concepts
##NAMES=HP
##CAS NAME=2-Phenyl-N-[.alpha.-(trichloromethyl)benzyl]acetamide
##MOLFORM=C16H14Cl3NO
##CAS REGISTRY NO=60721-38-2
##MP= -300
##BP= -300
##MW= 341
##$RETENTION INDEX=0
##$CONDENSED SPECTRUM=NO
##NPOINTS= 158
##XYDATA=(XY..XY) 1 
    33          4
    35         15
    36         77
    38         44
    39        184
    41         69
    42         11
    44         16
    45         11
    47          7
    48          6
    50         54
    51        175
    52         33
    53          4
    55          4
    56          7
    57          5
    58          1
    60          3
    61         27
    63        107
    65        301
    67          3
    68          3
    69          3
    70          2
    71          2
    72          4
    74         23
    75         30
    76         21
    77        116
    78         39
    79         29
    80          2
    81          6
    82          5
    83          6
    84          6
    86         13
    87          6
    89        112
    91        999
    92        286
    94          2
    96          2
    97          4
    98          8
    99          8
   101         35
   102         56
   104        116
   106        685
   107         38
   108          5
   109          3
   111          7
   112         27
   114          6
   115          4
   117         46
   118         15
   119         11
   121          5
   123          4
   125         28
   126          3
   127          9
   128          1
   129          1
   130          2
   132         17
   133          3
   134          3
   135          7
   136         33
   137         37
   138         13
   139         12
   140          2
   145          1
   146          1
   149          2
   150          2
   151          4
   152          9
   153          7
   154          5
   155          2
   156          1
   158          1
   159          3
   160          1
   161          2
   163          1
   164          1
   165          2
   166          1
   167          3
   168          1
   169          2
   171         35
   172         78
   173         26
   174         46
   175          8
   176          8
   177          1
   178          1
   179          1
   180          1
   181          2
   186          1
   187         12
   188         37
   189          9
   190         22
   191          4
   192          4
   193          1
   194          1
   204          1
   205          2
   207         42
   209         38
   210          5
   211         10
   212          2
   213          1
   214          1
   220          1
   221          2
   222          4
   224        176
   225         24
   226          3
   235          1
   236          5
   237          1
   266          1
   267          2
   268          4
   270        114
   271         23
   272         33
   273          6
   303          1
   304          1
   306         22
   307          5
   308         12
   309          3
   310          2
   341          3
   342          1
   343          2
   345          1