##TITLE=Library Entry 44106
##JCAMP-DX=Revision 4.10 
##DATA TYPE=MASS SPECTRUM
##SAMPLE DESCRIPTION=Chemical Concepts
##NAMES=HP
##CAS NAME=Cyanuric acid, 3TMS derivative
##MOLFORM=C12H27N3O3Si3
##CAS REGISTRY NO=60739-94-8
##MP= -300
##BP= -300
##MW= 345
##$RETENTION INDEX=0
##$CONDENSED SPECTRUM=NO
##NPOINTS= 221
##XYDATA=(XY..XY) 1 
    37          0
    38          0
    39          0
    41          0
    42          3
    43         25
    44         22
    45        122
    46          9
    47         30
    48          2
    49         21
    50          2
    51          1
    52          2
    53          2
    54          0
    55          4
    56          1
    57          6
    58          8
    59         18
    60          2
    61          3
    62          2
    63         10
    64          1
    65         11
    66          8
    67          4
    68          0
    69          2
    70         18
    71          5
    72        119
    73        999
    74        170
    75        105
    76         11
    77        179
    78         15
    79          8
    80          0
    81          0
    82          0
    83          0
    84          2
    85          7
    86         23
    87          7
    88          1
    89          3
    90          0
    91          2
    92          7
    93         61
    94          5
    95         21
    96          1
    97          1
    98          1
    99          9
   100        233
   101         24
   102         12
   103          5
   104          3
   105          9
   106          0
   107          0
   108          2
   109          0
   110          1
   111          1
   112          0
   113          3
   114          6
   115         10
   116         10
   117         13
   118          2
   119          5
   120          1
   121          0
   125          0
   126          2
   127          7
   128          1
   129          3
   130          9
   131         59
   132         15
   133         39
   134          6
   135          7
   136          0
   137          0
   139          0
   140          9
   141          6
   142          2
   143          2
   144          1
   145          3
   146          2
   147        455
   148         97
   149         49
   150          5
   151          1
   155          3
   156          3
   157         10
   158          7
   159          3
   160          4
   161          3
   162          1
   163          2
   164          0
   165          0
   168          2
   169          0
   170          2
   171          6
   172         52
   173         15
   174         18
   175          5
   176          1
   177          0
   178          0
   179          5
   180          0
   181          0
   183          0
   184          0
   185          1
   186          5
   187         51
   188         90
   189         20
   190         15
   191          2
   192          1
   193          2
   194          0
   195          0
   198          1
   199          6
   200          1
   201          2
   202         10
   203          2
   204          1
   205          1
   207          0
   209          0
   211          0
   213          0
   214          0
   215         92
   216         16
   217          8
   218          1
   219          1
   220          3
   221          7
   222          1
   223          0
   229          2
   230          1
   231          6
   232          1
   233          0
   242          6
   243          1
   244          0
   245          0
   247          0
   256          0
   257          0
   258          1
   259          0
   262          0
   265          1
   267          0
   271          0
   272          4
   273          1
   274          0
   285          0
   295         18
   296          3
   297          1
   298          0
   299          2
   300          0
   302          1
   303          0
   304          0
   310          2
   311          0
   313          0
   314          1
   315          0
   316          0
   317          0
   329          0
   330        256
   331         72
   332         38
   333          6
   334          2
   344         12
   345        547
   346        237
   347        119
   348         25
   349          5
   350          0