##TITLE=Library Entry 97875
##JCAMP-DX=Revision 4.10 
##DATA TYPE=MASS SPECTRUM
##SAMPLE DESCRIPTION=Japan AIST/NIMC Database- Spectrum MS-IW- 213
##NAMES=HP
##CAS NAME=3-Ethylthio-1,2-propanediol
##MOLFORM=C5H12O2S
##CAS REGISTRY NO=60763-78-2
##MP= -300
##BP= -300
##MW= 136
##$RETENTION INDEX=0
##$CONDENSED SPECTRUM=NO
##NPOINTS= 91
##XYDATA=(XY..XY) 1 
    14          4
    15         62
    16          1
    17          1
    18          4
    25          1
    26         20
    27        200
    28         93
    29        395
    30         13
    31        168
    32          8
    33          4
    34         14
    35         76
    36          3
    37          4
    38          2
    39         14
    40          3
    41        110
    42         60
    43        267
    44         66
    45        147
    46        201
    47        668
    48        389
    49         58
    50         17
    51          2
    53          5
    54          1
    55         28
    56        154
    57        603
    58        153
    59        754
    60        147
    61        720
    62        361
    63        141
    64         18
    65          6
    67          1
    69          2
    71          6
    72          5
    73         42
    74         83
    75        828
    76        336
    77        683
    78         34
    79         31
    84          1
    85          9
    86          2
    87         99
    88         11
    89         74
    90         39
    91         11
    92         13
    93          1
    94          1
    99          1
   100         19
   101          9
   102          3
   103          5
   104         20
   105        764
   106         41
   107         37
   108          2
   115          2
   116          3
   117         40
   118        999
   119        100
   120         51
   121          5
   132          3
   133          4
   134          3
   135          1
   136        180
   137         15
   138          9