##TITLE=Library Entry 57300
##JCAMP-DX=Revision 4.10 
##DATA TYPE=MASS SPECTRUM
##SAMPLE DESCRIPTION=Chemical Concepts
##NAMES=HP
##CAS NAME=Methanol, triethylsilyl-
##MOLFORM=C7H18OSi
##CAS REGISTRY NO=60764-82-1
##MP= -300
##BP= -300
##MW= 146
##$RETENTION INDEX=0
##$CONDENSED SPECTRUM=NO
##NPOINTS= 81
##XYDATA=(XY..XY) 1 
    25          1
    26         12
    27         62
    28         19
    29        104
    30         14
    31        142
    33          3
    36          1
    38          0
    39          8
    40          0
    41          7
    42         15
    43        107
    44         20
    45        182
    46         14
    47        303
    48         14
    49         10
    50          0
    51          0
    53         20
    54          7
    55         48
    56         27
    57         86
    58        127
    59        557
    60         74
    61        190
    62         13
    63          4
    65          0
    66          2
    67          3
    68          0
    69          2
    70          2
    71          8
    72          7
    73         15
    75        460
    76         34
    77         14
    78          0
    80          0
    81          0
    82          1
    83          3
    84          1
    85         11
    86         55
    87        999
    88        113
    89         85
    90          5
    91          0
    97          0
    99          1
   100          1
   101          2
   102          0
   103         14
   104          1
   105          0
   106          0
   107          0
   111          0
   114        193
   115        354
   116         48
   117        435
   118         58
   119         19
   120          1
   130          0
   133          0
   146          1
   147          0