##TITLE=Library Entry 11680
##JCAMP-DX=Revision 4.10 
##DATA TYPE=MASS SPECTRUM
##SAMPLE DESCRIPTION=Insect Chem. Ecol. Lab., USDA, Beltsville, MD 20705
##NAMES=HP
##CAS NAME=Tetrahydroionone
##MOLFORM=C13H24O
##CAS REGISTRY NO=60761-23-1
##MP= -300
##BP= -300
##MW= 196
##$RETENTION INDEX=1427
##$CONDENSED SPECTRUM=NO
##NPOINTS= 125
##XYDATA=(XY..XY) 1 
    41        363
    42         13
    43        999
    44          7
    45         49
    47          3
    49          8
    50          1
    51         13
    52          6
    53         71
    54         21
    55        295
    56         88
    57        185
    58        117
    59         56
    60          2
    61          1
    63          3
    65         23
    66          9
    67        166
    68        144
    69        415
    70         68
    71        154
    72         42
    73          5
    74          1
    77         33
    78          7
    79         60
    80         27
    81        230
    82        391
    83        241
    84         34
    85         33
    86          8
    87          3
    88          0
    91         35
    93         88
    94         43
    95        344
    96        136
    97         62
    98         11
    99         19
   100          4
   101          2
   103          3
   105         21
   106          5
   107         76
   108         35
   109        189
   110         32
   111         73
   112         19
   113         17
   114          3
   115          4
   116          0
   117          4
   118          0
   119         27
   120          2
   121         78
   122         81
   123        418
   124         84
   125         92
   126         19
   127          7
   128          1
   129          2
   131          3
   132          0
   133         31
   134          3
   135         51
   136         75
   137         33
   138        186
   139        107
   140         21
   141          4
   142          1
   143          1
   145          2
   147          5
   149         14
   150          6
   151          8
   152         33
   153         20
   154          6
   155          2
   157          0
   159          3
   161         17
   163        134
   164         17
   165         26
   166          5
   167         13
   168          2
   169          1
   177          1
   178         17
   179          7
   180         12
   181         54
   182          7
   183          2
   185          0
   193          3
   194         12
   195         10
   196        133
   197         34
   198          4
   199          0