##TITLE=Library Entry 2083
##JCAMP-DX=Revision 4.10 
##DATA TYPE=MASS SPECTRUM
##SAMPLE DESCRIPTION=H.J. MOECKEL & J. WEISS, HAHN-MEITNER-INST. BERLIN, W.
 G+
##NAMES=HP
##CAS NAME=Methyl n-butyl disulfide
##MOLFORM=C5H12S2
##CAS REGISTRY NO=60779-24-0
##MP= -300
##BP= -300
##MW= 136
##$RETENTION INDEX=1044
##$CONDENSED SPECTRUM=NO
##NPOINTS= 81
##XYDATA=(XY..XY) 1 
    15         26
    24          0
    25          2
    26         47
    27        324
    29        967
    30         28
    33          4
    34          4
    35          8
    36          0
    37          4
    38         23
    39        173
    40         54
    41        999
    42         43
    43         19
    44         36
    45        278
    46        120
    47        150
    48         16
    49         15
    50          8
    51         10
    52          4
    53         26
    54         22
    55        100
    56         67
    57        559
    58         47
    59         36
    60         29
    61         14
    62          1
    63         10
    64         73
    65         10
    66          6
    67          0
    68          0
    69          1
    70          0
    71          4
    72          1
    73          8
    74          0
    75          1
    76          1
    77          2
    78         27
    79        214
    80        795
    81         43
    82         69
    83          2
    84          2
    85          3
    86          0
    87         11
    88         11
    89          4
    90          1
    91          0
    92          4
    93         31
    95          2
   103          0
   104          0
   106          0
   107          2
   109          0
   134          0
   135         27
   136        443
   137         39
   138         40
   139          2
   140          1