##TITLE=Library Entry 37215
##JCAMP-DX=Revision 4.10 
##DATA TYPE=MASS SPECTRUM
##SAMPLE DESCRIPTION=NIST Mass Spectrometry Data Center, 2010
##NAMES=HP
##CAS NAME=1-Acetyl-4-methylpiperazine
##MOLFORM=C7H14N2O
##CAS REGISTRY NO=60787-05-5
##MP= -300
##BP= -300
##MW= 142
##$RETENTION INDEX=1288
##$CONDENSED SPECTRUM=NO
##NPOINTS= 65
##XYDATA=(XY..XY) 1 
    14          4
    15         47
    16          1
    26          8
    27         42
    28        110
    29         39
    30         45
    31          2
    38          2
    39          8
    40         15
    41         66
    42        421
    43        717
    44        137
    45          8
    51          1
    52          7
    53          4
    54         55
    55         54
    56        585
    57        232
    58        592
    59         22
    60          1
    63          1
    66          1
    67          3
    68         16
    69         21
    70        999
    71        202
    72         57
    73          4
    74          1
    80          2
    81          9
    82         18
    83        207
    84         44
    85         29
    86         13
    87          4
    88          2
    95          6
    96          3
    97         22
    98         52
    99        506
   100         78
   101          4
   111          1
   112          3
   113          2
   125          3
   126          1
   127         27
   128          2
   140          4
   141         17
   142        255
   143         22
   144          1