##TITLE=Library Entry 64550
##JCAMP-DX=Revision 4.10 
##DATA TYPE=MASS SPECTRUM
##SAMPLE DESCRIPTION=Japan AIST/NIMC Database- Spectrum MS-IW-5220
##NAMES=HP
##CAS NAME=Methanone, [2-hydroxy-4-(phenylmethoxy)phenyl]phenyl-
##MOLFORM=C20H16O3
##CAS REGISTRY NO=6079-76-1
##MP= -300
##BP= -300
##MW= 304
##$RETENTION INDEX=0
##$CONDENSED SPECTRUM=NO
##NPOINTS= 72
##XYDATA=(XY..XY) 1 
    27          1
    28          1
    39          8
    41          4
    50          2
    51         13
    52          3
    53          4
    55          1
    62          1
    63          7
    64          2
    65         56
    66          3
    69          3
    74          1
    75          1
    76          1
    77         36
    78          4
    79          3
    80          1
    89          8
    90          5
    91        999
    92         87
    93          3
   102          1
   103          1
   105         42
   106          3
   107          6
   108          3
   112          1
   113          5
   114          1
   115          4
   127          3
   128          6
   129          4
   131          1
   137          2
   139          2
   141          1
   143          1
   145          1
   151          1
   152          1
   157          3
   171          1
   181          1
   184          1
   185          7
   186          1
   197          2
   198          2
   199          9
   200          1
   212          1
   213          9
   214          2
   225          1
   226          4
   227          6
   228          1
   258          1
   286          3
   287          2
   303         25
   304        182
   305         39
   306          5