##TITLE=Library Entry 41168
##JCAMP-DX=Revision 4.10 
##DATA TYPE=MASS SPECTRUM
##SAMPLE DESCRIPTION=Japan AIST/NIMC Database- Spectrum MS-NW-1196
##NAMES=HP
##CAS NAME=Galactitol
##MOLFORM=C6H14O6
##CAS REGISTRY NO=608-66-2
##MP= -300
##BP= -300
##MW= 182
##$RETENTION INDEX=0
##$CONDENSED SPECTRUM=NO
##NPOINTS= 90
##XYDATA=(XY..XY) 1 
    13          1
    14          9
    15        128
    16          3
    17          2
    18          7
    19          1
    26         10
    27         74
    28         71
    29        135
    30         24
    31        261
    32         10
    33          2
    36          2
    37          1
    38          4
    39         23
    40          6
    41         58
    42         69
    43        344
    44        201
    45        233
    46         13
    47         15
    49          6
    50          1
    51          2
    53          5
    54          7
    55         84
    56        259
    57        195
    58         13
    59         14
    60        130
    61        587
    62         21
    63          3
    64          1
    67          2
    68          4
    69         40
    70          5
    71        103
    72         16
    73        999
    74        451
    75         30
    76          2
    77          2
    79          2
    81          3
    82          2
    83          4
    84          3
    85         78
    86         12
    87         11
    88          2
    89          8
    90          2
    91         88
    92          4
    93          1
    94          1
    95          2
    96          2
    97         16
    98          4
    99          2
   101          1
   102          3
   103        213
   104         18
   105          2
   109          1
   110          2
   111          2
   115         28
   116          5
   121          4
   128          1
   129          1
   133        140
   134          8
   135          2
   146          4