##TITLE=Library Entry 49576
##JCAMP-DX=Revision 4.10 
##DATA TYPE=MASS SPECTRUM
##SAMPLE DESCRIPTION=Japan AIST/NIMC Database- Spectrum MS-NW- 401
##NAMES=HP
##CAS NAME=Butanedioic acid, 2,3-dibromo-, (R*,S*)-
##MOLFORM=C4H4Br2O4
##CAS REGISTRY NO=608-36-6
##MP= -300
##BP= -300
##MW= 274
##$RETENTION INDEX=0
##$CONDENSED SPECTRUM=NO
##NPOINTS= 123
##XYDATA=(XY..XY) 1 
    12          9
    13          8
    14         14
    15         31
    16         22
    17          2
    18          7
    24         16
    25         96
    26        347
    27        273
    28        103
    29         58
    30          3
    31          7
    36          6
    37          7
    38          3
    39         18
    40         18
    41         35
    42         82
    43        130
    44        921
    45        414
    46         16
    47          5
    48          1
    52         18
    53        289
    54         57
    55         18
    56          2
    57          7
    59         28
    60          9
    61          8
    66          6
    67          5
    68          2
    69         32
    70         50
    71        464
    72         34
    73          6
    77          1
    79        383
    80        999
    81        378
    82        958
    83         22
    84          1
    85         19
    86          3
    87          5
    88          7
    91          8
    92          9
    93         35
    94         14
    95         29
    96          5
    97          4
    98         30
    99         46
   100          4
   101          2
   103          7
   104         81
   105        190
   106         79
   107        183
   108          7
   109          4
   111          2
   113          1
   116          7
   120         24
   121         15
   122         98
   123         17
   124         78
   125          4
   129          4
   131          6
   132         64
   133        349
   134         70
   135        338
   136         12
   148          4
   149         45
   150        636
   151        132
   152        604
   153         90
   154          5
   159          2
   161          1
   165         16
   166          2
   167         22
   168          2
   169          4
   176         11
   177         37
   178         14
   179         38
   180          2
   181          3
   183          2
   185          3
   186          2
   187          5
   189          2
   191          4
   193          4
   194          6
   195         35
   196          7
   197         36
   198          2
   199          5