##TITLE=Library Entry 41156
##JCAMP-DX=Revision 4.10 
##DATA TYPE=MASS SPECTRUM
##SAMPLE DESCRIPTION=E. Zissis, LC, NIDDK, NIH, Bethesda, MD 20892
##NAMES=HP
##CAS NAME=.beta.-Sedoheptitol
##MOLFORM=C7H16O7
##CAS REGISTRY NO=608-61-7
##MP= -300
##BP= -300
##MW= 212
##$RETENTION INDEX=0
##$CONDENSED SPECTRUM=NO
##NPOINTS= 136
##XYDATA=(XY..XY) 1 
    41         55
    42         83
    43        344
    44        119
    45        175
    46         12
    47         14
    48          1
    49          6
    50         12
    51         18
    52          7
    53         15
    54         11
    55         69
    56        141
    57        178
    58         19
    59         18
    60        133
    61        408
    62         16
    63          6
    64          7
    65          6
    66          4
    67          4
    68          6
    69         68
    70         16
    71         87
    72         17
    73        999
    74        222
    75         26
    76         10
    77         38
    78         15
    79          5
    81         10
    82          3
    83          9
    84          7
    85        123
    86         29
    87         21
    88          2
    89         12
    90          4
    91         74
    92          6
    93          3
    94          3
    95          3
    96          1
    97         35
    98          8
    99         22
   100          2
   101         12
   102         27
   103        237
   104         27
   105         63
   106         10
   107          2
   109          5
   110          2
   111          7
   112          4
   113         10
   114          2
   115         54
   116         36
   117          6
   118          1
   119          4
   120          2
   121          4
   122         32
   123          4
   124          5
   125          3
   126          1
   127         21
   128         14
   129          8
   130          3
   131          1
   132          2
   133        185
   134         12
   135          4
   136          2
   137          0
   139          1
   140          2
   141          3
   142          0
   145         45
   146          5
   147          1
   148          0
   149          1
   151          3
   153          1
   154          0
   155          5
   156          6
   157          3
   159          2
   163         41
   164          3
   165          1
   167          2
   168          3
   169          2
   170          1
   176          2
   177          0
   181         11
   182         11
   183          6
   184          2
   185          1
   194          2
   195          2
   196          3
   197          2
   201          1
   210          5
   211         31
   212         42
   213         10
   214          2
   215          1