##TITLE=Library Entry 58738
##JCAMP-DX=Revision 4.10 
##DATA TYPE=MASS SPECTRUM
##SAMPLE DESCRIPTION=NIST Mass Spectrometry Data Center
##NAMES=HP
##CAS NAME=Butanedioic acid, 2,3-dihydroxy- [R-(R*,R*)]-, dimethyl ester
##MOLFORM=C6H10O6
##CAS REGISTRY NO=608-68-4
##MP= -300
##BP= -300
##MW= 178
##$RETENTION INDEX=1229
##$CONDENSED SPECTRUM=NO
##NPOINTS= 62
##XYDATA=(XY..XY) 1 
    14          4
    15         77
    16          1
    19         38
    26          2
    27          8
    28         14
    29        166
    30         44
    31        114
    32          6
    33        423
    34          5
    35          1
    41          7
    42         84
    43         25
    44          6
    45         85
    46          3
    47          5
    53          3
    54          1
    55          1
    56          2
    57          9
    58         85
    59        171
    60        123
    61         18
    62         18
    63         75
    64          2
    69         16
    70          4
    71         23
    72          3
    73        100
    74          4
    75         60
    76          3
    77          2
    85          4
    87          4
    89         75
    90        999
    91        131
    92         10
    93          1
   100          2
   101         15
   102          3
   103          5
   104          1
   113          2
   117          3
   119        319
   120         14
   121          9
   146          2
   150          1
   179          1