##TITLE=Library Entry 44623
##JCAMP-DX=Revision 4.10 
##DATA TYPE=MASS SPECTRUM
##SAMPLE DESCRIPTION=Japan AIST/NIMC Database- Spectrum MS-NW-3216
##NAMES=HP
##CAS NAME=Racemic-2,3-dimethyl-butanedioic acid
##MOLFORM=C6H10O4
##CAS REGISTRY NO=608-40-2
##MP= -300
##BP= -300
##MW= 146
##$RETENTION INDEX=0
##$CONDENSED SPECTRUM=NO
##NPOINTS= 99
##XYDATA=(XY..XY) 1 
    12          1
    13          2
    14          4
    15         25
    16          3
    17          9
    18         32
    25          6
    26         70
    27        337
    28        215
    29        352
    30         40
    31         33
    32          1
    36          2
    37         14
    38         25
    39        254
    40         41
    41        525
    42         23
    43         76
    44         36
    45        230
    46         13
    47          9
    48          1
    49          7
    50         28
    51         31
    52         14
    53         76
    54         59
    55        510
    56        814
    57        196
    58         18
    59         53
    60          8
    61          2
    62          1
    63          3
    65          2
    66          3
    67          4
    68          9
    69        186
    70          9
    71          8
    72         20
    73        289
    74        999
    75         37
    76          5
    77          2
    78          2
    79          1
    80          1
    81          7
    82         73
    83         90
    84          9
    85        155
    86          9
    87        254
    88         11
    89          2
    91          1
    92          1
    93          1
    94          1
    95          2
    96          1
    97          3
    98          2
    99         12
   100        461
   101         72
   102         33
   103          2
   105          1
   107          1
   109          1
   110          9
   111          2
   112          1
   113         15
   114          1
   115          1
   122          1
   124          1
   125          1
   126          1
   127          1
   128        153
   129         35
   130          3
   131          1