##TITLE=Library Entry 686
##JCAMP-DX=Revision 4.10 
##DATA TYPE=MASS SPECTRUM
##SAMPLE DESCRIPTION=O A MAMER, MCGILL UNIVERSITY, MONTRE
##NAMES=HP
##CAS NAME=DL-Di-ethyl-2,3-dibromo succinate
##MOLFORM=C8H12Br2O4
##CAS REGISTRY NO=608-82-2
##MP= -300
##BP= -300
##MW= 330
##$RETENTION INDEX=0
##$CONDENSED SPECTRUM=NO
##NPOINTS= 114
##XYDATA=(XY..XY) 1 
    19          0
    25          7
    28         57
    29        999
    30         22
    32          4
    38          1
    39          8
    40          1
    41          8
    42          8
    43         58
    44         11
    45         95
    47          5
    52          2
    53         97
    54         90
    55        105
    56          7
    57          3
    67          1
    69         11
    70          2
    71         71
    72         12
    73          7
    75          3
    79          5
    80          9
    81         34
    82         59
    83          5
    93          2
    95          4
    97          3
    98         10
    99        415
   100         54
   101          4
   104          5
   105         37
   106          7
   107         38
   108          3
   109          3
   117         16
   121          2
   122          2
   123          2
   125         12
   126         94
   127        352
   128         39
   129          5
   131          2
   132          2
   133         91
   134          5
   135         88
   136          3
   143         16
   145         10
   149          8
   150         30
   151        154
   152         33
   153        145
   154          5
   161          1
   167          3
   169          3
   176          2
   177         40
   178         10
   179        188
   180         16
   181        148
   182          8
   184          2
   185          6
   186          5
   187         11
   188          2
   189          5
   195          5
   197          5
   204          7
   205         59
   206         12
   207         70
   208          6
   209         13
   213          1
   221          2
   223         10
   225          7
   229          3
   231          7
   233          3
   251         26
   252          2
   253         26
   254          2
   257         21
   259         43
   260          2
   261         21
   284         10
   286         20
   288         10
   302          2
   304          4
   306          2