##TITLE=Library Entry 88412
##JCAMP-DX=Revision 4.10 
##DATA TYPE=MASS SPECTRUM
##SAMPLE DESCRIPTION=EQUINE DRUG TESTING PROG. J.D.HENION,ETAL CORNELL U, IT
HACA, NY
##NAMES=HP
##CAS NAME=Cyclohexane, 1,2,3,4,5,6-hexachloro-
##MOLFORM=C6H6Cl6
##CAS REGISTRY NO=608-73-1
##MP= -300
##BP= -300
##MW= 288
##$RETENTION INDEX=1759
##$CONDENSED SPECTRUM=NO
##NPOINTS= 104
##XYDATA=(XY..XY) 1 
    36         79
    37        129
    38        272
    39        202
    47         13
    48         27
    49        187
    50        359
    51        542
    52         61
    55         62
    56         82
    57         22
    60         60
    61        199
    62         72
    63        125
    64         11
    65         16
    72         42
    73        296
    74        170
    75        371
    76         52
    77        299
    78         50
    83        264
    84         43
    85        365
    86         62
    87        233
    88         24
    89         47
    90         14
    95         36
    96        175
    97         51
    98        112
    99         90
   100         37
   101         29
   107         29
   109        953
   110         69
   111        999
   112        151
   113        240
   114         49
   115         12
   119         16
   121        203
   122         92
   123        151
   124         55
   125         26
   126         11
   131         25
   133         91
   134         39
   135         76
   136         24
   137         28
   143         80
   144         23
   145        267
   146        221
   147        254
   148        134
   149         99
   150         26
   151         12
   156        119
   157         62
   158        106
   159         51
   160         37
   161         15
   169         28
   171         25
   181        829
   182         90
   183        743
   184         69
   185        267
   186         20
   187         28
   216        106
   217        571
   218        176
   219        677
   220        111
   221        360
   222         38
   223         74
   252         87
   253         11
   254        137
   255         12
   256         90
   258          6
   288         30
   290         60
   292         44
   294         19