##TITLE=Library Entry 81181
##JCAMP-DX=Revision 4.10 
##DATA TYPE=MASS SPECTRUM
##SAMPLE DESCRIPTION=NIST Mass Spectrometry Data Center, 2009
##NAMES=HP
##CAS NAME=Benzene, 1-chloro-2,3-dimethyl-
##MOLFORM=C8H9Cl
##CAS REGISTRY NO=608-23-1
##MP= -300
##BP= -300
##MW= 140
##$RETENTION INDEX=1119
##$CONDENSED SPECTRUM=NO
##NPOINTS= 78
##XYDATA=(XY..XY) 1 
    15          2
    26          4
    27         21
    28          1
    29          1
    35          1
    36          1
    37          6
    38         13
    39         49
    40          4
    41          4
    43          1
    44          1
    47          1
    48          1
    49          9
    50         54
    51        155
    52         27
    53         18
    54          1
    55          1
    60          2
    61         12
    62         28
    63         64
    64         10
    65         16
    66          2
    68          3
    69         13
    70          7
    71          1
    72          2
    73         17
    74         25
    75         32
    76         17
    77        167
    78         74
    79         82
    80          6
    84          3
    85          6
    86          8
    87         10
    88          2
    89         40
    90          8
    91          4
    96          1
    97          4
    98          5
    99         15
   100          2
   101         15
   102         36
   103        171
   104         51
   105        999
   106         91
   107          3
   111          2
   112          5
   113          2
   114          2
   124          8
   125        180
   126         14
   127         57
   128          5
   138          3
   139         59
   140        413
   141         55
   142        135
   143         12