##TITLE=Library Entry 114190
##JCAMP-DX=Revision 4.10 
##DATA TYPE=MASS SPECTRUM
##SAMPLE DESCRIPTION=NIST Mass Spectrometry Data Center
##NAMES=HP
##CAS NAME=1-Bromo-3-chloro-4-fluorobenzene
##MOLFORM=C6H3BrClF
##CAS REGISTRY NO=60811-21-4
##MP= -300
##BP= -300
##MW= 208
##$RETENTION INDEX=0
##$CONDENSED SPECTRUM=NO
##NPOINTS= 109
##XYDATA=(XY..XY) 1 
    25          3
    26          4
    31         33
    33          2
    35          7
    36         13
    37         59
    38         29
    39          5
    44          4
    45          2
    47         18
    48          8
    49         42
    50        153
    51         13
    55          7
    56         20
    57         12
    60         18
    61         82
    62         65
    63         61
    64         30
    65         10
    67          6
    68        145
    69         28
    70          1
    71          4
    72         18
    73         69
    74        222
    75         70
    76          5
    77          1
    78          3
    79         21
    80          8
    81         22
    82          4
    83          1
    84         30
    85         11
    86         22
    87         14
    90          2
    91         17
    92         83
    93        280
    94        298
    95         25
    96          6
    97          8
    98          2
    99          2
   102          8
   103         22
   104         65
   105         81
   106         22
   107          1
   108          8
   109        221
   110         20
   111         72
   112          5
   115          2
   116          3
   117          5
   118          3
   119          3
   126          1
   127          5
   128         56
   129        999
   130         85
   131        341
   132         21
   135          1
   137          1
   139          1
   140          1
   141          3
   142          1
   143          2
   146          3
   147          1
   148          3
   149          1
   150          1
   151          1
   152          2
   153          4
   154          1
   155          2
   161          1
   172          1
   173         13
   174          2
   175         13
   177          3
   179          1
   208        620
   209         47
   210        774
   211         53
   212        191
   213         11