##TITLE=Library Entry 54157
##JCAMP-DX=Revision 4.10 
##DATA TYPE=MASS SPECTRUM
##SAMPLE DESCRIPTION=Drug Lab
##NAMES=HP
##CAS NAME=LISDEXAMFETAMINE
##MOLFORM=C15H25N3O
##CAS REGISTRY NO=608137-32-2
##MP= -300
##BP= -300
##MW= 263
##$RETENTION INDEX=0
##$CONDENSED SPECTRUM=NO
##NPOINTS= 73
##XYDATA=(XY..XY) 1 
    41         20
    42         20
    43         46
    44         48
    46          1
    50          2
    51          6
    52          2
    53          3
    54          4
    55          9
    56         90
    57         12
    58          5
    63          3
    65         21
    66          2
    67         24
    68          5
    69          6
    70         12
    71         10
    72         19
    73          7
    77          9
    78          5
    79          2
    81          1
    82         27
    83          9
    84        999
    85         57
    86          2
    89          2
    90          3
    91        124
    92         15
    93          1
    95          1
    96          1
    98          3
    99          4
   100          9
   101        299
   102         25
   103          4
   104          2
   105          2
   107          2
   110          9
   111          1
   112          5
   114          1
   115          8
   116          2
   117         15
   118         20
   119         12
   120          4
   127          5
   128         14
   129         11
   134          8
   136         17
   137          3
   153          3
   155         30
   156          7
   162          2
   172         50
   173          4
   192          2
   263          3