##TITLE=Library Entry 7654
##JCAMP-DX=Revision 4.10 
##DATA TYPE=MASS SPECTRUM
##SAMPLE DESCRIPTION=Vladimir Zaikin,TIPS RAS, Moscow, Russia
##NAMES=HP
##CAS NAME=3-Acetoxydodecane
##MOLFORM=C14H28O2
##CAS REGISTRY NO=60826-26-8
##MP= -300
##BP= -300
##MW= 228
##$RETENTION INDEX=0
##$CONDENSED SPECTRUM=NO
##NPOINTS= 58
##XYDATA=(XY..XY) 1 
    36         10
    39         88
    40         22
    41        233
    42         98
    43        999
    44        170
    45         42
    51         10
    53         10
    54         18
    55        220
    56        135
    57        240
    58         67
    59         60
    60          9
    61         13
    67         47
    68         18
    69        145
    70         93
    71        112
    72         30
    73         25
    77          8
    79          4
    81         15
    82         22
    83        108
    84         50
    85         50
    86          4
    87          7
    95         15
    96         15
    97         60
    98         27
    99         20
   101         85
   102          8
   103          4
   110          8
   111         30
   112         18
   113          8
   119          4
   125         25
   126          6
   127          2
   128          4
   129          8
   139         18
   140          6
   143          5
   168         50
   199          6
   200          1