##TITLE=Library Entry 10499
##JCAMP-DX=Revision 4.10 
##DATA TYPE=MASS SPECTRUM
##SAMPLE DESCRIPTION=J. Klune, Insect Chem. Ecol. Lab., USDA, Beltsville, MD
 20705
##NAMES=HP
##CAS NAME=6-Dodecanol acetate
##MOLFORM=C14H28O2
##CAS REGISTRY NO=60826-23-5
##MP= -300
##BP= -300
##MW= 228
##$RETENTION INDEX=0
##$CONDENSED SPECTRUM=NO
##NPOINTS= 92
##XYDATA=(XY..XY) 1 
    41        181
    42         56
    43        999
    44         46
    45          9
    47          0
    49          2
    51          2
    52          0
    53         14
    54         30
    55        194
    56        108
    57        116
    58         96
    59         51
    60          2
    61         43
    62          1
    65          3
    66          2
    67         31
    68         25
    69        134
    70        114
    71         62
    72          8
    73          3
    77          2
    79          4
    80          1
    81         16
    82         35
    83        191
    84         72
    85         36
    86         10
    87          1
    91          1
    93          1
    95          5
    96         31
    97        387
    98         69
    99         18
   100         26
   101         13
   102         28
   103         13
   104          0
   109          2
   110         12
   111         47
   112         26
   113         16
   114         33
   115         26
   116          2
   123          0
   124          5
   125         27
   126         11
   127          2
   128          5
   129         12
   130          1
   137          0
   138          2
   139          9
   140         19
   141          2
   142          2
   143        112
   144          9
   145          1
   149          0
   156          1
   157         34
   158          8
   159          1
   166          1
   167          1
   168        214
   169         38
   170          3
   171          0
   172          0
   185          3
   186          1
   210          1
   211          1
   228          1