##TITLE=Library Entry 29736
##JCAMP-DX=Revision 4.10 
##DATA TYPE=MASS SPECTRUM
##SAMPLE DESCRIPTION=Exported from NIST MS Search
##NAMES=HP
##CAS NAME=.alpha.-D-Galactopyranoside, methyl 2-(acetylamino)-2-deoxy-
##MOLFORM=C9H17NO6
##CAS REGISTRY NO=6082-22-0
##MP= -300
##BP= -300
##MW= 235
##$RETENTION INDEX=0
##$CONDENSED SPECTRUM=NO
##NPOINTS= 62
##XYDATA=(XY..XY) 1 
    41         60
    42        110
    43        693
    44         96
    45        120
    46         13
    54         10
    55         56
    56        103
    57         96
    58        140
    59        999
    60        423
    61         83
    68         16
    69         33
    70         90
    71         56
    72        166
    73        290
    74        133
    75         13
    82         10
    83         13
    84        103
    85         46
    86         43
    87         40
    88        100
    96         26
    97         90
    98         83
    99         20
   100         30
   101        336
   102        153
   103         86
   104         10
   111         36
   112         33
   113         20
   114        266
   115        140
   116         33
   125         13
   126         43
   127         10
   128         43
   130         36
   138         13
   139        146
   140         30
   144        103
   145          6
   157         33
   158         33
   162         20
   172         16
   185         26
   186         10
   203         31
   204         20