##TITLE=Library Entry 11003
##JCAMP-DX=Revision 4.10 
##DATA TYPE=MASS SPECTRUM
##SAMPLE DESCRIPTION=T.H.JONES, DEP. CHEM., COLL. WILLIAM & MARY, WILLIAMSBU
RG, USA
##NAMES=HP
##CAS NAME=2-(2-Acetoxy-1-propyl)furan, (S)
##MOLFORM=C9H12O3
##CAS REGISTRY NO=60830-70-8
##MP= -300
##BP= -300
##MW= 168
##$RETENTION INDEX=0
##$CONDENSED SPECTRUM=NO
##NPOINTS= 9
##XYDATA=(XY..XY) 1 
    43        999
    53        140
    77         30
    79        110
    81        200
    82         40
   108        360
   109         50
   125         10