##TITLE=Library Entry 68761
##JCAMP-DX=Revision 4.10 
##DATA TYPE=MASS SPECTRUM
##SAMPLE DESCRIPTION=NIST Mass Spectrometry Data Center
##NAMES=HP
##CAS NAME=4'-Aminobenzo-15-crown-5
##MOLFORM=C14H21NO5
##CAS REGISTRY NO=60835-71-4
##MP= -300
##BP= -300
##MW= 283
##$RETENTION INDEX=0
##$CONDENSED SPECTRUM=NO
##NPOINTS= 125
##XYDATA=(XY..XY) 1 
    15         17
    16          1
    19          8
    26         10
    27         64
    29         78
    30         11
    31         40
    38          4
    39         36
    40         11
    41        152
    42         33
    43        268
    44         50
    45        304
    46          7
    47          1
    50          5
    51         28
    52         97
    53         51
    54         21
    55         11
    56          2
    57          8
    58          7
    59         15
    60          1
    62          4
    63         13
    64          9
    65         30
    66         18
    67        181
    68         52
    69         19
    70          3
    71         47
    72          5
    73         63
    74          2
    75          3
    76          3
    77         22
    78         36
    79        152
    80        109
    81         19
    82          5
    83         17
    86          1
    87         13
    88          3
    89          8
    90          3
    91          8
    92         23
    93         20
    94         38
    95        999
    96        249
    97         29
    98          5
    99          2
   103          1
   104         21
   105          5
   106         43
   107         24
   108         40
   109         52
   110         21
   111          7
   112          2
   113          1
   115          9
   116          1
   117          1
   118          1
   119          1
   120          5
   121          9
   122         57
   123         20
   124        313
   125        324
   126         23
   127          2
   132          5
   133          6
   134         14
   135         18
   136        328
   137         60
   138         24
   139          5
   140          2
   146          1
   148          3
   149          5
   150        105
   151        788
   152         81
   153          7
   154          1
   159          3
   162          1
   163          1
   164         12
   165          4
   166          5
   167          2
   168          4
   169          4
   177          2
   178          2
   180          1
   194          1
   195         51
   196          6
   239          2
   283        313
   284         49
   285          7