##TITLE=Library Entry 76011
##JCAMP-DX=Revision 4.10 
##DATA TYPE=MASS SPECTRUM
##SAMPLE DESCRIPTION=R.S.BANDURSKI MICHIGAN STATE UNIV., EAST LANSING, MICH.
, USA
##NAMES=HP
##CAS NAME=Tryptamine, 2TMS derivative
##MOLFORM=C16H28N2Si2
##CAS REGISTRY NO=60840-04-2
##MP= -300
##BP= -300
##MW= 304
##$RETENTION INDEX=2219
##$CONDENSED SPECTRUM=NO
##NPOINTS= 63
##XYDATA=(XY..XY) 1 
    30          3
    31          3
    43         32
    44         21
    45         98
    46          5
    47          2
    55          3
    56          2
    57          5
    58         19
    59         46
    60          2
    69          2
    72         20
    73        779
    74         63
    75         40
    77         19
    78          2
    79          3
    81          2
    86         17
    87          8
   100          4
   101          4
   102        999
   103        112
   104         39
   105          5
   111          3
   115          5
   129          7
   130         21
   131          6
   133          3
   144          3
   145         20
   146          4
   156          4
   160          6
   172          9
   186         14
   187          5
   188         13
   189          3
   200         15
   201         20
   202        308
   203        564
   204        103
   205         22
   206          3
   214          7
   215         15
   232         11
   289         30
   290          6
   291          2
   302          6
   303          4
   304         34
   305         11