##TITLE=Library Entry 19349
##JCAMP-DX=Revision 4.10 
##DATA TYPE=MASS SPECTRUM
##SAMPLE DESCRIPTION=R.T.HOLMAN,UNIVERSITY OF MINNESOTA
##NAMES=HP
##CAS NAME=Oxiraneoctanoic acid, 3-octyl-, methyl ester, trans-
##MOLFORM=C19H36O3
##CAS REGISTRY NO=6084-76-0
##MP= -300
##BP= -300
##MW= 312
##$RETENTION INDEX=0
##$CONDENSED SPECTRUM=NO
##NPOINTS= 223
##XYDATA=(XY..XY) 1 
    15        127
    16          2
    17          6
    18         30
    26          5
    27        178
    28         58
    29        440
    30         11
    31         37
    32          1
    33          3
    37          1
    38          2
    39        121
    40         24
    41        837
    42        204
    43        680
    44         53
    45         60
    46          1
    50          1
    51          4
    52          4
    53         60
    54        143
    55        999
    56        261
    57        479
    58         36
    59        217
    60          7
    61          3
    63          1
    64          3
    65         12
    66         21
    67        332
    68        230
    69        568
    70        172
    71        204
    72         23
    73         33
    74        741
    75         77
    76          6
    77         15
    78          7
    79         55
    80         33
    81        230
    82        185
    83        332
    84        108
    85        111
    86        102
    87        332
    88         37
    89          3
    90          1
    91         14
    92          6
    93         46
    94        130
    95        210
    96        191
    97        293
    98         76
    99         27
   100          7
   101         49
   102          9
   103          4
   104          1
   105          6
   106          3
   107         30
   108         24
   109        159
   110         63
   111         65
   112         15
   113         23
   114         21
   115         24
   116          3
   117          2
   118          3
   119         15
   120         63
   121         47
   122         12
   123         30
   124         85
   125         60
   126         23
   127        127
   128        242
   129        166
   130          7
   131          3
   132          1
   133          3
   134          1
   135         17
   136         54
   137         42
   138         70
   139        105
   140         33
   141         52
   142         23
   143         27
   144          7
   145          2
   146          1
   147          3
   148          1
   149         14
   150          9
   151          8
   152          7
   153        108
   154         33
   155        607
   156         70
   157         29
   158         21
   159          3
   160          1
   161          1
   162          1
   163          3
   164          4
   165          7
   166          3
   167         33
   168         28
   169         21
   170         46
   171        115
   172         15
   173          2
   175          1
   177          1
   178          1
   179          5
   180          2
   181          8
   182          5
   183          9
   184          1
   185         23
   186          3
   187         37
   188          6
   189         12
   190          1
   191          1
   192          1
   193          2
   194          1
   195          3
   196          1
   197          1
   198          1
   199        111
   200         16
   201          2
   205          1
   206          1
   207          1
   208          1
   209          2
   210          1
   211          1
   212          1
   213          2
   214          4
   215          1
   218          1
   219          1
   220          3
   221          2
   222          1
   223          3
   224          1
   225          1
   226          1
   227          6
   228          1
   237          3
   238          1
   239          3
   240          1
   241          1
   244          2
   245          1
   251          1
   252          1
   253          1
   254          1
   255          1
   256          1
   262          2
   263          7
   264          3
   265          1
   269          3
   270          1
   279          1
   280          2
   281         11
   282          2
   283          1
   284          1
   294          5
   295          1
   296          1
   312          4
   313          1