##TITLE=Library Entry 11930
##JCAMP-DX=Revision 4.10 
##DATA TYPE=MASS SPECTRUM
##SAMPLE DESCRIPTION=V.G.Zaikin, TIPS, Russian Acad. Sci.
##NAMES=HP
##CAS NAME=3.beta.-Acetoxy-16-isothiocyanatopregn-5-en-20-one
##MOLFORM=C24H33NO3S
##CAS REGISTRY NO=6084-08-8
##MP= -300
##BP= -300
##MW= 415
##$RETENTION INDEX=0
##$CONDENSED SPECTRUM=NO
##NPOINTS= 120
##XYDATA=(XY..XY) 1 
    39        205
    40         69
    41        242
    42        113
    43        999
    44        129
    45        176
    46         12
    50         43
    51         79
    52         44
    53         97
    54         29
    55        172
    56         29
    57         34
    58         45
    59         76
    60         86
    63         40
    64         25
    65         93
    66         28
    67        163
    68         29
    69         67
    70         28
    71         55
    72         26
    76         23
    77        178
    78         97
    79        254
    80         63
    81        229
    82         30
    83         45
    84         39
    85         55
    91        384
    92        101
    93        246
    94         56
    95         96
    96         44
   103         56
   104         38
   105        295
   106         69
   107        171
   108         68
   109         64
   110         38
   111         27
   112         53
   115         96
   116         54
   117        137
   118         60
   119        137
   120        106
   121        103
   122         45
   128        592
   129        137
   130         79
   131        151
   132         65
   133        117
   134         38
   141         65
   142         54
   143        137
   144         70
   145        203
   146         65
   147         69
   155         51
   156         40
   157        102
   158        111
   159         92
   160        132
   196         29
   197         65
   198         20
   199         39
   200         13
   210         26
   211         52
   212         36
   213         98
   214         28
   227         51
   228         63
   229         22
   237         23
   238         36
   239         36
   251         25
   252         18
   253         56
   254         34
   272         78
   273         28
   281         65
   282         17
   295         20
   296        135
   297         54
   298         24
   310          6
   312         41
   313         12
   340        141
   341         44
   354         54
   355        555
   356        166
   357         52