##TITLE=Library Entry 3107
##JCAMP-DX=Revision 4.10 
##DATA TYPE=MASS SPECTRUM
##SAMPLE DESCRIPTION=JCPRB4, (8)837(1978); J. M. VERNON ET AL.
##NAMES=HP
##CAS NAME=Naphthalen-1,4-imine, 5,6,7,8-tetrachloro-9-(1,1-dimethylethyl)-1
,4-dihydro-
##MOLFORM=C14H13Cl4N
##CAS REGISTRY NO=60857-29-6
##MP= -300
##BP= -300
##MW= 335
##$RETENTION INDEX=0
##$CONDENSED SPECTRUM=NO
##NPOINTS= 35
##XYDATA=(XY..XY) 1 
    41        999
    42        160
    55        250
    56        300
    57        900
    73        300
    99        430
   113        140
   149        250
   194        110
   196        170
   217        130
   219        130
   221         50
   253        380
   255        430
   257        190
   264        240
   266        330
   268        160
   270        150
   272        130
   274         40
   285        180
   287        230
   289        110
   309         50
   311         60
   313         30
   320        700
   322        900
   324        450
   335        140
   337        180
   339         90