##TITLE=Library Entry 62721
##JCAMP-DX=Revision 4.10 
##DATA TYPE=MASS SPECTRUM
##SAMPLE DESCRIPTION=Chemical Concepts
##NAMES=HP
##CAS NAME=1-Benzyl-1H-1,2,4-triazole
##MOLFORM=C9H9N3
##CAS REGISTRY NO=6085-94-5
##MP= -300
##BP= -300
##MW= 159
##$RETENTION INDEX=0
##$CONDENSED SPECTRUM=NO
##NPOINTS= 64
##XYDATA=(XY..XY) 1 
    25          4
    26         17
    27         77
    28          9
    31          4
    37          5
    38         17
    39         93
    40         23
    41         29
    42          3
    43          6
    44          2
    45          2
    49          3
    50         44
    51         96
    52         27
    53          8
    54          5
    55         10
    56         15
    57          3
    61          3
    62         12
    63         45
    64         14
    65        165
    66         12
    73          2
    74          9
    75          8
    76         12
    77         74
    78         37
    79          5
    81          2
    82          9
    87          2
    88          3
    89         60
    90         74
    91        999
    92         80
    93          2
   102          3
   103         13
   104         94
   105         39
   106          4
   116          2
   117         13
   118         11
   119          5
   130          5
   131        102
   132        358
   133         34
   142          6
   157          8
   158        432
   159        517
   160         52
   161          2