##TITLE=Library Entry 16402
##JCAMP-DX=Revision 4.10 
##DATA TYPE=MASS SPECTRUM
##SAMPLE DESCRIPTION=Chemical Concepts
##NAMES=HP
##CAS NAME=Propanoic acid-3-oxo, 3-(2,4-dichlorophenyl)-, ethyl ester
##MOLFORM=C11H10Cl2O3
##CAS REGISTRY NO=60868-41-9
##MP= -300
##BP= -300
##MW= 260
##$RETENTION INDEX=0
##$CONDENSED SPECTRUM=NO
##NPOINTS= 149
##XYDATA=(XY..XY) 1 
    27        145
    28        134
    29        377
    31        154
    37         10
    38         12
    39         53
    40          9
    41        256
    42         64
    43        400
    44        999
    45        170
    46         14
    47          3
    49         12
    50         55
    51         32
    52          6
    53         24
    54         30
    55        270
    56        124
    57        558
    58         29
    59         29
    60         36
    61         21
    62         24
    63         55
    64          6
    65         18
    66          7
    67         86
    68         64
    69        354
    70        103
    71        350
    72         25
    73         51
    74        100
    75        137
    76         25
    77         32
    78         14
    79         31
    80         16
    81        147
    82         82
    83        182
    84         71
    85        205
    86         17
    87         33
    88          9
    89         36
    90          7
    91        129
    92         15
    93         31
    94         16
    95         80
    96         59
    97        167
    98         45
    99         84
   105         10
   107         17
   108          9
   109        129
   110         66
   111        114
   112         31
   113         58
   114          8
   115         18
   116          7
   117         15
   118          9
   119         25
   120         11
   121         25
   122          9
   123         42
   124         19
   125         47
   126         20
   127         43
   128         10
   129         15
   130          6
   131          6
   133          7
   134          5
   135         20
   136         14
   137         33
   138         15
   139         24
   140         15
   141         30
   142          6
   143          6
   145        160
   146         27
   147        123
   148         14
   149         11
   150          6
   151         12
   152          9
   153         13
   154          8
   155         22
   156          4
   157          8
   158          4
   159         21
   160          5
   161         12
   162          3
   163          9
   164          3
   165          7
   166          8
   167          8
   168          9
   169         15
   170          3
   171          4
   173        799
   174         68
   175        609
   176         53
   177        131
   178         12
   179         10
   197        107
   198          4
   199         32
   200          3
   214         18
   215         16
   216         13
   217         10
   225        182
   226         22
   227         61
   228          8