##TITLE=Library Entry 51892
##JCAMP-DX=Revision 4.10 
##DATA TYPE=MASS SPECTRUM
##SAMPLE DESCRIPTION=Exported from NIST MS Search
##NAMES=HP
##CAS NAME=1-Methyl-1H-1,2,4-triazole
##MOLFORM=C3H5N3
##CAS REGISTRY NO=6086-21-1
##MP= -300
##BP= -300
##MW= 83
##$RETENTION INDEX=0
##$CONDENSED SPECTRUM=NO
##NPOINTS= 19
##XYDATA=(XY..XY) 1 
    26         15
    27         75
    28        574
    29         55
    38         15
    39         20
    40         65
    41         30
    42         30
    43         35
    45         15
    46         15
    53         30
    54         15
    55         50
    56        400
    57         15
    83        999
    84         60