##TITLE=Library Entry 9404
##JCAMP-DX=Revision 4.10 
##DATA TYPE=MASS SPECTRUM
##SAMPLE DESCRIPTION=Div. of Experiment Therapeutics WRAIR, WRAMC, Washingto
n DC 20307
##NAMES=HP
##CAS NAME=2-Acethydrazido-5-chloronitrobenzene
##MOLFORM=C8H8ClN3O3
##CAS REGISTRY NO=60882-62-4
##MP= -300
##BP= -300
##MW= 229
##$RETENTION INDEX=0
##$CONDENSED SPECTRUM=NO
##NPOINTS= 96
##XYDATA=(XY..XY) 1 
    43        999
    44         20
    45          3
    46          1
    47          1
    49          7
    50         39
    51         63
    52         32
    53          5
    54          2
    55          1
    57          0
    60          4
    61         27
    62         29
    63         55
    64         11
    65          4
    66          0
    71          1
    72          4
    73         16
    74         22
    75         71
    76         49
    78        391
    79         36
    80          2
    84          5
    85         11
    86         20
    87         16
    88         12
    89          8
    90         11
    91          2
    93          1
    96          0
    97          7
    98         13
    99         16
   100          5
   101          4
   103          6
   105         11
   106          4
   108          2
   110         21
   111        134
   113        104
   114         22
   115          8
   116          4
   118          1
   120          0
   123          0
   124         90
   125         61
   126         42
   127         18
   128          4
   129          1
   130          0
   135          1
   138          0
   139          9
   141         41
   142          8
   143         13
   144          2
   150          0
   153         11
   154          2
   155          3
   156          1
   159          1
   166         13
   168         11
   169         44
   170         13
   171         17
   172          3
   173          0
   182          1
   183          0
   186         17
   187         54
   188         10
   189         17
   190          1
   229        139
   230         27
   231         56
   232          9
   233          1