##TITLE=Library Entry 36984
##JCAMP-DX=Revision 4.10 
##DATA TYPE=MASS SPECTRUM
##SAMPLE DESCRIPTION=James Little,Eastman Chem.Co.,Kingsport,TN
##NAMES=HP
##CAS NAME=4-Pentynoic acid
##MOLFORM=C5H6O2
##CAS REGISTRY NO=6089-09-4
##MP= -300
##BP= -300
##MW= 98
##$RETENTION INDEX=0
##$CONDENSED SPECTRUM=NO
##NPOINTS= 21
##XYDATA=(XY..XY) 1 
    15         59
    19         72
    26        167
    27        704
    28        201
    39        434
    42        340
    50        330
    51        348
    52        328
    53        679
    55        258
    57         67
    69        335
    70        999
    71         79
    79         56
    80         21
    81         83
    97        326
    98         31