##TITLE=Library Entry 745
##JCAMP-DX=Revision 4.10 
##DATA TYPE=MASS SPECTRUM
##SAMPLE DESCRIPTION=Japan AIST/NIMC Database- Spectrum MS-NW-1304
##NAMES=HP
##CAS NAME=Propanedioic acid, methyl-, diethyl ester
##MOLFORM=C8H14O4
##CAS REGISTRY NO=609-08-5
##MP= -300
##BP= -300
##MW= 174
##$RETENTION INDEX=1073
##$CONDENSED SPECTRUM=NO
##NPOINTS= 59
##XYDATA=(XY..XY) 1 
    14          2
    15         15
    17          1
    18          5
    19          6
    26         26
    27        186
    28        131
    29        999
    30         38
    31         27
    32          2
    39          2
    41         49
    42          4
    43         19
    44          6
    45         81
    46          2
    47          5
    53          2
    54          2
    55         57
    56        199
    57        205
    58          9
    59          3
    69          2
    71          1
    72          6
    73        125
    74        419
    75         47
    76          3
    82          1
    83          9
    84          4
    85          1
    86          1
    87          1
    99          3
   100         12
   101         81
   102        188
   103         19
   104          1
   110          1
   119          5
   127          1
   128         71
   129        466
   130         30
   131          3
   145          1
   146         25
   147         85
   148          6
   174         42
   175          5