##TITLE=Library Entry 9284
##JCAMP-DX=Revision 4.10 
##DATA TYPE=MASS SPECTRUM
##SAMPLE DESCRIPTION=Chuck Anderson, Aldrich Chemical Co.
##NAMES=HP
##CAS NAME=Butanoic acid, 2-methyl-3-oxo-, ethyl ester
##MOLFORM=C7H12O3
##CAS REGISTRY NO=609-14-3
##MP= -300
##BP= -300
##MW= 144
##$RETENTION INDEX=0
##$CONDENSED SPECTRUM=NO
##NPOINTS= 64
##XYDATA=(XY..XY) 1 
    13          1
    14          9
    15         75
    16          3
    17          0
    18          0
    19          4
    25          4
    26         51
    27        259
    28        222
    29        414
    30         45
    31         20
    37          2
    38          4
    39         17
    40          3
    41         22
    42         31
    43        999
    44         27
    45         48
    46          4
    47          2
    50          3
    51          4
    52          1
    53         11
    54          7
    55         65
    56        214
    57        128
    58          6
    59          3
    60          1
    61         18
    69          6
    70         38
    71         13
    72         14
    73        189
    74        879
    75         71
    76          6
    83         22
    84         10
    85          3
    87          4
    89         20
    90          1
    97          3
    98         25
    99        254
   100         16
   101         13
   102        849
   103         43
   104          5
   115          2
   116          3
   129          7
   144         29
   145          4