##TITLE=Library Entry 67843
##JCAMP-DX=Revision 4.10 
##DATA TYPE=MASS SPECTRUM
##SAMPLE DESCRIPTION=A.A.Kutin, Moscow, Russia
##NAMES=HP
##CAS NAME=3-Pyridinecarboxylic acid, 4-hydroxy-
##MOLFORM=C6H5NO3
##CAS REGISTRY NO=609-70-1
##MP= -300
##BP= -300
##MW= 139
##$RETENTION INDEX=0
##$CONDENSED SPECTRUM=NO
##NPOINTS= 65
##XYDATA=(XY..XY) 1 
    33          6
    34          2
    39        222
    40         15
    41        201
    42         56
    44        443
    45         13
    46          4
    47         20
    49         15
    50         51
    51         56
    52         41
    53         57
    54         17
    55         64
    56          3
    57          2
    60          2
    61          0
    62          2
    63          4
    64          8
    65          7
    66         46
    67        162
    68        188
    69         23
    70          2
    71          2
    73          1
    74          0
    75          7
    76         12
    77          4
    78         15
    79          6
    80          3
    81          1
    82          3
    83          1
    84          0
    85          1
    86          0
    93         11
    94         59
    95        999
    96         58
    97          3
    98          1
    99          0
   104          0
   105          1
   106          0
   107          0
   112          1
   113          0
   114          0
   121         13
   122          2
   123          0
   138          0
   139         15
   140          0