##TITLE=Library Entry 606
##JCAMP-DX=Revision 4.10 
##DATA TYPE=MASS SPECTRUM
##SAMPLE DESCRIPTION=NIST Mass Spectrometry Data Center, 1994
##NAMES=HP
##CAS NAME=Butanoic acid, 2,3-dibromo-, ethyl ester
##MOLFORM=C6H10Br2O2
##CAS REGISTRY NO=609-11-0
##MP= -300
##BP= -300
##MW= 272
##$RETENTION INDEX=0
##$CONDENSED SPECTRUM=NO
##NPOINTS= 80
##XYDATA=(XY..XY) 1 
     4          3
    14         10
    15         59
    25          5
    26         76
    27        287
    28         89
    29        999
    30         36
    31         15
    32          4
    37         37
    38        106
    39        693
    40        120
    41        971
    42         67
    43        100
    44         12
    45        105
    53         18
    55          8
    57         49
    67         16
    69        995
    70         52
    71         12
    72          8
    73        193
    74         10
    79         17
    80         17
    81         21
    82         19
    85        204
    86         53
    87         27
    93         31
    94          6
    95         29
    99         50
   105         10
   106          4
   107         33
   109         26
   113         23
   119        205
   120        311
   121        349
   122        281
   123        167
   124          6
   137          8
   138         15
   139          6
   140         15
   147         25
   149         32
   151          6
   165        137
   166         14
   167        132
   168          5
   193        754
   195        768
   196         52
   197          5
   198          5
   199         81
   200          5
   201        145
   202          8
   203         80
   227         54
   229        102
   230          8
   231         46
   244          9
   246         18
   248          9