##TITLE=Library Entry 17190
##JCAMP-DX=Revision 4.10 
##DATA TYPE=MASS SPECTRUM
##SAMPLE DESCRIPTION=NIST Mass Spectrometry Data Center, 1990.
##NAMES=HP
##CAS NAME=3-Ethyl-2-pentanol
##MOLFORM=C7H16O
##CAS REGISTRY NO=609-27-8
##MP= -300
##BP= -300
##MW= 116
##$RETENTION INDEX=0
##$CONDENSED SPECTRUM=NO
##NPOINTS= 45
##XYDATA=(XY..XY) 1 
    14          7
    15         10
    19         10
    26         16
    27        124
    28        104
    29        126
    30          4
    31         26
    32         23
    38         14
    39        146
    40         33
    41        281
    42         84
    43        365
    44        132
    45        999
    46         23
    47          7
    50          9
    51         22
    52          9
    53         48
    54          7
    55        276
    56         50
    57         72
    58          8
    59         88
    63          6
    65         12
    66          4
    67         25
    68          4
    69        135
    70        406
    71         69
    72          9
    73          7
    83         39
    85          5
    86          7
    98         30
   101         26