##TITLE=Library Entry 8640
##JCAMP-DX=Revision 4.10 
##DATA TYPE=MASS SPECTRUM
##SAMPLE DESCRIPTION=Exported from NIST MS Search
##NAMES=HP
##CAS NAME=Pentane, 3-ethyl-2-methyl-
##MOLFORM=C8H18
##CAS REGISTRY NO=609-26-7
##MP= -300
##BP= -300
##MW= 114
##$RETENTION INDEX=762
##$CONDENSED SPECTRUM=NO
##NPOINTS= 58
##XYDATA=(XY..XY) 1 
    13          1
    14          1
    15         22
    26          8
    27        192
    28         21
    29        187
    30          4
    37          2
    38          3
    39         98
    40         16
    41        270
    42        142
    43        999
    44         34
    45          1
    50          1
    51          5
    52          2
    53         22
    54          6
    55        179
    56         29
    57        148
    58          7
    59          1
    62          1
    63          1
    64          1
    65          3
    66          1
    67          6
    68          2
    69         33
    70        500
    71        247
    72         13
    73          1
    77          1
    78          1
    79          1
    80          1
    81          1
    82          1
    83          3
    84         43
    85        181
    86         12
    87          1
    91          1
    97          1
    98          1
    99          1
   100          1
   113          1
   114         13
   115          1