##TITLE=Library Entry 625
##JCAMP-DX=Revision 4.10 
##DATA TYPE=MASS SPECTRUM
##SAMPLE DESCRIPTION=Japan AIST/NIMC Database- Spectrum MS-NW-8993
##NAMES=HP
##CAS NAME=Propanedioic acid, oxo-, diethyl ester
##MOLFORM=C7H10O5
##CAS REGISTRY NO=609-09-6
##MP= -300
##BP= -300
##MW= 174
##$RETENTION INDEX=0
##$CONDENSED SPECTRUM=NO
##NPOINTS= 35
##XYDATA=(XY..XY) 1 
    14          1
    15          8
    18          3
    19          1
    26         12
    27        146
    28         72
    29        999
    30         42
    31         92
    32          1
    41          8
    42          5
    43         36
    44         16
    45         93
    46         11
    47         17
    55          1
    56         14
    57         26
    58          2
    59         17
    73         35
    74        149
    75         17
    76          3
    91          2
   102         49
   103          6
   104          2
   119          6
   147          4
   174          3
   175          4