##TITLE=Library Entry 68709
##JCAMP-DX=Revision 4.10 
##DATA TYPE=MASS SPECTRUM
##SAMPLE DESCRIPTION=Japan AIST/NIMC Database- Spectrum MS-NW-9926
##NAMES=HP
##CAS NAME=3-Pyridinecarboxylic acid, 1,2-dihydro-2-oxo-
##MOLFORM=C6H5NO3
##CAS REGISTRY NO=609-71-2
##MP= -300
##BP= -300
##MW= 139
##$RETENTION INDEX=0
##$CONDENSED SPECTRUM=NO
##NPOINTS= 83
##XYDATA=(XY..XY) 1 
    12          1
    14          2
    15          2
    16          2
    17          2
    18          7
    24          1
    25          5
    26         16
    27         22
    28         16
    29          9
    36          9
    37         81
    38        163
    39        376
    40        113
    41        102
    42         22
    43         11
    44         43
    45         33
    46          4
    47         10
    48          2
    49         14
    50         48
    51         41
    52         26
    53         60
    54         14
    55         35
    56          6
    57          8
    60          8
    61         22
    62          4
    63          9
    64         30
    65        125
    66        212
    67        263
    68         27
    69         11
    70          3
    71          5
    74          1
    75          4
    76          9
    77         30
    78          6
    79          2
    80          1
    81          3
    82          6
    83          9
    84          8
    85          3
    86          1
    91          1
    92          7
    93        303
    94        270
    95        999
    96         60
    97          6
    98          1
    99          1
   109          1
   110          1
   111          3
   112          1
   113          2
   115          2
   120         14
   121         65
   122        101
   123          8
   125          1
   129          1
   139        460
   140         59
   141          2