##TITLE=Library Entry 77788
##JCAMP-DX=Revision 4.10 
##DATA TYPE=MASS SPECTRUM
##SAMPLE DESCRIPTION=Japan AIST/NIMC Database- Spectrum MS-NW-4615
##NAMES=HP
##CAS NAME=Benzenesulfonic acid, 2,5-dimethyl-
##MOLFORM=C8H10O3S
##CAS REGISTRY NO=609-54-1
##MP= -300
##BP= -300
##MW= 186
##$RETENTION INDEX=0
##$CONDENSED SPECTRUM=NO
##NPOINTS= 91
##XYDATA=(XY..XY) 1 
    15          2
    17          9
    18         50
    26          3
    27         41
    28         11
    29          2
    32          1
    36          2
    37          3
    38          8
    39         60
    40          6
    41         10
    42          2
    43          5
    44          4
    45          6
    48          5
    49          2
    50         25
    51         75
    52         22
    53         31
    54          2
    55          2
    57          1
    58          1
    59          1
    61          4
    62         11
    63         37
    64          9
    65         32
    66          5
    67          1
    69          2
    73          1
    74          9
    75          8
    76          9
    77        173
    78        187
    79         89
    80          5
    81          3
    82          2
    84          1
    85          1
    86          2
    87          3
    89         15
    90          4
    91         32
    92          7
    93          5
    94          1
    97          1
    98          1
   101          2
   102         17
   103        213
   104        999
   105        268
   106         23
   107         11
   108          1
   109          1
   119          2
   120         11
   121         15
   122          8
   123          3
   124          1
   125          1
   135          1
   137          1
   138          1
   139          1
   151          7
   152          1
   153          1
   168          4
   169          2
   171          4
   184          1
   185          2
   186        339
   187         33
   188         17
   189          1