##TITLE=Library Entry 5585
##JCAMP-DX=Revision 4.10 
##DATA TYPE=MASS SPECTRUM
##SAMPLE DESCRIPTION=Japan AIST/NIMC Database- Spectrum MS-NW-5832
##NAMES=HP
##CAS NAME=Butanoic acid, 2-chloro-3-oxo-, ethyl ester
##MOLFORM=C6H9ClO3
##CAS REGISTRY NO=609-15-4
##MP= -300
##BP= -300
##MW= 164
##$RETENTION INDEX=0
##$CONDENSED SPECTRUM=NO
##NPOINTS= 95
##XYDATA=(XY..XY) 1 
    13          2
    14          8
    15         46
    16          1
    18          2
    25          3
    26         16
    27         86
    28         13
    29        163
    30          4
    31         21
    32          1
    35          2
    36          8
    37          3
    38          4
    39          7
    40          1
    41          9
    42         27
    43        999
    44         25
    45         26
    46          3
    47          2
    48          7
    49          8
    50          3
    51          2
    53          3
    54          1
    55          9
    56          3
    57          5
    58          2
    59          1
    60          1
    61          5
    62          9
    63          4
    64          4
    65          3
    67          2
    68          1
    69         16
    70          2
    71          1
    73         12
    74          3
    75          1
    76         56
    77          5
    78         17
    79          2
    83          1
    84          6
    85          9
    86          3
    87          4
    88          2
    89          2
    90          2
    91          2
    92         18
    93          2
    94        141
    95          5
    96         45
    97          2
   101          1
   102          1
   103          2
   105          2
   110          1
   115          1
   116          1
   118         42
   119         30
   120         15
   121         13
   122        130
   123          7
   124         41
   125          3
   128          4
   129          1
   130          2
   136         16
   137          2
   138          6
   149          1
   164         17
   165          2
   166          7