##TITLE=Library Entry 78843
##JCAMP-DX=Revision 4.10 
##DATA TYPE=MASS SPECTRUM
##SAMPLE DESCRIPTION=Japan AIST/NIMC Database- Spectrum MS-IW-5158
##NAMES=HP
##CAS NAME=n(sup1),n(sup4)-dibenzoylpiperazine
##MOLFORM=C18H18N2O2
##CAS REGISTRY NO=6091-41-4
##MP= -300
##BP= -300
##MW= 294
##$RETENTION INDEX=0
##$CONDENSED SPECTRUM=NO
##NPOINTS= 78
##XYDATA=(XY..XY) 1 
    27          3
    28          9
    29          2
    30          1
    39          2
    41          3
    42          9
    43          2
    44          1
    50          8
    51         39
    52          3
    54          3
    55         10
    56         22
    57          4
    65          1
    68          5
    69        135
    70          7
    71          1
    74          1
    75          3
    76         10
    77        281
    78         20
    79          1
    81          1
    83          3
    85          1
    91          5
    92          3
    93          1
    97          1
   102          1
   103          6
   104          9
   105        999
   106         79
   107          5
   108          1
   117          3
   118          2
   119          2
   120          4
   132          3
   133          2
   134         28
   135          3
   145          6
   146          9
   147         14
   148         32
   149          4
   159          1
   160         28
   161         14
   162          2
   171          5
   172          6
   173         70
   174          9
   175         22
   176          2
   189         58
   190          7
   226         86
   227         13
   228          1
   238          5
   239          1
   251          1
   266          2
   279          1
   293          7
   294         56
   295         10
   296          1