##TITLE=Library Entry 41637
##JCAMP-DX=Revision 4.10 
##DATA TYPE=MASS SPECTRUM
##SAMPLE DESCRIPTION=V.Zaikin,Topchiev Inst.Petrochem.Synth.,Moscow
##NAMES=HP
##CAS NAME=2,3-Dimethoxy-2,3-dimethylbutane
##MOLFORM=C8H18O2
##CAS REGISTRY NO=6091-59-4
##MP= -300
##BP= -300
##MW= 146
##$RETENTION INDEX=0
##$CONDENSED SPECTRUM=NO
##NPOINTS= 53
##XYDATA=(XY..XY) 1 
    26          3
    27         15
    28          3
    29         19
    30          3
    31         10
    33          5
    36          1
    38          2
    39         29
    40          8
    41         87
    42         22
    43        109
    44          5
    45         29
    47          4
    50          1
    51          2
    52          1
    53          9
    54          2
    55         74
    56          6
    57         16
    58         10
    59         17
    65          4
    66          1
    67        117
    68          7
    69         30
    70          2
    71          1
    72         21
    73        999
    74         87
    75         13
    79          1
    81          2
    82          2
    83        120
    84         14
    85         17
    86          1
    99        109
   100         13
   101         13
   114          2
   115        100
   116         10
   131         68
   132          5