##TITLE=Library Entry 19107
##JCAMP-DX=Revision 4.10 
##DATA TYPE=MASS SPECTRUM
##SAMPLE DESCRIPTION=Chemical Concepts
##NAMES=HP
##CAS NAME=4,8-Dioxaspiro[2.5]oct-1-ene, 6,6-dimethyl-
##MOLFORM=C8H12O2
##CAS REGISTRY NO=60935-22-0
##MP= -300
##BP= -300
##MW= 140
##$RETENTION INDEX=0
##$CONDENSED SPECTRUM=NO
##NPOINTS= 71
##XYDATA=(XY..XY) 1 
    25          9
    26        129
    27        169
    29        179
    30         15
    31         18
    33          0
    36          1
    37         14
    38         37
    39        205
    40         37
    41        465
    42         76
    43         59
    44          5
    45         38
    46          0
    50          7
    51         15
    52          6
    53        107
    54        420
    55        999
    56        261
    57        111
    58         17
    59          3
    63          2
    64          1
    65          9
    66          3
    67         52
    68         47
    69        237
    70         33
    71         36
    72          9
    73          7
    74          4
    77          5
    78          1
    79         29
    80          5
    81         11
    82          6
    83         13
    84        135
    85         21
    86          5
    87          5
    91          2
    92          2
    93          6
    94          4
    95         31
    96          4
    97         12
    98          3
   105          2
   106          1
   107          3
   109          2
   110          4
   111         32
   112          4
   124          1
   125          7
   126          1
   140         10
   141          2