##TITLE=Library Entry 65096
##JCAMP-DX=Revision 4.10 
##DATA TYPE=MASS SPECTRUM
##SAMPLE DESCRIPTION=NIST Mass Spectrometry Data Center, 1994
##NAMES=HP
##CAS NAME=(R)-(-)-S-Methyl-S-phenylsulfoximine
##MOLFORM=C7H9NOS
##CAS REGISTRY NO=60933-65-5
##MP= -300
##BP= -300
##MW= 155
##$RETENTION INDEX=0
##$CONDENSED SPECTRUM=NO
##NPOINTS= 91
##XYDATA=(XY..XY) 1 
    13          3
    14         19
    15        123
    16          5
    17          4
    18          5
    26         11
    27         41
    28         49
    29          5
    30         52
    32          5
    33          5
    34          5
    37         16
    38         38
    39        137
    40         10
    41          5
    44          4
    45         69
    46         44
    47         38
    48         25
    49         25
    50        273
    51        651
    52         48
    53         39
    54          5
    55          2
    57          7
    58          8
    60         23
    61         10
    62         47
    63         68
    64         41
    65        301
    66         44
    67          5
    68          6
    69         38
    70          9
    71          7
    72          2
    73         15
    74         71
    75         47
    76          2
    77        960
    78        117
    79         12
    80         29
    81         17
    82         12
    83          3
    84          5
    85         19
    86          5
    89          3
    91        142
    92        999
    93         80
    94        146
    95         17
    96          8
    97         99
    98         17
    99          5
   106          3
   107          3
   108         10
   109         21
   110          5
   111          4
   112         33
   113          7
   122          4
   123          8
   124         18
   125         64
   126          5
   127          2
   138          2
   140        530
   141         41
   142         26
   155         52
   156          6
   157          3