##TITLE=Library Entry 22034
##JCAMP-DX=Revision 4.10 
##DATA TYPE=MASS SPECTRUM
##SAMPLE DESCRIPTION=Japan AIST/NIMC Database- Spectrum MS-NW-4834
##NAMES=HP
##CAS NAME=1-Hexene, 2-methyl-
##MOLFORM=C7H14
##CAS REGISTRY NO=6094-02-6
##MP= -300
##BP= -300
##MW= 98
##$RETENTION INDEX=678
##$CONDENSED SPECTRUM=NO
##NPOINTS= 39
##XYDATA=(XY..XY) 1 
    15          7
    26          6
    27        116
    28         24
    29         88
    30          2
    37          2
    38          7
    39        104
    40         28
    41        465
    42         55
    43        114
    44          4
    50          6
    51          8
    52          4
    53         31
    54         15
    55        176
    56        999
    57        104
    58          4
    62          1
    63          2
    65          3
    66          1
    67         14
    68          6
    69         98
    70        123
    71          9
    77          2
    79          3
    81          4
    83         10
    84          2
    98         30
    99          3