##TITLE=Library Entry 29388
##JCAMP-DX=Revision 4.10 
##DATA TYPE=MASS SPECTRUM
##SAMPLE DESCRIPTION=V.A. KOPTYUG, ATLAS OF MS OF ORG. CMPDS.,VOL3
##NAMES=HP
##CAS NAME=3-(1,3,6-Trimethyl-3-piperiden-4-yl)-2-(2-methyl-2-aminopropyl)in
dole
##MOLFORM=C20H29N3
##CAS REGISTRY NO=60948-14-3
##MP= -300
##BP= -300
##MW= 311
##$RETENTION INDEX=0
##$CONDENSED SPECTRUM=NO
##NPOINTS= 18
##XYDATA=(XY..XY) 1 
    58        999
    77         21
   115         13
   128         10
   130         22
   167         22
   180         32
   181         26
   182         31
   196         23
   197        207
   198         28
   211         27
   239        102
   240         21
   254        345
   255         65
   311         51