##TITLE=Library Entry 17656
##JCAMP-DX=Revision 4.10 
##DATA TYPE=MASS SPECTRUM
##SAMPLE DESCRIPTION=Chemical Concepts
##NAMES=HP
##CAS NAME=Uridine, 2'-deoxy-3-methyl-3',5'-di-O-methyl-
##MOLFORM=C12H18N2O5
##CAS REGISTRY NO=60951-08-8
##MP= -300
##BP= -300
##MW= 270
##$RETENTION INDEX=0
##$CONDENSED SPECTRUM=NO
##NPOINTS= 149
##XYDATA=(XY..XY) 1 
    26         11
    27         13
    28         30
    29          2
    30          3
    31         25
    32          5
    33         54
    36          1
    37          0
    38          1
    39         14
    40         14
    41         76
    42         26
    43         32
    44          3
    45        999
    46         17
    47          0
    50          0
    51          2
    52          3
    53         38
    54         36
    55         48
    56         12
    57         13
    58         42
    59        651
    60         22
    61          1
    67          8
    68         24
    69         54
    70         15
    71        299
    72         22
    73         47
    74          2
    75         12
    76          0
    77          0
    80          1
    81        105
    82         29
    83         10
    84         15
    85         69
    86          4
    87        476
    88         26
    89          5
    92          0
    93          0
    95          9
    96         32
    97         10
    98         11
    99         50
   100          6
   101         94
   102          6
   103         11
   104          0
   105          0
   106          0
   107          0
   108         16
   109          6
   110          4
   111         38
   112         56
   113        407
   114         26
   115          6
   116          0
   117          0
   118          0
   120          0
   121          0
   122          3
   123          0
   124          7
   125          2
   126         40
   127         47
   128          4
   129          2
   131          0
   135          0
   136         17
   137          2
   138          6
   139          2
   140          2
   141          1
   142          0
   143          3
   144         12
   145        763
   146         61
   147          6
   148          1
   149          1
   150          2
   151          2
   152          1
   153          3
   154          0
   155          2
   164          0
   165          4
   166          0
   167          5
   168          1
   169          1
   178          0
   179          0
   181          2
   182          0
   183          0
   193          5
   194          0
   195          1
   196          6
   197          0
   205          0
   206         13
   207          6
   208          1
   209          0
   210          1
   211          1
   212          1
   213          0
   214          0
   220          1
   225          3
   226          0
   236          0
   237          0
   238         15
   239          7
   240          3
   241          0
   255          1
   270         31
   271          4