##TITLE=Library Entry 40757
##JCAMP-DX=Revision 4.10 
##DATA TYPE=MASS SPECTRUM
##SAMPLE DESCRIPTION=H. Zissis, LC, NIDDK, NIH, Bethesda, MD 20892
##NAMES=HP
##CAS NAME=1-Deoxy-d-mannitol
##MOLFORM=C6H14O5
##CAS REGISTRY NO=60965-81-3
##MP= -300
##BP= -300
##MW= 166
##$RETENTION INDEX=0
##$CONDENSED SPECTRUM=NO
##NPOINTS= 105
##XYDATA=(XY..XY) 1 
    41         30
    42        249
    43        462
    44        262
    45        537
    46         26
    47         27
    48          2
    49         47
    50         17
    51         38
    52         16
    53         28
    54         15
    55        139
    56        225
    57        404
    58        360
    59        133
    60        217
    61        458
    62         23
    63         17
    64          4
    65         14
    66          6
    67         13
    68         11
    69         61
    70        103
    71        111
    72         29
    73        999
    74        327
    75         97
    76         13
    77         49
    78        155
    79         18
    80          3
    81         10
    82          9
    83         21
    84         15
    85         50
    86         45
    87        104
    88         85
    89         43
    90          5
    91         44
    92          4
    93          5
    94          4
    95         14
    96          5
    97         15
    98          6
    99         21
   100          2
   101          6
   102          7
   103        127
   104         53
   105         54
   106         70
   107         16
   108          3
   109          4
   110          3
   111          8
   112          3
   113          8
   115          6
   116          1
   117        119
   118          9
   119          2
   120          1
   121          9
   122          3
   123          4
   126          1
   127          3
   129          4
   130          1
   131         15
   132          1
   133          5
   135          2
   137          1
   138          1
   139          2
   141          1
   142          1
   147          1
   148          1
   149          9
   151          1
   154          1
   155          1
   163          1
   165          1
   166         12
   167          2