##TITLE=Library Entry 54042
##JCAMP-DX=Revision 4.10 
##DATA TYPE=MASS SPECTRUM
##SAMPLE DESCRIPTION=Japan AIST/NIMC Database- Spectrum MS-IW-5506
##NAMES=HP
##CAS NAME=1-Piperidinesulfonic acid
##MOLFORM=C5H11NO3S
##CAS REGISTRY NO=6098-34-6
##MP= -300
##BP= -300
##MW= 165
##$RETENTION INDEX=0
##$CONDENSED SPECTRUM=NO
##NPOINTS= 77
##XYDATA=(XY..XY) 1 
    14          1
    15         16
    16          2
    24          1
    25          1
    26         21
    27         96
    28        255
    29        203
    30        187
    31          4
    32         11
    33          1
    34          4
    35          7
    37          4
    38          9
    39         86
    40         19
    41        151
    42        216
    43        177
    44        249
    45          7
    48        107
    49          3
    50         19
    51         31
    52         58
    53         37
    54         62
    55        217
    56        351
    57        282
    58         11
    63          1
    64        245
    65          8
    66         11
    67         36
    68        123
    69         13
    70        100
    71          6
    75          1
    76          1
    77          1
    78         11
    79         69
    80        155
    81          8
    82         62
    83         98
    84        999
    85        592
    86         36
    93          2
    97          1
   109          1
   110         37
   111          1
   112          2
   113          1
   120          2
   121          3
   123          8
   124         15
   126          1
   136          3
   137          1
   148         11
   149          2
   150          1
   164         21
   165         46
   166         10
   167          3