##TITLE=Library Entry 37144
##JCAMP-DX=Revision 4.10 
##DATA TYPE=MASS SPECTRUM
##SAMPLE DESCRIPTION=B. Derendyaev, Novosibirsk Institute of Organic Chemist
ry
##NAMES=HP
##CAS NAME=(3-Aminopropyl)dipropylborane
##MOLFORM=C9H22BN
##CAS REGISTRY NO=60993-56-8
##MP= -300
##BP= -300
##MW= 155
##$RETENTION INDEX=0
##$CONDENSED SPECTRUM=NO
##NPOINTS= 22
##XYDATA=(XY..XY) 1 
    29        109
    30         59
    31         59
    39        119
    41        379
    42        459
    43        369
    45         59
    53         59
    54         69
    55        109
    56         89
    57        129
    58         89
    60         59
    68         79
    69        299
    70        999
    71          9
    83         69
   111        129
   112        419