##TITLE=Library Entry 81488
##JCAMP-DX=Revision 4.10 
##DATA TYPE=MASS SPECTRUM
##SAMPLE DESCRIPTION=A.Pleshkova, Nesmeyanov Inst.Org.Elem.Cpds, Moscow
##NAMES=HP
##CAS NAME=N-Methoxy-aziridine-2-carboxamide, N-(1-phenylethyl)
##MOLFORM=C12H16N2O2
##CAS REGISTRY NO=60999-70-4
##MP= -300
##BP= -300
##MW= 220
##$RETENTION INDEX=0
##$CONDENSED SPECTRUM=NO
##NPOINTS= 43
##XYDATA=(XY..XY) 1 
    27         96
    28         69
    29         28
    30         48
    31          9
    40         34
    41         82
    42        124
    43         28
    51         69
    52         21
    55        214
    56          2
    77        214
    78         55
    79        138
    80         21
    81          7
    99         48
   100         12
   103         90
   104        145
   105        999
   106        352
   107         34
   118         76
   119         28
   120        649
   121         82
   122         21
   146         82
   147         21
   160         55
   161         12
   174        758
   175        117
   176         21
   189         62
   190         10
   205         34
   206          8
   220         14
   221          2