##TITLE=Library Entry 28702
##JCAMP-DX=Revision 4.10 
##DATA TYPE=MASS SPECTRUM
##SAMPLE DESCRIPTION=MI-0126
##NAMES=HP
##CAS NAME=Methoxypromazine
##MOLFORM=C18H22N2OS
##CAS REGISTRY NO=61-01-8
##MP= -300
##BP= -300
##MW= 314
##$RETENTION INDEX=2542
##$CONDENSED SPECTRUM=NO
##NPOINTS= 224
##XYDATA=(XY..XY) 1 
    26          8
    27         20
    28         61
    29         19
    30         67
    31          1
    32         11
    34          5
    36          5
    37          1
    38          3
    39         21
    40          6
    41         28
    42         93
    43         36
    44         52
    45         17
    47          1
    50          7
    51         14
    52          5
    53          2
    54          3
    55         13
    56         27
    57         27
    58        999
    59         45
    60          1
    62          3
    63         17
    64          5
    65         13
    66          3
    67          3
    68          5
    69         16
    70         45
    71         20
    72         28
    73          3
    74          3
    75          9
    76          8
    77         20
    78          7
    79          5
    80          1
    81          1
    82          9
    83          3
    84         40
    85         74
    86        380
    87         23
    88          2
    89          6
    90          3
    91          8
    92          3
    93          5
    94          3
    95          9
    96          7
    97          3
    98          1
   100         18
   101          3
   102          5
   103          5
   104          4
   105          3
   106          1
   107          2
   108          9
   109         11
   110          1
   111          3
   112          3
   113          5
   114          4
   115         13
   116          4
   117          1
   118          2
   119          1
   120          3
   121          3
   122          4
   123          4
   124          2
   125          3
   126          9
   127         11
   128         10
   129          3
   130          3
   132          1
   133          2
   134          4
   135          4
   136          4
   138          1
   139         10
   140         19
   141         23
   142          3
   145          3
   146          4
   147          3
   148          5
   149          7
   151          4
   152          9
   153         15
   154         17
   155          3
   156          1
   157          8
   158          9
   159          9
   160          5
   164          3
   165          4
   166         15
   167         39
   168         16
   169         13
   170          3
   171         14
   172          4
   173          4
   177          1
   178          6
   179          6
   180         13
   181          4
   182          5
   183          5
   184         18
   185        112
   186         45
   187         12
   188          3
   189          1
   190          1
   191          4
   192          4
   193          6
   194          7
   195          9
   196         10
   197          9
   198         24
   199         21
   200         13
   201          3
   202          3
   203          3
   204          3
   205          5
   206          7
   207          7
   208          8
   209          9
   210         39
   211         12
   212         19
   213         11
   214         25
   215          6
   216          2
   217          1
   218          3
   219          3
   220          2
   221          4
   222          4
   223         11
   224          9
   225          7
   226         15
   227         19
   228        101
   229        161
   230         29
   231         11
   232          1
   235          1
   236          8
   237          8
   238          8
   239          7
   240         11
   241          8
   242         31
   243         39
   244          9
   245          3
   246          3
   247         14
   248          3
   249         12
   250          1
   252          1
   253          5
   254         37
   255         22
   256         18
   257          8
   258          1
   260          7
   261          4
   262          1
   267          1
   268         71
   269         48
   270         12
   271          4
   314        307
   315         67
   316         23
   317          4