##TITLE=Library Entry 56711
##JCAMP-DX=Revision 4.10 
##DATA TYPE=MASS SPECTRUM
##SAMPLE DESCRIPTION=AAFS Toxicology Section MS DB Committee, U. Alberta, Ca
nada
##NAMES=HP
##CAS NAME=Indole, 3-(2-(diethylamino)ethyl)-
##MOLFORM=C14H20N2
##CAS REGISTRY NO=61-51-8
##MP= -300
##BP= -300
##MW= 216
##$RETENTION INDEX=1913
##$CONDENSED SPECTRUM=NO
##NPOINTS= 88
##XYDATA=(XY..XY) 1 
    40          1
    41          7
    42         28
    43         13
    44          2
    45          1
    50          5
    51         10
    52          4
    53          1
    54          3
    55          3
    56         23
    57          8
    58         66
    59          2
    60          1
    61          1
    62          2
    63         10
    64          2
    65          5
    66          1
    67          1
    68          1
    69          2
    70          6
    71          9
    72          4
    73          1
    74          4
    75          9
    76         16
    77         61
    78          8
    79          1
    81          1
    83          1
    84          3
    86        999
    87         62
    88          4
    89         16
    90          9
    91          8
    92          1
    93          1
    96          1
    98          1
    99          1
   100          2
   101          8
   102         30
   103         44
   104         10
   105          1
   106          1
   107          1
   113          3
   114          3
   115         45
   116         13
   117         16
   118          3
   126          1
   127          4
   128         22
   129         13
   130        141
   131         17
   132          1
   140          3
   141          3
   142         11
   143         30
   144         41
   145          4
   154          1
   155          2
   156          1
   171          1
   172          6
   173          1
   213          1
   214          1
   216         43
   217          8
   218          1