##TITLE=Library Entry 29025
##JCAMP-DX=Revision 4.10 
##DATA TYPE=MASS SPECTRUM
##SAMPLE DESCRIPTION=NIST Mass Spectrometry Data Center
##NAMES=HP
##CAS NAME=N,N-Dimethyltryptamine
##MOLFORM=C12H16N2
##CAS REGISTRY NO=61-50-7
##MP= -300
##BP= -300
##MW= 188
##$RETENTION INDEX=1767
##$CONDENSED SPECTRUM=NO
##NPOINTS= 80
##XYDATA=(XY..XY) 1 
    15          2
    27          2
    28          4
    29          4
    30         18
    38          1
    39          6
    40          1
    41          3
    42         41
    43         10
    44          3
    50          5
    51         12
    52          5
    53          1
    54          1
    55          1
    56          6
    57         16
    58        999
    59         40
    60          1
    61          1
    62          4
    63         12
    64          3
    65          5
    66          1
    70          1
    71          1
    74          4
    75          7
    76          9
    77         40
    78          5
    79          1
    85          1
    86          1
    87          2
    88          3
    89         13
    90          6
    91          5
    92          1
    99          1
   100          1
   101          5
   102         19
   103         24
   104          4
   113          3
   114          4
   115         33
   116          9
   117         11
   118          2
   127          3
   128         13
   129          9
   130         67
   131          7
   140          2
   141          2
   142          8
   143         20
   144         19
   145          2
   154          1
   155          2
   156          1
   157          2
   169          1
   171          1
   172          1
   185          1
   186          1
   187          1
   188         39
   189          6