##TITLE=Library Entry 53459
##JCAMP-DX=Revision 4.10 
##DATA TYPE=MASS SPECTRUM
##SAMPLE DESCRIPTION=NIST Mass Spectrometry Data Center, 1998.
##NAMES=HP
##CAS NAME=3-Amino-s-triazole
##MOLFORM=C2H4N4
##CAS REGISTRY NO=61-82-5
##MP= -300
##BP= -300
##MW= 84
##$RETENTION INDEX=1312
##$CONDENSED SPECTRUM=NO
##NPOINTS= 24
##XYDATA=(XY..XY) 1 
    13          3
    16          1
    17          4
    26          7
    27         65
    28        350
    29         83
    30         21
    31          2
    38          4
    39          2
    40          6
    41         41
    42        144
    43        160
    52          4
    53         34
    54         26
    55         10
    56         22
    57        336
    58          7
    84        999
    85         32