##TITLE=Library Entry 55839
##JCAMP-DX=Revision 4.10 
##DATA TYPE=MASS SPECTRUM
##SAMPLE DESCRIPTION=Japan AIST/NIMC Database- Spectrum MS-NW- 347
##NAMES=HP
##CAS NAME=Leucine
##MOLFORM=C6H13NO2
##CAS REGISTRY NO=61-90-5
##MP= -300
##BP= -300
##MW= 131
##$RETENTION INDEX=0
##$CONDENSED SPECTRUM=NO
##NPOINTS= 65
##XYDATA=(XY..XY) 1 
    14          1
    15         16
    17          2
    18         20
    19          1
    26          5
    27         81
    28        152
    29         56
    30        431
    31          6
    33          1
    34          2
    35          2
    37          2
    38          6
    39         62
    40          9
    41        143
    42         86
    43        222
    44        607
    45         17
    46         31
    50          3
    51          5
    52          2
    53          9
    54          8
    55          9
    56         15
    57         49
    58          2
    59          6
    60          1
    65          1
    66          1
    67          5
    68          7
    69         18
    70         33
    71          8
    72          2
    73          9
    74        311
    75         53
    76          3
    81          4
    82          2
    83          1
    84         25
    85          3
    86        999
    87         58
    88          7
    89          3
    94          1
    95          2
    96          2
    98          4
    99          6
   113          3
   114          6
   116          2
   131          2