##TITLE=Library Entry 1401
##JCAMP-DX=Revision 4.10 
##DATA TYPE=MASS SPECTRUM
##SAMPLE DESCRIPTION=NIST Mass Spectrometry Data Center, 1990.
##NAMES=HP
##CAS NAME=Benzene, 4-methyl-1,2-dinitro-
##MOLFORM=C7H6N2O4
##CAS REGISTRY NO=610-39-9
##MP= -300
##BP= -300
##MW= 182
##$RETENTION INDEX=1574
##$CONDENSED SPECTRUM=NO
##NPOINTS= 80
##XYDATA=(XY..XY) 1 
    15          8
    16          7
    17          4
    18          4
    26         25
    27         99
    28         36
    29          4
    30        999
    31         13
    32          5
    37         48
    38         97
    39        403
    40         83
    41         33
    42          7
    43         22
    44          8
    45          5
    46         43
    48          3
    49         15
    50        185
    51        296
    52        341
    53        184
    54         24
    55         15
    56          4
    60          5
    61         54
    62        167
    63        455
    64        204
    65        305
    66        280
    67         30
    68         13
    73          9
    74         51
    75         47
    76         66
    77        266
    78        354
    79         40
    80         10
    82          4
    85         17
    86         32
    87         37
    88          4
    89        362
    90         73
    91         73
    92         14
    93          4
    94        279
    95         22
    96          5
   102         10
   103          8
   104         17
   105         85
   106         34
   107          7
   108         47
   116          4
   117          5
   118         23
   133          4
   134         42
   135          4
   136         12
   152         28
   153          3
   166         14
   182        646
   183         56
   184         10