##TITLE=Library Entry 12233
##JCAMP-DX=Revision 4.10 
##DATA TYPE=MASS SPECTRUM
##SAMPLE DESCRIPTION=NIST Mass Spectrometry Data Center
##NAMES=HP
##CAS NAME=2-Nitrophenyl acetate
##MOLFORM=C8H7NO4
##CAS REGISTRY NO=610-69-5
##MP= -300
##BP= -300
##MW= 181
##$RETENTION INDEX=0
##$CONDENSED SPECTRUM=NO
##NPOINTS= 57
##XYDATA=(XY..XY) 1 
    12          1
    13          3
    14         15
    15         76
    16          1
    18          2
    26          5
    28          6
    30         69
    37         16
    38         57
    39         61
    40          4
    43        999
    44         20
    46          1
    49          3
    50         32
    51         36
    52         29
    53         30
    54          3
    55          1
    61          9
    62         30
    63        128
    64         65
    65         60
    66          7
    67          2
    68          1
    75          5
    76          8
    77          5
    78         14
    79          3
    81         50
    82          3
    92         15
    93         19
    94          9
    95          3
   104          1
   106         18
   107          1
   109         49
   110          3
   122         11
   123         17
   124          1
   133          2
   135          1
   139        394
   140         29
   141          2
   181         21
   182          2