##TITLE=Library Entry 1412
##JCAMP-DX=Revision 4.10 
##DATA TYPE=MASS SPECTRUM
##SAMPLE DESCRIPTION=T.A.BLAZER DU PONT, GIBBSTOWN, N.J., USA
##NAMES=HP
##CAS NAME=Benzene, 1-methyl-2,4,5-trinitro-
##MOLFORM=C7H5N3O6
##CAS REGISTRY NO=610-25-3
##MP= -300
##BP= -300
##MW= 227
##$RETENTION INDEX=0
##$CONDENSED SPECTRUM=NO
##NPOINTS= 79
##XYDATA=(XY..XY) 1 
    14         70
    16         41
    26         10
    27         38
    28        144
    29         17
    30        999
    31          8
    35          5
    37         14
    38         21
    39        112
    40         10
    41          9
    42          5
    43         17
    44         63
    45          5
    46         19
    47          6
    49          7
    50         67
    51        154
    52         62
    53         54
    54          7
    55         15
    56          5
    61         16
    62         63
    63        124
    64         23
    65         22
    66         12
    67          8
    68          7
    69          9
    74         18
    75         18
    76         46
    77         47
    78         35
    79          9
    80          7
    82         10
    83         13
    84          8
    85         15
    86         33
    87         43
    88         19
    89         26
    90         17
    91         12
    92         10
    93         23
    94         11
   103          6
   104         11
   105         22
   106         17
   107         20
   117         30
   118         47
   119         33
   121         14
   122          6
   133          6
   134         18
   135         18
   164         17
   165          7
   180          7
   181         68
   182          9
   198         24
   210        357
   211         34
   227         55