##TITLE=Library Entry 1178
##JCAMP-DX=Revision 4.10 
##DATA TYPE=MASS SPECTRUM
##SAMPLE DESCRIPTION=Japan AIST/NIMC Database- Spectrum MS-NW- 486
##NAMES=HP
##CAS NAME=Benzoic acid, 2,5-dinitro-
##MOLFORM=C7H4N2O6
##CAS REGISTRY NO=610-28-6
##MP= -300
##BP= -300
##MW= 212
##$RETENTION INDEX=0
##$CONDENSED SPECTRUM=NO
##NPOINTS= 125
##XYDATA=(XY..XY) 1 
    12          2
    15          2
    16          5
    17          2
    18          7
    26          9
    27         15
    28         14
    29         13
    30        999
    31          4
    36         14
    37         31
    38         50
    39         38
    40          5
    41          9
    42          6
    43          9
    44         92
    45         40
    46         24
    47          1
    48          2
    49         11
    50        181
    51         40
    52         45
    53        122
    54         11
    55         15
    56          4
    57         14
    60          7
    61         27
    62         71
    63        182
    64        147
    65         18
    66         19
    67          6
    68          9
    69          8
    70          3
    71          6
    72          3
    73         35
    74        208
    75        394
    76        143
    77         33
    78          9
    79         21
    80         21
    81          5
    82          6
    83          5
    84          2
    85          4
    86          3
    87          7
    88          6
    89          4
    90         27
    91         77
    92        316
    93         29
    94          6
    95          4
    96          6
    97          5
    98          3
    99          3
   101          3
   102          4
   103         17
   104         12
   105          6
   106          9
   107          4
   108         26
   109          3
   111          3
   112          2
   118          9
   119         13
   120        215
   121         22
   122        106
   123          9
   124          2
   127          5
   129          2
   132          2
   134          7
   135          2
   136          4
   137          2
   138          4
   139          2
   148         59
   149         10
   150          2
   151          2
   152          6
   153          2
   154          2
   155          2
   164         17
   165          5
   166         10
   167          4
   168        348
   169         28
   170          4
   180          3
   182         25
   183          3
   184          2
   195         12
   196         11
   197          1
   212        215
   213         20
   214          4