##TITLE=Library Entry 58615
##JCAMP-DX=Revision 4.10 
##DATA TYPE=MASS SPECTRUM
##SAMPLE DESCRIPTION=Japan AIST/NIMC Database- Spectrum MS-NW-8747
##NAMES=HP
##CAS NAME=Benzeneacetonitrile, 2-nitro-
##MOLFORM=C8H6N2O2
##CAS REGISTRY NO=610-66-2
##MP= -300
##BP= -300
##MW= 162
##$RETENTION INDEX=0
##$CONDENSED SPECTRUM=NO
##NPOINTS= 96
##XYDATA=(XY..XY) 1 
    26          9
    27         24
    28         48
    29          4
    30         50
    36          2
    37         31
    38         64
    39        237
    40         20
    41         32
    42          2
    43          6
    44          3
    45          3
    46          4
    49         10
    50        149
    51        144
    52         92
    53          9
    54         26
    55          2
    56          1
    57          3
    58         10
    60          4
    61         43
    62        134
    63        363
    64        178
    65        137
    66         23
    67          6
    68          2
    70          1
    72          1
    73          8
    74         54
    75         64
    76         83
    77        259
    78         68
    79        316
    80         22
    81          2
    84          2
    85          9
    86         18
    87         45
    88        152
    89        999
    90        374
    91        368
    92        234
    93         31
    94          2
    98          2
    99          3
   100          3
   101          2
   102         15
   103         15
   104         69
   105         75
   106         13
   107         16
   108          3
   111          3
   112          3
   113          3
   114        122
   115        216
   116        430
   117        234
   118        117
   119         49
   120         32
   121          4
   129          1
   130          1
   131          5
   132         17
   133          5
   134          5
   135        974
   136         79
   137          7
   144          1
   145        118
   146         15
   147          1
   161          1
   162         93
   163         15
   164          1