##TITLE=Library Entry 46751
##JCAMP-DX=Revision 4.10 
##DATA TYPE=MASS SPECTRUM
##SAMPLE DESCRIPTION=Exported from NIST MS Search
##NAMES=HP
##CAS NAME=Benzaldehyde, 2-nitro-, phenylhydrazone
##MOLFORM=C13H11N3O2
##CAS REGISTRY NO=610-64-0
##MP= -300
##BP= -300
##MW= 241
##$RETENTION INDEX=0
##$CONDENSED SPECTRUM=NO
##NPOINTS= 10
##XYDATA=(XY..XY) 1 
    65        390
    66         40
    77        999
    78         80
    92        240
    93         20
   105        350
   106         40
   241        140
   242         20