##TITLE=Library Entry 5676
##JCAMP-DX=Revision 4.10 
##DATA TYPE=MASS SPECTRUM
##SAMPLE DESCRIPTION=A.A.Kutin, Moscow, Russia
##NAMES=HP
##CAS NAME=3,4-Diacetylfurazan
##MOLFORM=C6H6N2O3
##CAS REGISTRY NO=6102-98-3
##MP= -300
##BP= -300
##MW= 154
##$RETENTION INDEX=0
##$CONDENSED SPECTRUM=NO
##NPOINTS= 54
##XYDATA=(XY..XY) 1 
    33          8
    34          1
    36          2
    37         10
    38         15
    40         33
    43        999
    49          1
    50          2
    51          6
    52         14
    53          5
    54          9
    55          6
    56          4
    57          0
    60          0
    61          0
    62          1
    63          1
    64          1
    65          0
    66          1
    67          1
    68          1
    69          2
    70          5
    71          0
    73          0
    74          0
    75          0
    77          0
    78          0
    81          6
    82          3
    83          0
    84          1
    86          0
    91          0
    95          0
    96          0
    97          0
   109         11
   110          4
   111          1
   112          1
   122          0
   124          9
   125          0
   137          7
   139          9
   140          0
   154          7
   155          0