##TITLE=Library Entry 109603
##JCAMP-DX=Revision 4.10 
##DATA TYPE=MASS SPECTRUM
##SAMPLE DESCRIPTION=A.A.Kutin, Moscow, Russia
##NAMES=HP
##CAS NAME=Ethanone, 1-[4-(4-chlorobenzyloxy)phenyl]-
##MOLFORM=C15H13ClO2
##CAS REGISTRY NO=61035-74-3
##MP= -300
##BP= -300
##MW= 260
##$RETENTION INDEX=0
##$CONDENSED SPECTRUM=NO
##NPOINTS= 144
##XYDATA=(XY..XY) 1 
    33          1
    34          2
    35          2
    36          7
    37          5
    38         24
    39         54
    40         32
    41          6
    42          8
    43         80
    44         12
    45          2
    46          0
    47          0
    48          1
    49          3
    50         29
    51         33
    52          9
    53          8
    54          1
    55          4
    56          1
    57          1
    58          0
    59          0
    60          1
    61          5
    62         22
    63         86
    64         43
    65         21
    66          4
    67          1
    68          0
    69          1
    70          1
    71          1
    72          1
    73         14
    74          8
    75         18
    76         18
    77         31
    78          8
    79         11
    80          1
    81          1
    82          0
    83          1
    84          1
    85          2
    86          2
    87          4
    89        123
    90         47
    91         12
    92         29
    93          5
    94          1
    95          0
    96          0
    97          2
    99         39
   100          2
   101         11
   102          1
   103          0
   104          2
   105          2
   106          1
   107         11
   108          1
   109          0
   111          3
   112          1
   113          1
   114          0
   115          0
   118          0
   119          1
   120         11
   121          7
   123          8
   125        999
   126         81
   127        308
   128         23
   129          1
   130          0
   131          0
   132          0
   133          0
   135          2
   136          2
   137          0
   138          0
   139          1
   140          0
   141          0
   142          0
   146          0
   149          0
   150          0
   151          1
   152          3
   153          1
   154          0
   155          0
   156          0
   159          0
   162          0
   163          0
   164          0
   165          0
   166          0
   167          0
   171          0
   176          0
   178          0
   179          0
   180          0
   181          1
   182          2
   183          0
   194          0
   214          0
   215          0
   216          0
   217          0
   218          0
   225          0
   245          1
   246          0
   247          0
   249          0
   251          0
   258          0
   260         40
   261          6
   262         13
   263          2
   264          0