##TITLE=Library Entry 11038
##JCAMP-DX=Revision 4.10 
##DATA TYPE=MASS SPECTRUM
##SAMPLE DESCRIPTION=Chemical Concepts
##NAMES=HP
##CAS NAME=Spiro[4.5]decan-7-one, 1,8-dimethyl-8,9-epoxy-4-isopropyl-
##MOLFORM=C15H24O2
##CAS REGISTRY NO=61050-91-7
##MP= -300
##BP= -300
##MW= 236
##$RETENTION INDEX=0
##$CONDENSED SPECTRUM=NO
##NPOINTS= 155
##XYDATA=(XY..XY) 1 
    26          8
    27        216
    28          6
    29        186
    30          3
    31         11
    39        180
    40         48
    41        731
    42         55
    43        999
    44         49
    45         26
    50         10
    51         30
    52         25
    53        185
    54         48
    55        523
    56         76
    57        122
    58         14
    59         15
    60          4
    61         10
    62          4
    63          9
    64          4
    65         76
    66         29
    67        260
    68         89
    69        451
    70         79
    71        140
    72         13
    73          8
    74          7
    75          2
    76          9
    77        148
    78         42
    79        230
    80         68
    81        394
    82        293
    83        164
    84         31
    85        284
    86         23
    87         13
    91        158
    92         37
    93        226
    94         72
    95        465
    96        228
    97        295
    98         51
    99         26
   105         88
   106         28
   107        221
   108        137
   109        761
   110        139
   111        173
   112         30
   113         98
   114         11
   115         17
   116          6
   117         15
   119         63
   120         37
   121        227
   122         97
   123        509
   124        168
   125        208
   126         42
   127         18
   128         10
   129         12
   130          4
   131         20
   132          8
   133         76
   134         54
   135        226
   136        328
   137        432
   138         68
   139         61
   140         26
   141         12
   145         21
   146          9
   147        109
   148        109
   149        163
   150         86
   151        238
   152        183
   153         52
   154         18
   155          9
   157          8
   159         12
   160          9
   161         64
   162         23
   163         38
   164         27
   165        166
   166         33
   167         29
   168          6
   169          3
   170          4
   171          3
   173         10
   174          5
   175         93
   176         62
   177         53
   178         33
   179         29
   180         26
   181          6
   184          3
   185          6
   189          8
   190          5
   191         12
   192         13
   193        132
   194         41
   199          3
   202          5
   203         25
   204          4
   205          9
   206          7
   207         22
   208         76
   209          9
   210          6
   218         13
   219          7
   220         14
   221         30
   222          8
   236         53
   237          9