##TITLE=Library Entry 13104
##JCAMP-DX=Revision 4.10 
##DATA TYPE=MASS SPECTRUM
##SAMPLE DESCRIPTION=A.A.Kutin, Moscow, Russia
##NAMES=HP
##CAS NAME=Adamantane, 1-acetoxy-3-(1-acetoxy-1-methylethyl)-
##MOLFORM=C17H26O4
##CAS REGISTRY NO=61065-63-2
##MP= -300
##BP= -300
##MW= 294
##$RETENTION INDEX=0
##$CONDENSED SPECTRUM=NO
##NPOINTS= 75
##XYDATA=(XY..XY) 1 
    39        182
    40        261
    41        495
    42        109
    43        999
    44         93
    45        237
    51         30
    52          8
    53        127
    55        282
    56         15
    57         28
    59          5
    60        149
    61          7
    65         84
    66         29
    67        151
    68         24
    69         65
    70         48
    71         12
    72         14
    77        195
    78         70
    79        288
    80         60
    81        140
    82         98
    83        216
    84         10
    90          4
    91        547
    92        614
    93        315
    94         97
    95        199
    96         23
    97          4
   103         22
   104        244
   105        260
   106        105
   107        151
   108        181
   109         62
   115         24
   116         21
   117        243
   118        145
   119        367
   120         62
   121         26
   129         20
   131        532
   132        317
   133        181
   134         30
   135         88
   136          7
   145        150
   146         56
   147         14
   151         14
   159        233
   160         21
   163          4
   173          5
   174        638
   175        115
   176          7
   192         21
   234        158
   235         24