##TITLE=Library Entry 11610
##JCAMP-DX=Revision 4.10 
##DATA TYPE=MASS SPECTRUM
##SAMPLE DESCRIPTION=NIST Mass Spectrometry Data Center, 1990.
##NAMES=HP
##CAS NAME=2-Phenyl-4-penten-2-ol
##MOLFORM=C11H14O
##CAS REGISTRY NO=61077-65-4
##MP= -300
##BP= -300
##MW= 162
##$RETENTION INDEX=0
##$CONDENSED SPECTRUM=NO
##NPOINTS= 62
##XYDATA=(XY..XY) 1 
    14          3
    15         12
    16          8
    26         13
    27         57
    28         82
    32         16
    38         23
    39        166
    40         30
    41         73
    42         13
    43        999
    44         27
    50         83
    51        203
    52         47
    53         16
    55          8
    58         14
    61          7
    62         29
    63         86
    64         30
    65         83
    66         39
    69          9
    70         12
    71         32
    74         42
    75         40
    76         56
    77        346
    78         80
    79         15
    86          9
    87         11
    89         40
    91         86
    92          8
   101         13
   102         74
   103        211
   104         31
   105        137
   106         13
   115        145
   116         29
   117         17
   121        777
   122         66
   126         16
   127        135
   128        428
   129        673
   130         71
   139          8
   141         48
   142         23
   143        153
   144        291
   145         36