##TITLE=Library Entry 32889
##JCAMP-DX=Revision 4.10 
##DATA TYPE=MASS SPECTRUM
##SAMPLE DESCRIPTION=NIST Mass Spectrometry Data Center, 1990.
##NAMES=HP
##CAS NAME=(Z),(Z)-2,4-Hexadiene
##MOLFORM=C6H10
##CAS REGISTRY NO=6108-61-8
##MP= -300
##BP= -300
##MW= 82
##$RETENTION INDEX=661
##$CONDENSED SPECTRUM=NO
##NPOINTS= 32
##XYDATA=(XY..XY) 1 
    15         27
    26         34
    27        172
    28         24
    29         34
    37         21
    38         61
    39        380
    40         71
    41        318
    42         49
    49         12
    50         84
    51        103
    52         47
    53        170
    54        153
    55         57
    62         17
    63         33
    65        168
    66         40
    67        999
    68         56
    74         13
    77         69
    78         11
    79        128
    80         18
    81        105
    82        419
    83         27