##TITLE=Library Entry 32797
##JCAMP-DX=Revision 4.10 
##DATA TYPE=MASS SPECTRUM
##SAMPLE DESCRIPTION=D.HENNEBERG, MAX-PLANCK INSTITUTE, MULHEIM, WEST GERMAN
Y
##NAMES=HP
##CAS NAME=5,7-Dodecadiene, (Z,Z)-
##MOLFORM=C12H22
##CAS REGISTRY NO=6108-62-9
##MP= -300
##BP= -300
##MW= 166
##$RETENTION INDEX=0
##$CONDENSED SPECTRUM=NO
##NPOINTS= 106
##XYDATA=(XY..XY) 1 
    22          0
    23          1
    25          2
    26          8
    27        168
    28         17
    29        105
    30          2
    35          0
    36          2
    37          6
    38         10
    39        133
    40         17
    41        376
    42         28
    43        111
    44         29
    45          0
    46          1
    47          1
    48          1
    49          1
    50         10
    51         31
    52         26
    53         68
    54        398
    55        219
    56         21
    57         28
    58          3
    61          1
    62          3
    63         11
    64          3
    65         47
    66         35
    67        999
    68        255
    69         81
    70          7
    71          1
    72          1
    73          0
    74          4
    75          7
    76          4
    77         86
    78         58
    79        151
    80         46
    81        509
    82        194
    83         25
    84          2
    89          2
    90          0
    91         36
    92          7
    93         28
    94          8
    95        125
    96         92
    97          8
    98          1
   102          0
   103          3
   104          1
   105          4
   106          2
   107          8
   108          4
   109         64
   110         45
   111          5
   114          0
   115         10
   116          2
   117          3
   119          1
   121          5
   123         32
   124          3
   127          4
   128          7
   129          4
   130          3
   131          1
   135          0
   137          2
   138          0
   141          3
   142          1
   143          0
   151          0
   152          2
   153          1
   154          4
   155          2
   156          2
   158          2
   164          6
   165          0
   166         81
   167         10