##TITLE=Library Entry 22769
##JCAMP-DX=Revision 4.10 
##DATA TYPE=MASS SPECTRUM
##SAMPLE DESCRIPTION=A.A.Kutin, Moscow, Russia
##NAMES=HP
##CAS NAME=4-(4-Nitrobenzylideneamino)antipyrine
##MOLFORM=C18H16N4O3
##CAS REGISTRY NO=61098-06-4
##MP= -300
##BP= -300
##MW= 336
##$RETENTION INDEX=0
##$CONDENSED SPECTRUM=NO
##NPOINTS= 223
##XYDATA=(XY..XY) 1 
    33          0
    34          0
    36          0
    37          3
    38         14
    39         49
    40         12
    41         14
    42         21
    43         37
    44          3
    45          2
    46          3
    47          0
    48          0
    50         23
    51         53
    52         13
    53          5
    54         30
    56        999
    57         33
    58          0
    59          0
    61          2
    62         19
    63         47
    64         40
    65         33
    66          7
    67         13
    68          3
    69          1
    70          1
    71          1
    72          0
    73          0
    74          4
    75          9
    76         23
    77         89
    78          9
    79          2
    80          1
    82         20
    83          7
    84          2
    85          0
    86          2
    87          6
    88         14
    89         17
    90          8
    91         47
    92          8
    93         10
    94          1
    95          1
    96          1
    97          0
    98          0
    99          0
   100          0
   101          1
   102          6
   103         10
   104          9
   105          3
   106          4
   107          1
   108          0
   109          2
   110          7
   111          0
   112          0
   113          2
   114         11
   115         14
   116          4
   117          5
   118          4
   119         33
   120          8
   121        130
   122         11
   123          2
   124          0
   125          0
   126          0
   127          1
   128          3
   129          5
   130          4
   131          2
   132          2
   133          1
   134          0
   135          0
   136          1
   137          0
   138          0
   140          4
   141          3
   142          2
   143          1
   144          2
   145          7
   146          2
   147          0
   148          0
   149          2
   150          2
   151          2
   152          1
   153          1
   154          0
   155          1
   156          2
   157          1
   158          1
   159          6
   160          4
   161          1
   162          1
   163          3
   164          0
   165          0
   166          0
   167          1
   168          6
   169          2
   170          9
   171          4
   172          1
   173          1
   174          0
   175          0
   176          0
   177          0
   178          1
   179          2
   180          0
   181          0
   182          0
   183          0
   184          1
   185          1
   186          3
   187         12
   188         70
   189          9
   190          1
   191          0
   193          0
   194          0
   195          0
   196          2
   197          6
   198          9
   199          1
   200          6
   201          1
   202          5
   203          1
   204          0
   205          2
   206          1
   207          0
   209          0
   210          0
   211          0
   212          0
   213          1
   214          3
   215          2
   216         10
   217          5
   218          0
   219          0
   225          0
   226          0
   227          9
   228          1
   229          0
   230          0
   231          0
   232          0
   233          0
   234          0
   235          0
   239          0
   243          6
   244         20
   245          2
   246          0
   252          0
   259          0
   260          0
   261          0
   262          0
   273          0
   274          0
   275          0
   281          0
   289          0
   290          0
   291          0
   292          0
   305          0
   306          0
   307          0
   308          0
   319          0
   320          0
   321          0
   322          0
   332          0
   333          0
   334          0
   336         72
   337         14
   338          1
   339          0