##TITLE=Library Entry 23012
##JCAMP-DX=Revision 4.10 
##DATA TYPE=MASS SPECTRUM
##SAMPLE DESCRIPTION=A.A.Kutin, Moscow, Russia
##NAMES=HP
##CAS NAME=Pyrazol-3(3H)-one, 4-(2-methoxyphenylmethylidenamino)-1,5-dimethy
l-2-phenyl-1,2-dihydro-
##MOLFORM=C19H19N3O2
##CAS REGISTRY NO=61098-07-5
##MP= -300
##BP= -300
##MW= 321
##$RETENTION INDEX=0
##$CONDENSED SPECTRUM=NO
##NPOINTS= 222
##XYDATA=(XY..XY) 1 
    37          2
    38         10
    39         31
    40          9
    41         13
    42         14
    43         21
    44          0
    45          0
    50         25
    51         73
    52         14
    53          8
    54         39
    56        999
    57         34
    58          0
    61          1
    62          9
    63         42
    64         61
    65         52
    66         10
    67         14
    68          3
    69          2
    70          1
    71          0
    73          0
    74          7
    75         12
    76         46
    77        172
    78         26
    79          6
    80          2
    81          4
    82          4
    83         33
    84         30
    85          1
    86          0
    87          2
    89         66
    90         36
    91        180
    92         28
    93         18
    94          2
    95          2
    96          2
    97          0
    98          0
   100          0
   101          2
   102         12
   103         32
   104         28
   105         16
   106          5
   107          5
   108          0
   109          1
   111          0
   112          0
   113          1
   114          5
   115         19
   116         42
   117         13
   118         26
   119        120
   120         26
   121        213
   122         19
   123          6
   124          0
   125          0
   126          0
   127          0
   128          5
   129          6
   130         12
   131         14
   132         12
   133         15
   134          8
   135         48
   136          3
   137          0
   138          0
   139          0
   140          1
   141          1
   142          2
   143          4
   144          5
   145         14
   146         17
   147          5
   148         22
   149          3
   150          0
   151          0
   152          1
   153          0
   155          0
   156          3
   157          6
   158          7
   159         17
   160         30
   161         21
   162          0
   165          0
   166          1
   167          3
   168          0
   169          1
   170          4
   171         50
   172         10
   173          6
   174          5
   175          1
   176          0
   177          0
   178          0
   179          0
   180          0
   181          0
   182          0
   183          1
   184          3
   185          7
   186          8
   187         45
   188        210
   189         45
   190          3
   191          0
   192          0
   193          1
   194          1
   195          2
   196          5
   197          9
   198          3
   199          5
   200         13
   201         29
   202         41
   203         16
   204          2
   205          1
   206          0
   207          0
   208          0
   210          7
   212         66
   213         18
   214         15
   215          3
   216          1
   217          0
   218          0
   219          0
   220          0
   221          5
   222          0
   227          8
   229        500
   230         69
   231          6
   232          0
   233          0
   234          0
   235          0
   237          0
   242          0
   243          0
   244         11
   245          1
   246          0
   247          0
   248          0
   249          0
   259          0
   261          0
   262          0
   263          0
   267          0
   271          0
   273          1
   274          0
   275          1
   276          1
   277          1
   278          0
   279          0
   283          0
   286          0
   288          0
   289          2
   290         15
   291          3
   292          2
   293          3
   294          0
   295          0
   303          2
   304          5
   305          1
   306          5
   307          1
   319          2
   320         50
   321        768
   322        167
   323         19
   324          2
   325          2