##TITLE=Library Entry 23711
##JCAMP-DX=Revision 4.10 
##DATA TYPE=MASS SPECTRUM
##SAMPLE DESCRIPTION=S.A. Rang et al., IR & MS of Unsatd. Hydrocarbons, 1977
##NAMES=HP
##CAS NAME=3,4-Octadiene, 2,2,7,7-tetramethyl-
##MOLFORM=C12H22
##CAS REGISTRY NO=61092-76-0
##MP= -300
##BP= -300
##MW= 166
##$RETENTION INDEX=0
##$CONDENSED SPECTRUM=NO
##NPOINTS= 42
##XYDATA=(XY..XY) 1 
    15         13
    26          8
    27         54
    29        174
    39         68
    41        251
    42         23
    43         69
    50          5
    51         14
    52         10
    53         30
    54         10
    55         60
    56         30
    57        999
    66          9
    67          4
    68         39
    69         11
    70         45
    77         24
    78         31
    79          7
    80         47
    81          5
    82         42
    83         17
    84         24
    85          3
    91         11
    93         11
    94          5
    95        211
    96         19
   108         95
   109        170
   110         11
   123         11
   151         33
   152          4
   166         10