##TITLE=Library Entry 86645
##JCAMP-DX=Revision 4.10 
##DATA TYPE=MASS SPECTRUM
##SAMPLE DESCRIPTION=Japan AIST/NIMC Database- Spectrum MS-NW-7626
##NAMES=HP
##CAS NAME=Benzene, 2,4-dichloro-1-nitro-
##MOLFORM=C6H3Cl2NO2
##CAS REGISTRY NO=611-06-3
##MP= -300
##BP= -300
##MW= 191
##$RETENTION INDEX=1371
##$CONDENSED SPECTRUM=NO
##NPOINTS= 128
##XYDATA=(XY..XY) 1 
    12          2
    14          1
    16          3
    18          1
    24          2
    25          5
    26         10
    27          5
    28         12
    29          1
    30        446
    31          3
    35         16
    36         67
    37        106
    38         61
    39         14
    40          1
    43          2
    44         12
    46         17
    47         20
    48         12
    49         58
    50        218
    51         35
    52          6
    53          5
    54         11
    55          9
    56          2
    59          2
    60         29
    61         64
    62         58
    63         91
    64         14
    65          2
    66          2
    71          9
    72         37
    73        191
    74        588
    75        462
    76         36
    77          3
    80          1
    81          1
    82          2
    83         37
    84        151
    85        122
    86         58
    87         45
    88         13
    89          4
    90          4
    91          3
    94          2
    95          8
    96          7
    97         29
    98         19
    99         11
   100          8
   101          1
   104          1
   106          2
   107         25
   108         33
   109        999
   110        208
   111        331
   112         66
   113          5
   118          5
   119         23
   120          4
   121         15
   122          2
   123          3
   124         12
   125          4
   126         15
   127          2
   128          5
   130          1
   131          1
   132          1
   133        619
   134         37
   135        410
   136         24
   137         63
   138          5
   139          1
   141          1
   142          1
   143          2
   144         16
   145        768
   146         62
   147        489
   148         36
   149         81
   150          6
   160          1
   161        626
   162         46
   163        407
   164         28
   165         66
   166          6
   167          1
   175         54
   176          5
   177         37
   178          3
   179          7
   180          1
   186          1
   191        919
   192         69
   193        589
   194         45
   195         99
   196          8
   197          1