##TITLE=Library Entry 79387
##JCAMP-DX=Revision 4.10 
##DATA TYPE=MASS SPECTRUM
##SAMPLE DESCRIPTION=Japan AIST/NIMC Database- Spectrum MS-NW-4241
##NAMES=HP
##CAS NAME=Benzamide, N,N-dimethyl-
##MOLFORM=C9H11NO
##CAS REGISTRY NO=611-74-5
##MP= -300
##BP= -300
##MW= 149
##$RETENTION INDEX=1155
##$CONDENSED SPECTRUM=NO
##NPOINTS= 54
##XYDATA=(XY..XY) 1 
    14          1
    15         25
    26          2
    27         11
    28          2
    29          1
    37          4
    38          6
    39         11
    40          2
    41          4
    42         55
    43         14
    44         25
    49          3
    50         50
    51        164
    52         11
    53          2
    56          6
    60          5
    61          1
    62          2
    63          4
    64          1
    65          2
    72         27
    73          3
    74         14
    75         12
    76         25
    77        593
    78         47
    79          2
    90          1
    91          7
    92          1
   103          2
   104          6
   105        999
   106         79
   107          4
   111          1
   118          1
   119          3
   120          1
   122          2
   132          1
   134          1
   147          4
   148        422
   149        226
   150         22
   151          1