##TITLE=Library Entry 20433
##JCAMP-DX=Revision 4.10 
##DATA TYPE=MASS SPECTRUM
##SAMPLE DESCRIPTION=Japan AIST/NIMC Database- Spectrum MS-NW-5402
##NAMES=HP
##CAS NAME=Cyclopentanecarboxylic acid, 2-oxo-, ethyl ester
##MOLFORM=C8H12O3
##CAS REGISTRY NO=611-10-9
##MP= -300
##BP= -300
##MW= 156
##$RETENTION INDEX=0
##$CONDENSED SPECTRUM=NO
##NPOINTS= 117
##XYDATA=(XY..XY) 1 
    12          4
    13          5
    14         18
    15         56
    16          4
    17          2
    18          6
    24          2
    25         11
    26        140
    27        580
    28        233
    29        555
    30         18
    31        269
    32          8
    36          2
    37         15
    38         26
    39        227
    40         46
    41        200
    42         88
    43        111
    44         64
    45        180
    46         48
    47          3
    48          2
    49          7
    50         28
    51         38
    52         25
    53        116
    54        197
    55        999
    56        149
    57         37
    58         27
    59          7
    60         41
    61         31
    62          4
    63          4
    64          3
    65         11
    66         12
    67         12
    68        139
    69         77
    70         29
    71         30
    72         19
    73        897
    74         35
    75          5
    76          1
    77          2
    78          1
    79          4
    80          7
    81         43
    82        260
    83        294
    84         86
    85         13
    86         10
    87         27
    88         47
    89          3
    91          1
    92          1
    93          2
    94          3
    95          3
    96          1
    97          4
    98          4
    99        105
   100         83
   101        356
   102         23
   103          3
   104          1
   105          2
   107          2
   108          5
   109         67
   110        754
   111        644
   112         48
   113          9
   114         21
   115         10
   116          3
   117          1
   120          1
   121          1
   122          1
   123          1
   125          1
   126          2
   127         21
   128        700
   129         59
   130          6
   137          2
   138          1
   139          1
   141          3
   142          5
   143          1
   154          1
   155          5
   156        130
   157         14
   158          2