##TITLE=Library Entry 83604
##JCAMP-DX=Revision 4.10 
##DATA TYPE=MASS SPECTRUM
##SAMPLE DESCRIPTION=Japan AIST/NIMC Database- Spectrum MS-NW-2195
##NAMES=HP
##CAS NAME=Benzeneacetic acid, .alpha.-hydroxy-, (R)-
##MOLFORM=C8H8O3
##CAS REGISTRY NO=611-71-2
##MP= -300
##BP= -300
##MW= 152
##$RETENTION INDEX=0
##$CONDENSED SPECTRUM=NO
##NPOINTS= 68
##XYDATA=(XY..XY) 1 
    14          2
    15          1
    16          2
    17         11
    18         47
    26          6
    27         38
    28         17
    29         52
    30          1
    31          1
    36          1
    37          9
    38         15
    39         49
    40          4
    41          2
    43          3
    44         20
    45         23
    46          1
    49          6
    50         54
    51        149
    52         38
    53         28
    54          2
    55          4
    58          1
    60          1
    61          5
    62         10
    63         26
    64          8
    65          5
    66          1
    67          1
    73          3
    74         14
    75          9
    76          9
    77        425
    78         71
    79        725
    80         47
    81          2
    85          1
    86          3
    87          2
    88          1
    89         24
    90         45
    91         14
    92          4
    95          2
   105         89
   106         47
   107        999
   108         86
   109          6
   118          7
   119          2
   135          1
   136          4
   137          1
   152        116
   153          9
   154          1