##TITLE=Library Entry 78681
##JCAMP-DX=Revision 4.10 
##DATA TYPE=MASS SPECTRUM
##SAMPLE DESCRIPTION=NIST Mass Spectrometry Data Center, 1994
##NAMES=HP
##CAS NAME=Isopropyl phenyl ketone
##MOLFORM=C10H12O
##CAS REGISTRY NO=611-70-1
##MP= -300
##BP= -300
##MW= 148
##$RETENTION INDEX=1180
##$CONDENSED SPECTRUM=NO
##NPOINTS= 65
##XYDATA=(XY..XY) 1 
    12          0
    14          7
    15         40
    16          0
    26         30
    27        155
    29          5
    31          0
    37          9
    38         31
    39        123
    40          0
    41        111
    42         16
    43         54
    44          1
    50        105
    51        275
    52         22
    53          8
    55         14
    56          2
    57          0
    58          0
    61          3
    62          6
    63         11
    64          2
    65          5
    66          1
    69          1
    70          1
    71          1
    73          5
    74         29
    75         21
    76          1
    77        542
    78         44
    79          3
    85          0
    86          1
    87          1
    88          0
    89          4
    91          7
    92          0
   101          0
   102          3
   103          5
   104          0
   105        999
   106         80
   107          5
   115          4
   116          0
   117          0
   119          1
   128          1
   129          1
   131          1
   133          1
   148         81
   149          9
   150          0