##TITLE=Library Entry 81843
##JCAMP-DX=Revision 4.10 
##DATA TYPE=MASS SPECTRUM
##SAMPLE DESCRIPTION=Japan AIST/NIMC Database- Spectrum MS-NW-6278
##NAMES=HP
##CAS NAME=4-Benzoylbenzoic acid
##MOLFORM=C14H10O3
##CAS REGISTRY NO=611-95-0
##MP= -300
##BP= -300
##MW= 226
##$RETENTION INDEX=0
##$CONDENSED SPECTRUM=NO
##NPOINTS= 106
##XYDATA=(XY..XY) 1 
    18          1
    26          2
    27         20
    28          6
    29          3
    37          4
    38         10
    39         59
    40          2
    43          1
    44          2
    45         20
    49          4
    50        121
    51        220
    52         12
    53         15
    54          1
    55          1
    57          2
    60          1
    61          3
    62         10
    63         18
    64          5
    65        205
    66         13
    67          1
    71          1
    72          1
    73          7
    74         50
    75         68
    76        111
    77        488
    78         35
    79          2
    84          1
    85         16
    86          6
    87          7
    88          2
    89          2
    90          2
    91          2
    92          3
    93         19
    94          2
    98          7
    99          6
   100          2
   101          4
   102          5
   103         15
   104         58
   105        999
   106         76
   107          5
   109          1
   110          2
   111          2
   113          3
   114          1
   115          5
   119          2
   120          2
   121         90
   122          9
   123          1
   125          3
   126          8
   127          6
   128          1
   129          1
   134          5
   136          2
   137          1
   139          3
   140          1
   141          3
   149        379
   150         41
   151         26
   152         52
   153         30
   154          4
   163          2
   164          1
   165          2
   168          1
   179          3
   180          5
   181         99
   182         16
   183          1
   198         11
   199          2
   207          1
   209         20
   210          4
   224          1
   225          5
   226        511
   227         78
   228          9
   229          1