##TITLE=Library Entry 75909
##JCAMP-DX=Revision 4.10 
##DATA TYPE=MASS SPECTRUM
##SAMPLE DESCRIPTION=Humboldt-Universitat zu Berlin, Department of Chemistry
, Analytical Group
##NAMES=HP
##CAS NAME=.alpha.,.beta.-Dibromocinnamic acid
##MOLFORM=C9H6Br2O2
##CAS REGISTRY NO=611-89-2
##MP= -300
##BP= -300
##MW= 304
##$RETENTION INDEX=0
##$CONDENSED SPECTRUM=NO
##NPOINTS= 172
##XYDATA=(XY..XY) 1 
    12         17
    13          5
    14          7
    15         34
    16         21
    17         29
    18         17
    19          2
    24          6
    25         20
    26        148
    27        185
    28         40
    29         66
    30          3
    31          2
    36         17
    37        131
    38        181
    39        299
    40         22
    41          8
    42          5
    43         11
    45        962
    47          5
    49        121
    50        423
    51        515
    52        119
    53         35
    54          2
    55          4
    57          3
    58          6
    59         11
    60         23
    61        166
    62        218
    63        250
    64         42
    65         24
    66         12
    67          3
    68          2
    69         19
    70          1
    71          2
    73        111
    74        445
    75        581
    76        213
    77        268
    78         45
    79        148
    80         53
    81        123
    82         49
    83          4
    84         15
    85         28
    86         27
    87         32
    88         20
    89        225
    90        106
    91         56
    92          7
    93         12
    94          4
    95          5
    96          3
    97         20
    98         92
    99         53
   100         53
   101        401
   102        999
   103        219
   104         47
   105        112
   106         14
   107         44
   108          3
   109          3
   112         28
   113         28
   115          4
   116          7
   117         32
   118        173
   119         23
   120          6
   121          3
   122          2
   125          1
   128         25
   129        195
   130         42
   131         14
   132          1
   133          5
   135          1
   140          7
   141         12
   142          6
   143         12
   145         12
   147        276
   149        221
   150          8
   151          2
   152          5
   153          4
   154          6
   155          4
   157         39
   158          8
   159         38
   160         12
   161          0
   162          4
   163          1
   165          1
   167          2
   168          1
   169          8
   170          2
   171          7
   172          1
   178          0
   180         76
   181         19
   182         82
   183         16
   184          6
   185          2
   186          0
   196          1
   197          1
   198          2
   199          1
   207          1
   208          0
   209          2
   210          0
   211          0
   225        130
   226         20
   227        132
   228         16
   229         11
   230          1
   259          0
   260          1
   261          1
   262          1
   263          0
   264          0
   287          1
   288          0
   289          2
   290          0
   291          1
   303          8
   304         29
   305         18
   306         56
   307         13
   308         27
   309          2
   310          0