##TITLE=Library Entry 83601
##JCAMP-DX=Revision 4.10 
##DATA TYPE=MASS SPECTRUM
##SAMPLE DESCRIPTION=NIST Mass Spectrometry Data Center, 1990.
##NAMES=HP
##CAS NAME=.alpha.-Isopropylbenzyl alcohol
##MOLFORM=C10H14O
##CAS REGISTRY NO=611-69-8
##MP= -300
##BP= -300
##MW= 150
##$RETENTION INDEX=1271
##$CONDENSED SPECTRUM=NO
##NPOINTS= 51
##XYDATA=(XY..XY) 1 
    15          5
    26          5
    27         46
    29         23
    31          4
    38         12
    39         75
    40         11
    41         44
    42          6
    43         50
    50         51
    51        143
    52         36
    53         31
    54          5
    55         14
    57         19
    62         15
    63         45
    64         17
    65         44
    66          7
    74         17
    75         13
    77        398
    78        103
    79        716
    80         48
    89         28
    91        112
    92         13
   102          8
   103         15
   104         12
   105         86
   106          8
   107        999
   108         74
   115        100
   116         32
   117        183
   118         19
   128         10
   129         10
   130          4
   131         32
   132        103
   133         13
   150         74
   151          8