##TITLE=Library Entry 109591
##JCAMP-DX=Revision 4.10 
##DATA TYPE=MASS SPECTRUM
##SAMPLE DESCRIPTION=Japan AIST/NIMC Database- Spectrum MS-NW-9688
##NAMES=HP
##CAS NAME=Benzene, 1-(bromomethyl)-2-chloro-
##MOLFORM=C7H6BrCl
##CAS REGISTRY NO=611-17-6
##MP= -300
##BP= -300
##MW= 204
##$RETENTION INDEX=1237
##$CONDENSED SPECTRUM=NO
##NPOINTS= 65
##XYDATA=(XY..XY) 1 
    26          1
    27          1
    36          3
    37          2
    38          6
    39         18
    40          2
    43          6
    44         20
    45          4
    49          2
    50          9
    51         10
    52          1
    60          1
    61          6
    62         23
    63         48
    64          9
    65          7
    72          1
    73         11
    74          2
    75          7
    77          1
    79          2
    80          3
    81          2
    82          3
    84         23
    85         25
    86          4
    87          4
    88          2
    89        129
    90         36
    91         17
    92          1
    97          2
    99         39
   100          2
   101         12
   102          6
   103          7
   104          1
   123          2
   124          5
   125        999
   126         85
   127        328
   128         26
   129          1
   160         15
   161          1
   162          9
   164          1
   169          1
   171          1
   203          3
   204         70
   205          9
   206         91
   207          8
   208         21
   209          1