##TITLE=Library Entry 99111
##JCAMP-DX=Revision 4.10 
##DATA TYPE=MASS SPECTRUM
##SAMPLE DESCRIPTION=Japan AIST/NIMC Database- Spectrum MS-NW-7664
##NAMES=HP
##CAS NAME=Benzonitrile, 2-hydroxy-
##MOLFORM=C7H5NO
##CAS REGISTRY NO=611-20-1
##MP= -300
##BP= -300
##MW= 119
##$RETENTION INDEX=0
##$CONDENSED SPECTRUM=NO
##NPOINTS= 71
##XYDATA=(XY..XY) 1 
    12          1
    13          1
    14          4
    15          1
    24          1
    25          5
    26         18
    27         24
    28         12
    29         16
    31          2
    36          8
    37         80
    38        115
    39        126
    40         16
    41         48
    42          9
    43          4
    44         29
    45         63
    46          6
    48          4
    49         17
    50         58
    51         39
    52         92
    53         33
    54          4
    55          7
    59          4
    60          9
    61         40
    62         61
    63        221
    64        314
    65         73
    66         10
    67          8
    68          3
    69          1
    70          1
    72          2
    73          9
    74         17
    75         32
    76         25
    77          4
    78          3
    79          1
    80          2
    85          1
    86          6
    87         11
    88         13
    89          9
    90         57
    91        913
    92        124
    93          9
    98          1
    99          9
   100          3
   101          1
   102          2
   103          4
   117          3
   118          8
   119        999
   120         97
   121          7