##TITLE=Library Entry 59783
##JCAMP-DX=Revision 4.10 
##DATA TYPE=MASS SPECTRUM
##SAMPLE DESCRIPTION=NIST Mass Spectrometry Data Center, 1994
##NAMES=HP
##CAS NAME=Benzene, 1-methyl-2-nitroso-
##MOLFORM=C7H7NO
##CAS REGISTRY NO=611-23-4
##MP= -300
##BP= -300
##MW= 121
##$RETENTION INDEX=0
##$CONDENSED SPECTRUM=NO
##NPOINTS= 65
##XYDATA=(XY..XY) 1 
    14          0
    15          7
    16          3
    25          4
    26         32
    27         49
    28         11
    29          0
    30        144
    31          3
    37         47
    38         90
    39        362
    40         30
    41         63
    42          3
    43          7
    44          2
    48          3
    49         22
    50        135
    51        163
    52         54
    53         10
    54          3
    61         42
    62         98
    63        254
    64          3
    65        958
    66        117
    67         14
    68          2
    73         10
    74         40
    75         31
    76         26
    77         24
    78         15
    79          8
    80          1
    81          1
    84          4
    85         12
    86         20
    87         15
    88          1
    89        134
    90          1
    91        999
    92        128
    93        407
    94         28
    95          1
    99          2
   102          1
   103          2
   104         14
   105          2
   106          9
   107          0
   120         75
   121        368
   122         30
   123          3