##TITLE=Library Entry 80896
##JCAMP-DX=Revision 4.10 
##DATA TYPE=MASS SPECTRUM
##SAMPLE DESCRIPTION=Japan AIST/NIMC Database- Spectrum MS-NW-3366
##NAMES=HP
##CAS NAME=Benzene, 1-ethyl-2-methyl-
##MOLFORM=C9H12
##CAS REGISTRY NO=611-14-3
##MP= -300
##BP= -300
##MW= 120
##$RETENTION INDEX=970
##$CONDENSED SPECTRUM=NO
##NPOINTS= 57
##XYDATA=(XY..XY) 1 
    15          3
    26          2
    27         23
    28          2
    29          2
    37          2
    38          6
    39         46
    40          5
    41         15
    43          3
    49          1
    50         15
    51         41
    52         11
    53         15
    55          1
    57          9
    58         10
    59         11
    61          3
    62          9
    63         27
    64          6
    65         41
    66          4
    67          1
    74          6
    75          5
    76          5
    77         90
    78         31
    79         72
    80          5
    85          1
    86          2
    87          2
    89         13
    90          4
    91        102
    92         22
    93          5
   101          2
   102          9
   103         58
   104         27
   105        999
   106         91
   107          4
   115         23
   116          7
   117         24
   118          4
   119         24
   120        318
   121         31
   122          1