##TITLE=Library Entry 99717
##JCAMP-DX=Revision 4.10 
##DATA TYPE=MASS SPECTRUM
##SAMPLE DESCRIPTION=NIST Mass Spectrometry Data Center, 1994
##NAMES=HP
##CAS NAME=Methanone, bis(4-methylphenyl)-
##MOLFORM=C15H14O
##CAS REGISTRY NO=611-97-2
##MP= -300
##BP= -300
##MW= 210
##$RETENTION INDEX=0
##$CONDENSED SPECTRUM=NO
##NPOINTS= 74
##XYDATA=(XY..XY) 1 
    15          3
    18          1
    26          1
    27         10
    28          1
    37          1
    38         10
    39         99
    40          8
    41         25
    46          1
    50         19
    51         40
    52          8
    53          6
    61          3
    62         21
    63         79
    64         29
    65        278
    66         16
    74          7
    75          9
    76         10
    77         11
    78          3
    82          5
    86          5
    87          6
    89         99
    90         85
    91        458
    92         37
    98          1
   102          2
   104          2
   114          1
   115          9
   116          1
   119        999
   120         92
   121          6
   126          2
   127          2
   128          4
   129          1
   139          6
   141          2
   150          1
   151          3
   152         13
   153          3
   163          3
   164          5
   165         42
   166         13
   167         11
   168          1
   176          1
   177          2
   178          6
   179          3
   180          1
   181         12
   182          8
   193          1
   195        154
   196         24
   197          1
   207          1
   208          2
   210        328
   211         54
   212          4