##TITLE=Library Entry 46512
##JCAMP-DX=Revision 4.10 
##DATA TYPE=MASS SPECTRUM
##SAMPLE DESCRIPTION=A.A.Kutin, Moscow, Russia
##NAMES=HP
##CAS NAME=Benzoic acid, 3-hydrazino-4-methyl-
##MOLFORM=C8H10N2O2
##CAS REGISTRY NO=61100-70-7
##MP= -300
##BP= -300
##MW= 166
##$RETENTION INDEX=0
##$CONDENSED SPECTRUM=NO
##NPOINTS= 93
##XYDATA=(XY..XY) 1 
    39        603
    40         39
    41        185
    42        120
    43        125
    45        775
    46         18
    48         24
    50        372
    51        579
    52        320
    53        211
    54         70
    55         74
    57         34
    58          2
    59          7
    60         16
    61         38
    62        219
    63        398
    64        122
    65        347
    66        128
    67         96
    68         25
    69         22
    70         12
    71          6
    73         22
    74        101
    75         89
    77        999
    78        271
    79        148
    80         65
    81         21
    82          5
    83          6
    85         25
    86         35
    87         32
    89        140
    90        174
    91        220
    92        107
    93        129
    94        225
    95         31
    96          3
    98          4
    99          6
   100          5
   101          0
   102         40
   103         45
   104        256
   105        309
   106        169
   107         76
   108          8
   109          2
   110          0
   112          0
   117         17
   119        119
   120         71
   122        394
   123         27
   124          2
   125          1
   128          2
   130         14
   132         52
   133         12
   134         29
   135         39
   136         29
   137          4
   138          7
   145          3
   146          5
   148        408
   149        255
   150        203
   151         89
   152         10
   162          1
   163         20
   164         32
   166        361
   167         27
   168          1