##TITLE=Library Entry 21756
##JCAMP-DX=Revision 4.10 
##DATA TYPE=MASS SPECTRUM
##SAMPLE DESCRIPTION=Div. of Experiment Therapeutics WRAIR, WRAMC, Washingto
n DC 20307
##NAMES=HP
##CAS NAME=Ethyl lithocholate
##MOLFORM=C26H44O3
##CAS REGISTRY NO=6112-82-9
##MP= -300
##BP= -300
##MW= 404
##$RETENTION INDEX=0
##$CONDENSED SPECTRUM=NO
##NPOINTS= 147
##XYDATA=(XY..XY) 1 
    41        482
    43        492
    45        110
    51          5
    53        122
    55        999
    57        238
    59         71
    60         46
    61         33
    65         51
    67        528
    68        126
    69        236
    70         48
    71         38
    73         59
    74         13
    77        124
    79        381
    81        630
    82         79
    83        252
    85        107
    87          5
    88         83
    91        272
    93        518
    95        608
    96         60
    97         93
    98          5
    99         17
   101        181
   102          5
   103          5
   105        362
   106        106
   107        451
   108        156
   109        186
   110         24
   111         71
   113         20
   115         57
   117         60
   118         13
   119        205
   120        113
   121        202
   122         99
   123         95
   124         47
   125         27
   127         15
   129         53
   131         87
   133        200
   134         66
   135        216
   136         17
   137         58
   138          5
   139          7
   140          4
   143         35
   145        162
   147        248
   148         33
   149        220
   150         25
   151         11
   155         25
   156         11
   157         37
   159        109
   160         56
   161        158
   162        127
   163         57
   165        161
   166         42
   168        148
   169         15
   171         35
   173        100
   174         55
   175        120
   176         67
   177         30
   178          5
   181          5
   185         17
   187         63
   188         36
   189         43
   191         11
   199         25
   201        100
   202         22
   203         58
   205          6
   213         27
   215        651
   216        235
   217        102
   218         56
   219         10
   222         19
   227          5
   229         51
   230        162
   231         43
   233         39
   234         20
   235          4
   241          5
   243         18
   248         73
   249         13
   255         12
   257        221
   258         32
   259         10
   273          5
   276         22
   277          5
   278         15
   285         19
   290          6
   299         22
   303          5
   323         35
   325         26
   331         12
   332         53
   341         54
   342          5
   344         24
   345         10
   358         23
   371         97
   372         21
   386        476
   387        139
   388         16
   404          5