##TITLE=Library Entry 19998
##JCAMP-DX=Revision 4.10 
##DATA TYPE=MASS SPECTRUM
##SAMPLE DESCRIPTION=NIST Mass Spectrometry Data Center
##NAMES=HP
##CAS NAME=Sulforaphane nitrile
##MOLFORM=C6H11NOS
##CAS REGISTRY NO=61121-66-2
##MP= -300
##BP= -300
##MW= 145
##$RETENTION INDEX=1520
##$CONDENSED SPECTRUM=NO
##NPOINTS= 82
##XYDATA=(XY..XY) 1 
    26          6
    27         41
    28         26
    29         69
    30          3
    31          5
    33          2
    34          3
    35          5
    37          3
    38          8
    39        105
    40         20
    41        172
    42         19
    43          2
    44          2
    45         50
    46         28
    47         67
    48         28
    49         10
    50         10
    51         18
    52         24
    53         70
    54        190
    55        999
    56         45
    57          3
    58          6
    59         11
    60          3
    61         86
    62          8
    63        166
    64        509
    65         24
    66         32
    67         11
    68          5
    69          3
    70          2
    71          5
    72          2
    73          4
    74          2
    75          5
    76          3
    77          6
    78         88
    79          3
    80         19
    81          5
    82        327
    83         64
    84          4
    85          3
    86          1
    87          7
    88          1
    89          2
    90          1
    91          1
    96         12
    97         17
    98         11
    99          5
   100          6
   101          3
   102          1
   105          4
   112          1
   114          3
   127          1
   128         62
   129         15
   130          6
   131          1
   145        129
   146         10
   147          6