##TITLE=Library Entry 62381
##JCAMP-DX=Revision 4.10 
##DATA TYPE=MASS SPECTRUM
##SAMPLE DESCRIPTION=Chemical Concepts
##NAMES=HP
##CAS NAME=2(3H)-Furanone, dihydro-3-(phenylmethyl)-
##MOLFORM=C11H12O2
##CAS REGISTRY NO=61129-28-0
##MP= -300
##BP= -300
##MW= 176
##$RETENTION INDEX=0
##$CONDENSED SPECTRUM=NO
##NPOINTS= 108
##XYDATA=(XY..XY) 1 
    26          7
    27         67
    29         29
    30          5
    31          3
    37          3
    38         14
    39        128
    40         13
    41         59
    42          7
    43         21
    44        381
    45          6
    46          2
    49          1
    50         40
    51        109
    52         28
    53         20
    54          6
    55         37
    56          6
    57         25
    58         20
    59          1
    60          1
    61          3
    62         16
    63         59
    64         32
    65        180
    66         11
    67          2
    68          2
    69          7
    70          5
    71         12
    72          0
    73          1
    74         13
    75         14
    76         18
    77         73
    78         82
    79         17
    80          1
    81          3
    82          2
    83          4
    84          2
    85         10
    86          3
    87          5
    88          2
    89         35
    90         13
    91        999
    92         95
    93          5
    94          2
    95          1
    96          1
    97          3
    98          7
    99          9
   100          1
   101          3
   102         31
   103         54
   104        254
   105         32
   106          3
   107          7
   111          1
   112          0
   113          2
   114          2
   115         85
   116         30
   117        106
   118         28
   119          9
   120         24
   121          2
   126          1
   127          8
   128         15
   129         25
   130         78
   131        112
   132         23
   133          3
   134          1
   135          1
   139          2
   141         29
   142          6
   143          0
   145          4
   146         15
   147        344
   148        492
   149         51
   175          6
   176        350
   177         48
   178          4