##TITLE=Library Entry 33296
##JCAMP-DX=Revision 4.10 
##DATA TYPE=MASS SPECTRUM
##SAMPLE DESCRIPTION=S.A. Rang et al., IR & MS of Unsatd. Hydrocarbons, 1977
##NAMES=HP
##CAS NAME=2,3-Octadiene, 7-methyl-
##MOLFORM=C9H16
##CAS REGISTRY NO=61129-33-7
##MP= -300
##BP= -300
##MW= 124
##$RETENTION INDEX=0
##$CONDENSED SPECTRUM=NO
##NPOINTS= 39
##XYDATA=(XY..XY) 1 
    15         34
    26         23
    27        321
    29        182
    39        466
    41        704
    42         67
    43        184
    50         42
    51        104
    52         58
    53        250
    54         38
    55        122
    56         54
    57        194
    63         29
    65        202
    66         65
    67        592
    68        999
    69        109
    70          9
    77         64
    78         15
    79        119
    80         18
    81        128
    82         23
    83          4
    85         24
    93         13
    94          5
    95         41
   100         70
   108          6
   110          6
   124          6
   125          0