##TITLE=Library Entry 76752
##JCAMP-DX=Revision 4.10 
##DATA TYPE=MASS SPECTRUM
##SAMPLE DESCRIPTION=D.HENNEBERG, MAX-PLANCK INSTITUTE, MULHEIM, WEST GERMAN
Y
##NAMES=HP
##CAS NAME=Benzene, (3,3-dimethyl-4-pentenyl)-
##MOLFORM=C13H18
##CAS REGISTRY NO=61142-18-5
##MP= -300
##BP= -300
##MW= 174
##$RETENTION INDEX=0
##$CONDENSED SPECTRUM=NO
##NPOINTS= 90
##XYDATA=(XY..XY) 1 
    24          3
    26          6
    27        138
    29         70
    30          0
    34          1
    35          2
    36          2
    37          9
    38          7
    39        171
    40         24
    41        755
    42         49
    43         44
    47          2
    48          0
    49          1
    50         20
    51         87
    52         24
    53         61
    54          9
    55        394
    56         24
    57          9
    58          6
    59          6
    60          2
    61          2
    62          6
    63         34
    64         10
    65        168
    66         12
    67         56
    68         17
    69        579
    70        181
    71         10
    72          0
    74          4
    75          9
    76          8
    77        104
    78         42
    79         85
    80          5
    81         19
    82         34
    83        130
    84          8
    86          1
    87          3
    88          1
    89         23
    90         13
    91        742
    92        150
    93          9
    96          0
    99          4
   100          3
   101         11
   102         21
   103         56
   104        999
   105        627
   106         57
   107          1
   113          1
   115         17
   116         12
   117         68
   118         52
   119          4
   126          0
   127          4
   128         11
   129          6
   130          3
   131         58
   132          8
   141          2
   143          0
   145          7
   146          1
   147          0
   159          5
   174          6