##TITLE=Library Entry 9134
##JCAMP-DX=Revision 4.10 
##DATA TYPE=MASS SPECTRUM
##SAMPLE DESCRIPTION=D.HENNEBERG, MAX-PLANCK INSTITUTE, MULHEIM, WEST GERMAN
Y
##NAMES=HP
##CAS NAME=2-Pentene, 2-methoxy-
##MOLFORM=C6H12O
##CAS REGISTRY NO=61142-47-0
##MP= -300
##BP= -300
##MW= 100
##$RETENTION INDEX=0
##$CONDENSED SPECTRUM=NO
##NPOINTS= 39
##XYDATA=(XY..XY) 1 
    36         17
    37         20
    38         40
    39        342
    40        111
    41        680
    42        680
    43        999
    44        163
    45        310
    46         50
    50         10
    51         20
    52         10
    53        110
    54         30
    55        840
    56         80
    57        120
    58         56
    59        310
    60         20
    61          6
    65         20
    66          5
    67        120
    68         30
    69        100
    70         50
    71        120
    72        902
    73         90
    83         20
    84         10
    85        790
    86        100
    87         20
    99         70
   100        430