##TITLE=Library Entry 97454
##JCAMP-DX=Revision 4.10 
##DATA TYPE=MASS SPECTRUM
##SAMPLE DESCRIPTION=D.HENNEBERG, MAX-PLANCK INSTITUTE, MULHEIM, WEST GERMAN
Y
##NAMES=HP
##CAS NAME=Benzene, 1,1'-(1-ethenyl-1,3-propanediyl)bis-
##MOLFORM=C17H18
##CAS REGISTRY NO=61141-97-7
##MP= -300
##BP= -300
##MW= 222
##$RETENTION INDEX=1714
##$CONDENSED SPECTRUM=NO
##NPOINTS= 83
##XYDATA=(XY..XY) 1 
    27         14
    28         45
    29          2
    32          7
    38          3
    39         74
    40          9
    41         15
    42          1
    43          3
    44          1
    45          0
    49          0
    50         18
    51         75
    52         21
    53          7
    55          2
    56          0
    58         44
    59          8
    60          0
    61          0
    62          4
    63         38
    64         10
    65         77
    66          6
    67          1
    69          0
    70          0
    71          0
    73          4
    74          3
    75          9
    76         19
    77         70
    78         73
    79          8
    80          0
    82          0
    83          1
    87          1
    88          2
    89         54
    90         19
    91        278
    92         25
    93          1
    98          1
   100          0
   101          3
   102         26
   103         92
   104         51
   105         13
   106          5
   107          1
   113          4
   114          4
   115        365
   116         87
   117        999
   118        806
   119         70
   120          3
   129          0
   130          0
   131          1
   133          1
   134          0
   144          0
   146          0
   147          1
   177          0
   191          0
   193          0
   207          6
   208          1
   209          0
   221          0
   222          1
   223          0