##TITLE=Library Entry 68756
##JCAMP-DX=Revision 4.10 
##DATA TYPE=MASS SPECTRUM
##SAMPLE DESCRIPTION=D.HENNEBERG, MAX-PLANCK INSTITUTE, MULHEIM, WEST GERMAN
Y
##NAMES=HP
##CAS NAME=1,2-Oxaborole, 2,3,4-triethyl-2,5-dihydro-5,5-dimethyl-
##MOLFORM=C11H21BO
##CAS REGISTRY NO=61142-64-1
##MP= -300
##BP= -300
##MW= 180
##$RETENTION INDEX=0
##$CONDENSED SPECTRUM=NO
##NPOINTS= 110
##XYDATA=(XY..XY) 1 
    26         82
    27        224
    28        108
    29        292
    30          7
    31         11
    32          6
    36          6
    37         46
    38         22
    39        256
    40         81
    41        606
    42         78
    43        221
    44          1
    45          2
    47          3
    49          6
    50         37
    51         90
    52         45
    53        196
    54         35
    55        351
    56         67
    57        166
    58          7
    59         13
    60          3
    61          7
    62          6
    63         30
    64         21
    65        136
    66         47
    67        888
    68         92
    69        210
    70         16
    71          5
    72          5
    73          1
    74          6
    75          6
    76          6
    77        135
    78         33
    79        161
    80         39
    81        245
    82         38
    83         29
    84          6
    85         16
    86          2
    87          2
    88          2
    89          6
    90          1
    91         76
    92         28
    93        168
    94         56
    95        999
    96         94
    97         74
    98          9
    99          4
   101          2
   103          4
   105          7
   106          8
   107         42
   108         33
   109        428
   110         41
   111         12
   112          1
   115          1
   119          6
   120         20
   121         62
   122        117
   123        382
   124        136
   125         98
   126          9
   127          4
   133          4
   134          6
   135         21
   136         26
   137         83
   138         11
   149          7
   150        226
   151        962
   152         94
   153          8
   163          2
   164         22
   165         76
   166          9
   167          2
   178          1
   179         36
   180        135
   181         14
   182          1