##TITLE=Library Entry 783
##JCAMP-DX=Revision 4.10 
##DATA TYPE=MASS SPECTRUM
##SAMPLE DESCRIPTION=D.HENNEBERG, MAX-PLANCK INSTITUTE, MULHEIM, WEST GERMAN
Y
##NAMES=HP
##CAS NAME=1,2-Cyclopropanedicarboxylic acid, 3-(1-methylethenyl)-, diethyl
 ester
##MOLFORM=C12H18O4
##CAS REGISTRY NO=61142-55-0
##MP= -300
##BP= -300
##MW= 226
##$RETENTION INDEX=0
##$CONDENSED SPECTRUM=NO
##NPOINTS= 147
##XYDATA=(XY..XY) 1 
    27        291
    28        501
    29        999
    30         24
    31         30
    32         35
    36          1
    37          3
    38         15
    39        176
    40         30
    41        193
    42         21
    43        132
    44         68
    45         33
    49          4
    50         14
    51         39
    52         28
    53         99
    54         28
    55        119
    56         14
    57         32
    58          5
    59          4
    60          3
    62          2
    63         14
    64          6
    65         47
    66         15
    67        112
    68         14
    69         26
    70          7
    71         79
    72          8
    73          6
    74          3
    76          2
    77        109
    78         38
    79        479
    80        181
    81        356
    82         36
    83         15
    84         10
    85         14
    86          1
    90          2
    91         60
    92          7
    93         35
    94         11
    95         34
    96         19
    97        101
    98         12
    99         97
   100         15
   101          3
   103          6
   104          3
   105         31
   106         21
   107        218
   108         40
   109        160
   110         18
   111         39
   112          7
   113          7
   115          7
   116          6
   117         14
   118          3
   119         32
   120         12
   121          7
   122         12
   123         14
   124         53
   125        179
   126         36
   127         80
   128         18
   129          7
   130          6
   131         12
   132          3
   133         19
   134          9
   135         26
   136          5
   137          7
   138          0
   139         29
   140          3
   141          2
   144          5
   145         20
   146          6
   147          3
   148          8
   149         12
   150          1
   151         24
   152        126
   153        585
   154         59
   155         10
   156          3
   157          3
   158          2
   159         24
   160          7
   161         14
   162          3
   166          1
   171          1
   172          1
   173          5
   174         13
   175          1
   178          0
   179          1
   180         50
   181         51
   182          6
   183          4
   184          0
   186          0
   187          4
   188          1
   197          2
   201          3
   207          1
   211          2
   216          4
   218          1
   223          1
   226          8
   227          3
   228          2