##TITLE=Library Entry 77956
##JCAMP-DX=Revision 4.10 
##DATA TYPE=MASS SPECTRUM
##SAMPLE DESCRIPTION=D.HENNEBERG, MAX-PLANCK INSTITUTE, MULHEIM, WEST GERMAN
Y
##NAMES=HP
##CAS NAME=Benzene, (1,2,2-trimethyl-3-butenyl)-
##MOLFORM=C13H18
##CAS REGISTRY NO=61142-17-4
##MP= -300
##BP= -300
##MW= 174
##$RETENTION INDEX=0
##$CONDENSED SPECTRUM=NO
##NPOINTS= 95
##XYDATA=(XY..XY) 1 
    24          1
    25          0
    26          4
    27         72
    29         15
    31         10
    33          1
    34          1
    35          1
    38          3
    39         62
    41        191
    42         12
    43          9
    47          1
    48          0
    49          1
    50          9
    51         43
    52          9
    53         29
    54          2
    55         10
    56          2
    57          2
    58          3
    59          4
    60          3
    61          1
    62          1
    63          9
    64          4
    65         18
    66          3
    67         13
    68          9
    69        105
    70         17
    71          3
    72          2
    74          3
    75          9
    76          5
    77         91
    78         28
    79         76
    80          7
    81          2
    83          0
    84          0
    86          0
    87          0
    89          5
    90          1
    91         40
    92          4
    95          0
    97          0
    98          1
    99          1
   100          3
   101          9
   102         10
   103         47
   104         90
   105        999
   106         91
   107          4
   108          1
   109          0
   114          2
   115         12
   116          3
   117         13
   118          2
   125          0
   127          0
   128          9
   129          4
   130          1
   131          5
   132          0
   133          0
   135          0
   139          0
   141          1
   142          1
   143          0
   144          1
   147          1
   152          0
   159          1
   167          0
   169          0
   174          2