##TITLE=Library Entry 20698
##JCAMP-DX=Revision 4.10 
##DATA TYPE=MASS SPECTRUM
##SAMPLE DESCRIPTION=Chemical Concepts
##NAMES=HP
##CAS NAME=Cyclohexanamine, N-cycloheptylidene-
##MOLFORM=C13H23N
##CAS REGISTRY NO=6114-69-8
##MP= -300
##BP= -300
##MW= 193
##$RETENTION INDEX=0
##$CONDENSED SPECTRUM=NO
##NPOINTS= 123
##XYDATA=(XY..XY) 1 
    27        150
    28         93
    29        196
    30         88
    32          1
    36          1
    37          5
    38          5
    39        189
    40         39
    41        767
    42        100
    43        119
    44         44
    45          1
    49          2
    50          8
    51         15
    52         17
    53        133
    54        440
    55        999
    56        205
    57        161
    58         96
    59          3
    60          1
    62          0
    63          3
    64          1
    65         26
    66         23
    67        243
    68        169
    69        119
    70         47
    71         15
    72          2
    74          0
    75          1
    77         32
    78         12
    79         66
    80        111
    81        140
    82        334
    83        782
    84        127
    85         19
    86          1
    90          1
    91         15
    92          5
    93         28
    94         70
    95        115
    96        234
    97         54
    98        216
    99         18
   100          7
   104          1
   105          4
   106          8
   107          7
   108         46
   109         34
   110        114
   111         72
   112        759
   113         62
   114          3
   116          1
   117          2
   118          3
   119          4
   120          6
   121          5
   122         61
   123         59
   124         82
   125         23
   126          3
   130          1
   132          3
   133          2
   134          8
   135          5
   136        314
   137         77
   138        152
   139        104
   140          9
   141          2
   142          2
   146          1
   147          1
   148          6
   149          3
   150        312
   151         99
   152         89
   153         11
   160          0
   161          0
   162          4
   163          2
   164        140
   165        144
   166         19
   167          1
   176          2
   177          1
   178        117
   179         35
   180          4
   181          1
   190          2
   191          5
   192         77
   193        314
   194         49
   195         10