##TITLE=Library Entry 22041
##JCAMP-DX=Revision 4.10 
##DATA TYPE=MASS SPECTRUM
##SAMPLE DESCRIPTION=D.HENNEBERG, MAX-PLANCK INSTITUTE, MULHEIM, WEST GERMAN
Y
##NAMES=HP
##CAS NAME=Cyclobutane, 1,2-diethyl-, cis-
##MOLFORM=C8H16
##CAS REGISTRY NO=61141-50-2
##MP= -300
##BP= -300
##MW= 112
##$RETENTION INDEX=0
##$CONDENSED SPECTRUM=NO
##NPOINTS= 25
##XYDATA=(XY..XY) 1 
    27        292
    28        110
    29        238
    39        267
    40         44
    41        968
    42        361
    43         95
    51         10
    53         47
    54         49
    55        670
    56        999
    57        189
    58          1
    67         22
    68         12
    69        185
    70        264
    71         13
    82         16
    83        140
    84        155
   112          5
   113          0