##TITLE=Library Entry 22016
##JCAMP-DX=Revision 4.10 
##DATA TYPE=MASS SPECTRUM
##SAMPLE DESCRIPTION=D.HENNEBERG, MAX-PLANCK INSTITUTE, MULHEIM, WEST GERMAN
Y
##NAMES=HP
##CAS NAME=Cyclobutane, 1,2-diethyl-
##MOLFORM=C8H16
##CAS REGISTRY NO=61141-83-1
##MP= -300
##BP= -300
##MW= 112
##$RETENTION INDEX=0
##$CONDENSED SPECTRUM=NO
##NPOINTS= 58
##XYDATA=(XY..XY) 1 
    24          3
    25          2
    26          6
    27        123
    28         51
    29        115
    31          1
    32          0
    33          0
    36          4
    37         10
    38          6
    39        151
    40         31
    41        694
    42        308
    43        122
    45          1
    46          2
    47          0
    48          1
    49          2
    50         10
    51         11
    52          7
    53         42
    54         61
    55        674
    56        999
    57        186
    58          6
    59          0
    61          0
    62          1
    63          5
    65         12
    66          3
    67         37
    68         25
    69        219
    70        344
    71         37
    72          5
    76          0
    77          6
    78          1
    79          7
    81          8
    82         44
    83        218
    84        284
    85         24
    97         46
    98          2
    99          0
   107          0
   112         40
   113          3