##TITLE=Library Entry 48889
##JCAMP-DX=Revision 4.10 
##DATA TYPE=MASS SPECTRUM
##SAMPLE DESCRIPTION=D.HENNEBERG, MAX-PLANCK INSTITUTE, MULHEIM, WEST GERMAN
Y
##NAMES=HP
##CAS NAME=Cyclohexene, 3-ethenyl-4-(1-methylethenyl)-
##MOLFORM=C11H16
##CAS REGISTRY NO=61142-61-8
##MP= -300
##BP= -300
##MW= 148
##$RETENTION INDEX=0
##$CONDENSED SPECTRUM=NO
##NPOINTS= 115
##XYDATA=(XY..XY) 1 
    22          0
    24          0
    25          0
    26          7
    27        133
    28         13
    29         52
    30          1
    31          1
    32          1
    37          5
    38          9
    39        207
    40         41
    41        195
    42         14
    43          4
    44          6
    45          1
    46          0
    47          0
    48          0
    49          2
    50         21
    51         74
    52         42
    53         99
    54         12
    55         45
    56          2
    57          4
    58          5
    59          3
    60          0
    61          1
    62          6
    63         22
    64          7
    65         74
    66         24
    67         88
    68         37
    69          7
    70          3
    71          1
    72          1
    73          2
    74          5
    75         17
    76          8
    77        195
    78        107
    79        999
    80        817
    81         77
    82          6
    83          1
    84          0
    85          0
    86          0
    87          1
    88          0
    89          5
    90          4
    91        269
    92        102
    93         80
    94        105
    95          7
    96          1
    98          0
    99          0
   100          0
   101          1
   102          3
   103         15
   104         11
   105        148
   106        118
   107         81
   108          7
   109          0
   112          0
   113          1
   114          0
   115         15
   116          6
   117         13
   118          4
   119         56
   120         35
   121          4
   123          0
   124          0
   125          0
   126          0
   127          2
   128          7
   129         12
   130          2
   131         12
   132          2
   133        229
   134         23
   135          1
   141          2
   142          1
   143          1
   144          1
   145          0
   146          2
   147          9
   148         35
   149          2
   150          0