##TITLE=Library Entry 49097
##JCAMP-DX=Revision 4.10 
##DATA TYPE=MASS SPECTRUM
##SAMPLE DESCRIPTION=D.HENNEBERG, MAX-PLANCK INSTITUTE, MULHEIM, WEST GERMAN
Y
##NAMES=HP
##CAS NAME=Cyclohexene, 3,4-diethenyl-3-methyl-
##MOLFORM=C11H16
##CAS REGISTRY NO=61141-77-3
##MP= -300
##BP= -300
##MW= 148
##$RETENTION INDEX=0
##$CONDENSED SPECTRUM=NO
##NPOINTS= 100
##XYDATA=(XY..XY) 1 
    26          5
    27         78
    28         11
    29         31
    30          0
    32          0
    36          0
    37          1
    38          5
    39        111
    40         16
    41         96
    42          5
    43          3
    44          0
    45          0
    46          0
    47          0
    49          0
    50         12
    51         41
    52         20
    53         62
    54         18
    55         37
    56          2
    57          2
    58          5
    59          2
    60          0
    61          0
    62          3
    63         13
    64          7
    65         46
    66         23
    67         38
    68          4
    69          2
    70         11
    71          0
    72          0
    73          0
    74          1
    75          6
    76          2
    77        146
    78         47
    79        999
    80        162
    81         34
    82          4
    83          1
    85          0
    86          0
    87          0
    88          0
    89          4
    90          1
    91        150
    92         70
    93        137
    94        456
    95         37
    96          1
    97          0
    98          0
   102          1
   103         10
   104          4
   105         68
   106         53
   107         39
   108          3
   113          0
   114          0
   115         10
   116          4
   117         10
   118          3
   119         54
   120         29
   121          4
   122          0
   126          0
   127          1
   128          2
   129          1
   130          0
   131          3
   132          1
   133         79
   134          9
   135          0
   141          0
   145          0
   146          0
   147          3
   148         14
   149          1