##TITLE=Library Entry 60014
##JCAMP-DX=Revision 4.10 
##DATA TYPE=MASS SPECTRUM
##SAMPLE DESCRIPTION=D.HENNEBERG, MAX-PLANCK INSTITUTE, MULHEIM, WEST GERMAN
Y
##NAMES=HP
##CAS NAME=Benzene, 1,1'-[1-(2,2-dimethyl-3-butenyl)-1,3-propanediyl]bis-
##MOLFORM=C21H26
##CAS REGISTRY NO=61142-62-9
##MP= -300
##BP= -300
##MW= 278
##$RETENTION INDEX=0
##$CONDENSED SPECTRUM=NO
##NPOINTS= 143
##XYDATA=(XY..XY) 1 
    24          2
    25          0
    26          1
    27         24
    29         10
    30          0
    33          0
    35          0
    37          1
    39         38
    40          1
    41        231
    42          6
    43         11
    44         27
    45          0
    49          3
    50          4
    51         19
    52          8
    53         17
    54          2
    55         55
    56          3
    57          5
    61          0
    62          1
    63          6
    64          2
    65         66
    66          4
    67         14
    69        430
    70         33
    71          7
    73          3
    74          1
    75          5
    76          1
    77         41
    78         30
    79         26
    80          3
    81          3
    82          8
    83         22
    84          1
    85          1
    86          0
    87          1
    88          0
    89         10
    90          8
    91        999
    92        125
    93          6
    95         15
    96          3
    97          0
    98          0
    99          1
   100          2
   101          1
   102          6
   103         41
   104        158
   105        147
   106         14
   107          0
   109          2
   111          1
   113          0
   114          1
   115         36
   116         12
   117        232
   118         37
   119          5
   120          0
   126          1
   127          2
   128         10
   129         10
   130         58
   131        278
   132         28
   133          2
   136          0
   139          1
   140          0
   141          3
   142          1
   143          4
   144          2
   145          8
   146          7
   147          1
   148          0
   151          0
   152          2
   155          0
   157          3
   158          1
   159          1
   162          0
   165          3
   167          2
   168          0
   169          1
   171          0
   173         37
   174          9
   175          1
   176          0
   177          0
   178          5
   179          4
   180          3
   181          0
   182          0
   185          0
   186          3
   187          4
   189          1
   190          1
   192          2
   193         52
   194         12
   195          5
   196          5
   197          0
   200          1
   202          0
   205          5
   206          2
   207          2
   208        138
   209         24
   210          1
   222          2
   223          1
   278         16
   279          4