##TITLE=Library Entry 83505
##JCAMP-DX=Revision 4.10 
##DATA TYPE=MASS SPECTRUM
##SAMPLE DESCRIPTION=D.HENNEBERG, MAX-PLANCK INSTITUTE, MULHEIM, WEST GERMAN
Y
##NAMES=HP
##CAS NAME=Cyclohexene, 1-ethyl-6-ethylidene-
##MOLFORM=C10H16
##CAS REGISTRY NO=61141-57-9
##MP= -300
##BP= -300
##MW= 136
##$RETENTION INDEX=0
##$CONDENSED SPECTRUM=NO
##NPOINTS= 41
##XYDATA=(XY..XY) 1 
    27         73
    28        351
    29         72
    38          0
    39        113
    40        105
    41        124
    43         14
    50          6
    51         44
    52         17
    53         63
    54          1
    55         41
    63         12
    65         60
    66          7
    67         66
    68          0
    77        552
    78         31
    79        439
    80         28
    81          9
    91        298
    92         32
    93        169
    94         14
   103         10
   105         98
   106         15
   107        999
   108        100
   115          2
   117          1
   119          4
   121         90
   122          1
   135          1
   136        343
   137         28