##TITLE=Library Entry 67922
##JCAMP-DX=Revision 4.10 
##DATA TYPE=MASS SPECTRUM
##SAMPLE DESCRIPTION=D.HENNEBERG, MAX-PLANCK INSTITUTE, MULHEIM, WEST GERMAN
Y
##NAMES=HP
##CAS NAME=Cyclopentene, 1,4-dimethyl-5-(1-methylethyl)-
##MOLFORM=C10H18
##CAS REGISTRY NO=61142-33-4
##MP= -300
##BP= -300
##MW= 138
##$RETENTION INDEX=0
##$CONDENSED SPECTRUM=NO
##NPOINTS= 86
##XYDATA=(XY..XY) 1 
    27         90
    28        181
    29         47
    30          0
    31          0
    32          2
    34          0
    35          0
    37          2
    38          3
    39         84
    40          9
    41        139
    42          9
    43         40
    44          9
    46          0
    48          1
    49          1
    50          6
    51         22
    52         10
    53         48
    54          7
    55        122
    56          9
    57          1
    61          2
    62          1
    63          4
    64          2
    65         25
    66          4
    67        298
    68         17
    69          8
    70          0
    73          0
    75          0
    76          0
    77         44
    78          8
    79         89
    80         22
    81         85
    82         14
    83         15
    84          2
    87          0
    89          0
    91         33
    92          4
    93         62
    94         97
    95        999
    96         95
    97          4
    98          0
   101          0
   102          0
   103          1
   104          0
   105          6
   106          0
   107          4
   108          1
   109          7
   110          3
   111          0
   112          0
   114          0
   115          0
   116          0
   117          0
   119          0
   121          2
   123        114
   124          2
   128          0
   131          0
   133          0
   135          0
   137          1
   138        100
   139         12
   140          0