##TITLE=Library Entry 58971
##JCAMP-DX=Revision 4.10 
##DATA TYPE=MASS SPECTRUM
##SAMPLE DESCRIPTION=D.HENNEBERG, MAX-PLANCK INSTITUTE, MULHEIM, WEST GERMAN
Y
##NAMES=HP
##CAS NAME=Cyclohexane, 1-ethenyl-3-methylene-5-(1-propenylidene)-
##MOLFORM=C12H16
##CAS REGISTRY NO=61142-28-7
##MP= -300
##BP= -300
##MW= 160
##$RETENTION INDEX=0
##$CONDENSED SPECTRUM=NO
##NPOINTS= 125
##XYDATA=(XY..XY) 1 
    23          0
    24          0
    25          1
    26         13
    27        232
    28         13
    29         50
    30          0
    33          1
    34          1
    35          1
    36          0
    37          7
    38         20
    39        415
    40         79
    41        469
    42         18
    43          6
    44          0
    45          1
    46          1
    47          1
    48          1
    49          2
    50         36
    51        149
    52         67
    53        174
    54         35
    55         42
    56          2
    58         11
    60          1
    61          2
    62         14
    63         63
    64         47
    65        204
    66         67
    67        137
    68         16
    69         20
    70          7
    71         11
    73          1
    74          6
    75         20
    76         12
    77        377
    78        187
    79        398
    80         98
    81         43
    82          8
    83          1
    84          0
    85          1
    86          2
    87          5
    88          3
    89         22
    90         13
    91        999
    92        187
    93        113
    94         30
    95          6
    96          1
    98          8
    99          1
   100          1
   101          6
   102         14
   103         91
   104        123
   105        336
   106        133
   107         18
   108          4
   109          1
   110          1
   111          1
   112          3
   113          9
   114          5
   115        110
   116         71
   117        376
   118        130
   119        166
   120         16
   121          0
   122          0
   123          0
   124          1
   126          3
   127         16
   128         43
   129         55
   130         57
   131        413
   132         98
   133         13
   134          1
   137          0
   139          1
   140          0
   141          7
   142          4
   143         13
   144          7
   145        173
   146         19
   147          0
   152          0
   153          0
   155          0
   156          0
   157          1
   158          4
   159         15
   160        226
   161         27
   162          1