##TITLE=Library Entry 2148
##JCAMP-DX=Revision 4.10 
##DATA TYPE=MASS SPECTRUM
##SAMPLE DESCRIPTION=D.HENNEBERG, MAX-PLANCK INSTITUTE, MULHEIM, WEST GERMAN
Y
##NAMES=HP
##CAS NAME=1-Propene, 1-(2-propenyloxy)-, (E)-
##MOLFORM=C6H10O
##CAS REGISTRY NO=61142-13-0
##MP= -300
##BP= -300
##MW= 98
##$RETENTION INDEX=0
##$CONDENSED SPECTRUM=NO
##NPOINTS= 62
##XYDATA=(XY..XY) 1 
    25          1
    26         24
    27        119
    28         98
    29         89
    30         13
    31         11
    32          1
    36          0
    37          8
    38         20
    39        253
    40         35
    41        999
    42        144
    43        152
    44          3
    45          0
    47          0
    48          0
    49          1
    50          5
    51          7
    52          3
    53         26
    54         12
    55         97
    56        223
    57         75
    58         26
    59          1
    60          0
    61          0
    62          1
    63          2
    64          0
    65          6
    66          3
    67         22
    68          5
    69        183
    70         61
    71          6
    72          0
    74          2
    77         38
    78          1
    79         12
    80         27
    81          4
    82          0
    83         54
    84          2
    85          0
    87          0
    91          0
    94          0
    95          2
    96          6
    97         12
    98         51
    99          3