##TITLE=Library Entry 66400
##JCAMP-DX=Revision 4.10 
##DATA TYPE=MASS SPECTRUM
##SAMPLE DESCRIPTION=D.HENNEBERG, MAX-PLANCK INSTITUTE, MULHEIM, WEST GERMAN
Y
##NAMES=HP
##CAS NAME=Cyclohexene, 4-ethenyl-3-(1-methyl-1-propenyl)-
##MOLFORM=C12H18
##CAS REGISTRY NO=61142-15-2
##MP= -300
##BP= -300
##MW= 162
##$RETENTION INDEX=0
##$CONDENSED SPECTRUM=NO
##NPOINTS= 116
##XYDATA=(XY..XY) 1 
    26          3
    27         90
    28          2
    29         56
    30          1
    36          0
    37          0
    38          3
    39        107
    40         14
    41        140
    42          5
    43          7
    44          0
    45          0
    47          0
    49          0
    50          8
    51         34
    52         18
    53         60
    54         13
    55         50
    56          4
    57          2
    58          2
    61          3
    62          2
    63         12
    64          6
    65         50
    66         15
    67         47
    68          4
    69         11
    70          3
    71          3
    72          0
    74         19
    75          3
    76          2
    77        165
    78         37
    79        124
    80        103
    81         23
    82         13
    83          3
    84         14
    85          1
    86          0
    88          0
    89          6
    90          2
    91        210
    92         86
    93        999
    94         87
    95         13
    96          2
    97          0
    98          0
    99          0
   100          0
   101          0
   102          2
   103         11
   104          6
   105        103
   106         32
   107         65
   108        442
   109         37
   110          2
   112          0
   113          0
   114          0
   115         11
   116          5
   117         13
   118          3
   119         44
   120         30
   121         12
   122          1
   126          0
   127          2
   128          7
   129          5
   130          2
   131          9
   132          3
   133         63
   134         19
   135          1
   139          0
   140          0
   141          3
   142          1
   143          3
   144          1
   145          8
   146          1
   147         78
   148          9
   149          0
   153          0
   155          0
   156          1
   157          0
   158          1
   159          0
   160          3
   161          2
   162         75
   163         10