##TITLE=Library Entry 85738
##JCAMP-DX=Revision 4.10 
##DATA TYPE=MASS SPECTRUM
##SAMPLE DESCRIPTION=D.HENNEBERG, MAX-PLANCK INSTITUTE, MULHEIM, WEST GERMAN
Y
##NAMES=HP
##CAS NAME=1,3-Hexadiene, 2,3,5-trimethyl-
##MOLFORM=C9H16
##CAS REGISTRY NO=61142-34-5
##MP= -300
##BP= -300
##MW= 124
##$RETENTION INDEX=0
##$CONDENSED SPECTRUM=NO
##NPOINTS= 78
##XYDATA=(XY..XY) 1 
    27        133
    29         73
    30          0
    33          0
    37          5
    38          8
    39        223
    40         32
    41        387
    42         25
    43        283
    45          3
    46          1
    48          0
    49          2
    50         15
    51         49
    52         20
    53        120
    54         18
    55        335
    56         19
    57         15
    58          0
    59          2
    60          1
    61          1
    62          4
    63         10
    64          3
    65         63
    66         16
    67        896
    68         79
    69         92
    70          5
    71          1
    73          0
    74          1
    75          0
    76          1
    77         78
    78         16
    79        157
    80         17
    81        285
    82         31
    83         25
    84          2
    85          1
    86          0
    87          0
    88          0
    89          0
    90          0
    91         67
    92          9
    93         38
    94         35
    95         42
    96          8
   100          0
   102          0
   103          2
   104          0
   105         10
   106          1
   107         38
   108         10
   109        999
   110         73
   111          2
   115          0
   122          0
   123          8
   124        363
   125         35
   126          1