##TITLE=Library Entry 37298
##JCAMP-DX=Revision 4.10 
##DATA TYPE=MASS SPECTRUM
##SAMPLE DESCRIPTION=D.HENNEBERG, MAX-PLANCK INSTITUTE, MULHEIM, WEST GERMAN
Y
##NAMES=HP
##CAS NAME=1-Decene, 8-methyl-
##MOLFORM=C11H22
##CAS REGISTRY NO=61142-79-8
##MP= -300
##BP= -300
##MW= 154
##$RETENTION INDEX=1056
##$CONDENSED SPECTRUM=NO
##NPOINTS= 63
##XYDATA=(XY..XY) 1 
    22          0
    25         12
    26         11
    27        186
    28         10
    29        428
    30          9
    31          1
    33          0
    35          1
    36          6
    37          6
    38          5
    39        197
    40         24
    41        859
    42        115
    43        593
    44          3
    47          0
    50          3
    51          7
    52          5
    53         49
    54         71
    55        950
    56        380
    57        688
    58         23
    61          0
    63          0
    65          9
    66          3
    67         72
    68         36
    69        644
    70        999
    71        263
    72         13
    77          1
    79          8
    80          0
    81         30
    82         34
    83        492
    84        106
    85         12
    86          1
    95          7
    96          9
    97        103
    98         36
    99          0
   110          0
   111          9
   112          9
   113          1
   124          9
   125         98
   126         20
   150          0
   154          5
   155          0