##TITLE=Library Entry 33031
##JCAMP-DX=Revision 4.10 
##DATA TYPE=MASS SPECTRUM
##SAMPLE DESCRIPTION=D.HENNEBERG, MAX-PLANCK INSTITUTE, MULHEIM, WEST GERMAN
Y
##NAMES=HP
##CAS NAME=1,3-Hexadiene, 3-ethyl-2-methyl-
##MOLFORM=C9H16
##CAS REGISTRY NO=61142-36-7
##MP= -300
##BP= -300
##MW= 124
##$RETENTION INDEX=1031
##$CONDENSED SPECTRUM=NO
##NPOINTS= 92
##XYDATA=(XY..XY) 1 
    26         52
    27        220
    29        141
    30          2
    31          2
    33          0
    34          0
    35          0
    36          1
    37          3
    38         13
    39        259
    41        428
    42         33
    43        138
    45          2
    46          2
    47          1
    48          0
    49          1
    50         24
    51         63
    52         31
    53        160
    54         31
    55        383
    56         32
    57         13
    58          1
    59          2
    60          0
    61          1
    62          6
    63         19
    64          5
    65         71
    66         21
    67        999
    68         95
    69         75
    70         26
    71          2
    73          2
    74          4
    75          2
    76          1
    77         97
    78         15
    79        127
    80         37
    81        212
    82         54
    83         15
    84          2
    85          1
    86          0
    87          0
    88          1
    89          1
    90          0
    91         62
    92         11
    93         90
    94         18
    95        768
    96         60
    97          3
    98          0
    99          0
   102          0
   103          1
   104          0
   105          6
   106          0
   107         13
   108          5
   109        266
   110         22
   111          0
   112          0
   113          0
   115          0
   116          0
   117          0
   119          1
   120          0
   121          1
   122          0
   123          6
   124        403
   125         41
   126          0