##TITLE=Library Entry 20307
##JCAMP-DX=Revision 4.10 
##DATA TYPE=MASS SPECTRUM
##SAMPLE DESCRIPTION=D.HENNEBERG, MAX-PLANCK INSTITUTE, MULHEIM, WEST GERMAN
Y
##NAMES=HP
##CAS NAME=Cyclohexane, 1,2,4,5-tetraethyl-
##MOLFORM=C14H28
##CAS REGISTRY NO=61142-00-5
##MP= -300
##BP= -300
##MW= 196
##$RETENTION INDEX=0
##$CONDENSED SPECTRUM=NO
##NPOINTS= 147
##XYDATA=(XY..XY) 1 
    27        101
    28         86
    29        180
    30          5
    31          4
    36          3
    37          2
    38          3
    39         76
    40        461
    41        516
    42         95
    43        373
    44         30
    45          0
    49          1
    50          5
    51         10
    52          4
    53         49
    54         24
    55        999
    56        144
    57        406
    58         15
    60          1
    63          2
    64          1
    65         17
    66          7
    67        107
    68         31
    69        919
    70        131
    71        292
    72         19
    73          1
    74          2
    75          1
    76          1
    77         22
    78          8
    79         30
    80          5
    81         72
    82         30
    83        615
    84         58
    85        209
    86         12
    87          0
    89          1
    91         10
    92          2
    93         10
    94          3
    95         64
    96         26
    97        892
    98        135
    99         21
   100          3
   101          3
   102          2
   103          1
   104          0
   105          4
   107          3
   108          6
   109         40
   110         13
   111        806
   112         76
   113          7
   114          0
   115          3
   116          1
   117          2
   118          0
   119          1
   120          1
   121          2
   122          1
   123         16
   124          3
   125        142
   126         13
   127          3
   128          1
   129          1
   130          1
   131          1
   132          0
   133          2
   134          0
   135          1
   136          1
   137         44
   138          9
   139          9
   140          8
   141          5
   142          1
   143          1
   144          0
   145          1
   148          0
   149          1
   151          1
   152          2
   153          2
   154          3
   155          1
   157          0
   160          0
   161          2
   163          2
   164          3
   165          8
   166         61
   167        413
   168         47
   169          3
   170          1
   171          0
   172          0
   173          0
   175          2
   178          1
   179          0
   180          0
   181          1
   182          0
   183          9
   184          2
   185          1
   186          0
   187          1
   189          0
   190          1
   191          2
   192          0
   194          1
   195          1
   196         61
   197         10
   198          8