##TITLE=Library Entry 68044
##JCAMP-DX=Revision 4.10 
##DATA TYPE=MASS SPECTRUM
##SAMPLE DESCRIPTION=D.HENNEBERG, MAX-PLANCK INSTITUTE, MULHEIM, WEST GERMAN
Y
##NAMES=HP
##CAS NAME=Bicyclo[2.2.1]heptane, 2-(2-methyl-1-propenyl)-
##MOLFORM=C11H18
##CAS REGISTRY NO=61142-27-6
##MP= -300
##BP= -300
##MW= 150
##$RETENTION INDEX=1111
##$CONDENSED SPECTRUM=NO
##NPOINTS= 88
##XYDATA=(XY..XY) 1 
    25          0
    26          2
    27         67
    28          2
    29         59
    30          1
    31          0
    36          0
    37          1
    38          3
    39         98
    40         18
    41        200
    42          9
    43         14
    44          1
    45          0
    46          0
    48          0
    49          0
    50          4
    51         14
    52          8
    53         57
    54         12
    55         94
    56          7
    57          1
    58          1
    59          1
    60          0
    61          0
    62          0
    63          4
    64          1
    65         28
    66        230
    67        324
    68         32
    69         15
    70          0
    71          0
    74          0
    75          1
    76          0
    77         42
    78         11
    79        100
    80         52
    81         62
    82         32
    83         18
    84          1
    89          7
    90          0
    91         27
    92          5
    93         83
    94        140
    95        999
    96         73
    97          1
    98          0
   102          0
   103          1
   104          0
   105          4
   106          2
   107         37
   108         23
   109         10
   110          0
   115          0
   116          0
   117          0
   119          5
   120          0
   121         31
   122         15
   123          1
   133          0
   135        239
   136          3
   137          0
   149          0
   150         65
   151          7
   152          0