##TITLE=Library Entry 36038
##JCAMP-DX=Revision 4.10 
##DATA TYPE=MASS SPECTRUM
##SAMPLE DESCRIPTION=D.HENNEBERG, MAX-PLANCK INSTITUTE, MULHEIM, WEST GERMAN
Y
##NAMES=HP
##CAS NAME=Cyclohexane, 1-ethyl-2,4-dimethyl-
##MOLFORM=C10H20
##CAS REGISTRY NO=61142-69-6
##MP= -300
##BP= -300
##MW= 140
##$RETENTION INDEX=0
##$CONDENSED SPECTRUM=NO
##NPOINTS= 55
##XYDATA=(XY..XY) 1 
    25          1
    26          3
    27         68
    28         35
    29         88
    30          2
    35          0
    37          0
    39         72
    40         11
    41        245
    42         48
    43        120
    44          9
    50          1
    51          6
    52          2
    53         31
    54         16
    55        564
    56        130
    57         71
    58          3
    63          1
    65          8
    66          3
    67         39
    68         22
    69        999
    70        109
    71         17
    77          6
    78          1
    79          6
    80          1
    81         21
    82         16
    83         60
    84         23
    85          5
    88          0
    91          3
    93          1
    95         29
    96          5
    97         23
    98          7
   109          3
   110         70
   111        670
   112         54
   113          1
   125          8
   140         27
   141          2