##TITLE=Library Entry 19412
##JCAMP-DX=Revision 4.10 
##DATA TYPE=MASS SPECTRUM
##SAMPLE DESCRIPTION=D.HENNEBERG, MAX-PLANCK INSTITUTE, MULHEIM, WEST GERMAN
Y
##NAMES=HP
##CAS NAME=4-Decene, 4-bromo-
##MOLFORM=C10H19Br
##CAS REGISTRY NO=61141-76-2
##MP= -300
##BP= -300
##MW= 218
##$RETENTION INDEX=0
##$CONDENSED SPECTRUM=NO
##NPOINTS= 140
##XYDATA=(XY..XY) 1 
    26         11
    27        298
    28         76
    29        420
    30          8
    32          6
    33          0
    34          0
    35          1
    36          6
    37          2
    38          7
    39        255
    40         51
    41        939
    42        152
    43        168
    44          7
    45          1
    46          0
    48          0
    49          1
    50          4
    51         37
    52         30
    53        287
    54        105
    55        999
    56         86
    57        234
    58          8
    59          2
    61          0
    62          0
    63          4
    64          1
    65         69
    66         42
    67        291
    68        116
    69        676
    70        115
    71         61
    72          3
    73          3
    74          4
    75          5
    77         49
    78         15
    79         92
    80         19
    81        566
    82        109
    83        686
    84         49
    85          6
    86          0
    87          1
    88          3
    89          1
    90          0
    91         12
    92          2
    93          7
    94          7
    95         90
    96         43
    97        280
    98         24
   100          0
   103          2
   105          5
   106          0
   107         13
   108          1
   109         56
   110          6
   111          2
   112          0
   113          1
   115          1
   116          0
   117          0
   119        140
   120        248
   121         95
   122        248
   123         12
   128          0
   129          0
   131          3
   132          2
   133         24
   134         17
   135         28
   136         10
   138         15
   139         18
   140          2
   141          0
   145          0
   146          0
   147          2
   148         36
   149         12
   150         45
   151         11
   157          0
   159          0
   160          1
   161         34
   162          9
   163         32
   164          6
   165          1
   166          0
   169          0
   175          1
   176          0
   177          2
   183          1
   189          4
   192          1
   195          0
   197          0
   199          0
   203          0
   204          2
   205          2
   207          0
   208          1
   210          0
   212          0
   213          0
   216          0
   217          2
   218        124
   219         15
   220        130
   221         14