##TITLE=Library Entry 38376
##JCAMP-DX=Revision 4.10 
##DATA TYPE=MASS SPECTRUM
##SAMPLE DESCRIPTION=D.HENNEBERG, MAX-PLANCK INSTITUTE, MULHEIM, WEST GERMAN
Y
##NAMES=HP
##CAS NAME=Cyclohexane, (3,3-dimethylpentyl)-
##MOLFORM=C13H26
##CAS REGISTRY NO=61142-22-1
##MP= -300
##BP= -300
##MW= 182
##$RETENTION INDEX=0
##$CONDENSED SPECTRUM=NO
##NPOINTS= 77
##XYDATA=(XY..XY) 1 
    24          0
    26          8
    27         61
    29        120
    30          3
    38          1
    39         58
    40          9
    41        279
    42         42
    43        659
    44         13
    45          0
    47          0
    49          0
    50          0
    51          4
    52          2
    53         30
    54         27
    55        493
    56         36
    57        177
    58          7
    59          0
    60          0
    61          0
    62          1
    63          1
    65          6
    66          3
    67         49
    68         13
    69        192
    70        477
    71        999
    72         49
    73          0
    74          0
    77         57
    78          0
    79          8
    80          1
    81         43
    82          8
    83        400
    84         27
    85         36
    86          2
    91         10
    92          1
    93          1
    94          1
    95         15
    96         54
    97        482
    98         37
    99          1
   105          1
   106          0
   107          0
   108          0
   109          4
   110         15
   111        128
   112         10
   125          6
   126          0
   147          0
   151          0
   152         32
   153        179
   154         20
   155          1
   167          9
   168          1
   176          1