##TITLE=Library Entry 66054
##JCAMP-DX=Revision 4.10 
##DATA TYPE=MASS SPECTRUM
##SAMPLE DESCRIPTION=D.HENNEBERG, MAX-PLANCK INSTITUTE, MULHEIM, WEST GERMAN
Y
##NAMES=HP
##CAS NAME=Cyclopropene, 1-methyl-3-(2-methylcyclopropyl)-
##MOLFORM=C8H12
##CAS REGISTRY NO=61142-26-5
##MP= -300
##BP= -300
##MW= 108
##$RETENTION INDEX=0
##$CONDENSED SPECTRUM=NO
##NPOINTS= 80
##XYDATA=(XY..XY) 1 
    27        324
    28        286
    29        147
    30          7
    31         26
    32         11
    33          0
    34          0
    36          1
    37         18
    38         47
    39        454
    40        154
    41        291
    42         72
    43         84
    44         43
    45         12
    46          1
    47          0
    48          1
    49          8
    50         72
    51        170
    52         83
    53        529
    54         46
    55        125
    56         26
    57         34
    58         29
    59         12
    60          0
    61          7
    62         17
    63         45
    64         12
    65        272
    66        199
    67        125
    68         92
    69          8
    70          2
    71          3
    72          1
    73          2
    74         15
    75          8
    76         10
    77        800
    78        277
    79        273
    80         36
    81         15
    82         10
    83          0
    84          2
    85          1
    86          4
    87          0
    88          0
    89          7
    90          3
    91        597
    92         69
    93        999
    94         74
    95         19
    96          2
    97          0
    98          1
   102          1
   103          8
   104          2
   105         33
   106         14
   107         56
   108         48
   109          5
   110          1