##TITLE=Library Entry 39701
##JCAMP-DX=Revision 4.10 
##DATA TYPE=MASS SPECTRUM
##SAMPLE DESCRIPTION=D.HENNEBERG, MAX-PLANCK INSTITUTE, MULHEIM, WEST GERMAN
Y
##NAMES=HP
##CAS NAME=1-Heptene, 2-methoxy-
##MOLFORM=C8H16O
##CAS REGISTRY NO=61142-46-9
##MP= -300
##BP= -300
##MW= 128
##$RETENTION INDEX=0
##$CONDENSED SPECTRUM=NO
##NPOINTS= 24
##XYDATA=(XY..XY) 1 
    40        140
    41         40
    42        260
    43        480
    44        170
    45         10
    46         40
    53         40
    54         20
    55        240
    56         40
    57         45
    58         11
    59         29
    67         20
    71         60
    72        999
    73         60
    85        450
    86         61
   109         20
   113          5
   128         70
   129          3