##TITLE=Library Entry 51933
##JCAMP-DX=Revision 4.10 
##DATA TYPE=MASS SPECTRUM
##SAMPLE DESCRIPTION=D.HENNEBERG, MAX-PLANCK INSTITUTE, MULHEIM, WEST GERMAN
Y
##NAMES=HP
##CAS NAME=Borinic acid, diethyl-, 1-cyclododecen-1-yl ester
##MOLFORM=C16H31BO
##CAS REGISTRY NO=61142-73-2
##MP= -300
##BP= -300
##MW= 250
##$RETENTION INDEX=0
##$CONDENSED SPECTRUM=NO
##NPOINTS= 126
##XYDATA=(XY..XY) 1 
    29        183
    30          4
    31          3
    36          1
    37          8
    38         11
    39        134
    40        123
    41        783
    42         80
    43        121
    44          2
    45          1
    46          0
    47          0
    50          2
    51         10
    52         13
    53        129
    54         83
    55        592
    56         79
    57         99
    58         97
    59         33
    60          1
    62          0
    63          3
    64          1
    65         26
    66         21
    67        328
    68         99
    69        418
    70        214
    71        102
    72         13
    73          1
    74          0
    75          1
    76          0
    77         31
    78          7
    79         83
    80         34
    81        331
    82         88
    83        999
    84         91
    85         16
    86          3
    87          0
    88          0
    89          0
    91         18
    92          4
    93         37
    94         19
    95        425
    96         73
    97        263
    98         71
    99          9
   100          5
   101          0
   103          0
   104          0
   105          3
   106          1
   107         18
   108         13
   109        513
   110         59
   111         54
   112         12
   113          3
   114          4
   115          0
   117          0
   119          0
   120          0
   121         17
   122         19
   123        128
   124         86
   125        144
   126         21
   127          5
   128          0
   133          0
   134          0
   135         11
   136          4
   137          6
   138         10
   139         48
   140          5
   141          1
   149          4
   150          2
   151          8
   152          1
   153          2
   154          1
   161          0
   163          3
   164          9
   165        473
   166         58
   167          6
   168          0
   178          1
   179          4
   180          1
   182         32
   183          4
   192          0
   193          2
   195          0
   207          1
   220          2
   221          9
   222          1
   249          2
   250         12
   251          2