##TITLE=Library Entry 3184
##JCAMP-DX=Revision 4.10 
##DATA TYPE=MASS SPECTRUM
##SAMPLE DESCRIPTION=D.HENNEBERG, MAX-PLANCK INSTITUTE, MULHEIM, WEST GERMAN
Y
##NAMES=HP
##CAS NAME=Cyclooctane, ethenyl-
##MOLFORM=C10H18
##CAS REGISTRY NO=61142-41-4
##MP= -300
##BP= -300
##MW= 138
##$RETENTION INDEX=0
##$CONDENSED SPECTRUM=NO
##NPOINTS= 50
##XYDATA=(XY..XY) 1 
    25         10
    26         30
    27        370
    29        270
    30         10
    37         14
    38         10
    39        490
    40         90
    41        999
    42        150
    43        150
    44         10
    50         20
    51         41
    52         40
    53        220
    54        730
    55        760
    56        120
    57         23
    60         10
    63         10
    65         50
    66         60
    67        850
    68        370
    69        170
    70        120
    71         20
    77         40
    78         10
    79         80
    80         50
    81        610
    82        390
    83         82
    84         11
    91         10
    93         20
    94         10
    95        270
    96        130
    97         40
   108         20
   109        320
   110        290
   111         30
   123         10
   138         10