##TITLE=Library Entry 25681
##JCAMP-DX=Revision 4.10 
##DATA TYPE=MASS SPECTRUM
##SAMPLE DESCRIPTION=D.HENNEBERG, MAX-PLANCK INSTITUTE, MULHEIM, WEST GERMAN
Y
##NAMES=HP
##CAS NAME=Cyclohexane, 1-(2,2-dimethylpropyl)-3,5-diethenyl-2-methyl-
##MOLFORM=C16H28
##CAS REGISTRY NO=61141-98-8
##MP= -300
##BP= -300
##MW= 220
##$RETENTION INDEX=0
##$CONDENSED SPECTRUM=NO
##NPOINTS= 112
##XYDATA=(XY..XY) 1 
    30          1
    31          0
    32         12
    39         12
    40          5
    41        133
    42         11
    43         85
    44          3
    50          1
    51          1
    52          1
    53         20
    54         24
    55        105
    56         23
    57        999
    58         40
    60          1
    63          0
    65          9
    67        100
    68         29
    69        130
    70         45
    71         45
    72          1
    73          5
    74          0
    77         26
    78         12
    79        154
    80         43
    81        114
    82         84
    83         54
    84          7
    85          6
    89          0
    90          0
    91         39
    92         18
    93        147
    94         98
    95         97
    96         22
    97         16
    98          6
    99          3
   103          0
   104          0
   105         16
   106         20
   107        137
   108         74
   109         52
   110         24
   111         14
   112          4
   113          1
   116          0
   117          1
   118          1
   119          6
   120         11
   121         93
   122         44
   123         25
   124          4
   125         10
   126          9
   127          1
   131          0
   132          0
   133          4
   134          7
   135         98
   136        102
   137         15
   138         20
   139          3
   140          0
   145          1
   147          6
   148          1
   149         97
   150         32
   151          9
   152          4
   153          1
   160          0
   161          1
   162          2
   163         47
   164         38
   165         10
   166          2
   175          0
   177          9
   178          5
   179          2
   189          0
   190          0
   191         17
   192         19
   193          2
   202          0
   205          8
   206          0
   217          1
   220         10
   221          1