##TITLE=Library Entry 25669
##JCAMP-DX=Revision 4.10 
##DATA TYPE=MASS SPECTRUM
##SAMPLE DESCRIPTION=D.HENNEBERG, MAX-PLANCK INSTITUTE, MULHEIM, WEST GERMAN
Y
##NAMES=HP
##CAS NAME=Phosphine, cyclohexyl(1,1-dimethylethyl)(1-methylethyl)-
##MOLFORM=C13H27P
##CAS REGISTRY NO=61141-91-1
##MP= -300
##BP= -300
##MW= 214
##$RETENTION INDEX=0
##$CONDENSED SPECTRUM=NO
##NPOINTS= 175
##XYDATA=(XY..XY) 1 
    24          0
    25          1
    26         12
    27        128
    28         36
    29        308
    30          7
    31          0
    32          3
    33          0
    34          1
    35         31
    36          3
    37          2
    39        115
    40         71
    41        677
    42         33
    43        232
    44          8
    45         63
    46         11
    47         62
    48         27
    49         15
    50          4
    51          9
    52          3
    53         53
    54         28
    55        404
    56         31
    57        999
    58         41
    59         48
    60         11
    61         93
    62         21
    63          8
    64          1
    65         10
    66          8
    67         90
    68          9
    69         19
    70          2
    71         33
    72         10
    73         66
    74         54
    75        123
    76        251
    77        933
    78         35
    79         41
    80         13
    81        159
    82        180
    83        371
    84         25
    85         15
    86          6
    87         32
    88         47
    89         57
    90         55
    91         41
    92         11
    93          3
    94          0
    95          4
    99          6
   100          2
   101         16
   102         14
   103        226
   104         32
   105          5
   106          1
   107          1
   108          6
   109         11
   110          1
   111          2
   112          0
   113          7
   114          9
   115        124
   116        293
   117        104
   118         11
   119          2
   123          8
   124          0
   125          1
   126          0
   127          1
   128          2
   129         24
   130         22
   131         19
   132        466
   133        121
   134          9
   135          0
   136          0
   137          1
   138          1
   139          2
   140          0
   141          1
   142          0
   143         48
   144          6
   145          1
   146          1
   147          0
   148          3
   149          2
   150          0
   151          0
   155          1
   156          7
   157        214
   158        362
   159        103
   160          9
   161          1
   162          0
   163          0
   164          2
   165          1
   166          0
   167          0
   168          0
   169          0
   170          0
   171          6
   172         68
   173         14
   174          4
   175          1
   177          0
   178          0
   179          0
   183          0
   185          4
   186          2
   187          0
   188          1
   189          0
   190          1
   191          0
   192          0
   193          0
   194          1
   195          1
   196          1
   197          1
   199         12
   200          1
   201          0
   202          0
   204          0
   205          0
   206          0
   207          0
   208          0
   209          0
   211          0
   212          0
   213          8
   214        309
   215         52
   216          3