##TITLE=Library Entry 50744
##JCAMP-DX=Revision 4.10 
##DATA TYPE=MASS SPECTRUM
##SAMPLE DESCRIPTION=D.HENNEBERG, MAX-PLANCK INSTITUTE, MULHEIM, WEST GERMAN
Y
##NAMES=HP
##CAS NAME=Cyclopentane, 1,3-dimethyl-2-(1-methylethylidene)-, trans-
##MOLFORM=C10H18
##CAS REGISTRY NO=61142-30-1
##MP= -300
##BP= -300
##MW= 138
##$RETENTION INDEX=0
##$CONDENSED SPECTRUM=NO
##NPOINTS= 99
##XYDATA=(XY..XY) 1 
    26         90
    27        180
    28        225
    29        142
    30          3
    31          1
    36          1
    37          3
    38          9
    39        214
    40         37
    41        381
    42         30
    43        165
    44         11
    45          3
    46          1
    47          0
    48          0
    49          2
    50         18
    51         47
    52         24
    53        139
    54         30
    55        256
    56         27
    57        133
    58         10
    59          5
    60          2
    61          0
    62          2
    63         12
    64          5
    65         60
    66         19
    67        296
    68         28
    69         78
    70         12
    71          2
    73          0
    74          2
    75          3
    76          3
    77         82
    78         14
    79        130
    80         25
    81        999
    82        213
    83         99
    84          7
    85          0
    86          0
    87          0
    88          0
    89          2
    90          0
    91         64
    92         10
    93         44
    94         16
    95        387
    96        293
    97         23
    98          2
    99          0
   101          0
   102          0
   103          5
   104          2
   105         15
   106          3
   107         28
   108         12
   109         20
   110          4
   111          1
   112          0
   113          0
   115          1
   116          0
   117          3
   119          2
   120          0
   121         18
   122          4
   123        993
   124         93
   125          5
   126          0
   135          0
   136          1
   137          6
   138        300
   139         29
   140          1