##TITLE=Library Entry 24376
##JCAMP-DX=Revision 4.10 
##DATA TYPE=MASS SPECTRUM
##SAMPLE DESCRIPTION=D.HENNEBERG, MAX-PLANCK INSTITUTE, MULHEIM, WEST GERMAN
Y
##NAMES=HP
##CAS NAME=Dodecane, 4,6-dimethyl-
##MOLFORM=C14H30
##CAS REGISTRY NO=61141-72-8
##MP= -300
##BP= -300
##MW= 198
##$RETENTION INDEX=1325
##$CONDENSED SPECTRUM=NO
##NPOINTS= 76
##XYDATA=(XY..XY) 1 
    26          6
    27         88
    28         10
    29        186
    30          4
    31          0
    36          0
    37          2
    38          1
    39         47
    40         10
    41        284
    42         84
    43        872
    44         20
    45          1
    48          0
    51          2
    52          0
    53         13
    54          6
    55        147
    56        111
    57        999
    58         42
    59          1
    63          0
    64          0
    65          2
    66          0
    67          9
    68          7
    69         65
    70        163
    71        841
    72         44
    73          1
    77          1
    78          1
    79          1
    81          3
    82          8
    83         32
    84         68
    85        214
    86         14
    87          1
    92          0
    93          0
    94          0
    95          1
    96          1
    97          9
    98          6
    99         45
   100          3
   105          0
   109          0
   110          2
   111         11
   112         61
   113         83
   114          6
   124          0
   125          1
   126         13
   127         16
   128          1
   141          2
   142          1
   154          3
   155         30
   156          4
   169          1
   183          4
   198          2