##TITLE=Library Entry 58990
##JCAMP-DX=Revision 4.10 
##DATA TYPE=MASS SPECTRUM
##SAMPLE DESCRIPTION=D.HENNEBERG, MAX-PLANCK INSTITUTE, MULHEIM, WEST GERMAN
Y
##NAMES=HP
##CAS NAME=Cyclooctene, 4-methylene-6-(1-propenylidene)-
##MOLFORM=C12H16
##CAS REGISTRY NO=61142-29-8
##MP= -300
##BP= -300
##MW= 160
##$RETENTION INDEX=0
##$CONDENSED SPECTRUM=NO
##NPOINTS= 125
##XYDATA=(XY..XY) 1 
    21          0
    22          0
    23          0
    24          1
    25          2
    26         11
    27        239
    28         12
    29         46
    30          0
    33          1
    34          2
    35          1
    36          1
    37          8
    38         29
    39        440
    40         82
    41        499
    42         19
    43          4
    44          0
    45          1
    46          2
    47          1
    48          0
    49          2
    50         38
    51        156
    52         80
    53        182
    54         38
    55         38
    56          3
    58         13
    59          3
    60          0
    61          3
    62         16
    63         65
    64         46
    65        206
    66         76
    67        165
    68         18
    69         20
    71          8
    73          2
    74          7
    75         22
    76         13
    77        444
    78        207
    79        499
    80        137
    81         59
    82         10
    83          0
    84          0
    85          1
    86          3
    87          6
    88          3
    89         22
    90         16
    91        999
    92        253
    93        159
    94         31
    95          8
    96          0
    97          1
    98          0
    99          0
   100          1
   101          6
   102         16
   103         95
   104        157
   105        451
   106        149
   107         19
   108          3
   109          1
   110          0
   111          1
   113         10
   115        107
   116         65
   117        425
   118        167
   119        196
   120         20
   121          1
   123          1
   125          1
   126          3
   127         16
   128         38
   129         45
   130         51
   131        288
   132        109
   133         13
   134          1
   135          0
   136          0
   139          1
   141          7
   142          3
   143         12
   144          9
   145        178
   146         21
   147          0
   151          0
   152          1
   154          0
   155          0
   158          2
   159         15
   160        189
   161         26
   162          1
   163          0