##TITLE=Library Entry 35395
##JCAMP-DX=Revision 4.10 
##DATA TYPE=MASS SPECTRUM
##SAMPLE DESCRIPTION=MPI,45144-G1332,31-JUL-67 (ID=2, PURITY=2)
##NAMES=HP
##CAS NAME=Cyclohexane, 3,4-bis(1-methylethenyl)-1,1-dimethyl-
##MOLFORM=C14H24
##CAS REGISTRY NO=61142-74-3
##MP= -300
##BP= -300
##MW= 192
##$RETENTION INDEX=0
##$CONDENSED SPECTRUM=NO
##NPOINTS= 132
##XYDATA=(XY..XY) 1 
    27        156
    28         41
    29        204
    30          5
    31          4
    32          1
    36          1
    37          2
    38          4
    39        193
    40         58
    41        759
    42         53
    43        219
    44         10
    45          1
    47          1
    50          7
    51         29
    52         18
    53        209
    54         25
    55        388
    56         46
    57         80
    58          5
    59          2
    60          2
    61          1
    62          2
    63          8
    64          3
    65         62
    66         29
    67        421
    68        518
    69        999
    70         64
    71         25
    72          3
    73          3
    75          3
    76          1
    77        117
    78         22
    79        217
    80         88
    81        832
    82        168
    83         59
    84          4
    85          5
    88          0
    89          3
    90          1
    91        132
    92         47
    93        517
    94        152
    95        269
    96         56
    97         25
    98          1
   101          0
   102          1
   103          8
   104          4
   105         61
   106         23
   107        339
   108        146
   109        494
   110         56
   111         19
   112          1
   113          3
   115          6
   116          3
   117          4
   118          2
   119         24
   120         16
   121        388
   122        109
   123        308
   124        221
   125         23
   126          0
   127          0
   128          1
   129          1
   130          2
   131          2
   132          0
   133          7
   134          7
   135         90
   136        268
   137         78
   138          7
   139          1
   141          1
   144          1
   145          0
   146          0
   147          5
   148          6
   149        210
   150         51
   151          9
   152          0
   157          1
   159          1
   160          0
   161          3
   162          1
   163         19
   164        139
   165         16
   166          1
   174          0
   175          4
   176          0
   177        204
   178         28
   179          3
   187          1
   189          3
   190          1
   191          2
   192         89
   193         15