##TITLE=Library Entry 20278
##JCAMP-DX=Revision 4.10 
##DATA TYPE=MASS SPECTRUM
##SAMPLE DESCRIPTION=NIST Mass Spectrometry Data Center
##NAMES=HP
##CAS NAME=(E)-9-Octadecenoic acid ethyl ester
##MOLFORM=C20H38O2
##CAS REGISTRY NO=6114-18-7
##MP= -300
##BP= -300
##MW= 310
##$RETENTION INDEX=2174
##$CONDENSED SPECTRUM=NO
##NPOINTS= 155
##XYDATA=(XY..XY) 1 
    27         39
    29        148
    30          6
    39         67
    40         11
    41        501
    42        100
    43        418
    44         21
    45         52
    52          6
    53         55
    54        190
    55        999
    56        218
    57        273
    58         15
    59         22
    60        101
    61         90
    65         20
    66         16
    67        368
    68        204
    69        875
    70        388
    71        167
    73        146
    74         22
    79         57
    80         33
    81        274
    82        196
    83        564
    84        397
    85         81
    86          9
    87         31
    88        524
    89        100
    90          4
    93         35
    94         34
    95        241
    96        393
    97        549
    98        355
    99         55
   100         12
   101        458
   102         36
   107         45
   108         32
   109        174
   110        224
   111        279
   112        128
   113         37
   114         17
   115         92
   119         37
   120         13
   121         68
   122         14
   123        170
   124        110
   125        133
   126         40
   127         43
   128         36
   129         57
   130         12
   133         36
   134         36
   135         55
   136         14
   137         93
   138         83
   139         65
   141         47
   142         32
   143         48
   144         19
   145         22
   147         33
   148         21
   149         27
   151         68
   152         76
   153         42
   154          8
   155         87
   156         15
   157         52
   158          6
   161         14
   162         10
   163         11
   165         48
   166         57
   167         26
   168         11
   169         37
   170          5
   171         12
   175         18
   176          7
   177         10
   179         26
   180        142
   181         30
   182          6
   183         33
   184          8
   185         14
   189          9
   193         25
   194         23
   195          9
   197         10
   199         11
   200         11
   201         36
   203          5
   207         28
   208         15
   209          8
   213         18
   214          8
   220         44
   221         42
   222        191
   223         47
   224          3
   227         15
   228          6
   235         36
   236         27
   237          4
   242          6
   245          7
   246         19
   247         10
   249          5
   264        278
   265        242
   266         49
   267         17
   268          5
   269          4
   281          5
   292          2
   310         67
   311         16
   313          5