##TITLE=Library Entry 3363
##JCAMP-DX=Revision 4.10 
##DATA TYPE=MASS SPECTRUM
##SAMPLE DESCRIPTION=D.HENNEBERG, MAX-PLANCK INSTITUTE, MULHEIM, WEST GERMAN
Y
##NAMES=HP
##CAS NAME=Cyclopropane, 1-chloro-1-ethyl-2,2,3-trimethyl-
##MOLFORM=C8H15Cl
##CAS REGISTRY NO=61142-56-1
##MP= -300
##BP= -300
##MW= 146
##$RETENTION INDEX=0
##$CONDENSED SPECTRUM=NO
##NPOINTS= 113
##XYDATA=(XY..XY) 1 
    27        404
    28        232
    29        232
    30          5
    31         11
    32         22
    33          1
    34          2
    35          6
    36         40
    37         14
    38         29
    39        500
    40         81
    41        999
    42         85
    43        175
    44         30
    45         11
    46          6
    47          3
    48          3
    49         23
    50         38
    51        102
    52         34
    53        312
    54         38
    55        842
    56         74
    57         72
    58          3
    59          9
    60          3
    61         12
    62         12
    63         47
    64          7
    65         95
    66         28
    67        465
    68         54
    69        950
    70         83
    71         21
    72          2
    73         15
    74          4
    75         68
    76         21
    77        137
    78         29
    79        141
    80         29
    81        229
    82         28
    83         68
    84          5
    85          5
    86          1
    87          3
    88          4
    89        357
    90         20
    91        159
    92         11
    93         46
    94          8
    95        428
    96         38
    97          5
    98          1
    99          2
   100          1
   101          4
   102          3
   103         74
   104         15
   105         32
   106         21
   107          4
   108          1
   109          6
   110         48
   111        712
   112         61
   113          8
   114          0
   115          2
   116          3
   117        127
   118         11
   119         43
   120          4
   122          1
   125          0
   126          1
   127         10
   128          2
   129          1
   130          1
   131        279
   132         22
   133         98
   134          9
   135          0
   137          5
   142          0
   144          0
   146        198
   147         20
   148         63
   149          9