##TITLE=Library Entry 19439
##JCAMP-DX=Revision 4.10 
##DATA TYPE=MASS SPECTRUM
##SAMPLE DESCRIPTION=D.HENNEBERG, MAX-PLANCK INSTITUTE, MULHEIM, WEST GERMAN
Y
##NAMES=HP
##CAS NAME=4-Decene, 5-bromo-
##MOLFORM=C10H19Br
##CAS REGISTRY NO=61141-75-1
##MP= -300
##BP= -300
##MW= 218
##$RETENTION INDEX=0
##$CONDENSED SPECTRUM=NO
##NPOINTS= 134
##XYDATA=(XY..XY) 1 
    25          1
    26         12
    27        310
    28         84
    29        467
    30         12
    31          4
    32          3
    34          1
    36          6
    37          3
    38          8
    39        281
    40         51
    41        957
    42         89
    43        239
    44          6
    46          1
    47          1
    48          0
    50          6
    51         37
    52         28
    53        325
    54        132
    55        999
    56        183
    57        223
    58          9
    59          0
    61          0
    63          7
    64          0
    65         72
    66         39
    67        643
    68         95
    69        561
    70         36
    71         38
    72          3
    74          4
    75          0
    77         58
    78         14
    79         79
    80         20
    81        212
    82         95
    83        949
    84         64
    85          8
    87          2
    88          0
    89          2
    91         17
    92          2
    93         13
    94         10
    95         82
    96         81
    97        279
    98         19
   102          0
   103          2
   105          9
   107          8
   108          2
   109        216
   110         19
   113          1
   114          0
   115          1
   117          1
   119         34
   120        260
   121         64
   122        257
   123         29
   127          0
   128          0
   129          1
   131          0
   132          4
   133         31
   134         34
   135         39
   136         23
   137          3
   138         29
   139         14
   140          1
   145          1
   147          7
   148          2
   149          8
   150          0
   151          1
   160          1
   161          1
   162         31
   163          6
   164         27
   165          8
   167          0
   169          1
   171          0
   175          1
   176          2
   177          1
   178          2
   183          1
   189          4
   190          0
   191          1
   192          1
   194          0
   195          0
   197          0
   199          0
   203          0
   204          2
   205          2
   207          1
   208          1
   209          0
   212          0
   217          0
   218        113
   219         13
   220        107
   221         10
   222          1