##TITLE=Library Entry 87022
##JCAMP-DX=Revision 4.10 
##DATA TYPE=MASS SPECTRUM
##SAMPLE DESCRIPTION=A.A.Kutin, Moscow, Russia
##NAMES=HP
##CAS NAME=2-Thiazolin-4-one, 2-(2-thienyl)-
##MOLFORM=C7H5NOS2
##CAS REGISTRY NO=6114-95-0
##MP= -300
##BP= -300
##MW= 183
##$RETENTION INDEX=0
##$CONDENSED SPECTRUM=NO
##NPOINTS= 116
##XYDATA=(XY..XY) 1 
    33          6
    34          4
    37         51
    38         62
    39        159
    40         21
    41         12
    42         65
    43         13
    44         54
    45        512
    46        480
    47         34
    48         25
    49         15
    50         28
    51         28
    52         26
    53          4
    54          2
    55          2
    56         13
    57         85
    58        177
    59         17
    60         12
    61          5
    62          9
    63         18
    64         88
    65         26
    66          9
    67          3
    68         11
    69         89
    70         90
    71         25
    72         11
    73          5
    74         99
    75         23
    76         26
    77          5
    78          6
    79          5
    80          8
    81         31
    82         66
    83         58
    84         11
    85          4
    86          8
    88          4
    89          1
    90          1
    91          4
    92          5
    93          9
    94          6
    95          6
    96         26
    97         35
    98          3
    99          2
   100          2
   101          2
   102          2
   105          2
   106          6
   107         10
   108         26
   109        470
   110        999
   111         93
   112         48
   113          3
   114          3
   115          3
   116          1
   117          0
   118          0
   119          1
   120          0
   122         11
   123          2
   124          1
   125          2
   126          1
   127         23
   128          6
   129          2
   130          0
   136          2
   137          0
   138         29
   139          4
   140         31
   141         17
   142          5
   143          2
   149          1
   150          0
   153          0
   154          7
   155          4
   156          1
   157          1
   178          2
   179          1
   180          3
   182         48
   183        400
   184         44
   185         43
   186          4
   187          0