##TITLE=Library Entry 81887
##JCAMP-DX=Revision 4.10 
##DATA TYPE=MASS SPECTRUM
##SAMPLE DESCRIPTION=D.HENNEBERG, MAX-PLANCK INSTITUTE, MULHEIM, WEST GERMAN
Y
##NAMES=HP
##CAS NAME=2-Penten-1-one, 2-methyl-1,4-diphenyl-
##MOLFORM=C18H18O
##CAS REGISTRY NO=61142-08-3
##MP= -300
##BP= -300
##MW= 250
##$RETENTION INDEX=0
##$CONDENSED SPECTRUM=NO
##NPOINTS= 195
##XYDATA=(XY..XY) 1 
    27         60
    28          4
    29         29
    30          1
    31          2
    38          8
    39         77
    40          9
    41        127
    42          9
    43        285
    44         15
    45          3
    49          1
    50         27
    51        194
    52         24
    53         17
    54          0
    55         20
    56          8
    57         44
    58          2
    59          2
    60          1
    61          0
    62          5
    63         29
    64          8
    65         66
    66          6
    67         39
    68          4
    69          6
    70          3
    71          4
    72          0
    73          2
    74          7
    75         17
    76         27
    77        792
    78         73
    79         28
    80          1
    81          2
    82          4
    83         15
    84          1
    85          1
    86          2
    87          7
    88          7
    89         43
    90          4
    91        274
    92         21
    93          2
    95          5
    96          5
    97          5
    98          5
    99          1
   100          1
   101         15
   102         23
   103         56
   104         14
   105        999
   106         76
   107         19
   108          4
   109          4
   110         13
   111          3
   113          5
   114          6
   115        226
   116         49
   117        122
   118         17
   119          4
   120          3
   121          3
   122          1
   123          2
   124          2
   125          4
   126          7
   127         38
   128        115
   129        235
   130         83
   131         23
   132          9
   133         20
   134         13
   135          1
   137          0
   138          1
   139          6
   140          1
   141         15
   142          4
   143         63
   144         26
   145        253
   146         32
   147          2
   150          2
   151          3
   152          9
   153          6
   154          4
   155         13
   156          3
   157        121
   158         32
   159         27
   160          3
   162          2
   163          3
   164          2
   165         17
   166          4
   167          2
   168          1
   169          0
   170          0
   171         23
   172         23
   173        125
   174         17
   175          1
   176          2
   177          3
   178         31
   179         19
   180          2
   181          2
   182          1
   183          3
   185          1
   187          2
   188          2
   189         12
   190          7
   191         29
   192         20
   193         22
   194          5
   195          1
   196          0
   199          0
   200          3
   201          6
   202         60
   203         26
   204         11
   205         27
   206         19
   207         84
   208         19
   209          3
   213          1
   214          1
   215         22
   216         20
   217         89
   218         37
   219         19
   220         89
   221        134
   222         26
   223          3
   225          0
   226          0
   227          1
   229          2
   230          1
   231         10
   232         19
   233         56
   234         59
   235        846
   236        149
   237         14
   238          1
   239          0
   248          4
   249        327
   250        799
   251        150
   252         16
   253          0