##TITLE=Library Entry 36988
##JCAMP-DX=Revision 4.10 
##DATA TYPE=MASS SPECTRUM
##SAMPLE DESCRIPTION=D.HENNEBERG, MAX-PLANCK INSTITUTE, MULHEIM, WEST GERMAN
Y
##NAMES=HP
##CAS NAME=Aziridine, 2-heptyl-3-methyl-
##MOLFORM=C10H21N
##CAS REGISTRY NO=61142-05-0
##MP= -300
##BP= -300
##MW= 155
##$RETENTION INDEX=0
##$CONDENSED SPECTRUM=NO
##NPOINTS= 87
##XYDATA=(XY..XY) 1 
    27        138
    28        517
    29        152
    30        131
    31         78
    32         39
    33          4
    37          1
    38          2
    39         65
    40         18
    41        213
    42        110
    43        239
    44        170
    45         28
    46          2
    47          0
    49          0
    50          2
    51          4
    52          3
    53         17
    54         31
    55         98
    56        163
    57        143
    58         92
    59         28
    60          1
    62          0
    63          1
    64          0
    65          3
    66          1
    67         18
    68         45
    69         34
    70        999
    71        137
    72          7
    73          2
    74         17
    75          0
    77          1
    78          0
    79          3
    80          3
    81         10
    82         14
    83         18
    84        227
    85         19
    86          2
    91          1
    92          0
    93          0
    94          1
    95          4
    96          3
    97          3
    98         74
    99          6
   100          1
   103          0
   104          0
   105          0
   109          1
   110          1
   111          1
   112         55
   113          5
   125          0
   126         56
   127          5
   128          0
   129          0
   131          0
   135          0
   138          0
   140         94
   141         10
   142          0
   154          8
   155          1
   156          1
   157          0