##TITLE=Library Entry 51954
##JCAMP-DX=Revision 4.10 
##DATA TYPE=MASS SPECTRUM
##SAMPLE DESCRIPTION=D.HENNEBERG, MAX-PLANCK INSTITUTE, MULHEIM, WEST GERMAN
Y
##NAMES=HP
##CAS NAME=1H-Indene, 2,3,3a,4,7,7a-hexahydro-2,2,4,4,7,7-hexamethyl-
##MOLFORM=C15H26
##CAS REGISTRY NO=61142-60-7
##MP= -300
##BP= -300
##MW= 206
##$RETENTION INDEX=0
##$CONDENSED SPECTRUM=NO
##NPOINTS= 134
##XYDATA=(XY..XY) 1 
    22          2
    25          5
    27        144
    28         50
    29        189
    30          2
    32          9
    33          1
    34          3
    36          3
    37          3
    39        129
    40         12
    41        602
    42         27
    43        242
    44          0
    45          6
    46          3
    47          2
    48          0
    50          7
    51         25
    52         10
    53        112
    54         14
    55        416
    56         24
    57         99
    58          1
    59          9
    60          6
    61          0
    62          5
    63          9
    64         12
    65         60
    66         22
    67        139
    68         20
    69        360
    70         28
    71         18
    72          4
    73          5
    74         12
    76          6
    77        122
    78         28
    79        125
    80         18
    81        140
    82         64
    83        999
    84         71
    85         15
    86          4
    87          3
    88          8
    89          9
    91        154
    92         21
    93        154
    94         25
    95        179
    96        250
    97         97
    98         11
    99          1
   100          2
   101          2
   102          4
   103         16
   104          8
   105         88
   106         18
   107        279
   108         38
   109        155
   110         34
   111         37
   112          2
   113          0
   114          1
   115         22
   116         13
   117         18
   118          4
   119         67
   120         22
   121        346
   122        114
   123        147
   124         34
   125          2
   127          2
   128          7
   129          7
   130          2
   131          5
   132          1
   133         16
   134          7
   135        327
   136         51
   137        134
   138         10
   139          0
   141          0
   143          1
   145          4
   147          9
   148          4
   149         43
   150        162
   151         27
   159          1
   161          1
   162          2
   163         63
   164         12
   165          1
   167          2
   175          3
   177          3
   180          1
   186          1
   189          0
   190          8
   191        451
   192         77
   193          4
   206         40
   207          5