##TITLE=Library Entry 33422
##JCAMP-DX=Revision 4.10 
##DATA TYPE=MASS SPECTRUM
##SAMPLE DESCRIPTION=D.HENNEBERG, MAX-PLANCK INSTITUTE, MULHEIM, WEST GERMAN
Y
##NAMES=HP
##CAS NAME=Cyclobutane, 1,2-dicyclopropyl-
##MOLFORM=C10H16
##CAS REGISTRY NO=61141-62-6
##MP= -300
##BP= -300
##MW= 136
##$RETENTION INDEX=0
##$CONDENSED SPECTRUM=NO
##NPOINTS= 44
##XYDATA=(XY..XY) 1 
    27        180
    28         74
    29         63
    30          0
    37          6
    38         16
    39        287
    40        110
    41        315
    42         58
    43          5
    44         13
    50         14
    51         48
    52         26
    53        241
    54         69
    55         61
    56          2
    63         11
    64          3
    65         45
    66        112
    67        696
    68        999
    69         55
    75          3
    77         59
    78         24
    79        157
    80         94
    81         47
    82         15
    91         35
    92          3
    93         99
    94         34
    95         48
    96          1
   105          2
   107         26
   108         34
   109          1
   121         11