##TITLE=Library Entry 26663
##JCAMP-DX=Revision 4.10 
##DATA TYPE=MASS SPECTRUM
##SAMPLE DESCRIPTION=Chuck Anderson, Aldrich Chemical Co.
##NAMES=HP
##CAS NAME=2-Hexenal diethyl acetal, trans
##MOLFORM=C10H20O2
##CAS REGISTRY NO=61147-87-3
##MP= -300
##BP= -300
##MW= 172
##$RETENTION INDEX=0
##$CONDENSED SPECTRUM=NO
##NPOINTS= 94
##XYDATA=(XY..XY) 1 
    14          1
    15          8
    16          0
    19          4
    25          0
    26          8
    27        103
    28         17
    29        225
    30          9
    31         49
    32          0
    37          1
    38          5
    39        102
    40         22
    41        231
    42         68
    43        192
    44         15
    45         60
    46          9
    47        161
    48          2
    49          1
    50          5
    51         13
    52          6
    53         45
    54         12
    55        185
    56         17
    57        999
    58         32
    59         10
    60          5
    61          2
    62          1
    63          2
    64          0
    65         10
    66          5
    67         22
    68          9
    69        128
    70         77
    71         43
    72          3
    73        130
    74          6
    75        103
    76          3
    77          8
    78          1
    79         19
    80          1
    81        112
    82         11
    83        103
    85        298
    86         18
    87         22
    88          5
    89          2
    95          2
    96          0
    97         27
    98         22
    99        102
   100          2
   101         38
   102          1
   103         95
   104          4
   105          0
   111         13
   112          1
   113          1
   115         25
   116         16
   117          1
   125          2
   127        765
   128         70
   129        104
   130         10
   131          0
   143         19
   144          1
   145          0
   157          0
   171          6
   172          3
   173          0