##TITLE=Library Entry 64321
##JCAMP-DX=Revision 4.10 
##DATA TYPE=MASS SPECTRUM
##SAMPLE DESCRIPTION=D.HENNEBERG, MAX-PLANCK INSTITUTE, MULHEIM, WEST GERMAN
Y
##NAMES=HP
##CAS NAME=Bi-1,4-cyclohexadien-1-yl, 2,2'-dibutyl-
##MOLFORM=C20H30
##CAS REGISTRY NO=61142-53-8
##MP= -300
##BP= -300
##MW= 270
##$RETENTION INDEX=0
##$CONDENSED SPECTRUM=NO
##NPOINTS= 237
##XYDATA=(XY..XY) 1 
    25          0
    26        154
    27        252
    28        516
    29        485
    30         45
    31        312
    32          4
    33          0
    34          0
    35          0
    36          1
    37          5
    38          9
    39        106
    40         19
    41        516
    42         47
    43        186
    44         92
    45        122
    46         53
    47          2
    48          1
    49          3
    50         19
    51         42
    52         16
    53         58
    54         10
    55        218
    56         28
    57        379
    58         13
    59          3
    60          0
    61          2
    62          3
    63         19
    64          8
    65         89
    66         25
    67        205
    68         14
    69         69
    70          5
    71         12
    72          8
    73          5
    74          5
    75          6
    76         10
    77        202
    78        152
    79        539
    80        125
    81         98
    82         15
    83         31
    84          5
    85          9
    86          5
    87          3
    88          3
    89         28
    90          8
    91        999
    92        168
    93        164
    94        555
    95         82
    96          6
    97         19
    98          2
    99          1
   100          2
   101          7
   102         13
   103         35
   104         27
   105        181
   106         27
   107         48
   108         13
   109         58
   110          7
   111          5
   112          0
   113          3
   114          3
   115        193
   116         56
   117        284
   118         47
   119         46
   120          5
   121         24
   122          5
   123         11
   124          2
   125          1
   126          4
   127         48
   128        171
   129        453
   130         96
   131        147
   132         34
   133         50
   134         30
   135         33
   136         77
   137         15
   138          2
   139         11
   140          4
   141        149
   142         57
   143        310
   144         50
   145         98
   146         38
   147        101
   148         21
   149         11
   150          2
   151         10
   152         56
   153         55
   154         47
   155        207
   156         50
   157        184
   158         36
   159         79
   160         58
   161         16
   162          4
   163          4
   164          6
   165         77
   166         39
   167        143
   168         35
   169         84
   170         33
   171        150
   172         34
   173         74
   174         34
   175          8
   176          5
   177          3
   178         25
   179         24
   180          8
   181         31
   182          9
   183         27
   184         12
   185         54
   186         41
   187         29
   188          6
   189          6
   190          2
   191          5
   192          1
   193          2
   194          1
   195          3
   196          1
   197          8
   198          4
   199         24
   200          8
   201          7
   202          2
   203          4
   204          2
   205          0
   207          1
   208          3
   209         36
   210         13
   211         98
   212         27
   213        341
   214         96
   215         20
   216         68
   217         12
   218          2
   219          0
   221          0
   222          0
   223         14
   224          6
   225         28
   226         13
   227        107
   228         25
   229         53
   230          9
   231          2
   232          0
   233          0
   237          2
   238          0
   239          2
   240          1
   241         15
   242          4
   243          1
   244          1
   245          0
   246          3
   247          0
   250          0
   251          0
   253          0
   255          3
   256          0
   257          0
   258          5
   259          3
   260          1
   262          0
   264          0
   265          0
   266         56
   267          9
   268         91
   269         24
   270        618
   271        132
   272         17