##TITLE=Library Entry 35344
##JCAMP-DX=Revision 4.10 
##DATA TYPE=MASS SPECTRUM
##SAMPLE DESCRIPTION=D.HENNEBERG, MAX-PLANCK INSTITUTE, MULHEIM, WEST GERMAN
Y
##NAMES=HP
##CAS NAME=Acetic acid, 2,2'-(3,6-dimethoxy-1,4-dioxane-2,5-diylidene)bis-,
 dimethyl ester
##MOLFORM=C12H16O8
##CAS REGISTRY NO=61141-93-3
##MP= -300
##BP= -300
##MW= 288
##$RETENTION INDEX=0
##$CONDENSED SPECTRUM=NO
##NPOINTS= 174
##XYDATA=(XY..XY) 1 
    25          2
    26         26
    27         70
    28         52
    29        444
    30         61
    31        193
    32         12
    36          1
    37          4
    38         22
    39        172
    40         46
    41         70
    42         73
    43         53
    44         70
    45         80
    46          2
    47         92
    48          1
    49          1
    50          5
    51          7
    52          4
    53         63
    54         18
    55         32
    56         29
    57         19
    58          4
    59        183
    60          5
    61         80
    62          2
    63          0
    64          0
    65          2
    66          5
    67          4
    68          5
    69        999
    70         40
    71          8
    72         35
    73          5
    74          0
    75        657
    76         20
    77          4
    78          1
    79          6
    80          1
    81          4
    82          3
    83          7
    84        360
    85        224
    86         10
    87          5
    88          5
    89          0
    91          0
    93          0
    94          0
    95          2
    96          1
    97          2
    98         16
    99          9
   100          1
   101         24
   102          1
   103          1
   104          0
   105          0
   107          0
   108          0
   109          3
   110          2
   111          4
   112          1
   113        152
   114        142
   115         13
   116          2
   117          3
   119          1
   123          2
   124          0
   125          7
   126          6
   127          2
   128         23
   129         79
   130          3
   131          3
   133          0
   135          0
   136          1
   137          8
   138          2
   139          4
   140          2
   141         32
   142          3
   143         12
   144        444
   145        126
   146         11
   147          1
   149          1
   150          0
   151          0
   152          0
   153          5
   154          1
   155          0
   156          3
   157          4
   158          0
   159         17
   160          3
   161          0
   162          0
   164          0
   165          1
   166          1
   167          2
   168          6
   169         30
   170          4
   171          1
   172          2
   173          0
   175          0
   181          4
   182          1
   183          1
   184          5
   185          7
   186          1
   187          1
   188          0
   193          0
   194          1
   195          0
   196         10
   197         16
   198          2
   199          2
   200         13
   201          4
   202          0
   209          0
   211          0
   212          0
   213          2
   214          0
   215          0
   224          5
   225          7
   226          1
   227          1
   228          1
   229          7
   230          1
   241          0
   256          5
   257         44
   258          5
   259          0
   273          0
   288          1