##TITLE=Library Entry 42452
##JCAMP-DX=Revision 4.10 
##DATA TYPE=MASS SPECTRUM
##SAMPLE DESCRIPTION=D.HENNEBERG, MAX-PLANCK INSTITUTE, MULHEIM, WEST GERMAN
Y
##NAMES=HP
##CAS NAME=4-Decanol, TMS derivative
##MOLFORM=C13H30OSi
##CAS REGISTRY NO=61141-94-4
##MP= -300
##BP= -300
##MW= 230
##$RETENTION INDEX=0
##$CONDENSED SPECTRUM=NO
##NPOINTS= 180
##XYDATA=(XY..XY) 1 
    26          8
    27         46
    28         26
    29         62
    30          1
    31          9
    32          1
    36          6
    38          4
    39         27
    40          6
    41        104
    42         28
    43         73
    44         46
    45         82
    46          7
    47         46
    48          3
    49          3
    51          4
    53          8
    54          9
    55        180
    56         42
    57         38
    58         17
    59         55
    60         10
    61         53
    62          5
    63          3
    64          3
    65          3
    66          5
    67         14
    68          8
    69         66
    70         26
    71         16
    72         19
    73        999
    74         79
    75        505
    76         34
    77         27
    78          4
    79          4
    81          8
    82          6
    83         32
    84         10
    85         12
    86          3
    87          6
    88          1
    89         15
    90          0
    91         16
    92          3
    93          4
    94          4
    95          8
    96          5
    97         62
    98          8
    99         10
   100          3
   101         27
   102          4
   103        182
   104         22
   105          7
   107          3
   108          1
   109          5
   110          3
   111          7
   112          2
   113          7
   114          1
   115         11
   116          6
   117          5
   118          1
   119          2
   120          2
   121          1
   122          0
   123          3
   124          2
   125          1
   126          1
   127          2
   128          3
   129         21
   130          4
   131          6
   132          1
   133          5
   134          2
   135         42
   136          5
   137          3
   139          2
   140          5
   141          2
   142          1
   143          6
   144          4
   145        650
   146         83
   147         61
   148          8
   149          9
   150          1
   151          2
   152          2
   156          5
   157          4
   159         82
   160         13
   161          5
   162          1
   163          1
   164          0
   165          1
   166          2
   167          5
   168          3
   169          9
   170          2
   171          8
   172          2
   173         56
   174         13
   175          5
   176          2
   177          1
   179          1
   180          1
   181          2
   182          0
   185          2
   186          2
   187        295
   188         44
   189         10
   190          1
   191          4
   192          2
   193          4
   194          2
   195          3
   197         11
   198          3
   199          1
   200          0
   201         33
   202          8
   203          3
   205          1
   207         18
   208          5
   209          8
   210          3
   211          1
   214          1
   215         50
   216         10
   217          2
   218          1
   220          0
   221         25
   223          4
   224          1
   225          0
   227          1
   228          1
   229          5