##TITLE=Library Entry 33093
##JCAMP-DX=Revision 4.10 
##DATA TYPE=MASS SPECTRUM
##SAMPLE DESCRIPTION=D.HENNEBERG, MAX-PLANCK INSTITUTE, MULHEIM, WEST GERMAN
Y
##NAMES=HP
##CAS NAME=Cyclooctene, 3-(2-propenyl)-
##MOLFORM=C11H18
##CAS REGISTRY NO=61141-59-1
##MP= -300
##BP= -300
##MW= 150
##$RETENTION INDEX=0
##$CONDENSED SPECTRUM=NO
##NPOINTS= 51
##XYDATA=(XY..XY) 1 
    26          3
    27         90
    28         20
    29         65
    38          4
    39        149
    40         21
    41        277
    42         15
    43         50
    50          3
    51         24
    52         14
    53         69
    54         61
    55        205
    56          8
    63          7
    65         44
    66         30
    67        999
    68         89
    69         18
    77         74
    78         17
    79        175
    80         63
    81        159
    82         34
    83          8
    91         43
    92          7
    93         57
    94         50
    95         23
    96         11
   103          0
   105          4
   106          0
   107         37
   108         41
   109        506
   110         45
   111          0
   121         33
   122         27
   123          1
   135         33
   136          8
   150         18
   151          1