##TITLE=Library Entry 11140
##JCAMP-DX=Revision 4.10 
##DATA TYPE=MASS SPECTRUM
##SAMPLE DESCRIPTION=G. BOURGEOIS, CESAMO, UNIV. BORDEAUX, TALENCE, FR.
##NAMES=HP
##CAS NAME=2-Acetonylcycloheptanone
##MOLFORM=C10H16O2
##CAS REGISTRY NO=61154-45-8
##MP= -300
##BP= -300
##MW= 168
##$RETENTION INDEX=0
##$CONDENSED SPECTRUM=NO
##NPOINTS= 75
##XYDATA=(XY..XY) 1 
    26          8
    27         78
    28        103
    29         78
    30          1
    31         28
    32         25
    39         62
    40         14
    41        139
    42         32
    43        999
    44         58
    45        115
    51          4
    53         23
    54         27
    55        334
    56         28
    57         23
    58        125
    59         36
    65          4
    66          6
    67         69
    68         26
    69         80
    70         42
    71         86
    72         23
    73         37
    75          9
    77          9
    78          1
    79         49
    80         21
    81         69
    82         50
    83         85
    84         59
    85         12
    86          4
    87         18
    88         17
    89         22
    91         12
    92          4
    93         42
    94          4
    95         16
    96          9
    97        114
    98        322
    99         23
   101          1
   103          3
   107         37
   108         18
   109          6
   110         95
   111        358
   112         30
   121         37
   122          7
   124          3
   125        178
   126         34
   135         34
   140          2
   149          7
   150         42
   151          4
   153         20
   168        171
   169         24