##TITLE=Library Entry 17914
##JCAMP-DX=Revision 4.10 
##DATA TYPE=MASS SPECTRUM
##SAMPLE DESCRIPTION=JACSAT, 101(2)347(1979); G. KOLTER AND K. SEPPELT
##NAMES=HP
##CAS NAME=Methanamine, 1,1,1-trifluoro-
##MOLFORM=CH2F3N
##CAS REGISTRY NO=61165-75-1
##MP= -300
##BP= -300
##MW= 85
##$RETENTION INDEX=0
##$CONDENSED SPECTRUM=NO
##NPOINTS= 5
##XYDATA=(XY..XY) 1 
    46        999
    65        240
    66        950
    69        620
    85        850