##TITLE=Library Entry 42093
##JCAMP-DX=Revision 4.10 
##DATA TYPE=MASS SPECTRUM
##SAMPLE DESCRIPTION=D.HENNEBERG, MAX-PLANCK INSTITUTE, MULHEIM, WEST GERMAN
Y
##NAMES=HP
##CAS NAME=Furan, 2-ethyltetrahydro-5-methoxy-2-methyl-
##MOLFORM=C8H16O2
##CAS REGISTRY NO=61177-19-3
##MP= -300
##BP= -300
##MW= 144
##$RETENTION INDEX=0
##$CONDENSED SPECTRUM=NO
##NPOINTS= 94
##XYDATA=(XY..XY) 1 
    27        161
    28         70
    29        244
    30         10
    31         64
    32         12
    33         20
    37          2
    38          5
    39        122
    40         20
    41        603
    42        126
    43        633
    44         34
    45        408
    46         14
    47          8
    49          0
    50          6
    51         12
    52          4
    53         49
    54         18
    55        390
    56        137
    57        332
    58         36
    59         32
    60          2
    61         42
    62          0
    63          0
    64          0
    65         10
    66          4
    67         58
    68         18
    69        647
    70         52
    71        141
    72        443
    73        999
    74         80
    75         34
    76          0
    77          7
    78          2
    79         21
    80          3
    81          6
    82          4
    83        279
    84        219
    85         23
    86          0
    87         16
    88          8
    89          1
    90          0
    91          4
    92          0
    93          8
    94          5
    95        340
    96         27
    97         53
    98          3
    99          4
   100          1
   105          0
   106          0
   107          0
   109          0
   110          0
   111         18
   112         23
   113        239
   114         20
   115        957
   116         65
   117          4
   118          1
   119          0
   127          3
   128          0
   129        112
   130          8
   131          1
   132          0
   140          1
   143          6
   144          1
   145          0