##TITLE=Library Entry 1278
##JCAMP-DX=Revision 4.10 
##DATA TYPE=MASS SPECTRUM
##SAMPLE DESCRIPTION=Chemical Concepts
##NAMES=HP
##CAS NAME=Acetic acid, 4-(3-acetylamino-2-oxopropyl)phenyl ester
##MOLFORM=C13H15NO4
##CAS REGISTRY NO=61172-74-5
##MP= -300
##BP= -300
##MW= 249
##$RETENTION INDEX=0
##$CONDENSED SPECTRUM=NO
##NPOINTS= 208
##XYDATA=(XY..XY) 1 
    26          4
    27         20
    28         30
    29         19
    30        999
    31         28
    33          0
    34          0
    35          1
    36          7
    37          1
    38          6
    39         33
    40          4
    41         21
    42         31
    43        601
    44         34
    45         17
    46          2
    47          1
    48          1
    49          1
    50         14
    51         46
    52         41
    53         24
    54          5
    55         20
    56          7
    57         24
    58          9
    59          5
    60         12
    61          0
    62          2
    63         15
    64          4
    65          8
    66          3
    67          6
    68          3
    69         15
    70          5
    71         13
    72        420
    73        123
    74          7
    75          3
    76          4
    77        127
    78         65
    79         26
    80          5
    81         12
    82          2
    83          8
    84          2
    85          6
    86          0
    87          1
    88          1
    89         10
    90         12
    91         15
    92          2
    93          2
    94          2
    95          5
    96          1
    97          7
    98          3
    99          4
   100        637
   101         51
   102          5
   103          2
   104          1
   105         11
   106         16
   107        840
   108        160
   109         15
   110          1
   111          4
   112          2
   113          2
   114          2
   115          2
   116          0
   117          1
   118          1
   119          5
   120        205
   121         22
   122          1
   123          2
   124          1
   125          2
   126          1
   127          1
   128          1
   129          1
   130          2
   131          3
   132          2
   133          2
   134         18
   135          2
   136          4
   137          4
   138          1
   139          1
   140          1
   141          1
   142          2
   143          6
   144          0
   145          0
   146          4
   147          7
   148         10
   149         18
   150         16
   151          1
   152          0
   153          1
   154          0
   155          0
   156          0
   157          1
   158          0
   159          0
   160          1
   161          2
   162         28
   163          3
   164          2
   165         49
   166          3
   167          1
   168          0
   169          0
   170          1
   171          1
   172          2
   173          1
   174          0
   175          1
   176          1
   177          1
   178          1
   179          3
   180          1
   181          1
   182          1
   183          1
   184          1
   185          1
   186          1
   187          1
   188          1
   189          7
   190          3
   191          2
   192          3
   193          2
   194          2
   195          2
   196          2
   197          2
   198          2
   199          2
   200          4
   201          2
   202          3
   203          2
   204          3
   205          3
   206          3
   207        251
   208         30
   209          4
   210          2
   211          2
   212          2
   213          2
   214          3
   215          3
   216          2
   217          2
   218          3
   219          1
   220          1
   221          1
   222          1
   223          1
   224          1
   225          1
   226          1
   227          2
   228          2
   229          2
   230          2
   231          2
   249        172
   250         29
   251          4