##TITLE=Library Entry 9865
##JCAMP-DX=Revision 4.10 
##DATA TYPE=MASS SPECTRUM
##SAMPLE DESCRIPTION=N.Chernjak
##NAMES=HP
##CAS NAME=2,4-Dimethyldodecane
##MOLFORM=C14H30
##CAS REGISTRY NO=6117-99-3
##MP= -300
##BP= -300
##MW= 198
##$RETENTION INDEX=0
##$CONDENSED SPECTRUM=NO
##NPOINTS= 56
##XYDATA=(XY..XY) 1 
    15          5
    27        124
    29        220
    39         56
    40         20
    41        408
    42        105
    43        999
    53         19
    54          4
    55        134
    56        155
    57        650
    58         26
    65          3
    66          2
    67         17
    68         10
    69         94
    70         42
    71        353
    72         22
    82         10
    83          4
    84        139
    85        767
    86         48
    95          1
    96          8
    97         37
    98         16
    99         85
   100         12
   110          3
   111         21
   112         23
   113         26
   114          2
   125          2
   126          5
   127          8
   128          1
   139          3
   140         72
   141         60
   142          6
   154         20
   155         37
   156          5
   168          1
   169          3
   170          1
   182          1
   183         12
   184          2
   198          2