##TITLE=Library Entry 87217
##JCAMP-DX=Revision 4.10 
##DATA TYPE=MASS SPECTRUM
##SAMPLE DESCRIPTION=D.HENNEBERG, MAX-PLANCK INSTITUTE, MULHEIM, WEST GERMAN
Y
##NAMES=HP
##CAS NAME=Cyclobuta[1,2:3,4]dicyclooctene, hexadecahydro-, (6a.alpha.,6b.al
pha.,12a.alpha.,12b.alpha.)-
##MOLFORM=C16H28
##CAS REGISTRY NO=61177-15-9
##MP= -300
##BP= -300
##MW= 220
##$RETENTION INDEX=0
##$CONDENSED SPECTRUM=NO
##NPOINTS= 29
##XYDATA=(XY..XY) 1 
    27         27
    28         15
    29         53
    39         70
    41        286
    42          6
    43         11
    53         51
    54        221
    55        188
    56         14
    65          8
    66         52
    67        498
    68        207
    69        100
    77         24
    79         67
    80         46
    81        465
    82        985
    83         62
    91         10
    93         21
    95        191
    96         21
   110        999
   111        108
   220          5