##TITLE=Library Entry 8885
##JCAMP-DX=Revision 4.10 
##DATA TYPE=MASS SPECTRUM
##SAMPLE DESCRIPTION=Japan AIST/NIMC Database- Spectrum MS-NW-8699
##NAMES=HP
##CAS NAME=Dodecane, 4-methyl-
##MOLFORM=C13H28
##CAS REGISTRY NO=6117-97-1
##MP= -300
##BP= -300
##MW= 184
##$RETENTION INDEX=1259
##$CONDENSED SPECTRUM=NO
##NPOINTS= 64
##XYDATA=(XY..XY) 1 
    15          1
    26          2
    27         65
    28         11
    29        143
    30          3
    39         39
    40          8
    41        250
    42         91
    43        999
    44         32
    51          2
    52          1
    53         13
    54          9
    55        165
    56         94
    57        826
    58         36
    65          2
    66          1
    67          9
    68          8
    69         53
    70        365
    71        859
    72         47
    73          1
    77          1
    79          1
    81          2
    82         12
    83         32
    84         46
    85        463
    86         30
    87          1
    96          7
    97         30
    98         22
    99        105
   100          8
   110          3
   111         21
   112         37
   113         23
   114          2
   125          2
   126          7
   127          8
   135          3
   137          3
   140        101
   141        101
   142         10
   154          9
   155         10
   156          1
   168          2
   169          9
   170          1
   184          6
   185          1