##TITLE=Library Entry 299
##JCAMP-DX=Revision 4.10 
##DATA TYPE=MASS SPECTRUM
##SAMPLE DESCRIPTION=D.HENNEBERG, MAX-PLANCK INSTITUTE, MULHEIM, WEST GERMAN
Y
##NAMES=HP
##CAS NAME=Iron, tetracarbonyl(1,2,3,4-tetrachlorospiro[4.6]undeca-1,3,6,8,1
0-pentaene)-
##MOLFORM=C15H6Cl4FeO4
##CAS REGISTRY NO=61178-34-5
##MP= -300
##BP= -300
##MW= 446
##$RETENTION INDEX=0
##$CONDENSED SPECTRUM=NO
##NPOINTS= 320
##XYDATA=(XY..XY) 1 
    26         10
    27         34
    28        999
    29         25
    30          1
    31          1
    32         11
    35          7
    36         41
    37          4
    38         12
    39         79
    40          3
    41         38
    42         17
    43         32
    44         10
    45          1
    46          0
    47          0
    48          0
    49          3
    50         26
    51         54
    52         30
    53          3
    54          6
    55          5
    56        101
    57         40
    58          2
    60          3
    61         12
    62         22
    63         70
    64          7
    65         11
    66          1
    67          1
    68          3
    69          8
    70          0
    71          3
    72          3
    73         22
    74         20
    75         17
    76          7
    77         21
    78         66
    79          6
    80          1
    81          6
    82          3
    83          3
    84         35
    85         21
    86         39
    87         55
    88         18
    89         13
    90          2
    91         83
    92          2
    93         27
    94          2
    95         96
    96         18
    97         50
    98         22
    99         17
   100          3
   101          3
   102          2
   104          3
   105          4
   106          3
   107          7
   108         12
   109         13
   110         22
   111         23
   112         11
   113         13
   114          4
   115          2
   116          0
   117          4
   118          1
   119          4
   120         13
   121         17
   122          9
   123         12
   124          1
   125          4
   126          2
   127          2
   128          1
   129          3
   130         59
   131         20
   132         48
   133         11
   134         10
   135          5
   136          8
   137        274
   138        179
   139         31
   140          3
   141          5
   142          2
   143          4
   144          5
   145          7
   146          3
   147         18
   148          5
   149         25
   150         13
   151         15
   152          2
   153          5
   154          0
   155          2
   156          1
   157          1
   158          1
   159          1
   160          1
   161          0
   162          2
   163          0
   164          1
   165          3
   166          1
   167          6
   168          3
   169          6
   170          2
   171         20
   172        152
   173        989
   174        172
   175        338
   176         40
   177          5
   178          1
   179          1
   180          0
   181          2
   182          7
   183         10
   184          5
   185          5
   186         10
   187          1
   188          7
   189          0
   190          1
   191          1
   192          1
   193          1
   194          0
   195          0
   196          0
   200          1
   201          2
   202          1
   203          1
   204          1
   205          1
   206          3
   207         47
   208        142
   209         85
   210         93
   211         40
   212         19
   213          6
   214          0
   215          0
   216          0
   217          3
   218          1
   219          5
   220          0
   221         26
   222          2
   223         24
   224          2
   225          7
   226          0
   227          2
   228          2
   229          3
   230          2
   231          1
   232          0
   234          1
   235          0
   236          0
   238          0
   240          0
   241          1
   242          0
   243         26
   244         14
   245         25
   246         14
   247          8
   248          3
   249          1
   250          0
   252          0
   254          0
   255          0
   256          8
   257          1
   258         12
   259          1
   260          5
   261          5
   262          3
   263         77
   264         12
   265         48
   266          6
   267          8
   268          1
   273          0
   276          0
   277          0
   278          3
   279          0
   280          3
   281          1
   282          2
   284         12
   285          1
   286         14
   287          2
   288          8
   289          1
   290          2
   292          0
   295          0
   296          2
   297          1
   298         32
   299          7
   300         30
   301          6
   302         11
   303          2
   304          1
   305          0
   306          0
   307          0
   308          3
   309          1
   310          3
   311          1
   312          4
   313          1
   314          3
   315          1
   316          1
   317          0
   328          0
   329          0
   330          1
   331          1
   332          9
   333          6
   334        134
   335         25
   336        175
   337         28
   338         80
   339         12
   340         21
   341          3
   342          2
   343          0
   344          0
   345          0
   356          0
   357          0
   360          2
   361          1
   362         14
   363          3
   364         17
   365          3
   366          8
   367          1
   368          2
   370          0
   385          0
   386          0
   387          0
   388          0
   389          0
   390          9
   391          2
   392         11
   393          2
   394          4
   395          1
   396          1
   416          0
   418          8
   419          3
   420         12
   421          2
   422          5
   423          1
   424          1