##TITLE=Library Entry 317
##JCAMP-DX=Revision 4.10 
##DATA TYPE=MASS SPECTRUM
##SAMPLE DESCRIPTION=D.HENNEBERG, MAX-PLANCK INSTITUTE, MULHEIM, WEST GERMAN
Y
##NAMES=HP
##CAS NAME=Iron, heptacarbonyl[1,2-diazaspiro[2.5]octanato(2-)]di-
##MOLFORM=C13H10Fe2N2O7
##CAS REGISTRY NO=61178-33-4
##MP= -300
##BP= -300
##MW= 418
##$RETENTION INDEX=0
##$CONDENSED SPECTRUM=NO
##NPOINTS= 205
##XYDATA=(XY..XY) 1 
    27         65
    28        999
    29         38
    30          9
    32          4
    36          0
    37          3
    38          8
    39         61
    40         16
    41        201
    42         33
    43         81
    44          8
    45          0
    47          0
    49          1
    50          4
    51          9
    52          9
    53         11
    54        279
    55         39
    56        140
    57         12
    58          0
    61          0
    62          1
    63          2
    64          1
    65          9
    66         10
    67         41
    68         36
    69         62
    70         12
    71          4
    72          1
    73          0
    74          0
    75          0
    76          1
    77          7
    78          4
    79          9
    80          6
    81          5
    82         35
    83          6
    84         15
    85          1
    86          0
    89          0
    90          0
    91          3
    92          1
    93         16
    94          6
    95         14
    96         34
    97         53
    98         26
    99          1
   103          0
   104          0
   105          0
   106          0
   107          0
   108          4
   109          4
   110         54
   111          5
   112         19
   113          2
   116          0
   117          1
   118          1
   119          3
   120          0
   121          2
   122          2
   123         10
   124          9
   125         18
   126         44
   127         12
   128          3
   129          0
   130          1
   132          1
   133          0
   134          1
   135          1
   136          2
   137          4
   138         20
   139         14
   140          1
   142          0
   143          2
   144          1
   145          0
   146          3
   147         10
   148          3
   149         22
   150          8
   151        211
   152         23
   153          9
   154         25
   155         12
   156          0
   158          0
   160          0
   164          1
   165          1
   166          7
   167          4
   168          7
   169          1
   170          0
   171          1
   172          0
   173          1
   174          3
   175          7
   176          1
   178          2
   179          1
   180         11
   181          2
   182          1
   191          0
   192          1
   193          7
   194          8
   195          3
   196          1
   198          0
   199          0
   200          0
   201          0
   202          1
   203          0
   204          1
   205          1
   206          1
   207          1
   208          1
   209          1
   219          0
   220          0
   221          1
   222          1
   223          2
   224          0
   225          0
   230          0
   232          0
   234          1
   236          0
   243          0
   244          0
   245          0
   246          4
   247          2
   248         43
   249          7
   250        303
   251         40
   252          5
   253          1
   264          0
   274          0
   276          9
   277          1
   278         73
   279         11
   280          1
   281          0
   300          0
   302          1
   304         16
   305          3
   306         66
   307         10
   308          2
   330          0
   332          3
   333          1
   334         13
   335          3
   336          1
   358          0
   360          8
   362         49
   363          8
   388          1
   390         10
   391          2
   392          0
   416          1
   418          3
   419          0