##TITLE=Library Entry 23077
##JCAMP-DX=Revision 4.10 
##DATA TYPE=MASS SPECTRUM
##SAMPLE DESCRIPTION=NIST Mass Spectrometry Data Center, 1990.
##NAMES=HP
##CAS NAME=2-Buten-1-ol
##MOLFORM=C4H8O
##CAS REGISTRY NO=6117-91-5
##MP= -300
##BP= -300
##MW= 72
##$RETENTION INDEX=627
##$CONDENSED SPECTRUM=NO
##NPOINTS= 46
##XYDATA=(XY..XY) 1 
    12          2
    13          5
    14         22
    15         60
    16          5
    17          6
    18          6
    19          7
    24          3
    25         20
    26        108
    27        409
    28        141
    29        726
    30         37
    31        289
    32         12
    34          2
    36         10
    37         68
    38        120
    39        523
    40         72
    41        311
    42         81
    43        411
    44        107
    45         30
    48          4
    49         22
    50         67
    51         59
    52         21
    53        135
    54         91
    55         87
    56          4
    57        999
    58         32
    59          3
    68          3
    69         18
    70         13
    71         69
    72        255
    73         11