##TITLE=Library Entry 195
##JCAMP-DX=Revision 4.10 
##DATA TYPE=MASS SPECTRUM
##SAMPLE DESCRIPTION=D.HENNEBERG, MAX-PLANCK INSTITUTE, MULHEIM, WEST GERMAN
Y
##NAMES=HP
##CAS NAME=Chromium, pentacarbonyl(1,3,5,7-cyclooctatetraene)di-
##MOLFORM=C13H8Cr2O5
##CAS REGISTRY NO=61178-32-3
##MP= -300
##BP= -300
##MW= 348
##$RETENTION INDEX=0
##$CONDENSED SPECTRUM=NO
##NPOINTS= 168
##XYDATA=(XY..XY) 1 
    28        999
    29         14
    30          2
    32         15
    36          0
    37          2
    38          4
    39         20
    40          2
    41          6
    42          2
    43          6
    44         21
    45          4
    46          0
    49          2
    50         18
    51         31
    52        171
    53         19
    54          4
    55          4
    56          3
    57          4
    58          0
    59          1
    61          1
    62          2
    63          7
    64          1
    65          3
    66          0
    67          1
    68          0
    69          2
    70          2
    71          2
    72          0
    73          2
    74          4
    75          4
    76          6
    77         26
    78         61
    79          8
    80         12
    81          1
    82          1
    83          1
    84          0
    85          0
    86          0
    87          0
    88          0
    89          2
    90          2
    91          7
    92          1
    93          1
    94          2
    95          0
    96          1
    97          0
    99          1
   101          2
   102          8
   103         44
   104         69
   105         12
   106          2
   107          0
   108          1
   109          0
   111          0
   112          0
   113          0
   114          0
   115          0
   116          0
   117          2
   118          1
   119          0
   121          0
   123          1
   125          0
   126          0
   127          0
   128          3
   129         10
   130         23
   131          4
   132          1
   133          0
   134          0
   140          0
   141          1
   142          1
   143          0
   145          0
   149          5
   152          0
   153          0
   154         12
   155          2
   156        104
   157         19
   158          4
   159          0
   160          0
   161          0
   165          0
   166          0
   167          0
   168          0
   169          0
   179          0
   180          0
   181          0
   183          1
   184          4
   185          0
   189          0
   191          0
   200          0
   202          0
   204          0
   206          7
   207          4
   208         58
   209         20
   210          5
   211          0
   215          0
   223          0
   228          0
   232          0
   234          6
   235          1
   236         60
   237         19
   238          4
   239          0
   240          2
   241          0
   242          0
   248          0
   252          0
   262          0
   264          7
   265          1
   266          1
   267          0
   268          0
   286          0
   290          2
   291          0
   292         21
   293          8
   294          2
   318          2
   320         18
   321          6
   322          1
   346          0
   347          0
   348          8
   349          3
   350          0