##TITLE=Library Entry 65906
##JCAMP-DX=Revision 4.10 
##DATA TYPE=MASS SPECTRUM
##SAMPLE DESCRIPTION=D.HENNEBERG, MAX-PLANCK INSTITUTE, MULHEIM, WEST GERMAN
Y
##NAMES=HP
##CAS NAME=1,2-Cyclopropanedicarboxylic acid, 3-(2-methyl-1-propenyl)-, dime
thyl ester
##MOLFORM=C11H16O4
##CAS REGISTRY NO=61177-18-2
##MP= -300
##BP= -300
##MW= 212
##$RETENTION INDEX=0
##$CONDENSED SPECTRUM=NO
##NPOINTS= 148
##XYDATA=(XY..XY) 1 
    26          6
    27         34
    28         25
    29         26
    30          2
    31          5
    32          1
    33          5
    36          0
    38          1
    39         45
    40         13
    41        116
    42         10
    43         35
    44          3
    45         29
    47          1
    50          2
    51         15
    52         11
    53         66
    54          9
    55         58
    56          6
    57          5
    58          0
    59        211
    60          5
    61         10
    63          1
    64          2
    65         33
    66         13
    67         70
    68         12
    69         20
    70          2
    71          8
    72          1
    73          7
    74          1
    75          4
    76          1
    77        211
    78         34
    79        164
    80         20
    81         46
    82          6
    83         10
    84          1
    85         33
    86          3
    87          1
    88          0
    90          2
    91        144
    92        101
    93        999
    94        121
    95         43
    96          8
    97          5
    98          6
    99         72
   100          5
   101          1
   102          1
   103          3
   104          1
   105         13
   106          3
   107         16
   108          5
   109         38
   110         10
   111         15
   112          7
   113         21
   114          1
   115          0
   116          0
   117          1
   118          1
   119         16
   120         44
   121        152
   122         34
   123         12
   124         22
   125         77
   126          7
   127          1
   128          2
   129          2
   130          1
   131          1
   132          0
   133          1
   134          0
   135          3
   136          3
   137         85
   138         14
   139          4
   140          1
   141          1
   142          0
   145          2
   146          1
   147          2
   148         39
   149         15
   150          2
   151         24
   152        181
   153        193
   154         22
   155          2
   156          1
   159          0
   161          1
   162          0
   163          1
   164          0
   165         15
   166          1
   168          2
   169          4
   170          0
   173          0
   177          1
   178          0
   179          1
   180        163
   181         86
   182          9
   183          1
   189          5
   190          0
   192          0
   193          0
   197          6
   198          0
   212         40
   213          4
   214          0