##TITLE=Library Entry 68007
##JCAMP-DX=Revision 4.10 
##DATA TYPE=MASS SPECTRUM
##SAMPLE DESCRIPTION=D.HENNEBERG, MAX-PLANCK INSTITUTE, MULHEIM, WEST GERMAN
Y
##NAMES=HP
##CAS NAME=Bicyclo[2.2.1]heptane, 2-butyl-
##MOLFORM=C11H20
##CAS REGISTRY NO=61177-16-0
##MP= -300
##BP= -300
##MW= 152
##$RETENTION INDEX=0
##$CONDENSED SPECTRUM=NO
##NPOINTS= 55
##XYDATA=(XY..XY) 1 
    27         50
    28         53
    29         51
    38          1
    39         83
    40         14
    41        225
    42         19
    43         54
    44         29
    50          5
    51         14
    52         11
    53         57
    54         80
    55        189
    56         76
    57         23
    63          1
    65         29
    66         89
    67        521
    68        204
    69        129
    70         14
    71          3
    77         37
    78         34
    79         45
    80         20
    81        238
    82        230
    83         41
    84         18
    85          3
    91         11
    92          1
    93         14
    94         18
    95        999
    96        213
    97         24
    98          4
   105          0
   107          0
   108          0
   109         67
   110         59
   111          8
   123         48
   124         70
   125          5
   137          4
   152         67
   153          6