##TITLE=Library Entry 7856
##JCAMP-DX=Revision 4.10 
##DATA TYPE=MASS SPECTRUM
##SAMPLE DESCRIPTION=N.Chernjak
##NAMES=HP
##CAS NAME=2,3-Dimethyldodecane
##MOLFORM=C14H30
##CAS REGISTRY NO=6117-98-2
##MP= -300
##BP= -300
##MW= 198
##$RETENTION INDEX=1353
##$CONDENSED SPECTRUM=NO
##NPOINTS= 54
##XYDATA=(XY..XY) 1 
    15          3
    27        126
    29        249
    39         67
    40         23
    41        453
    42        126
    43        999
    53         26
    54         10
    55        232
    56        100
    57        910
    58         40
    65          3
    66          3
    67         21
    68         15
    69         83
    70        140
    71        776
    72         39
    81          7
    82         29
    83         57
    84         35
    85        396
    86         26
    95          2
    96         18
    97         78
    98         29
    99        135
   100         19
   110          9
   111         51
   112         25
   113         62
   114          6
   125          4
   126         32
   127         30
   128          8
   139          1
   140          1
   141          2
   154        213
   155        133
   156         18
   168          2
   169          5
   170          1
   183          2
   198          2