##TITLE=Library Entry 29916
##JCAMP-DX=Revision 4.10 
##DATA TYPE=MASS SPECTRUM
##SAMPLE DESCRIPTION=ORMSBG,9(2)257(1974); NIBBERZNG
##NAMES=HP
##CAS NAME=Propanoic acid, 2-nitro-, methyl ester
##MOLFORM=C4H7NO4
##CAS REGISTRY NO=6118-50-9
##MP= -300
##BP= -300
##MW= 133
##$RETENTION INDEX=0
##$CONDENSED SPECTRUM=NO
##NPOINTS= 30
##XYDATA=(XY..XY) 1 
    26         70
    27        290
    28        430
    29        110
    30        170
    31         50
    32         10
    39         20
    40         10
    41        140
    42         40
    43        290
    44         40
    45        150
    46         50
    53         10
    55        750
    56         50
    57         20
    58         10
    59        999
    60         30
    61         10
    68         10
    74         10
    85         10
    87        140
    88         10
   102        230
   103         10