##TITLE=Library Entry 32280
##JCAMP-DX=Revision 4.10 
##DATA TYPE=MASS SPECTRUM
##SAMPLE DESCRIPTION=G. Lange, Inst. Org. Chem., Univ. Wurzburg, Wurzburg, G
ermany
##NAMES=HP
##CAS NAME=5,8-Methano-1H-[1,2,4]triazolo[1,2-a]pyridazine-1,3(2H)-dione, 5,
8-dihydro-2-methyl-
##MOLFORM=C8H9N3O2
##CAS REGISTRY NO=61195-22-0
##MP= -300
##BP= -300
##MW= 179
##$RETENTION INDEX=0
##$CONDENSED SPECTRUM=NO
##NPOINTS= 31
##XYDATA=(XY..XY) 1 
    38         15
    39        109
    40         87
    41         20
    42         10
    50          6
    51         20
    52         31
    53         27
    54          9
    56         42
    57         23
    58         12
    63          9
    64          8
    65         80
    66        999
    67         72
    68          5
    69          5
    70          8
    78          6
    79         43
    80         33
    94         18
    95          8
   121         32
   122         52
   152         11
   179        195
   180         19