##TITLE=Library Entry 59257
##JCAMP-DX=Revision 4.10 
##DATA TYPE=MASS SPECTRUM
##SAMPLE DESCRIPTION=NIST Mass Spectrometry Data Center, 1994
##NAMES=HP
##CAS NAME=N-Benzylaminoacetaldehyde diethyl acetal
##MOLFORM=C13H21NO2
##CAS REGISTRY NO=61190-10-1
##MP= -300
##BP= -300
##MW= 223
##$RETENTION INDEX=0
##$CONDENSED SPECTRUM=NO
##NPOINTS= 77
##XYDATA=(XY..XY) 1 
    13          1
    14          5
    15         35
    16          2
    18          1
    19         20
    26         26
    27        161
    28         84
    29        372
    30         49
    31         31
    32          1
    39         57
    40          7
    41         33
    42         39
    43         52
    44         60
    45         30
    46          1
    47        562
    48          7
    49          3
    50         14
    51         39
    52         12
    53          3
    54          1
    57          2
    58         10
    59          3
    60          5
    61          3
    62          7
    63         30
    64          1
    65        173
    66          9
    70          2
    71          1
    72         11
    75        422
    76         17
    77         28
    78         10
    79          6
    80          1
    86          2
    87          1
    89         37
    91        999
    92         80
    93          3
   100          3
   103        470
   104         37
   105          7
   106         25
   107          9
   116          1
   117          9
   118         27
   119          1
   120        140
   121         12
   130          3
   131          4
   132         11
   133          4
   134          4
   148          8
   149          1
   178         90
   179         47
   180          5
   223          1