##TITLE=Library Entry 58508
##JCAMP-DX=Revision 4.10 
##DATA TYPE=MASS SPECTRUM
##SAMPLE DESCRIPTION=Japan AIST/NIMC Database- Spectrum MS-NW-8850
##NAMES=HP
##CAS NAME=Benzene, 1-(chloromethyl)-2-nitro-
##MOLFORM=C7H6ClNO2
##CAS REGISTRY NO=612-23-7
##MP= -300
##BP= -300
##MW= 171
##$RETENTION INDEX=0
##$CONDENSED SPECTRUM=NO
##NPOINTS= 107
##XYDATA=(XY..XY) 1 
    16          1
    18          1
    26         13
    27         35
    28         55
    29         27
    30        100
    31          1
    35          8
    36         30
    37         29
    38         82
    39        285
    40         35
    41         18
    42          2
    43          9
    44         13
    45          6
    46         12
    47          2
    48          1
    49         24
    50        160
    51        315
    52        109
    53         46
    54          6
    55          4
    59          5
    60          7
    61         47
    62        156
    63        491
    64        154
    65        749
    66         59
    67          4
    68          4
    69          1
    72          3
    73         69
    74         40
    75         77
    76         62
    77        497
    78        441
    79        135
    80        172
    81         22
    82          1
    84          4
    85         18
    86         34
    87         35
    88         15
    89        999
    90        477
    91        123
    92        883
    93         70
    94          3
    96          1
    97         11
    98          2
    99        265
   100         20
   101         84
   102          8
   103          3
   104         11
   105        151
   106         47
   107          7
   108        298
   109         22
   110          2
   111          5
   112         12
   113          7
   114          4
   115          2
   117          1
   118         23
   119         65
   120         27
   121          6
   123          9
   124         29
   125        192
   126        114
   127         69
   128         34
   129          3
   135          6
   136        536
   137         42
   138          4
   139          2
   141          3
   142          2
   143          2
   154         16
   155          4
   156          6
   157          1
   171          1