##TITLE=Library Entry 32090
##JCAMP-DX=Revision 4.10 
##DATA TYPE=MASS SPECTRUM
##SAMPLE DESCRIPTION=Chemical Concepts
##NAMES=HP
##CAS NAME=Cyclobuta[1,2:3,4]dicyclopentene, 1,3a,3b,6,6a,6b-hexahydro-
##MOLFORM=C10H12
##CAS REGISTRY NO=612-09-9
##MP= -300
##BP= -300
##MW= 132
##$RETENTION INDEX=0
##$CONDENSED SPECTRUM=NO
##NPOINTS= 86
##XYDATA=(XY..XY) 1 
    26          4
    27         41
    28          2
    29          5
    31          2
    36          0
    37          2
    38          8
    39         74
    40         33
    41         35
    42         22
    43          4
    44          1
    45          2
    49          0
    50         10
    51         31
    52         10
    53         18
    54          7
    55          4
    56          0
    57          1
    58          0
    59          0
    61          2
    62          6
    63         20
    64         10
    65         82
    66        999
    67        122
    68          6
    69          3
    70          1
    71         12
    72         12
    73          3
    74          5
    75          6
    76          4
    77         44
    78         30
    79         38
    80         24
    81        106
    82          8
    83          4
    85          0
    86          1
    87          1
    88          0
    89          9
    90          2
    91         81
    92         18
    93          6
    94          1
    95          1
    96          0
    97          2
    98          1
    99          0
   101          1
   102          7
   103         12
   104         16
   105         10
   106          3
   107          2
   108          0
   109          0
   115         40
   116         15
   117         39
   118          4
   119          2
   127         10
   128         16
   129         10
   130          2
   131         11
   132         66
   133          9
   134          0