##TITLE=Library Entry 46811
##JCAMP-DX=Revision 4.10 
##DATA TYPE=MASS SPECTRUM
##SAMPLE DESCRIPTION=Japan AIST/NIMC Database- Spectrum MS-NW-3207
##NAMES=HP
##CAS NAME=Benzenemethanol, 2-nitro-
##MOLFORM=C7H7NO3
##CAS REGISTRY NO=612-25-9
##MP= -300
##BP= -300
##MW= 153
##$RETENTION INDEX=0
##$CONDENSED SPECTRUM=NO
##NPOINTS= 85
##XYDATA=(XY..XY) 1 
    14          2
    15          1
    16          1
    17          2
    18          7
    26          9
    27         66
    28         43
    29         47
    30         46
    31         34
    32          4
    36          1
    37         17
    38         35
    39        136
    40         16
    41         41
    42          3
    43          6
    44         13
    45          6
    46          5
    47         13
    48          1
    49          9
    50        137
    51        353
    52        220
    53        101
    54          6
    55         20
    56          2
    60          2
    61         12
    62         31
    63         81
    64        125
    65        138
    66         27
    67         18
    68          3
    69          1
    73          7
    74         42
    75         33
    76         82
    77        999
    78        214
    79        579
    80         61
    81          9
    82          1
    85          3
    86          6
    87          5
    88          3
    89         33
    90         35
    91        303
    92         91
    93         41
    94         17
    95         14
    96          1
   103          2
   104         42
   105        234
   106         35
   107         22
   108         19
   109          3
   117          4
   118          3
   119         20
   120         18
   121         43
   122          5
   123          1
   124          5
   134          3
   135        105
   136         10
   137          2
   152          3