##TITLE=Library Entry 47220
##JCAMP-DX=Revision 4.10 
##DATA TYPE=MASS SPECTRUM
##SAMPLE DESCRIPTION=RADIAN CORP
##NAMES=HP
##CAS NAME=Benzenamine, N-ethyl-N-nitroso-
##MOLFORM=C8H10N2O
##CAS REGISTRY NO=612-64-6
##MP= -300
##BP= -300
##MW= 150
##$RETENTION INDEX=1266
##$CONDENSED SPECTRUM=NO
##NPOINTS= 59
##XYDATA=(XY..XY) 1 
    15          1
    18          8
    26          9
    27         58
    28         40
    29         37
    30        236
    32          2
    37         13
    38         40
    39        122
    40         21
    41         25
    42         79
    44         60
    50         87
    51        310
    52         84
    53         31
    54         10
    59          2
    61          6
    62         19
    63         70
    64         63
    65        123
    66         28
    67          7
    73          2
    74         24
    75         19
    76         34
    77        999
    78        122
    79        110
    80         22
    88          1
    89          7
    90         13
    91        143
    92         86
    93         77
    94         39
   102          8
   103        142
   104        320
   105        132
   106        463
   107         39
   115          2
   117         20
   118        206
   119        159
   120        709
   121        199
   122         18
   135          2
   150         31
   151          3