##TITLE=Library Entry 76152
##JCAMP-DX=Revision 4.10 
##DATA TYPE=MASS SPECTRUM
##SAMPLE DESCRIPTION=Japan AIST/NIMC Database- Spectrum MS-NW-2251
##NAMES=HP
##CAS NAME=Benzonitrile, 2-nitro-
##MOLFORM=C7H4N2O2
##CAS REGISTRY NO=612-24-8
##MP= -300
##BP= -300
##MW= 148
##$RETENTION INDEX=0
##$CONDENSED SPECTRUM=NO
##NPOINTS= 68
##XYDATA=(XY..XY) 1 
    12          1
    14          2
    16          1
    25          2
    26         12
    27         55
    28         24
    29          2
    30        551
    31          2
    32          1
    36          5
    37         45
    38         46
    39         85
    40          5
    41          2
    43          1
    44          9
    46         11
    48          5
    49         26
    50        145
    51        245
    52         58
    53          3
    55          1
    60          4
    61         16
    62         28
    63         81
    64         55
    65          5
    66          1
    72          3
    73         17
    74         68
    75        422
    76        283
    77         17
    78          1
    85          2
    86          4
    87          7
    88          7
    89          7
    90        385
    91         33
    92          2
    98          2
    99         26
   100         18
   101         15
   102        999
   103         83
   104         25
   105          2
   116          2
   117          2
   118        120
   119         10
   132         20
   133          2
   134          1
   145          1
   148        700
   149         60
   150          5