##TITLE=Library Entry 31891
##JCAMP-DX=Revision 4.10 
##DATA TYPE=MASS SPECTRUM
##SAMPLE DESCRIPTION=Japan AIST/NIMC Database- Spectrum MS-NW-4222
##NAMES=HP
##CAS NAME=trans-2-Nitrocinnamic acid
##MOLFORM=C9H7NO4
##CAS REGISTRY NO=612-41-9
##MP= -300
##BP= -300
##MW= 193
##$RETENTION INDEX=0
##$CONDENSED SPECTRUM=NO
##NPOINTS= 135
##XYDATA=(XY..XY) 1 
    12          1
    14          1
    15          6
    16          3
    17          3
    18         10
    25          2
    26         15
    27         55
    28         22
    29         38
    30         50
    31          4
    32          4
    36          2
    37         27
    38         49
    39        235
    40         21
    41         53
    42          8
    43         35
    44         70
    45        105
    46          8
    47          1
    48          2
    49         18
    50        225
    51        436
    52         98
    53         36
    54          6
    55         11
    56          2
    57          2
    58          5
    59          6
    60          4
    61         28
    62         72
    63        226
    64        110
    65        999
    66        124
    67         22
    68          4
    69         46
    70          2
    71          2
    72          1
    73         16
    74        130
    75        230
    76        236
    77        505
    78         95
    79        141
    80         21
    81         12
    82          2
    83          1
    84          2
    85          6
    86         11
    87         26
    88         13
    89        269
    90        171
    91        729
    92        905
    93        236
    94         21
    95          3
    96          1
    97          4
    98         19
    99          9
   100          6
   101        117
   102        195
   103        177
   104        164
   105        107
   106         13
   107         54
   108          9
   109          4
   110          2
   111          1
   114          4
   115         14
   116         56
   117         73
   118         78
   119        211
   120        551
   121         97
   122          9
   123          1
   128          3
   129         23
   130        143
   131         24
   132        106
   133         53
   134         15
   135          8
   136          2
   137          6
   138          1
   143         10
   144          2
   145         12
   146         29
   147        380
   148        457
   149         45
   150          5
   157          1
   158         35
   159          9
   160          1
   161          9
   162          2
   163          2
   164          2
   169          2
   175         57
   176         65
   177          7
   178          1
   192          1
   193         35
   194          4