##TITLE=Library Entry 69689
##JCAMP-DX=Revision 4.10 
##DATA TYPE=MASS SPECTRUM
##SAMPLE DESCRIPTION=Japan AIST/NIMC Database- Spectrum MS-NW-7078
##NAMES=HP
##CAS NAME=4-Pentylcyclohexanone
##MOLFORM=C11H20O
##CAS REGISTRY NO=61203-83-6
##MP= -300
##BP= -300
##MW= 168
##$RETENTION INDEX=0
##$CONDENSED SPECTRUM=NO
##NPOINTS= 127
##XYDATA=(XY..XY) 1 
    15          8
    16          1
    17          1
    18          3
    26         13
    27        229
    28         94
    29        298
    30          8
    31          5
    32          9
    37          1
    38          7
    39        198
    40         41
    41        713
    42        156
    43        525
    44         19
    45          5
    46          1
    47          2
    48          1
    49          1
    50          5
    51         18
    52         11
    53         90
    54        119
    55        661
    56        230
    57        496
    58         34
    59          5
    60          3
    61          1
    62          1
    63          5
    64          1
    65         18
    66         12
    67        118
    68        154
    69        385
    70        493
    71        310
    72         29
    73          6
    74          4
    75          2
    76          2
    77         19
    78         13
    79         65
    80         19
    81        139
    82        113
    83        551
    84        112
    85         22
    86          8
    87          1
    88          1
    89          2
    90          1
    91         17
    92          8
    93         34
    94         26
    95        152
    96         87
    97        999
    98        113
    99         19
   100          5
   101          2
   103          1
   104          1
   105          3
   106          2
   107         24
   108         38
   109         45
   110         20
   111         76
   112         60
   113          8
   114          2
   115          3
   116          1
   117          1
   118          1
   119          2
   120          1
   121         30
   122         12
   123          7
   124        127
   125         37
   126        493
   127         48
   128          6
   129          2
   131          1
   135          6
   136          1
   137          4
   138          3
   139        135
   140         40
   141          8
   142          4
   143          1
   144          1
   148          3
   149          4
   150          6
   151          2
   152          8
   153          7
   154          2
   164          1
   166          2
   167          4
   168        254
   169         36
   170          3