##TITLE=Library Entry 88100
##JCAMP-DX=Revision 4.10 
##DATA TYPE=MASS SPECTRUM
##SAMPLE DESCRIPTION=D.HENNEBERG, MAX-PLANCK INSTITUTE, MULHEIM, WEST GERMAN
Y
##NAMES=HP
##CAS NAME=Cyclopropanecarboxylic acid, 2,3-dichloro-2,3-dimethyl-
##MOLFORM=C6H8Cl2O2
##CAS REGISTRY NO=61216-61-3
##MP= -300
##BP= -300
##MW= 182
##$RETENTION INDEX=0
##$CONDENSED SPECTRUM=NO
##NPOINTS= 117
##XYDATA=(XY..XY) 1 
    27        294
    28         55
    29         77
    30          7
    31         26
    35         24
    36        101
    37         55
    38        127
    39        829
    40        161
    41        422
    42         47
    43        839
    44         69
    45        148
    46         14
    47         12
    48          9
    49         65
    50        102
    51        205
    52         37
    53         92
    54         26
    55         93
    56         14
    57         14
    60         19
    61         87
    62         84
    63        115
    64         33
    65        855
    66        139
    67        368
    68         49
    69        130
    70         11
    71         11
    72          9
    73         37
    74         11
    75         92
    76         17
    77         35
    78         11
    79         20
    80          7
    81         13
    82         19
    83         75
    84         24
    85         61
    86         11
    87         39
    88          9
    89         30
    90          8
    91         12
    92          8
    93         32
    94         10
    95         18
    96          9
    97         33
    98          7
    99         25
   100         12
   101        203
   102         53
   103        196
   104         31
   105         48
   106          9
   107          7
   109         19
   110         46
   111        999
   112         93
   113         18
   115          7
   117          6
   118          9
   119         51
   120         11
   121         39
   122          9
   123         15
   124          7
   125          7
   126          6
   128          6
   129         29
   130         18
   131         22
   132          9
   133          8
   136          8
   137        389
   138         26
   139        254
   140         19
   141         42
   142          8
   145          7
   146         15
   147        422
   148         36
   149        143
   150         14
   151          6
   165          8
   167          7
   169          6
   182          6
   184          6