##TITLE=Library Entry 50671
##JCAMP-DX=Revision 4.10 
##DATA TYPE=MASS SPECTRUM
##SAMPLE DESCRIPTION=JACSAT, 98(26) 8413(1976); R. WEST, UNIV OF WISCONSIN,
 USA
##NAMES=HP
##CAS NAME=3-Heptyne, 5-methyl-
##MOLFORM=C8H14
##CAS REGISTRY NO=61228-09-9
##MP= -300
##BP= -300
##MW= 110
##$RETENTION INDEX=757
##$CONDENSED SPECTRUM=NO
##NPOINTS= 9
##XYDATA=(XY..XY) 1 
    41        370
    53        320
    55        270
    67        290
    79        270
    81        999
    95        450
   110        480
   111         50