##TITLE=Library Entry 85765
##JCAMP-DX=Revision 4.10 
##DATA TYPE=MASS SPECTRUM
##SAMPLE DESCRIPTION=JACSAT, 98(26) 8413(1976); R. WEST, UNIV OF WISCONSIN,
 USA
##NAMES=HP
##CAS NAME=3-Heptyne, 5-ethyl-5-methyl-
##MOLFORM=C10H18
##CAS REGISTRY NO=61228-10-2
##MP= -300
##BP= -300
##MW= 138
##$RETENTION INDEX=0
##$CONDENSED SPECTRUM=NO
##NPOINTS= 17
##XYDATA=(XY..XY) 1 
    41        210
    43         20
    53        100
    55        250
    65         50
    67        560
    69         90
    77         80
    79         90
    81        240
    92         50
    94        380
    95         50
   108         87
   109        999
   110         80
   138        100