##TITLE=Library Entry 49165
##JCAMP-DX=Revision 4.10 
##DATA TYPE=MASS SPECTRUM
##SAMPLE DESCRIPTION=D.HENNEBERG, MAX-PLANCK INSTITUTE, MULHEIM, WEST GERMAN
Y
##NAMES=HP
##CAS NAME=Cyclohexene, 4-ethyl-3-ethylidene-
##MOLFORM=C10H16
##CAS REGISTRY NO=61233-77-0
##MP= -300
##BP= -300
##MW= 136
##$RETENTION INDEX=0
##$CONDENSED SPECTRUM=NO
##NPOINTS= 46
##XYDATA=(XY..XY) 1 
    27        126
    28        116
    29        154
    38          1
    39        172
    40         77
    41        174
    42          4
    43         17
    44          4
    50         14
    51         73
    52         32
    53         74
    54          9
    55         49
    63         23
    64          1
    65        108
    66         18
    67         85
    68          5
    75          4
    77        242
    78         94
    79        999
    80         86
    81         17
    89          2
    91        532
    92         66
    93        216
    94         33
    95          9
   103         24
   104          5
   105        148
   106         45
   107        899
   108        427
   109         26
   115          2
   119          7
   121         70
   136        352
   137         32