##TITLE=Library Entry 31241
##JCAMP-DX=Revision 4.10 
##DATA TYPE=MASS SPECTRUM
##SAMPLE DESCRIPTION=D.HENNEBERG, MAX-PLANCK INSTITUTE, MULHEIM, WEST GERMAN
Y
##NAMES=HP
##CAS NAME=Nickel, 2-propenyl(.eta.3-2-propenyl)(trimethylphosphine)-
##MOLFORM=C9H19NiP
##CAS REGISTRY NO=61233-21-4
##MP= -300
##BP= -300
##MW= 216
##$RETENTION INDEX=0
##$CONDENSED SPECTRUM=NO
##NPOINTS= 129
##XYDATA=(XY..XY) 1 
    26        111
    27        131
    28          6
    29         37
    30          1
    31         18
    32          1
    33         13
    34          6
    35          6
    36          9
    37         30
    38         51
    39        317
    40         89
    41        280
    42         66
    43         21
    44        103
    45        327
    46         52
    47        108
    48         13
    49         18
    50          7
    51          8
    52          6
    53         11
    54         18
    55         19
    56         40
    57        217
    58        528
    59        663
    60        209
    61        999
    62         28
    63         11
    64          6
    65          4
    66          6
    67         31
    68          5
    69          4
    70          4
    71         13
    72         18
    73         52
    74          7
    75        161
    76        642
    77        106
    78          8
    79          5
    80          2
    81          5
    82          2
    83          7
    84        135
    85         20
    86         62
    87          8
    88         10
    89          2
    91          4
    92         32
    93          2
    94         11
    95         11
    96         26
    97        165
    98        340
    99        298
   100        322
   101        121
   102         84
   103         30
   106         13
   107          2
   108          5
   109          1
   111          3
   112         67
   113          8
   114         77
   115          6
   116         20
   117          2
   118          5
   119          3
   120          4
   121          1
   122          1
   123         15
   124         10
   125         12
   126          3
   127          2
   128          2
   132          0
   133         39
   134         27
   135         18
   136         19
   137          1
   138         14
   140        567
   141         39
   142        211
   143         18
   144         22
   145          2
   146          6
   149          9
   155          1
   169          1
   171          1
   173          1
   174          1
   175         16
   176          1
   177          7
   179          1
   183          3
   199          3
   207          2
   216         16
   217          1
   218          7