##TITLE=Library Entry 85585
##JCAMP-DX=Revision 4.10 
##DATA TYPE=MASS SPECTRUM
##SAMPLE DESCRIPTION=D.HENNEBERG, MAX-PLANCK INSTITUTE, MULHEIM, WEST GERMAN
Y
##NAMES=HP
##CAS NAME=3,5-Octadiene, 4,5-diethyl-3,6-dimethyl-
##MOLFORM=C14H26
##CAS REGISTRY NO=61233-79-2
##MP= -300
##BP= -300
##MW= 194
##$RETENTION INDEX=0
##$CONDENSED SPECTRUM=NO
##NPOINTS= 82
##XYDATA=(XY..XY) 1 
    27        164
    28        232
    29        537
    30          4
    32          3
    39        182
    40         20
    41        944
    42         39
    43        555
    44         10
    51         38
    52         15
    53        228
    54         24
    55        720
    56         44
    57        562
    58         20
    63          6
    64          1
    65        113
    66         24
    67        411
    68         30
    69        323
    70         27
    71        259
    72         10
    77        220
    78         37
    79        233
    80         25
    81        717
    82         54
    83        124
    84         11
    85         18
    91        263
    92         25
    93        165
    94         24
    95        745
    96         71
    97         39
    98          7
   103         18
   104          5
   105        127
   106         17
   107        169
   108         29
   109        999
   110         94
   111          2
   115         11
   116          4
   117         13
   118          2
   119         57
   120         12
   121        156
   122         36
   123        521
   124         55
   133         12
   134          0
   135         62
   136         45
   137        300
   138         33
   149         25
   150          8
   151          9
   163          3
   164          9
   165        926
   166        102
   167          5
   179         20
   194        289
   195         43