##TITLE=Library Entry 43336
##JCAMP-DX=Revision 4.10 
##DATA TYPE=MASS SPECTRUM
##SAMPLE DESCRIPTION=D.HENNEBERG, MAX-PLANCK INSTITUTE, MULHEIM, WEST GERMAN
Y
##NAMES=HP
##CAS NAME=2H-Imidazol-2-one, 1,3-dihydro-1,3-bis(trimethylsilyl)-
##MOLFORM=C9H20N2OSi2
##CAS REGISTRY NO=61233-69-0
##MP= -300
##BP= -300
##MW= 228
##$RETENTION INDEX=0
##$CONDENSED SPECTRUM=NO
##NPOINTS= 43
##XYDATA=(XY..XY) 1 
    27          2
    28        165
    29         36
    42         10
    43        176
    44         72
    45        364
    46          3
    47         18
    55         12
    56          7
    57         17
    58        116
    59         73
    70         17
    72         53
    73        999
    74         66
    75        221
    84         11
    85        127
    86         20
    93         28
    95          0
    98         41
   100         72
   112          3
   113        163
   114          8
   116          6
   137          8
   139         17
   140         13
   141         20
   147         42
   154         38
   155         20
   213        651
   214         97
   215         26
   228        376
   229         72
   230         15