##TITLE=Library Entry 48648
##JCAMP-DX=Revision 4.10 
##DATA TYPE=MASS SPECTRUM
##SAMPLE DESCRIPTION=D.HENNEBERG, MAX-PLANCK INSTITUTE, MULHEIM, WEST GERMAN
Y
##NAMES=HP
##CAS NAME=Cyclobuta[1,2:3,4]dicyclooctene, 1,2,5,6,6a,6b,7,8,11,12,12a,12b-
dodecahydro-, (6a.alpha.,6b.alpha.,12a.beta.,12b.beta.)-
##MOLFORM=C16H24
##CAS REGISTRY NO=61233-68-9
##MP= -300
##BP= -300
##MW= 216
##$RETENTION INDEX=0
##$CONDENSED SPECTRUM=NO
##NPOINTS= 90
##XYDATA=(XY..XY) 1 
    27        163
    28        104
    29        121
    39        353
    40         54
    41        670
    42         40
    43         40
    50         17
    51         67
    52         48
    53        227
    54        442
    55        223
    56         14
    63         27
    65        152
    66        131
    67        840
    68         72
    69         56
    77        303
    78        144
    79        999
    80        593
    81        312
    82         31
    83         22
    89         30
    90         43
    91        632
    92        222
    93        670
    94        213
    95        161
    96         14
    97         10
   103         24
   104         40
   105        300
   106        215
   107        310
   108        211
   109         64
   110          7
   115         23
   116         21
   117        225
   118         71
   119        322
   120        174
   121        121
   122         28
   123         13
   128         12
   129         12
   130         10
   131        180
   132         86
   133        255
   134        200
   135         83
   136         21
   143          5
   144          5
   145        170
   146         84
   147        156
   148         67
   149         28
   150          6
   154          1
   159        177
   160        128
   161         60
   162         45
   163          7
   173        180
   174         74
   175         82
   176         11
   187        150
   188        620
   189         90
   190         10
   201         30
   202          6
   215          6
   216         96
   217         17