##TITLE=Library Entry 34101
##JCAMP-DX=Revision 4.10 
##DATA TYPE=MASS SPECTRUM
##SAMPLE DESCRIPTION=Chemical Concepts
##NAMES=HP
##CAS NAME=4-Methyl-5H-furan-2-one
##MOLFORM=C5H6O2
##CAS REGISTRY NO=6124-79-4
##MP= -300
##BP= -300
##MW= 98
##$RETENTION INDEX=973
##$CONDENSED SPECTRUM=NO
##NPOINTS= 66
##XYDATA=(XY..XY) 1 
    24          1
    25          9
    26         43
    27         91
    28         70
    29         77
    30          7
    31          8
    32          1
    33          2
    34          7
    36          7
    37         68
    38        118
    39        524
    40        329
    41        727
    42         43
    43         14
    44          6
    45          4
    48          3
    49         11
    50         31
    51         20
    52          9
    53         27
    54          3
    55         25
    56          2
    57          5
    58          1
    59          2
    63          1
    65          1
    66          6
    67         18
    68        109
    69        999
    70         49
    71          6
    72          0
    74          2
    75          0
    77          2
    78          0
    79          1
    80          0
    81          1
    82          1
    83          4
    84          0
    85          1
    86          1
    87          1
    89          0
    91          1
    93          0
    94          1
    95          1
    96          1
    97         15
    98        302
    99         26
   100          2
   101          1