##TITLE=Library Entry 70949
##JCAMP-DX=Revision 4.10 
##DATA TYPE=MASS SPECTRUM
##SAMPLE DESCRIPTION=J.VOTH UNIV. OF CALIFORNIA, DAVIS, CALIFORNIA, 95616, U
SA
##NAMES=HP
##CAS NAME=Aziridine, 1,2-diisopropyl-3-methyl-, trans-
##MOLFORM=C9H19N
##CAS REGISTRY NO=6124-84-1
##MP= -300
##BP= -300
##MW= 141
##$RETENTION INDEX=0
##$CONDENSED SPECTRUM=NO
##NPOINTS= 83
##XYDATA=(XY..XY) 1 
     2          7
    12          0
    13          2
    14         12
    15        193
    16          4
    17          1
    18         36
    25          0
    26         50
    27        540
    28        438
    29        231
    30         82
    31          1
    32          0
    36          0
    37          6
    38         19
    39        301
    40         46
    41        556
    42        488
    43        320
    44        257
    45          6
    46          0
    47          0
    48          0
    49          0
    50          5
    51         12
    52         12
    53         47
    54         31
    55        859
    56        403
    57         77
    58         35
    59          1
    60          0
    61          0
    62          0
    63          1
    64          0
    65          5
    66          4
    67         29
    68         61
    69         42
    70        232
    71         40
    72          7
    77          2
    79          7
    80          9
    81         22
    82         42
    83         43
    84        302
    85         64
    86         12
    87          0
    93          1
    94          3
    95          2
    96         21
    97          5
    98        999
    99         88
   100          4
   108          0
   110          4
   112        112
   113          2
   124          1
   126        374
   127         36
   128          1
   140          6
   141         65
   142          9
   143          0