##TITLE=Library Entry 57751
##JCAMP-DX=Revision 4.10 
##DATA TYPE=MASS SPECTRUM
##SAMPLE DESCRIPTION=Div. of Experiment Therapeutics WRAIR, WRAMC, Washingto
n DC 20307
##NAMES=HP
##CAS NAME=l-O-Methylthreonyl-l-O-methylthreonine
##MOLFORM=C10H20N2O5
##CAS REGISTRY NO=61242-94-2
##MP= -300
##BP= -300
##MW= 248
##$RETENTION INDEX=0
##$CONDENSED SPECTRUM=NO
##NPOINTS= 114
##XYDATA=(XY..XY) 1 
    41         89
    42         45
    43        133
    44         58
    45         58
    46          6
    47          5
    48          1
    49         20
    50          1
    51          8
    52          3
    53          1
    54         37
    55         20
    56        449
    57        142
    58         76
    59        890
    60         25
    61          4
    63          0
    67          1
    68         12
    69         34
    70         23
    71         73
    72         32
    73         22
    74         19
    75          4
    76          4
    77          1
    78          1
    80          0
    81          2
    82          6
    83         11
    84         28
    85         53
    86         20
    87          3
    88        999
    89         42
    90          3
    95          1
    96          3
    97          9
    98         17
    99         24
   100          7
   101          1
   102         40
   103          2
   104          1
   105          0
   106          0
   110          1
   111         11
   112          6
   113         19
   114        115
   115          8
   116          3
   117          1
   118          0
   123          0
   124          1
   125          1
   126          2
   127          1
   128          2
   129          4
   130          1
   131          1
   132          2
   134        164
   135          8
   136          0
   139          1
   140          6
   141          2
   142          1
   143          4
   144         16
   145          1
   146          2
   148          1
   154          1
   155          1
   156          1
   157          6
   158         44
   159          3
   160          1
   172         43
   173          9
   174          1
   184          0
   185          1
   188          1
   189          1
   190        181
   191         11
   192          1
   201          1
   202          4
   203          1
   204          1
   216          7
   217          1
   218          0
   248          7
   249          0