##TITLE=Library Entry 6856
##JCAMP-DX=Revision 4.10 
##DATA TYPE=MASS SPECTRUM
##SAMPLE DESCRIPTION=CARL DJERASSI DEPT OF CHEM STANFORD UNIV STANFORD CALIF
 94305
##NAMES=HP
##CAS NAME=Oxirane, 2-methyl-3-propyl-, cis-
##MOLFORM=C6H12O
##CAS REGISTRY NO=6124-90-9
##MP= -300
##BP= -300
##MW= 100
##$RETENTION INDEX=766
##$CONDENSED SPECTRUM=NO
##NPOINTS= 37
##XYDATA=(XY..XY) 1 
    42        108
    43        999
    44        135
    45        864
    46         21
    49          5
    50         32
    51         37
    52         16
    53         70
    54         64
    55        270
    56        270
    57        540
    58        151
    59         16
    62          5
    63          5
    65         10
    66          5
    67         64
    68          5
    69         16
    71        432
    72        291
    73         16
    77          5
    79         10
    81         10
    82         27
    83         10
    84         10
    85        432
    86         27
    99          5
   100         32
   101          5