##TITLE=Library Entry 77252
##JCAMP-DX=Revision 4.10 
##DATA TYPE=MASS SPECTRUM
##SAMPLE DESCRIPTION=NIST Mass Spectrometry Data Center
##NAMES=HP
##CAS NAME=Benzene, (2-nitroethyl)-
##MOLFORM=C8H9NO2
##CAS REGISTRY NO=6125-24-2
##MP= -300
##BP= -300
##MW= 151
##$RETENTION INDEX=1304
##$CONDENSED SPECTRUM=NO
##NPOINTS= 42
##XYDATA=(XY..XY) 1 
    26          2
    27         20
    30         13
    37          3
    38         10
    39         50
    40          5
    46         22
    49          3
    50         52
    51        109
    52         27
    53         18
    61          6
    62         20
    63         52
    64         13
    65         55
    66          7
    73          3
    74         29
    75         21
    76         22
    77        283
    78        161
    79        201
    80         11
    86          3
    87          4
    88          1
    89         19
    90          6
    91         54
    92          5
    98          3
   101          3
   102         24
   103        229
   104        999
   105        366
   106         28
   151          3