##TITLE=Library Entry 80449
##JCAMP-DX=Revision 4.10 
##DATA TYPE=MASS SPECTRUM
##SAMPLE DESCRIPTION=Chemical Concepts
##NAMES=HP
##CAS NAME=Longifolene-(V4)
##MOLFORM=C15H24
##CAS REGISTRY NO=61262-67-7
##MP= -300
##BP= -300
##MW= 204
##$RETENTION INDEX=0
##$CONDENSED SPECTRUM=NO
##NPOINTS= 108
##XYDATA=(XY..XY) 1 
    24          9
    26         49
    27        190
    28         10
    29        203
    38          8
    39        258
    40         50
    41        687
    42         36
    43        198
    44          7
    50         22
    51         78
    52         35
    53        193
    54         24
    55        429
    56         56
    57         97
    58          7
    62          4
    63         28
    64         16
    65        144
    66         41
    67        234
    68         31
    69        268
    70         34
    71         18
    72          8
    73          6
    75          5
    76          6
    77        330
    78         82
    79        460
    80        193
    81        317
    82         71
    83         59
    84          9
    85          4
    89         11
    91        642
    92        258
    93        927
    94        488
    95        557
    96         76
    97         25
    98          5
   102          7
   103         53
   104         24
   105        999
   106        432
   107        695
   108        209
   109        227
   110         42
   111         11
   115         72
   116         30
   117         89
   118         27
   119        731
   120        249
   121        426
   122        170
   123        144
   124         21
   127         10
   128         37
   129         31
   130         18
   131         60
   132         19
   133        788
   134        274
   135        263
   136        160
   137         26
   141         11
   142          5
   143          8
   144          6
   145         51
   146         17
   147        288
   148        441
   149        137
   150         22
   159         13
   160         23
   161        704
   162        121
   163         27
   175        199
   176         75
   177          9
   189        480
   190         75
   191          7
   204        450
   205         73
   206          8