##TITLE=Library Entry 54595
##JCAMP-DX=Revision 4.10 
##DATA TYPE=MASS SPECTRUM
##SAMPLE DESCRIPTION=Japan AIST/NIMC Database- Spectrum MS-NW-9225
##NAMES=HP
##CAS NAME=2-Furanmethanol, tetrahydro-5-methyl-
##MOLFORM=C6H12O2
##CAS REGISTRY NO=6126-49-4
##MP= -300
##BP= -300
##MW= 116
##$RETENTION INDEX=986
##$CONDENSED SPECTRUM=NO
##NPOINTS= 63
##XYDATA=(XY..XY) 1 
    14          2
    15         19
    17          1
    18          4
    26          9
    27         85
    28         30
    29        297
    30          9
    31        104
    32          2
    37          1
    38          5
    39         85
    40         13
    41        405
    42         63
    43        382
    44        178
    45        152
    46          4
    50          3
    51          6
    52          2
    53         18
    54         24
    55        123
    56        118
    57        332
    58         20
    59         15
    60          3
    61         14
    65          7
    66          1
    67        230
    68         13
    69         10
    70          5
    71         14
    72          4
    73          2
    74          4
    75          2
    77          1
    79          3
    80          2
    81         11
    82          2
    83         22
    84         13
    85        999
    86         55
    87          4
    88          1
    97          3
    98          9
    99          3
   101          9
   114          1
   115          2
   116          2
   117          1