##TITLE=Library Entry 60248
##JCAMP-DX=Revision 4.10 
##DATA TYPE=MASS SPECTRUM
##SAMPLE DESCRIPTION=D.HENNEBERG, MAX-PLANCK INSTITUTE, MULHEIM, WEST GERMAN
Y
##NAMES=HP
##CAS NAME=Iron, tris(1,3,5,7-cyclooctatetraene)di-
##MOLFORM=C24H24Fe2
##CAS REGISTRY NO=61279-69-4
##MP= -300
##BP= -300
##MW= 424
##$RETENTION INDEX=0
##$CONDENSED SPECTRUM=NO
##NPOINTS= 154
##XYDATA=(XY..XY) 1 
    29         16
    30          3
    31          7
    32          3
    36          6
    37         27
    38         55
    39        237
    40         19
    41         54
    42         12
    43         15
    44         25
    49         19
    50        194
    51        397
    52        186
    53         45
    54         25
    55         13
    56        112
    57         13
    61         18
    62         38
    63        105
    64         20
    65        100
    66         17
    67         13
    73         15
    74         63
    75         44
    76         69
    77        346
    78        841
    79        129
    80         18
    81         16
    82         10
    89         41
    90         15
    91        999
    92        137
    93         15
    94          6
    95          5
    96          7
    97          5
    98         10
    99          5
   101         10
   102        142
   103        420
   104        710
   105        163
   106        361
   107         33
   108         11
   110          6
   112         30
   113          5
   114          5
   115         49
   116         34
   117         20
   118          8
   119          8
   120          6
   121         23
   122          3
   126          6
   127         10
   128         29
   129         19
   130         10
   131          9
   132         12
   133         12
   134         38
   135          9
   137         14
   139         10
   141         12
   147          6
   151          8
   152         22
   153         15
   154         17
   155          7
   156         12
   157         13
   158        140
   159         40
   160         13
   161          9
   162         10
   165         22
   166         11
   167         17
   171         18
   172         11
   178         23
   179         18
   184         15
   189         11
   193         14
   202         17
   203         11
   207         21
   208         20
   212         19
   214         82
   215         31
   228         17
   236         18
   239         33
   240         44
   241         24
   242         11
   252         13
   255          3
   260         15
   262         43
   263         21
   264         40
   265         15
   266         21
   276         14
   278         80
   279         29
   290         21
   291         32
   292         59
   293         16
   305         16
   314         31
   315         15
   316        188
   317         67
   318         91
   319         42
   320         17
   342         11
   368         23
   369          8
   370         12
   383          9
   396          9
   420         11
   422         31
   423         12
   424        144
   425         43
   426         12