##TITLE=Library Entry 48666
##JCAMP-DX=Revision 4.10 
##DATA TYPE=MASS SPECTRUM
##SAMPLE DESCRIPTION=D.HENNEBERG, MAX-PLANCK INSTITUTE, MULHEIM, WEST GERMAN
Y
##NAMES=HP
##CAS NAME=Cyclobuta[1,2:3,4]dicyclooctene, 1,2,5,6,6a,6b,7,8,11,12,12a,12b-
dodecahydro-, (6a.alpha.,6b.beta.,12a.alpha.,12b.beta.)-
##MOLFORM=C16H24
##CAS REGISTRY NO=61277-44-9
##MP= -300
##BP= -300
##MW= 216
##$RETENTION INDEX=0
##$CONDENSED SPECTRUM=NO
##NPOINTS= 77
##XYDATA=(XY..XY) 1 
    27        144
    28        690
    29        102
    32         15
    39        316
    40         39
    41        575
    42         21
    43         23
    51         40
    52         29
    53        219
    54        362
    55        196
    56          3
    63          5
    65        138
    66        129
    67        915
    68         69
    69         45
    77        302
    78        130
    79        999
    80        861
    81        362
    82         27
    83          9
    91        536
    92        217
    93        690
    94        290
    95        180
    96          7
   103         10
   104         22
   105        280
   106        262
   107        437
   108        198
   109         68
   115         11
   116          0
   117         87
   118         28
   119        314
   120        208
   121        133
   122         24
   123          5
   128          1
   129          1
   131        117
   132         40
   133        257
   134        346
   135        166
   136         14
   145        105
   146         67
   147        204
   148         82
   149         24
   159        109
   160         51
   161         46
   162         29
   173        182
   174         71
   175         72
   176         35
   187         95
   188        341
   189         38
   201         11
   216        124
   217         13