##TITLE=Library Entry 30095
##JCAMP-DX=Revision 4.10 
##DATA TYPE=MASS SPECTRUM
##SAMPLE DESCRIPTION=A.A.Kutin, Moscow, Russia
##NAMES=HP
##CAS NAME=Acetic acid, cyanohydroxyimino-, methyl ester
##MOLFORM=C4H4N2O3
##CAS REGISTRY NO=61295-92-9
##MP= -300
##BP= -300
##MW= 128
##$RETENTION INDEX=0
##$CONDENSED SPECTRUM=NO
##NPOINTS= 38
##XYDATA=(XY..XY) 1 
    33          6
    36          0
    38         58
    41        148
    42         20
    44         83
    45         15
    46          0
    52         96
    53        132
    54         48
    56          5
    59        999
    62          5
    64          0
    67         77
    69        171
    71         52
    73          1
    79          0
    80          3
    81          0
    83          5
    85         24
    86          0
    87          0
    88          0
    96         65
    97         58
    98         33
   100         19
   101          0
   102          0
   111          1
   126          0
   128        150
   129          9
   130          0