##TITLE=Library Entry 24387
##JCAMP-DX=Revision 4.10 
##DATA TYPE=MASS SPECTRUM
##SAMPLE DESCRIPTION=J. Klune, Insect Chem. Ecol. Lab., USDA, Beltsville, MD
 20705
##NAMES=HP
##CAS NAME=4,8-Dimethylheptacosne
##MOLFORM=C29H60
##CAS REGISTRY NO=61295-60-1
##MP= -300
##BP= -300
##MW= 408
##$RETENTION INDEX=0
##$CONDENSED SPECTRUM=NO
##NPOINTS= 171
##XYDATA=(XY..XY) 1 
    41        402
    42        141
    43        996
    44         38
    45          0
    47          2
    48          1
    49         17
    50          1
    51          6
    53         18
    54         29
    55        424
    56        249
    57        999
    58         51
    59          1
    65          2
    66          3
    67         40
    68         42
    69        242
    70        673
    71        863
    72         61
    73          1
    77          2
    78          0
    79          5
    80          2
    81         25
    82         43
    83        161
    84        248
    85        780
    86         55
    87          2
    91          3
    93          2
    94          1
    95         14
    96         97
    97        231
    98        107
    99        237
   100         16
   101          2
   103          1
   105          1
   107          1
   108          1
   109          6
   110         15
   111         73
   112        118
   113        124
   114          9
   115          1
   119          1
   121          1
   122          0
   123          4
   124          8
   125         29
   126         23
   127         56
   128          3
   133          0
   135          1
   136          0
   137          2
   138          5
   139         13
   140        505
   141        648
   142         66
   143          3
   147          0
   149          1
   150          0
   151          1
   152          4
   153          7
   154         14
   155         36
   156          4
   163          0
   165          1
   166          2
   167          4
   168          6
   169         22
   170          2
   179          0
   180          2
   181          2
   182          5
   183         15
   184          2
   191          1
   193          1
   194          1
   195          1
   196          3
   197         12
   198          1
   208          1
   209          1
   210          2
   211          8
   212          1
   222          1
   223          1
   224          2
   225          6
   226          1
   236          1
   237          0
   238          3
   239          6
   240          1
   250          1
   252          2
   253          3
   254          1
   262          0
   264          1
   265          1
   266         29
   267         17
   268          3
   270          0
   280          4
   281          8
   282          2
   292          1
   293          2
   294         73
   295         57
   296         11
   297          1
   306          0
   308          7
   309          7
   310          1
   322          3
   323          4
   324          1
   336         20
   337         51
   338         12
   339          1
   350          1
   351          4
   352          1
   364         26
   365        116
   366         32
   367          4
   378          2
   379          9
   380          2
   392          2
   393         23
   394          7
   395          1
   406          1
   407          3
   408         21
   409          7
   410          1