##TITLE=Library Entry 1183
##JCAMP-DX=Revision 4.10 
##DATA TYPE=MASS SPECTRUM
##SAMPLE DESCRIPTION=Japan AIST/NIMC Database- Spectrum MS-NW-7360
##NAMES=HP
##CAS NAME=Ethanone, 2-amino-1-phenyl-
##MOLFORM=C8H9NO
##CAS REGISTRY NO=613-89-8
##MP= -300
##BP= -300
##MW= 135
##$RETENTION INDEX=2156
##$CONDENSED SPECTRUM=NO
##NPOINTS= 63
##XYDATA=(XY..XY) 1 
    15          1
    16          1
    17          1
    18          2
    26          4
    27         19
    28         78
    29         20
    30        999
    31         15
    38         42
    39         32
    40          2
    41          2
    42          3
    43          2
    44          1
    48          1
    49         11
    50        118
    51        275
    52         28
    53          6
    54          1
    55          1
    57          3
    60          1
    61          7
    62         11
    63         16
    64          3
    65          7
    66          1
    67          1
    72          1
    73          9
    74         41
    75         23
    76         30
    77        477
    78         92
    79         24
    80          2
    84          1
    85          2
    86          2
    87          2
    89          7
    90          3
    91          9
    92          1
   102          1
   104          5
   105        344
   106         48
   107          5
   116          1
   117          1
   133          2
   134          2
   135         74
   136          9
   137          1