##TITLE=Library Entry 47329
##JCAMP-DX=Revision 4.10 
##DATA TYPE=MASS SPECTRUM
##SAMPLE DESCRIPTION=E.M.EMERY COLGATE-PALMOLIVE CO., PISCATAWAY, N.J., USA
##NAMES=HP
##CAS NAME=Ethanone, 1-phenyl-, oxime
##MOLFORM=C8H9NO
##CAS REGISTRY NO=613-91-2
##MP= -300
##BP= -300
##MW= 135
##$RETENTION INDEX=1310
##$CONDENSED SPECTRUM=NO
##NPOINTS= 64
##XYDATA=(XY..XY) 1 
    29          9
    30         31
    31         19
    37         30
    38         51
    39        140
    40         34
    41         21
    42        109
    43         19
    49         16
    50        215
    51        460
    52         76
    53         16
    54         11
    55         13
    58         14
    59         51
    60          6
    61         14
    62         33
    63         71
    64         29
    65         90
    66        134
    67         16
    73          9
    74         54
    75         55
    76        122
    77        999
    78        345
    79         54
    80         11
    81          9
    87          5
    88          5
    89         32
    90         21
    91         65
    92         50
    93         30
    94        236
    95         33
   101          5
   102         50
   103        321
   104        159
   105         46
   106        120
   107         48
   108         10
   116         19
   117         19
   118        149
   119         71
   120         61
   121          7
   133          6
   134        100
   135        821
   136         76
   137          7