##TITLE=Library Entry 49155
##JCAMP-DX=Revision 4.10 
##DATA TYPE=MASS SPECTRUM
##SAMPLE DESCRIPTION=NIST Mass Spectrometry Data Center, 1994
##NAMES=HP
##CAS NAME=S-(-)-1-Phenylpropanol
##MOLFORM=C9H12O
##CAS REGISTRY NO=613-87-6
##MP= -300
##BP= -300
##MW= 136
##$RETENTION INDEX=0
##$CONDENSED SPECTRUM=NO
##NPOINTS= 67
##XYDATA=(XY..XY) 1 
    12          0
    14          3
    15         24
    17          0
    18          3
    19          2
    26         32
    27        178
    28         26
    29        174
    30          5
    31         27
    37          6
    38         24
    39        108
    40         10
    41         22
    42          4
    43         36
    44          2
    49          6
    50        101
    51        254
    52         64
    53         40
    55         14
    57         47
    61          5
    62         19
    63         47
    64          8
    65         31
    66          5
    67          1
    73          4
    74         22
    75         19
    76          1
    77        577
    78        125
    79        999
    80         67
    81          2
    85          1
    86          3
    87          3
    88          1
    89         17
    90          1
    91         53
    92          4
    93          2
   102          6
   103         15
   105        141
   107        978
   108         76
   109          5
   115         22
   116          4
   117         14
   118          4
   119          3
   133          3
   134         10
   136        108
   137         10