##TITLE=Library Entry 39732
##JCAMP-DX=Revision 4.10 
##DATA TYPE=MASS SPECTRUM
##SAMPLE DESCRIPTION=Chemical Concepts
##NAMES=HP
##CAS NAME=3-Buten-1-amine, N-ethyl-N-methyl-
##MOLFORM=C7H15N
##CAS REGISTRY NO=61308-10-9
##MP= -300
##BP= -300
##MW= 113
##$RETENTION INDEX=0
##$CONDENSED SPECTRUM=NO
##NPOINTS= 68
##XYDATA=(XY..XY) 1 
    25          1
    26          0
    27        119
    28         49
    29        114
    30         42
    31          0
    36          0
    37          2
    38          5
    39         57
    40          9
    41         43
    42        178
    43         37
    44        548
    45         13
    47          0
    49          2
    50          7
    51          8
    52          5
    53         19
    54         16
    55        104
    56         31
    57         14
    58         39
    59         13
    60          0
    62          0
    64          0
    65          0
    66          1
    67          3
    68          5
    69          5
    70         16
    71          6
    72        999
    73         43
    74          0
    76          0
    78          0
    79          0
    80          2
    81          1
    82          6
    83          7
    84          4
    85          0
    86          3
    87          0
    90          0
    91          0
    92          0
    93          0
    94          1
    95          0
    96          6
    97          1
    98         31
    99          2
   110          2
   111          1
   112          8
   113         16
   114          1