##TITLE=Library Entry 96241
##JCAMP-DX=Revision 4.10 
##DATA TYPE=MASS SPECTRUM
##SAMPLE DESCRIPTION=ATLAS OF MASS SPECTRA OF ORGANIC COMPOUNDS, V. A. KOPTY
UG, ED.
##NAMES=HP
##CAS NAME=2-Tetrazene, 1,1,4,4-tetramethyl-
##MOLFORM=C4H12N4
##CAS REGISTRY NO=6130-87-6
##MP= -300
##BP= -300
##MW= 116
##$RETENTION INDEX=834
##$CONDENSED SPECTRUM=NO
##NPOINTS= 17
##XYDATA=(XY..XY) 1 
    28        195
    29         20
    30         33
    31          7
    41         22
    42        270
    43        570
    44        405
    45         36
    46         12
    58         30
    59        150
    71         33
    72        530
    73         20
   116        999
   117         61