##TITLE=Library Entry 962
##JCAMP-DX=Revision 4.10 
##DATA TYPE=MASS SPECTRUM
##SAMPLE DESCRIPTION=O. David Sparkman and Elizabeth Gormley, Univ. Pacific
 / Michigan State Police
##NAMES=HP
##CAS NAME=4-Isobutyl-2-pyrrolidinone
##MOLFORM=C8H15NO
##CAS REGISTRY NO=61312-87-6
##MP= -300
##BP= -300
##MW= 141
##$RETENTION INDEX=0
##$CONDENSED SPECTRUM=NO
##NPOINTS= 73
##XYDATA=(XY..XY) 1 
    26          2
    27         70
    28        123
    29         58
    30        999
    31         19
    32         27
    37          1
    38          6
    39        145
    40         28
    41        375
    42        157
    43        387
    44        146
    45          4
    50          5
    51         11
    52          7
    53         44
    54         45
    55        323
    56        352
    57         70
    58         13
    59          8
    60          1
    62          1
    63          3
    65         11
    66          6
    67         48
    68         79
    69        131
    70        120
    71          8
    72          5
    73          7
    74          1
    77          5
    78          2
    79         12
    80          7
    81         31
    82         27
    83         63
    84        202
    85         62
    86          6
    91          1
    92          1
    93         10
    94         10
    95         18
    96         18
    97         23
    98         74
    99         10
   100          1
   108          1
   109          5
   110         13
   111         80
   112         29
   113          5
   123         11
   124         10
   125          1
   126         37
   127          3
   140          8
   141        185
   142         18