##TITLE=Library Entry 56216
##JCAMP-DX=Revision 4.10 
##DATA TYPE=MASS SPECTRUM
##SAMPLE DESCRIPTION=LAC, NIDDK, NIH, Bethesda, MD 20892
##NAMES=HP
##CAS NAME=Pregnane-3,20-dione dioxime
##MOLFORM=C21H34N2O2
##CAS REGISTRY NO=6131-78-8
##MP= -300
##BP= -300
##MW= 346
##$RETENTION INDEX=0
##$CONDENSED SPECTRUM=NO
##NPOINTS= 157
##XYDATA=(XY..XY) 1 
    41        706
    42        509
    43        353
    44        227
    45          8
    46         36
    51         16
    53        280
    54         81
    55        542
    56         70
    57        165
    58         51
    60        129
    65        102
    67        465
    68        206
    69        328
    70        828
    71        102
    73        245
    77        240
    79        568
    80        136
    81        388
    82        111
    83        114
    84        123
    86        999
    87         62
    91        350
    93        377
    94        148
    95        228
    96        145
    97         33
    98        112
    99         86
   100         66
   102         17
   103         33
   105        336
   106         71
   107        326
   108        168
   109        122
   110         78
   112        233
   113         60
   115         52
   117        110
   118         15
   119        222
   120        133
   121        172
   122        116
   123         83
   124        100
   125         59
   126         42
   128         39
   129         27
   131        170
   132         61
   133        157
   134        119
   135         93
   136         64
   137         31
   138         51
   139         76
   140         43
   141          9
   143         99
   145        171
   146         53
   147         92
   148         55
   149         45
   150         36
   152         72
   157         86
   158         25
   159        124
   160         53
   161         71
   162         39
   166          8
   169         44
   171         81
   172         33
   173         63
   174         36
   175         55
   176         51
   178         22
   183         18
   185         74
   186         37
   187         71
   188         44
   189         15
   197         40
   199         40
   200         19
   201         35
   202         27
   204         33
   206         27
   211         18
   213         70
   214          9
   215         37
   225         30
   227         49
   228         53
   229        102
   230         37
   232         12
   239         33
   241         16
   242         47
   244        344
   245         82
   246        104
   248         39
   254         26
   256         51
   257          7
   258         35
   260        212
   261        416
   262         82
   270         50
   271          8
   272         45
   274        233
   275         51
   283          7
   285          7
   287          9
   288         16
   294         26
   296         42
   298         22
   311         92
   312         97
   313        108
   314         46
   327         17
   328         48
   329        699
   330        232
   331         98
   346        463
   347        116
   348          8