##TITLE=Library Entry 85897
##JCAMP-DX=Revision 4.10 
##DATA TYPE=MASS SPECTRUM
##SAMPLE DESCRIPTION=S.M. Lee, CA Export Lab. Services, CA, USA
##NAMES=HP
##CAS NAME=Phosphoric acid, diethyl p-(methylsulfonyl)phenyl ester
##MOLFORM=C11H17O6PS
##CAS REGISTRY NO=6132-17-8
##MP= -300
##BP= -300
##MW= 308
##$RETENTION INDEX=2174
##$CONDENSED SPECTRUM=NO
##NPOINTS= 204
##XYDATA=(XY..XY) 1 
    51         29
    52         24
    53         37
    54         11
    55         13
    56          1
    57          3
    58          7
    59          2
    60          1
    61          5
    62         28
    63        291
    64        151
    65        254
    66         20
    67          4
    68          2
    69         14
    70         10
    71          8
    72          2
    73          3
    74         28
    75        118
    76         81
    77         72
    78         27
    79        115
    80         28
    81        644
    82         33
    83         23
    84         10
    85          8
    86          7
    87          7
    88          2
    89          7
    90          9
    91        198
    92         78
    93        141
    94         41
    95         16
    96         12
    97          9
    99        435
   100         12
   101          8
   102         48
   103        134
   104         15
   105         10
   106         12
   107         50
   109        999
   110        103
   111         23
   112          9
   113         11
   114          1
   115          6
   116          2
   117          4
   119        297
   120         62
   121         78
   122         13
   123          8
   124         15
   125         26
   127        546
   128         19
   129          6
   130          2
   131          7
   132          3
   134          1
   135          3
   136          6
   137         68
   138          7
   139         30
   140         22
   141        109
   142          9
   143         11
   144         11
   145         15
   146          3
   147          1
   148          1
   149          6
   150          1
   151          1
   152          2
   153          4
   155        188
   156         38
   157        285
   158         23
   159         14
   160          1
   162          1
   163          1
   165          7
   167        198
   168         20
   169         15
   170          4
   171         24
   172        326
   173        405
   174         51
   175         74
   176          7
   177          2
   181         62
   182        508
   183         80
   184         42
   185         91
   186         17
   187         43
   188          7
   189         44
   190          6
   191          2
   193          1
   195          3
   196          1
   199         73
   200         48
   201        555
   202         55
   203         28
   204          5
   205          3
   206          1
   210          2
   213          2
   214          2
   215         10
   217         90
   218         14
   219         52
   220          8
   221         67
   222          6
   223          3
   227          1
   228         12
   229        335
   230         36
   231          6
   232          1
   234          8
   235         60
   236         14
   237         77
   238          6
   239          5
   243          2
   244          1
   245         76
   246          8
   247          8
   248          3
   249         88
   250          8
   251          7
   252         83
   253        102
   254         14
   255          6
   261          1
   262          1
   263          6
   265        486
   266         49
   267         31
   268          2
   269          1
   275          7
   276          6
   277         33
   278          7
   279        126
   280        356
   281         52
   282         23
   283          3
   284          1
   291          2
   293        203
   294         28
   295         14
   296          2
   308        493
   309         71
   310         33
   311          4
   312          2