##TITLE=Library Entry 18524
##JCAMP-DX=Revision 4.10 
##DATA TYPE=MASS SPECTRUM
##SAMPLE DESCRIPTION=U.I.ZAHORSZKY KARLSRUHE UNIV., KARLSRUHE, GERMANY, F.R.
G.
##NAMES=HP
##CAS NAME=2-Cyclopenten-1-one, 4-methoxy-
##MOLFORM=C6H8O2
##CAS REGISTRY NO=61322-97-2
##MP= -300
##BP= -300
##MW= 112
##$RETENTION INDEX=0
##$CONDENSED SPECTRUM=NO
##NPOINTS= 43
##XYDATA=(XY..XY) 1 
    26        187
    27        703
    28         55
    29        169
    30         16
    31         38
    37         22
    38         55
    39        378
    40         74
    41        452
    42        165
    43        500
    44         14
    45         22
    49         16
    50        110
    51        176
    52        159
    53        999
    54        275
    55        154
    56         11
    57         82
    58        357
    59         38
    68         55
    69        345
    70         11
    71         33
    79         38
    80         25
    81        598
    82        330
    83         88
    84        835
    85         71
    97        116
   108         11
   109         19
   111        283
   112        940
   113         65