##TITLE=Library Entry 90175
##JCAMP-DX=Revision 4.10 
##DATA TYPE=MASS SPECTRUM
##SAMPLE DESCRIPTION=Japan AIST/NIMC Database- Spectrum MS-IW-5086
##NAMES=HP
##CAS NAME=Thiazole, 4-methyl-2-(2-methylpropyl)-
##MOLFORM=C8H13NS
##CAS REGISTRY NO=61323-24-8
##MP= -300
##BP= -300
##MW= 155
##$RETENTION INDEX=1086
##$CONDENSED SPECTRUM=NO
##NPOINTS= 77
##XYDATA=(XY..XY) 1 
    15          2
    26          2
    27         25
    28          9
    29          9
    32          3
    37          1
    38          4
    39         51
    40          7
    41         56
    42         21
    43         60
    44          3
    45         76
    46          5
    47          6
    50          1
    51          3
    52          3
    53          7
    54          4
    55          7
    56          5
    57          5
    58          4
    59          9
    60          1
    64          1
    65          2
    66          3
    67          3
    68         64
    69         12
    70          8
    71        153
    72        197
    73         77
    74         10
    75          3
    78          2
    79          1
    80          3
    81          1
    82          3
    83          1
    84          3
    85         15
    86          2
    91          1
    92          1
    94          1
    97          2
    98          4
    99          4
   100          6
   101          1
   110          1
   111          1
   112        160
   113        999
   114         74
   115         47
   116          3
   124          1
   126          3
   127          1
   137          1
   138          6
   139          6
   140        135
   141         11
   142          6
   154         42
   155         76
   156          9
   157          4