##TITLE=Library Entry 64050
##JCAMP-DX=Revision 4.10 
##DATA TYPE=MASS SPECTRUM
##SAMPLE DESCRIPTION=K. Kirk, LC, NIDDK, NIH, Bethesda, MD 20892
##NAMES=HP
##CAS NAME=Benzaldehyde, 3,4-dibenzyloxy-2-fluoro-
##MOLFORM=C21H17FO3
##CAS REGISTRY NO=61338-96-3
##MP= -300
##BP= -300
##MW= 336
##$RETENTION INDEX=0
##$CONDENSED SPECTRUM=NO
##NPOINTS= 91
##XYDATA=(XY..XY) 1 
    41         11
    42          0
    43          1
    44          2
    45          0
    49          4
    50          5
    51         15
    52          4
    53          1
    55          0
    56          0
    57          2
    61          0
    62          4
    63         18
    64          8
    65        113
    66          5
    68          1
    69          6
    70          6
    71          0
    73          0
    74          0
    75          1
    76          1
    77          8
    78          1
    79          3
    81          2
    82          0
    83          3
    84          2
    86          2
    87          0
    88          0
    89         27
    90         18
    91        999
    92         94
    93          3
    95          0
    97          4
    98          2
   105          3
   107          0
   109          1
   110          0
   115          1
   117          0
   125          0
   126          0
   133          1
   137          0
   138          0
   139          1
   141          1
   152          0
   153          0
   155          0
   156          1
   157          1
   159          0
   165          1
   166          1
   167          5
   168          1
   169          1
   170          0
   171          0
   178          0
   179          1
   180          4
   181         88
   182         12
   183          1
   199          1
   215          0
   216          1
   217          0
   230          0
   243          5
   244          4
   245        180
   246         27
   247          2
   289          0
   336         35
   337          8
   338          1