##TITLE=Library Entry 79146
##JCAMP-DX=Revision 4.10 
##DATA TYPE=MASS SPECTRUM
##SAMPLE DESCRIPTION=J.H.BOWIE UNIVERSITY OF CAMBRIDGE, CAMBRIDGE, UK.
##NAMES=HP
##CAS NAME=Valeric acid, 2-benzoyl-2-hydroxy-4-methyl-, ethyl ester, benzoat
e
##MOLFORM=C22H24O5
##CAS REGISTRY NO=6134-74-3
##MP= -300
##BP= -300
##MW= 368
##$RETENTION INDEX=0
##$CONDENSED SPECTRUM=NO
##NPOINTS= 10
##XYDATA=(XY..XY) 1 
    42         20
    51         40
    57         20
    77        250
    78         20
   105        999
   106         90
   117         20
   218         40
   368         40