##TITLE=Library Entry 57147
##JCAMP-DX=Revision 4.10 
##DATA TYPE=MASS SPECTRUM
##SAMPLE DESCRIPTION=D.H.WILLIAMS CHEMISTRY DEPT., UNIVERSITY OF CAMBRIDGE
##NAMES=HP
##CAS NAME=1,3-Dioxolane, 2-(1,1-dimethylethyl)-2-methyl-
##MOLFORM=C8H16O2
##CAS REGISTRY NO=6135-54-2
##MP= -300
##BP= -300
##MW= 144
##$RETENTION INDEX=0
##$CONDENSED SPECTRUM=NO
##NPOINTS= 30
##XYDATA=(XY..XY) 1 
    26         10
    27         30
    29         40
    39         30
    40         10
    41         80
    42         10
    43        330
    44         20
    45         30
    51         10
    53         10
    55         20
    56         20
    57        110
    58         10
    67         20
    69         30
    73         40
    83         18
    84         10
    85         20
    87        999
    88         50
    89         10
    99         30
   100         20
   101         10
   129        150
   130         20