##TITLE=Library Entry 57662
##JCAMP-DX=Revision 4.10 
##DATA TYPE=MASS SPECTRUM
##SAMPLE DESCRIPTION=Japan AIST/NIMC Database- Spectrum MS-IW-2907
##NAMES=HP
##CAS NAME=Carbamic acid, ethyl-, methyl ester
##MOLFORM=C4H9NO2
##CAS REGISTRY NO=6135-31-5
##MP= -300
##BP= -300
##MW= 103
##$RETENTION INDEX=0
##$CONDENSED SPECTRUM=NO
##NPOINTS= 50
##XYDATA=(XY..XY) 1 
    13          1
    14          6
    15        152
    16          4
    17          5
    18         65
    25          1
    26         16
    27        104
    28        177
    29        323
    30         65
    31         57
    32          9
    33         18
    38          2
    39          6
    40         17
    41         27
    42         99
    43         67
    44        872
    45         71
    46         15
    47          1
    54          1
    55          2
    56         62
    57          8
    58         64
    59        333
    60          9
    61          1
    70         11
    71         18
    72        215
    73          9
    74          1
    75          5
    76          3
    86          1
    87          1
    88        999
    89         41
    90          6
   101          2
   102         64
   103        323
   104         17
   105          2