##TITLE=Library Entry 68877
##JCAMP-DX=Revision 4.10 
##DATA TYPE=MASS SPECTRUM
##SAMPLE DESCRIPTION=A.A.Kutin, Moscow, Russia
##NAMES=HP
##CAS NAME=Adamantan-1-ol, 4-chloro-
##MOLFORM=C10H15ClO
##CAS REGISTRY NO=61357-37-7
##MP= -300
##BP= -300
##MW= 186
##$RETENTION INDEX=0
##$CONDENSED SPECTRUM=NO
##NPOINTS= 135
##XYDATA=(XY..XY) 1 
    33          0
    34          0
    35          1
    36          5
    37          2
    38         12
    39        122
    40         31
    41        128
    42         26
    43         65
    44          5
    45          3
    46          0
    47          1
    48          1
    49          7
    50          7
    51         30
    52         13
    53         55
    54         13
    55         58
    56          7
    57         68
    58         26
    59          6
    60          3
    61          3
    62          3
    63          9
    64          5
    65         43
    66         21
    67         47
    68         22
    69         20
    70          8
    71          2
    72          1
    73          3
    74          3
    75         14
    76          5
    77         96
    78         18
    79         69
    80         12
    81         26
    82          8
    83          6
    84          2
    85          2
    86          0
    87          1
    88          1
    89          6
    90          3
    91         60
    92         41
    93         81
    94        151
    95        999
    96         85
    97          7
    98          0
    99          1
   100          0
   101          2
   102          6
   103          5
   104          4
   105         10
   106          7
   107         35
   108         23
   109         26
   110          5
   111          5
   112          1
   113          2
   114          0
   115          5
   116          3
   117          5
   118          1
   119          1
   120          0
   121          4
   122          1
   123          2
   124          0
   125          1
   126          0
   127          1
   128         15
   129        101
   130         12
   131         35
   132          5
   133          6
   134          1
   135          5
   136          0
   137          0
   139          0
   141          0
   142          0
   143          1
   144          0
   145          0
   146          0
   147          0
   148          0
   149          1
   150         19
   151         66
   152          7
   153          0
   160          0
   163          0
   166          0
   167          0
   168          0
   169          0
   171          1
   173          0
   176          0
   177          0
   185          5
   186        275
   187         31
   188         89
   189          9
   190          0