##TITLE=Library Entry 46475
##JCAMP-DX=Revision 4.10 
##DATA TYPE=MASS SPECTRUM
##SAMPLE DESCRIPTION=ASES Database, Dalian Institute, P.R. China
##NAMES=HP
##CAS NAME=Chloromethyl chloroacetate
##MOLFORM=C3H4Cl2O2
##CAS REGISTRY NO=6135-23-5
##MP= -300
##BP= -300
##MW= 142
##$RETENTION INDEX=888
##$CONDENSED SPECTRUM=NO
##NPOINTS= 11
##XYDATA=(XY..XY) 1 
    36         40
    41        249
    42        862
    48        161
    49        834
    50         50
    51        270
    57         10
    76         69
    77        999
    79        350