##TITLE=Library Entry 31270
##JCAMP-DX=Revision 4.10 
##DATA TYPE=MASS SPECTRUM
##SAMPLE DESCRIPTION=TNO Volatile Compounds in Food - Chemical Concepts
##NAMES=HP
##CAS NAME=Propanoic acid, 2-(methylthio)-, methyl ester
##MOLFORM=C5H10O2S
##CAS REGISTRY NO=61366-76-5
##MP= -300
##BP= -300
##MW= 134
##$RETENTION INDEX=0
##$CONDENSED SPECTRUM=NO
##NPOINTS= 49
##XYDATA=(XY..XY) 1 
    26         22
    27        123
    28         50
    29         32
    30          5
    31         18
    32          2
    33          9
    34         24
    35         46
    39          6
    41        109
    42         12
    43         18
    44         11
    45        134
    46         76
    47        139
    48         38
    49         32
    55        131
    56         17
    57         50
    58         26
    59        173
    60         26
    61        999
    62         15
    63         23
    71          3
    73          5
    74        960
    75        170
    76         28
    77         39
    85          3
    87        105
    88         23
    89          5
    91          2
   101          4
   102         23
   103         98
   104          4
   105          1
   119         19
   134        667
   135         18
   136         13