##TITLE=Library Entry 114843
##JCAMP-DX=Revision 4.10 
##DATA TYPE=MASS SPECTRUM
##SAMPLE DESCRIPTION=NIST Mass Spectrometry Data Center
##NAMES=HP
##CAS NAME=3-Acetylbenzonitrile
##MOLFORM=C9H7NO
##CAS REGISTRY NO=6136-68-1
##MP= -300
##BP= -300
##MW= 145
##$RETENTION INDEX=0
##$CONDENSED SPECTRUM=NO
##NPOINTS= 79
##XYDATA=(XY..XY) 1 
    12          3
    13          6
    14         35
    15        153
    16          2
    17          2
    18         12
    25          3
    26         18
    27         44
    28         27
    29         11
    31          1
    32          1
    36          3
    37         35
    38         49
    39         62
    40          4
    41         11
    42         60
    43        439
    44         16
    48          4
    49         27
    50        165
    51        163
    52         37
    53          7
    54          1
    55          3
    56          2
    57          3
    60          3
    61         23
    62         37
    63         43
    64         19
    65         15
    66          1
    67          1
    68          1
    69          1
    70          2
    72          3
    73         10
    74         66
    75        208
    76        132
    77         13
    78          1
    83          1
    84          2
    85          6
    86          8
    87         10
    88         10
    89         19
    90          6
    91          2
    97          1
    98          5
    99         20
   100         13
   102        576
   103         61
   104          3
   111          1
   114          3
   115          1
   116          8
   117          1
   127          2
   130        999
   131         95
   132          6
   143          1
   145        208
   146         21