##TITLE=Library Entry 8911
##JCAMP-DX=Revision 4.10 
##DATA TYPE=MASS SPECTRUM
##SAMPLE DESCRIPTION=Exported from NIST MS Search
##NAMES=HP
##CAS NAME=4-Dodecanone
##MOLFORM=C12H24O
##CAS REGISTRY NO=6137-26-4
##MP= -300
##BP= -300
##MW= 184
##$RETENTION INDEX=1367
##$CONDENSED SPECTRUM=NO
##NPOINTS= 122
##XYDATA=(XY..XY) 1 
    12          1
    13          1
    14          3
    15         23
    16          1
    17          1
    18          2
    25          1
    26         32
    27        439
    28         90
    29        318
    30          8
    31          9
    32          1
    36          1
    37          3
    38          8
    39        159
    40         34
    41        487
    42        134
    43        999
    44         34
    45         11
    46          1
    47          1
    48          1
    49          1
    50          3
    51          7
    52          4
    53         30
    54         19
    55        207
    56         49
    57        419
    58        638
    59         32
    60          2
    62          1
    63          2
    64          1
    65          5
    66          3
    67         36
    68         13
    69         43
    70         31
    71        901
    72         56
    73         12
    74          1
    75          1
    77          4
    78          1
    79          5
    80          2
    81         45
    82         11
    83         19
    84         11
    85         17
    86        458
    87        132
    88          8
    89          1
    91          2
    92          1
    93          2
    94          1
    95          8
    96         23
    97         12
    98         15
    99        147
   100         14
   101          1
   103          1
   105          1
   108          4
   109          6
   110          5
   111          3
   112          3
   113         22
   114          4
   115          1
   117          1
   119          1
   121          1
   123         23
   124          4
   125          2
   126          1
   127         14
   128         12
   129          1
   133          1
   134          1
   137          2
   138          2
   139          3
   141        349
   142         40
   143          4
   151          1
   153          1
   155         11
   156          5
   157          1
   165          1
   166          2
   167          1
   168          1
   169          4
   170          1
   182          1
   183          1
   184         46
   185         10
   186          1