##TITLE=Library Entry 47976
##JCAMP-DX=Revision 4.10 
##DATA TYPE=MASS SPECTRUM
##SAMPLE DESCRIPTION=ORMSBG,10(8)606(1975); A. SELVA
##NAMES=HP
##CAS NAME=Propanedioic acid, (3,5-dioxo-1,2-diphenyl-4-pyrazolidinyl)-, die
thyl ester
##MOLFORM=C22H22N2O6
##CAS REGISTRY NO=6139-70-4
##MP= -300
##BP= -300
##MW= 410
##$RETENTION INDEX=0
##$CONDENSED SPECTRUM=NO
##NPOINTS= 22
##XYDATA=(XY..XY) 1 
    41        120
    43        100
    64        100
    77        999
    91         80
    93        170
    99        130
   105        210
   144        100
   145         80
   154        200
   172         80
   182        100
   183        210
   235        130
   263        100
   291        140
   337        760
   338        170
   364         50
   365         60
   410        480