##TITLE=Library Entry 47691
##JCAMP-DX=Revision 4.10 
##DATA TYPE=MASS SPECTRUM
##SAMPLE DESCRIPTION=ORMSBG,10(8)606(1975); A. SELVA
##NAMES=HP
##CAS NAME=3,5-Pyrazolidinedione, 4-[(dimethylamino)methylene]-1,2-diphenyl-
##MOLFORM=C18H17N3O2
##CAS REGISTRY NO=6139-74-8
##MP= -300
##BP= -300
##MW= 307
##$RETENTION INDEX=0
##$CONDENSED SPECTRUM=NO
##NPOINTS= 18
##XYDATA=(XY..XY) 1 
    41        150
    42        840
    43        320
    51        150
    53         60
    68        130
    69        150
    77        999
    83        120
    91         60
    96        200
    97        140
   105        250
   106        140
   110        190
   185         80
   215        850
   307        750