##TITLE=Library Entry 65341
##JCAMP-DX=Revision 4.10 
##DATA TYPE=MASS SPECTRUM
##SAMPLE DESCRIPTION=Chemical Concepts
##NAMES=HP
##CAS NAME=Benzeneethanol, .alpha.-phenyl-
##MOLFORM=C14H14O
##CAS REGISTRY NO=614-29-9
##MP= -300
##BP= -300
##MW= 198
##$RETENTION INDEX=1366
##$CONDENSED SPECTRUM=NO
##NPOINTS= 129
##XYDATA=(XY..XY) 1 
    23          0
    24          0
    25          0
    26          5
    27         41
    28         11
    29         33
    30          0
    31          1
    34          0
    35          0
    37          5
    38         17
    39        123
    40          0
    41         24
    42          1
    43          5
    45          1
    46          1
    47          1
    48          0
    49          4
    50         62
    51        182
    52         46
    53         30
    54          2
    55          3
    56          1
    57          1
    58          3
    59          2
    60          0
    61          5
    62         21
    63         65
    64         17
    65        169
    66         13
    67          1
    68          0
    69          0
    70          0
    73          3
    74         20
    75         24
    76         34
    77        495
    78         76
    79        765
    80         52
    81          2
    82          2
    83          2
    85          1
    86          4
    87          6
    88          5
    89         46
    90         25
    91        412
    92        999
    93         78
    94          3
    98          2
    99          1
   100          0
   101          3
   102          9
   103         11
   104          6
   105        151
   106         27
   107        788
   108         58
   109          3
   110          1
   111          0
   113          2
   114          1
   115         10
   116          1
   118          1
   119          0
   120          1
   122          0
   125          0
   126          3
   127          2
   128          3
   129          1
   137          0
   139          6
   140          1
   141          1
   142          0
   147          0
   149          1
   150          3
   151          7
   152         16
   153          4
   154          1
   155          0
   161          0
   162          0
   163          1
   164          2
   165         26
   166          7
   167          2
   169          0
   173          0
   174          0
   175          1
   176          7
   177          7
   178         36
   179         41
   180         36
   181          7
   182          4
   183          0
   184          0
   196          2
   197          0
   198          5
   199          1