##TITLE=Library Entry 47011
##JCAMP-DX=Revision 4.10 
##DATA TYPE=MASS SPECTRUM
##SAMPLE DESCRIPTION=NIST Mass Spectrometry Data Center
##NAMES=HP
##CAS NAME=3-Nitrochalcone
##MOLFORM=C15H11NO3
##CAS REGISTRY NO=614-48-2
##MP= -300
##BP= -300
##MW= 253
##$RETENTION INDEX=0
##$CONDENSED SPECTRUM=NO
##NPOINTS= 97
##XYDATA=(XY..XY) 1 
    12          4
    16          6
    17          8
    18         17
    20          3
    27         12
    28          4
    30         70
    32          5
    36          5
    37          8
    38         29
    39        101
    40         11
    44          9
    46         13
    50        316
    51        487
    52         88
    53         21
    54          4
    61         11
    62         50
    63        119
    64         28
    65         17
    69          3
    74         98
    75        148
    76        288
    77        999
    78         85
    82          4
    86         11
    87         24
    88         17
    89         69
    90         26
    91         11
    92          5
    97          5
    98         11
    99          8
   101         70
   102        309
   103         53
   105        683
   106         56
   107          5
   115         18
   116          5
   118         67
   119          6
   126          8
   127          9
   129         77
   130         48
   131         13
   139         15
   146         19
   148         21
   149          5
   150         13
   151         30
   152         47
   153         15
   163          6
   164          7
   165         47
   166         13
   167          9
   174          4
   176        198
   177         78
   178        242
   179         76
   180         34
   181          9
   189         10
   190         10
   191          7
   194          9
   195          6
   206        160
   207         76
   208         31
   209          7
   222         14
   223         13
   225         46
   226          9
   236        203
   237         40
   252        143
   253        328
   254         62
   255          7