##TITLE=Library Entry 85279
##JCAMP-DX=Revision 4.10 
##DATA TYPE=MASS SPECTRUM
##SAMPLE DESCRIPTION=Exported from NIST MS Search
##NAMES=HP
##CAS NAME=Benzene, 1-ethoxy-2-methyl-
##MOLFORM=C9H12O
##CAS REGISTRY NO=614-71-1
##MP= -300
##BP= -300
##MW= 136
##$RETENTION INDEX=1055
##$CONDENSED SPECTRUM=NO
##NPOINTS= 69
##XYDATA=(XY..XY) 1 
    14          2
    15          2
    18          1
    26          8
    27         60
    29         42
    30          2
    37          2
    38          9
    39         63
    40          5
    41         11
    42          1
    43          6
    44          2
    45          1
    49          2
    50         23
    51         60
    52         34
    53         34
    54          3
    55          6
    61          2
    62          9
    63         29
    64         10
    65         61
    66         11
    67          3
    68          3
    73          1
    74          5
    75          4
    76          4
    77        147
    78         52
    79        133
    80         85
    81          8
    82          1
    85          1
    86          1
    87          1
    89         38
    90        161
    91        119
    92         12
    93          8
    94          3
   103          1
   105          5
   106          6
   107        557
   108        999
   109         79
   110          5
   115          3
   116          1
   117          2
   118          1
   119          2
   120          1
   121         19
   122          5
   135          8
   136        635
   137         65
   138          4