##TITLE=Library Entry 427
##JCAMP-DX=Revision 4.10 
##DATA TYPE=MASS SPECTRUM
##SAMPLE DESCRIPTION=H.ROPER HAMBURG UNIVERSITY, HAMBURG, GERMANY, F.R.G.
##NAMES=HP
##CAS NAME=Carbamic acid, ethylnitroso-, ethyl ester
##MOLFORM=C5H10N2O3
##CAS REGISTRY NO=614-95-9
##MP= -300
##BP= -300
##MW= 146
##$RETENTION INDEX=0
##$CONDENSED SPECTRUM=NO
##NPOINTS= 27
##XYDATA=(XY..XY) 1 
    29        999
    30        276
    31        107
    40         10
    41         27
    42         76
    43         58
    44        103
    45         82
    46         17
    55         20
    56         69
    57         27
    58         13
    59         37
    60         17
    70         20
    71         31
    72         27
    74         34
    87         10
   101         31
   102         20
   109         13
   116         13
   117         10
   146         24