##TITLE=Library Entry 82425
##JCAMP-DX=Revision 4.10 
##DATA TYPE=MASS SPECTRUM
##SAMPLE DESCRIPTION=Japan AIST/NIMC Database- Spectrum MS-NW-2854
##NAMES=HP
##CAS NAME=Benzenamine, N-methyl-N-nitroso-
##MOLFORM=C7H8N2O
##CAS REGISTRY NO=614-00-6
##MP= -300
##BP= -300
##MW= 136
##$RETENTION INDEX=1211
##$CONDENSED SPECTRUM=NO
##NPOINTS= 70
##XYDATA=(XY..XY) 1 
    14          4
    15         10
    16          1
    17          1
    18          2
    26          6
    27         18
    28         38
    29          2
    30        178
    31          1
    32          1
    36          1
    37         11
    38         26
    39         85
    40          8
    41          8
    42          9
    43          4
    44          2
    45          1
    49          5
    50         50
    51        136
    52         41
    53         22
    54          8
    55          2
    57          1
    59          1
    60          1
    61          5
    62         10
    63         35
    64         28
    65         71
    66         20
    67          3
    73          4
    74         15
    75         10
    76         11
    77        508
    78        118
    79        170
    80         14
    81          1
    88          1
    89          2
    90          9
    91         16
    92         13
    93         25
    94          2
   102          1
   103          2
   104        110
   105         82
   106        999
   107        443
   108         33
   109          1
   118          1
   119          1
   120          3
   121          3
   135          2
   136         33
   137          3