##TITLE=Library Entry 36412
##JCAMP-DX=Revision 4.10 
##DATA TYPE=MASS SPECTRUM
##SAMPLE DESCRIPTION=James Little,Eastman Chem.Co.,Kingsport,TN
##NAMES=HP
##CAS NAME=p-Benzoquinone, 2-methoxy-5-methyl-
##MOLFORM=C8H8O3
##CAS REGISTRY NO=614-13-1
##MP= -300
##BP= -300
##MW= 152
##$RETENTION INDEX=0
##$CONDENSED SPECTRUM=NO
##NPOINTS= 40
##XYDATA=(XY..XY) 1 
    27        159
    29         59
    38         71
    39        293
    40        240
    41        315
    43        100
    44         93
    52         29
    53        193
    55        115
    57         79
    66        241
    67        122
    68        465
    69        999
    70         42
    71        129
    81         84
    83         45
    84        106
    85         44
    94         50
    95         66
    96         64
    97         45
   109        114
   110         27
   111         41
   122        256
   123        134
   124        191
   125         31
   137        132
   138         17
   139         49
   152        671
   153         69
   154         55
   155         11