##TITLE=Library Entry 48248
##JCAMP-DX=Revision 4.10 
##DATA TYPE=MASS SPECTRUM
##SAMPLE DESCRIPTION=Japan AIST/NIMC Database- Spectrum MS-NW-3625
##NAMES=HP
##CAS NAME=Benzeneacetic acid, 2-hydroxy-
##MOLFORM=C8H8O3
##CAS REGISTRY NO=614-75-5
##MP= -300
##BP= -300
##MW= 152
##$RETENTION INDEX=0
##$CONDENSED SPECTRUM=NO
##NPOINTS= 92
##XYDATA=(XY..XY) 1 
    13          1
    14          3
    15          4
    16          3
    17          2
    18          7
    25          3
    26         21
    27         86
    28         28
    29         19
    31          5
    32          1
    36          9
    37         30
    38         61
    39        180
    40         13
    41          9
    42          9
    43         10
    44          4
    45         34
    46          2
    48          2
    49         14
    50        108
    51        225
    52        139
    53         80
    54          8
    55         18
    56          1
    57          2
    58          1
    60          3
    61         13
    62         29
    63         64
    64         15
    65         11
    66          8
    67         12
    68          3
    69          2
    71          1
    73          6
    74         20
    75         16
    76         21
    77        460
    78        999
    79        233
    80         17
    81          9
    82          2
    84          2
    85          2
    86          4
    87          4
    88          1
    89         37
    90         44
    91         14
    92          4
    93          2
    94          2
    95          4
   103          1
   104          1
   105         68
   106        878
   107        410
   108         42
   109          4
   110          2
   116          1
   118          2
   120          1
   121          6
   122          4
   123          2
   132          1
   133          5
   134        636
   135         56
   136          5
   149          1
   150          1
   152        385
   153         32
   154          4