##TITLE=Library Entry 82580
##JCAMP-DX=Revision 4.10 
##DATA TYPE=MASS SPECTRUM
##SAMPLE DESCRIPTION=Japan AIST/NIMC Database- Spectrum MS-NW- 970
##NAMES=HP
##CAS NAME=Ethyl nicotinate
##MOLFORM=C8H9NO2
##CAS REGISTRY NO=614-18-6
##MP= -300
##BP= -300
##MW= 151
##$RETENTION INDEX=1218
##$CONDENSED SPECTRUM=NO
##NPOINTS= 64
##XYDATA=(XY..XY) 1 
    14          2
    15          9
    17          2
    18         12
    25          3
    26         28
    27         99
    28         28
    29        135
    30          3
    31          1
    32          1
    36          3
    37          5
    38         12
    39         24
    40          4
    41          2
    42          3
    43          9
    44          4
    45         75
    46          2
    48          1
    49         15
    50        128
    51        379
    52         69
    53         22
    54          1
    63          1
    65          4
    66          4
    67          3
    68          1
    75          9
    76         15
    77         62
    78        666
    79        137
    80          9
    91          2
    92          2
    94          5
    95          2
   100          1
   104          2
   105        188
   106        999
   107         99
   108         13
   109          1
   122          1
   123        490
   124         44
   125          4
   132          1
   133          1
   136          2
   149          1
   150         66
   151        268
   152         24
   153          2