##TITLE=Library Entry 98570
##JCAMP-DX=Revision 4.10 
##DATA TYPE=MASS SPECTRUM
##SAMPLE DESCRIPTION=NIST Mass Spectrometry Data Center
##NAMES=HP
##CAS NAME=2-Propenoic acid, 3-(2-hydroxyphenyl)-, (E)-
##MOLFORM=C9H8O3
##CAS REGISTRY NO=614-60-8
##MP= -300
##BP= -300
##MW= 164
##$RETENTION INDEX=0
##$CONDENSED SPECTRUM=NO
##NPOINTS= 67
##XYDATA=(XY..XY) 1 
    17          1
    25          2
    26         11
    27         11
    28          4
    29          4
    31          3
    36          2
    37         24
    38         56
    39         85
    40         15
    41          3
    43         29
    44         15
    45         51
    48          1
    49         16
    50         74
    51         94
    52          9
    53         18
    54          2
    55          2
    58          1
    59         64
    60          6
    61         41
    62        102
    63        252
    64         86
    65          7
    66          4
    68          1
    73          9
    74         29
    75         21
    76          9
    77          7
    79          4
    80          1
    84          3
    85         10
    86         18
    87         16
    88          6
    89        373
    90        371
    91         29
    92         24
    93          1
    97          1
    98          4
    99          1
   100          1
   101          5
   102          2
   103          1
   116          1
   118        999
   119         93
   120          6
   121          1
   144          1
   146        838
   147         77
   148          8