##TITLE=Library Entry 68491
##JCAMP-DX=Revision 4.10 
##DATA TYPE=MASS SPECTRUM
##SAMPLE DESCRIPTION=Japan AIST/NIMC Database- Spectrum MS-NW-2909
##NAMES=HP
##CAS NAME=2-Furancarboxylic acid, ethyl ester
##MOLFORM=C7H8O3
##CAS REGISTRY NO=614-99-3
##MP= -300
##BP= -300
##MW= 140
##$RETENTION INDEX=1047
##$CONDENSED SPECTRUM=NO
##NPOINTS= 55
##XYDATA=(XY..XY) 1 
    13          1
    14          4
    15         11
    18          2
    25          3
    26         16
    27         68
    28         16
    29         91
    30          2
    31          3
    32          2
    36          2
    37         23
    38         56
    39        205
    40         21
    41          8
    42          9
    43          6
    44          4
    45         68
    46          2
    49          1
    50          1
    51          7
    52          1
    53          9
    54          2
    55         13
    56          6
    65          1
    66          9
    67         24
    68         94
    69          5
    81          1
    82          1
    83          3
    84         27
    85          1
    93          1
    94          1
    95        999
    96        203
    97         24
    98          2
   111          1
   112        460
   113         28
   114          3
   125          8
   140        231
   141         19
   142          2