##TITLE=Library Entry 68490
##JCAMP-DX=Revision 4.10 
##DATA TYPE=MASS SPECTRUM
##SAMPLE DESCRIPTION=Chuck Anderson, Aldrich Chemical Co.
##NAMES=HP
##CAS NAME=Ethyl 3-furoate
##MOLFORM=C7H8O3
##CAS REGISTRY NO=614-98-2
##MP= -300
##BP= -300
##MW= 140
##$RETENTION INDEX=0
##$CONDENSED SPECTRUM=NO
##NPOINTS= 51
##XYDATA=(XY..XY) 1 
    14          1
    15          3
    18          0
    25          1
    26          6
    27         26
    28          4
    29         40
    30          1
    31          1
    36          0
    37         11
    38         29
    39        105
    40          6
    41          3
    42          2
    43          4
    44          1
    45         20
    49          0
    50          1
    51          0
    53          5
    54          0
    55          6
    56          1
    65          1
    66         12
    67         39
    68         13
    69          4
    83          2
    84          7
    93          0
    94          2
    95        999
    96         78
    97         25
    98          1
   111          3
   112        331
   113         15
   114          2
   122          1
   125         42
   126          2
   139          1
   140        140
   141          9
   142          1