##TITLE=Library Entry 79665
##JCAMP-DX=Revision 4.10 
##DATA TYPE=MASS SPECTRUM
##SAMPLE DESCRIPTION=NIST Mass Spectrometry Data Center
##NAMES=HP
##CAS NAME=Benzoic acid, 4-methylphenyl ester
##MOLFORM=C14H12O2
##CAS REGISTRY NO=614-34-6
##MP= -300
##BP= -300
##MW= 212
##$RETENTION INDEX=1764
##$CONDENSED SPECTRUM=NO
##NPOINTS= 38
##XYDATA=(XY..XY) 1 
    27          7
    38          3
    39         13
    41          1
    49          1
    50         30
    51         96
    52         18
    53         15
    62          3
    63          9
    64          2
    65         10
    73          1
    74          8
    75          7
    76         17
    77        420
    78         45
    79         18
    80          1
    89          3
    90          1
    91          4
   105        999
   106         92
   107         28
   108          5
   115          3
   127          1
   128          2
   139          1
   152          1
   153          1
   168          1
   212        153
   213         23
   214          2