##TITLE=Library Entry 79399
##JCAMP-DX=Revision 4.10 
##DATA TYPE=MASS SPECTRUM
##SAMPLE DESCRIPTION=Chemical Concepts
##NAMES=HP
##CAS NAME=Benzamide, N-ethyl-
##MOLFORM=C9H11NO
##CAS REGISTRY NO=614-17-5
##MP= -300
##BP= -300
##MW= 149
##$RETENTION INDEX=0
##$CONDENSED SPECTRUM=NO
##NPOINTS= 90
##XYDATA=(XY..XY) 1 
    23          0
    26         10
    27         46
    28         28
    29         38
    30         31
    35          2
    36         14
    37          5
    38          9
    39         23
    41          7
    42         13
    43          4
    44         49
    45          6
    46          0
    47          0
    48          0
    49          5
    50         94
    51        263
    52         24
    53          2
    54          0
    55          0
    56          0
    58          0
    59          0
    60          0
    61          1
    62          3
    63          4
    64          2
    65          5
    66          1
    67          2
    68          0
    69          0
    70          1
    71          0
    72          2
    73          2
    74         26
    75         18
    76         30
    77        702
    78         66
    79          5
    80          0
    86          0
    87          0
    88          0
    89          1
    90          0
    91          3
    92          2
    93          1
    94          0
    99          0
   101          0
   102          1
   103          5
   104         13
   105        999
   106         75
   107          7
   108          0
   109          0
   111          0
   115          0
   116          0
   117          0
   118          1
   119          0
   120          3
   121          1
   132          2
   133          1
   134         13
   135          1
   139          0
   141          0
   146          0
   147          0
   148        408
   149        468
   150         44
   151          2
   152          0