##TITLE=Library Entry 12078
##JCAMP-DX=Revision 4.10 
##DATA TYPE=MASS SPECTRUM
##SAMPLE DESCRIPTION=J Am Soc Mass Spectrom 2008, 19, 1114-1118
##NAMES=HP
##CAS NAME=Acetamide, N-(2-bromophenyl)-
##MOLFORM=C8H8BrNO
##CAS REGISTRY NO=614-76-6
##MP= -300
##BP= -300
##MW= 213
##$RETENTION INDEX=0
##$CONDENSED SPECTRUM=NO
##NPOINTS= 76
##XYDATA=(XY..XY) 1 
    36          9
    37         83
    38        151
    39        210
    40         36
    41         63
    42        109
    43        999
    44         29
    45         12
    49         19
    50         90
    51         58
    52        127
    53         12
    54          9
    60          9
    61         46
    62         95
    63        325
    64        259
    65        398
    66         46
    67          9
    73         12
    74         46
    75         48
    76         39
    77         34
    78         14
    79         19
    80          9
    81         12
    82          9
    87         12
    88         19
    89         12
    90         85
    91        254
    92        408
    93         63
    94          9
    95          9
   102          7
   104         19
   105         19
   106         12
   107          7
   116          9
   117         31
   118          9
   119         31
   120          7
   133         12
   134        752
   135         75
   136          9
   143         44
   144          9
   145         44
   146          9
   155          9
   157          9
   170         22
   171        596
   172         63
   173        601
   174         46
   184          9
   186          9
   198          9
   200          9
   213         95
   214         12
   215         97
   216         12