##TITLE=Library Entry 21044
##JCAMP-DX=Revision 4.10 
##DATA TYPE=MASS SPECTRUM
##SAMPLE DESCRIPTION=Japan AIST/NIMC Database- Spectrum MS-IW-3500
##NAMES=HP
##CAS NAME=Pentanenitrile, 4,4-dimethyl-5-oxo-
##MOLFORM=C7H11NO
##CAS REGISTRY NO=6140-61-0
##MP= -300
##BP= -300
##MW= 125
##$RETENTION INDEX=0
##$CONDENSED SPECTRUM=NO
##NPOINTS= 75
##XYDATA=(XY..XY) 1 
    14          2
    15         14
    18          1
    25          1
    26         22
    27        189
    28         75
    29        209
    30         15
    31         34
    32          2
    37         11
    38         26
    39        233
    40         41
    41        780
    42        334
    43        210
    44          9
    45          7
    49          3
    50         19
    51         41
    52         42
    53        128
    54        177
    55        999
    56        106
    57        363
    58         16
    59         12
    61          2
    62          3
    63          5
    64          8
    65         11
    66         12
    67         34
    68        153
    69        737
    70         49
    71         34
    72         17
    73          8
    75          3
    76          3
    77          5
    78          3
    79         50
    80         24
    81         30
    82         74
    83         14
    84          4
    85         11
    86          1
    87          1
    89          4
    91          1
    92          2
    93          2
    94         15
    95          9
    96        916
    97        220
    98         24
    99          2
   107          1
   108          3
   109          2
   110          2
   111          1
   125          5
   126          3
   127          1