##TITLE=Library Entry 37833
##JCAMP-DX=Revision 4.10 
##DATA TYPE=MASS SPECTRUM
##SAMPLE DESCRIPTION=ASES Database, Dalian Institute, P.R. China
##NAMES=HP
##CAS NAME=1,3,6-Trimethyl-7-oxo-1,7-dihydro-[1,2,4]triazolo(4,3-b)[1,2,4]=t
riazine
##MOLFORM=C7H9N5O
##CAS REGISTRY NO=61402-37-7
##MP= -300
##BP= -300
##MW= 179
##$RETENTION INDEX=0
##$CONDENSED SPECTRUM=NO
##NPOINTS= 13
##XYDATA=(XY..XY) 1 
    40         28
    41         30
    42        347
    43         40
    53         30
    54         40
    69        229
    70        999
    71         60
    83         59
   138        747
   139         39
   179        138