##TITLE=Library Entry 37834
##JCAMP-DX=Revision 4.10 
##DATA TYPE=MASS SPECTRUM
##SAMPLE DESCRIPTION=ASES Database, Dalian Institute, P.R. China
##NAMES=HP
##CAS NAME=1,3-Dimethyl-7-oxo-1,7-dihydro-[1,2,4]triazolo(4,3-b)[1,2,4]triaz
ine
##MOLFORM=C6H7N5O
##CAS REGISTRY NO=61402-36-6
##MP= -300
##BP= -300
##MW= 165
##$RETENTION INDEX=0
##$CONDENSED SPECTRUM=NO
##NPOINTS= 14
##XYDATA=(XY..XY) 1 
    40         48
    41         69
    42        441
    43         91
    53         80
    54        171
    55         49
    69        318
    70        999
    71         60
    83         39
   138        840
   139         40
   165        280