##TITLE=Library Entry 86430
##JCAMP-DX=Revision 4.10 
##DATA TYPE=MASS SPECTRUM
##SAMPLE DESCRIPTION=Chemical Concepts
##NAMES=HP
##CAS NAME=2-Furancarboxylic acid, 3-methyl-, methyl ester
##MOLFORM=C7H8O3
##CAS REGISTRY NO=6141-57-7
##MP= -300
##BP= -300
##MW= 140
##$RETENTION INDEX=0
##$CONDENSED SPECTRUM=NO
##NPOINTS= 76
##XYDATA=(XY..XY) 1 
    25          0
    26          8
    27         49
    28          3
    29          8
    30          1
    31          0
    36          0
    37          3
    38          6
    39         19
    40          2
    41         14
    42          1
    43          4
    44          1
    45          2
    49          3
    50         21
    51         34
    52         38
    53         66
    54         11
    55          2
    56          0
    57          0
    59          7
    60          0
    61          0
    62          0
    63          0
    64          0
    65         13
    66          2
    67          3
    68          1
    69         11
    70          0
    71          0
    74          0
    75          1
    77          0
    79          3
    80         13
    81         37
    82         26
    83          4
    84          0
    85          1
    91          0
    93          1
    94          0
    95          4
    96          0
    97         18
    98          0
   107          1
   108         56
   109        999
   110         83
   111         12
   112          0
   121          0
   122          0
   123          5
   124          0
   125         90
   126          6
   127          0
   128          0
   129          0
   138          0
   139          2
   140        597
   141         45
   142          5