##TITLE=Library Entry 19744
##JCAMP-DX=Revision 4.10 
##DATA TYPE=MASS SPECTRUM
##SAMPLE DESCRIPTION=ASES Database, Dalian Institute, P.R. China
##NAMES=HP
##CAS NAME=Chloromethyl dodecanoate
##MOLFORM=C13H25ClO2
##CAS REGISTRY NO=61413-67-0
##MP= -300
##BP= -300
##MW= 248
##$RETENTION INDEX=1688
##$CONDENSED SPECTRUM=NO
##NPOINTS= 48
##XYDATA=(XY..XY) 1 
    41        715
    43        968
    55        999
    57        629
    69        418
    72        550
    82        112
    83        338
    84        305
    85        466
    86         17
    95         89
    96        108
    97        281
    98        566
    99         77
   108        888
   109        172
   110        297
   111        207
   112        209
   121        412
   122         30
   123        150
   124         18
   125         42
   126        362
   127         30
   135         71
   138        172
   139         89
   140        132
   149         60
   151          6
   163         65
   164         41
   165         18
   177        143
   179         54
   182         53
   183        386
   184         53
   191         11
   205         90
   207         30
   219         11
   248        125
   250         41