##TITLE=Library Entry 47175
##JCAMP-DX=Revision 4.10 
##DATA TYPE=MASS SPECTRUM
##SAMPLE DESCRIPTION=K.YAMADA CHIBA UNIVERSITY, YAYOI-CHO, CHIBA, JAPAN
##NAMES=HP
##CAS NAME=Diazene, (4-chlorophenyl)phenyl-, (E)-
##MOLFORM=C12H9ClN2
##CAS REGISTRY NO=6141-95-3
##MP= -300
##BP= -300
##MW= 216
##$RETENTION INDEX=0
##$CONDENSED SPECTRUM=NO
##NPOINTS= 14
##XYDATA=(XY..XY) 1 
    51         35
    75        370
    77        999
   105        191
   111        884
   113        294
   139        262
   141         87
   151         63
   152        195
   153         47
   188          4
   216        358
   218        119