##TITLE=Library Entry 37808
##JCAMP-DX=Revision 4.10 
##DATA TYPE=MASS SPECTRUM
##SAMPLE DESCRIPTION=Chemical Concepts
##NAMES=HP
##CAS NAME=2(5H)-Furanone, 3-methoxy-4-[[(4-oxo-2-azetidinyl)thio]methyl]-
##MOLFORM=C9H11NO4S
##CAS REGISTRY NO=61427-84-7
##MP= -300
##BP= -300
##MW= 229
##$RETENTION INDEX=0
##$CONDENSED SPECTRUM=NO
##NPOINTS= 148
##XYDATA=(XY..XY) 1 
    25          6
    26         36
    27         99
    28         52
    29         74
    30         14
    31         14
    33         11
    34         18
    35          5
    36          5
    37         11
    38         24
    39        115
    40         92
    41        111
    42        202
    43        428
    44         42
    45         85
    46         16
    47         43
    48          5
    49         29
    50          7
    51         12
    52         11
    53         43
    54         46
    55         71
    56         17
    57         24
    58         38
    59        462
    60         34
    61         13
    62          3
    64          2
    65          5
    66         12
    67         46
    68         22
    69        102
    70        999
    71        103
    72         17
    73         22
    74         15
    75         17
    76          6
    77          7
    78          4
    79          4
    80          4
    81         11
    82         10
    83         71
    84         24
    85         52
    86         23
    87         12
    88          6
    89          4
    91          4
    92          3
    93          5
    94          4
    95          7
    96          4
    97          7
    98         15
    99         56
   100         15
   101         16
   102        108
   103         12
   104          7
   105          4
   107          2
   108          3
   109          7
   110         12
   111          4
   112          4
   113         45
   114         29
   115        109
   116         11
   117         11
   119          3
   121          3
   122          4
   123          6
   124          4
   125          7
   126        120
   127        579
   128        260
   129         28
   130         11
   131         11
   132          4
   133          2
   134          2
   135          3
   136          3
   137          5
   141         10
   142          9
   143          4
   144          2
   145         14
   147          5
   148          3
   152          8
   153          5
   154         11
   155          4
   156          5
   158         13
   159          6
   160        192
   161         20
   162         16
   163          4
   165          3
   167          3
   168          6
   169          5
   170          9
   171          3
   172          4
   179          3
   184          6
   185          6
   186         15
   187        203
   188         21
   189         12
   196          7
   197          0
   212         15
   213          1
   214          5
   215          0
   229         42
   230          5
   231          4