##TITLE=Library Entry 99586
##JCAMP-DX=Revision 4.10 
##DATA TYPE=MASS SPECTRUM
##SAMPLE DESCRIPTION=NIST Mass Spectrometry Data Center
##NAMES=HP
##CAS NAME=1-Piperidinecarbothioic acid, S-(1-methyl-1-phenylethyl) ester
##MOLFORM=C15H21NOS
##CAS REGISTRY NO=61432-55-1
##MP= -300
##BP= -300
##MW= 263
##$RETENTION INDEX=2085
##$CONDENSED SPECTRUM=NO
##NPOINTS= 102
##XYDATA=(XY..XY) 1 
    15          3
    26          2
    27         15
    28         25
    29         14
    30         10
    32          1
    38          1
    39         41
    40          5
    41        170
    42         59
    43         12
    44          3
    45          7
    46          1
    47          1
    50          7
    51         29
    52          8
    53         11
    54         12
    55         64
    56         73
    57          7
    58          3
    59          7
    60          5
    61          5
    62          4
    63          9
    64          2
    65         22
    66          2
    67          9
    68          4
    69         97
    70         15
    71          1
    72          2
    73         13
    74          5
    75          5
    76          6
    77         81
    78         40
    79         53
    80          5
    81          1
    82          8
    83         11
    84         99
    85         18
    86          2
    87          2
    88          2
    89          7
    91        399
    92         32
    93          2
    98          1
   101          2
   102         12
   103         65
   104         18
   105          8
   106          1
   108          1
   109          9
   110          2
   111         11
   112        212
   113         16
   114          1
   115         30
   116         31
   117         53
   118         70
   119        999
   120        111
   121         15
   122          1
   123          4
   126          1
   128          1
   130          4
   134          2
   135          2
   136          1
   144         30
   145        245
   146        144
   147         22
   148          7
   149          2
   151          5
   152          1
   188          2
   230          1
   263         27
   264          5
   265          2