##TITLE=Library Entry 76844
##JCAMP-DX=Revision 4.10 
##DATA TYPE=MASS SPECTRUM
##SAMPLE DESCRIPTION=NIST Mass Spectrometry Data Center, 1990.
##NAMES=HP
##CAS NAME=5-Phenylbicyclo[2.2.1]hept-2-ene
##MOLFORM=C13H14
##CAS REGISTRY NO=6143-30-2
##MP= -300
##BP= -300
##MW= 170
##$RETENTION INDEX=0
##$CONDENSED SPECTRUM=NO
##NPOINTS= 58
##XYDATA=(XY..XY) 1 
    26          3
    27         22
    38         12
    39         91
    40         32
    41         14
    50         34
    51         89
    52         25
    53         13
    62         16
    63         58
    64         16
    65        114
    66        530
    67         30
    70          4
    71          4
    74         15
    75         18
    76         29
    77        120
    78        167
    79         37
    82          5
    83          5
    86          4
    87          6
    88          3
    89         28
    90          3
    91         63
    92          9
   101          5
   102         31
   103        145
   104        999
   105         96
   106          4
   115         66
   116         11
   126          6
   127         18
   128         40
   129         16
   139          8
   141         29
   142         42
   143          5
   151          4
   152         14
   153         16
   154          7
   155         11
   165         11
   166          5
   170        155
   171         22