##TITLE=Library Entry 58051
##JCAMP-DX=Revision 4.10 
##DATA TYPE=MASS SPECTRUM
##SAMPLE DESCRIPTION=RADIAN CORP
##NAMES=HP
##CAS NAME=Silanediamine, N,N'-diethyl-1,1-dimethyl-
##MOLFORM=C6H18N2Si
##CAS REGISTRY NO=6143-68-6
##MP= -300
##BP= -300
##MW= 146
##$RETENTION INDEX=0
##$CONDENSED SPECTRUM=NO
##NPOINTS= 53
##XYDATA=(XY..XY) 1 
    15          4
    27          3
    29         11
    31         10
    42         18
    43         59
    44         67
    45         21
    46         22
    47          2
    54          1
    55         10
    56         44
    57         25
    58        105
    59        420
    60         88
    61         17
    68          5
    69          2
    70         34
    71          7
    72         70
    73         64
    74         74
    75         14
    76          3
    82          2
    84          7
    85          6
    86        506
    87         69
    88        999
    89         85
    90         39
    98          1
   100        191
   101        142
   102        875
   103        122
   104         37
   105          2
   115         23
   117          2
   118          3
   129          5
   131        802
   132         84
   133         28
   145          6
   146        302
   147         40
   148         12