##TITLE=Library Entry 32035
##JCAMP-DX=Revision 4.10 
##DATA TYPE=MASS SPECTRUM
##SAMPLE DESCRIPTION=Chuck Anderson, Aldrich Chemical Co.
##NAMES=HP
##CAS NAME=5-Norbornen-2-yl acetate
##MOLFORM=C9H12O2
##CAS REGISTRY NO=6143-29-9
##MP= -300
##BP= -300
##MW= 152
##$RETENTION INDEX=0
##$CONDENSED SPECTRUM=NO
##NPOINTS= 82
##XYDATA=(XY..XY) 1 
    15         23
    16          0
    18          0
    25          0
    26          6
    27         54
    28          9
    29         18
    30          0
    31          4
    32          0
    36          0
    37          2
    38          8
    39         68
    40         19
    41         32
    42          9
    43        399
    44         11
    45          3
    46          0
    49          0
    50          8
    51         21
    52         10
    53         32
    54          4
    55          8
    56          0
    57          1
    58          1
    59          0
    61          2
    62          3
    63          9
    64          2
    65         51
    66        999
    67         74
    68          3
    69          1
    70          0
    73          0
    74          1
    75          0
    76          0
    77         56
    78         14
    79         89
    80          9
    81        108
    82          9
    83          1
    84          0
    85          0
    86          5
    87          7
    88          0
    89          2
    90          0
    91         68
    92         27
    93          8
    94          1
    95          5
    96          0
   105          0
   106          0
   107          1
   108         18
   109         19
   110          6
   111          0
   123          1
   124          1
   133          0
   134          0
   137          0
   152         55
   153          5
   154          0