##TITLE=Library Entry 32906
##JCAMP-DX=Revision 4.10 
##DATA TYPE=MASS SPECTRUM
##SAMPLE DESCRIPTION=Chemical Concepts
##NAMES=HP
##CAS NAME=Heptanoic acid, 3-hexenyl ester, (Z)-
##MOLFORM=C13H24O2
##CAS REGISTRY NO=61444-39-1
##MP= -300
##BP= -300
##MW= 212
##$RETENTION INDEX=1461
##$CONDENSED SPECTRUM=NO
##NPOINTS= 69
##XYDATA=(XY..XY) 1 
    26         14
    27        326
    28        104
    29        369
    30         10
    31         12
    33          0
    37          1
    38         10
    39        244
    40         42
    41        742
    42        168
    43        740
    44         20
    45         12
    46          1
    47          0
    50          4
    51         15
    52          9
    53         80
    54         81
    55        424
    56         42
    57        110
    58          6
    59          2
    60         11
    61          0
    62          1
    63          2
    64          0
    65         17
    67        999
    68         68
    69         43
    70         10
    71          3
    72          1
    73          6
    74          0
    75          0
    77          3
    79         13
    80          3
    81         46
    82        891
    83        112
    84          9
    85        114
    86         10
    87          9
    88          0
    89          2
    94          1
    95         12
    97          1
    99          2
   100          1
   101          4
   111          3
   113        160
   114         14
   115          2
   127          0
   130          2
   131          2
   132          1