##TITLE=Library Entry 38113
##JCAMP-DX=Revision 4.10 
##DATA TYPE=MASS SPECTRUM
##SAMPLE DESCRIPTION=Patti Price, Georgia Bureau of Investigation, Decatur,
 Georgia
##NAMES=HP
##CAS NAME=8-Hydroxyloxapine
##MOLFORM=C18H18ClN3O2
##CAS REGISTRY NO=61443-77-4
##MP= -300
##BP= -300
##MW= 343
##$RETENTION INDEX=0
##$CONDENSED SPECTRUM=NO
##NPOINTS= 214
##XYDATA=(XY..XY) 1 
    42        321
    43        194
    50         15
    51         39
    52         59
    53         37
    54         45
    55         43
    56        178
    57         24
    58         34
    62         16
    63         85
    64         21
    65         17
    66          9
    67         12
    68         22
    69          7
    70        999
    71        146
    72         21
    73         14
    74          9
    75         46
    76         18
    77         21
    78          6
    79         18
    80         25
    81          9
    82         98
    83        730
    84         95
    85         29
    86          6
    87         11
    88         12
    89         13
    90          6
    91          8
    92          8
    93          3
    94          4
    95          5
    96          8
    97         27
    98         38
    99         52
   100         22
   101         12
   102         20
   103          5
   104          4
   105          2
   106         12
   108         17
   109         14
   110          5
   111         16
   112          6
   113          9
   114          7
   115          8
   116          4
   118          4
   120          3
   121         11
   122          8
   123         10
   124         18
   125         30
   126         77
   127         42
   128         10
   130          2
   131          3
   133         13
   134          3
   135          7
   136         17
   137         14
   138         14
   139          9
   140         11
   141          9
   142          2
   145          1
   146          4
   148          4
   149          6
   150         25
   151         21
   152         60
   153         85
   154         46
   159          2
   161         20
   162         26
   163         20
   164         28
   165         27
   167         18
   168         14
   170          2
   171          2
   173          2
   174          6
   175          2
   176          5
   177          5
   178          6
   179          7
   180         45
   181         18
   182          9
   183          6
   186          3
   187         12
   188         19
   189         24
   190         16
   191         14
   192          9
   194          8
   195          8
   198         10
   199          2
   202          6
   203         15
   204          7
   205         10
   206          7
   207          7
   208         15
   209        308
   210         79
   211         17
   212          5
   213          5
   214          5
   215         15
   216         28
   217         25
   218         17
   219         10
   220          8
   221          6
   222          7
   225          5
   226          5
   227          8
   228          3
   229          3
   231         16
   232         12
   234          4
   235          5
   237         25
   238         77
   239         11
   240          4
   241          2
   242          4
   243         16
   244        159
   245         43
   246         83
   247         17
   249          1
   251         23
   255          8
   256          5
   257          9
   258          9
   259         15
   260        210
   261         93
   262         74
   263         43
   265          5
   267          1
   269          3
   271         17
   272         17
   273        734
   274        136
   275        225
   276         36
   281          1
   284          4
   285        155
   286         97
   287        121
   288         34
   289         20
   290          4
   297          2
   299         33
   300         10
   301         10
   302          3
   311          4
   313          3
   327          3
   328          7
   340          1
   341          5
   342         12
   343        136
   344         30
   345         49
   346         11
   347          1