##TITLE=Library Entry 9838
##JCAMP-DX=Revision 4.10 
##DATA TYPE=MASS SPECTRUM
##SAMPLE DESCRIPTION=W.V. BROWN, CSIRO, BLACK MOUNTAIN, CANBERRA CITY, AUSTR
ALIA
##NAMES=HP
##CAS NAME=Methyl 6,8-dioxononanoate
##MOLFORM=C10H16O4
##CAS REGISTRY NO=61448-25-7
##MP= -300
##BP= -300
##MW= 200
##$RETENTION INDEX=0
##$CONDENSED SPECTRUM=NO
##NPOINTS= 93
##XYDATA=(XY..XY) 1 
    38          7
    39        101
    40         23
    41        223
    42         89
    43        999
    44         53
    45         32
    51         12
    53         42
    54         58
    55        464
    56         76
    57         39
    58         71
    59        464
    60         17
    62          8
    63         12
    65          8
    67         33
    68         37
    69        133
    70         14
    71         37
    72         48
    73        169
    74        169
    75          8
    77         19
    79         28
    80          8
    81         50
    82        267
    83        285
    84        116
    85        857
    86         39
    87        169
    88         28
    91         14
    93         16
    95         37
    96         16
    97         60
    98         41
    99         23
   100        357
   101        330
   102         19
   105         16
   107         21
   108         16
   109         37
   110         44
   111        428
   112         35
   113        241
   114        267
   115         73
   116         10
   119         12
   120         12
   121         33
   122         16
   123        125
   124         19
   125         50
   126         71
   127        133
   128         14
   135         26
   136         12
   137         10
   138         58
   139         78
   140         25
   141          8
   142         66
   143        276
   144         19
   147          8
   150         21
   151         62
   152         16
   153         17
   163         10
   168         48
   169         78
   170          8
   182         21
   200        142
   201         21