##TITLE=Library Entry 60461
##JCAMP-DX=Revision 4.10 
##DATA TYPE=MASS SPECTRUM
##SAMPLE DESCRIPTION=NIST Mass Spectrometry Data Center, 1994
##NAMES=HP
##CAS NAME=8-Phenyl-1-octyl chloride
##MOLFORM=C14H21Cl
##CAS REGISTRY NO=61440-32-2
##MP= -300
##BP= -300
##MW= 224
##$RETENTION INDEX=0
##$CONDENSED SPECTRUM=NO
##NPOINTS= 90
##XYDATA=(XY..XY) 1 
    14          0
    15          6
    16          0
    26         10
    27        156
    28         33
    29        122
    30          1
    35          1
    36          2
    37          1
    38          8
    39        145
    40         22
    41        252
    42         34
    43         60
    44          1
    49         22
    50         15
    51         58
    52         16
    53         31
    54         12
    55        167
    56         15
    57         18
    58          1
    61          2
    62          7
    63         42
    64          1
    65        153
    66         12
    67         15
    68          6
    69         16
    70          2
    71          1
    73          0
    75          7
    76          6
    77         70
    78         69
    79         44
    80          6
    81          3
    82          1
    83          1
    86          0
    87          1
    89         23
    91        999
    92        852
    93         67
    94          4
    95          1
    97          9
    98          0
   101          1
   102          5
   103         29
   104         56
   105         77
   106         13
   107          1
   115         20
   116          5
   117         20
   118          5
   119         15
   120          5
   125          2
   127          2
   128          3
   129          2
   130          0
   131          2
   133         40
   134         12
   135          1
   145          1
   147          4
   148          0
   170          1
   181          1
   224         74
   225         12
   226         23
   227          3