##TITLE=Library Entry 23152
##JCAMP-DX=Revision 4.10 
##DATA TYPE=MASS SPECTRUM
##SAMPLE DESCRIPTION=C.Whitlock ET.AL.JAOCS,53,586(1976)
##NAMES=HP
##CAS NAME=3-Ethyl-4-oxohexanoic acid, ethyl ester
##MOLFORM=C10H18O3
##CAS REGISTRY NO=61454-96-4
##MP= -300
##BP= -300
##MW= 186
##$RETENTION INDEX=0
##$CONDENSED SPECTRUM=NO
##NPOINTS= 37
##XYDATA=(XY..XY) 1 
    27        310
    29        753
    39         85
    41        165
    42         18
    43        328
    44         14
    45         38
    54         16
    55        352
    56        161
    57        999
    58         54
    59        100
    69         64
    71         22
    73        103
    83        288
    85         18
    88        142
    89         50
    98         31
    99         15
   101        450
   102         27
   113         22
   114         19
   115        294
   117         19
   129        324
   130         27
   140         62
   141        374
   142         33
   157        254
   158         31
   186         23