##TITLE=Library Entry 50414
##JCAMP-DX=Revision 4.10 
##DATA TYPE=MASS SPECTRUM
##SAMPLE DESCRIPTION=Japan AIST/NIMC Database- Spectrum MS-IW-5210
##NAMES=HP
##CAS NAME=(1S-(1Alpha,2alpha,4beta))-1-isopropenyl-4-methyl-1,2-cyclohexane
diol
##MOLFORM=C10H18O2
##CAS REGISTRY NO=61465-24-5
##MP= -300
##BP= -300
##MW= 170
##$RETENTION INDEX=0
##$CONDENSED SPECTRUM=NO
##NPOINTS= 128
##XYDATA=(XY..XY) 1 
    15          7
    16          2
    17          4
    18         20
    26          5
    27        159
    28         42
    29        178
    30          6
    31         80
    32          1
    38          7
    39        230
    40         50
    41        614
    42         75
    43        274
    44         41
    45         21
    46          2
    47          5
    48          1
    50          9
    51         44
    52         28
    53        202
    54         98
    55        519
    56        135
    57        151
    58         32
    59         18
    60          4
    61          3
    62          4
    63         13
    64          6
    65         82
    66         56
    67        565
    68        363
    69        439
    70        153
    71        410
    72         35
    73          8
    74          2
    75          2
    76          2
    77        141
    78         54
    79        565
    80        184
    81        999
    82        387
    83        201
    84        211
    85         39
    86          3
    87          4
    89          4
    90          2
    91        203
    92        193
    93        910
    94        372
    95        782
    96        287
    97        495
    98         71
    99         14
   100          6
   101          3
   102          2
   103         10
   104          6
   105        133
   106         73
   107        152
   108        796
   109        682
   110        370
   111         82
   112         31
   113          8
   114          2
   115         14
   116          4
   117         25
   118          6
   119        269
   120         30
   121        116
   122         19
   123        504
   124        137
   125         16
   126          7
   127          2
   128          2
   129          2
   130          1
   131          6
   132          9
   133         27
   134        144
   135         29
   136         12
   137        318
   138         32
   139         11
   140          3
   141          1
   145          2
   146          1
   147          1
   148          1
   149          3
   150         11
   151         61
   152        830
   153        102
   154          9
   155          2
   168          2
   169          3
   170          9
   171          2