##TITLE=Library Entry 47443
##JCAMP-DX=Revision 4.10 
##DATA TYPE=MASS SPECTRUM
##SAMPLE DESCRIPTION=ORMSBG,10(8)606(1975); A. SELVA
##NAMES=HP
##CAS NAME=3,5-Pyrazolidinedione, 4-nitro-1,2-diphenyl-
##MOLFORM=C15H11N3O4
##CAS REGISTRY NO=6148-09-0
##MP= -300
##BP= -300
##MW= 297
##$RETENTION INDEX=0
##$CONDENSED SPECTRUM=NO
##NPOINTS= 14
##XYDATA=(XY..XY) 1 
    39         80
    43        100
    51        230
    64        150
    65        100
    77        999
    91        220
    93         70
   105        230
   119        310
   145        380
   183        230
   281        270
   297        200