##TITLE=Library Entry 90783
##JCAMP-DX=Revision 4.10 
##DATA TYPE=MASS SPECTRUM
##SAMPLE DESCRIPTION=CARL DJERASSI DEPT OF CHEM STANFORD UNIV STANFORD CALIF
 94305
##NAMES=HP
##CAS NAME=Norvaline, 2-propyl-, ethyl ester
##MOLFORM=C10H21NO2
##CAS REGISTRY NO=6148-32-9
##MP= -300
##BP= -300
##MW= 187
##$RETENTION INDEX=0
##$CONDENSED SPECTRUM=NO
##NPOINTS= 30
##XYDATA=(XY..XY) 1 
    40         30
    41        390
    42        410
    43        660
    44        120
    45         20
    53         40
    54         70
    55        210
    56        140
    57        260
    58        130
    67         20
    68         30
    69         40
    70        370
    71        100
    72        170
    74         20
    82         20
    84         30
    86         20
    98         60
   100         20
   114        999
   115        240
   116        110
   144        440
   145         40
   187         30