##TITLE=Library Entry 63223
##JCAMP-DX=Revision 4.10 
##DATA TYPE=MASS SPECTRUM
##SAMPLE DESCRIPTION=P. JEROSCHEWSKI, SEKT. CHEM., WILHELM-PIECK ROSTOCK UNI
V., DDR
##NAMES=HP
##CAS NAME=Dimethyl tetrathiooxalate
##MOLFORM=C4H6S4
##CAS REGISTRY NO=61485-47-0
##MP= -300
##BP= -300
##MW= 182
##$RETENTION INDEX=0
##$CONDENSED SPECTRUM=NO
##NPOINTS= 8
##XYDATA=(XY..XY) 1 
    45        170
    59         80
    76        130
    88        260
    91        999
   103        200
   118        180
   182        600