##TITLE=Library Entry 8203
##JCAMP-DX=Revision 4.10 
##DATA TYPE=MASS SPECTRUM
##SAMPLE DESCRIPTION=INST.OF CLINICAL BIOCHEM,RIKSHOSP,UNIV.OF OSLO,E.JELLUM
,ET.A
##NAMES=HP
##CAS NAME=Butanoic acid, 3-hydroxy-3-methyl-, methyl ester
##MOLFORM=C6H12O3
##CAS REGISTRY NO=6149-45-7
##MP= -300
##BP= -300
##MW= 132
##$RETENTION INDEX=882
##$CONDENSED SPECTRUM=NO
##NPOINTS= 15
##XYDATA=(XY..XY) 1 
    27         80
    29        110
    31        190
    39         60
    41        100
    42        110
    43        999
    58         60
    59        740
    73         50
    74        160
    75         60
    85        290
   101         50
   117        240