##TITLE=Library Entry 5628
##JCAMP-DX=Revision 4.10 
##DATA TYPE=MASS SPECTRUM
##SAMPLE DESCRIPTION=Exported from NIST MS Search
##NAMES=HP
##CAS NAME=Propanoic acid, 3-hydroxy-, methyl ester
##MOLFORM=C4H8O3
##CAS REGISTRY NO=6149-41-3
##MP= -300
##BP= -300
##MW= 104
##$RETENTION INDEX=0
##$CONDENSED SPECTRUM=NO
##NPOINTS= 63
##XYDATA=(XY..XY) 1 
    12         13
    13         16
    14         84
    15        540
    16         21
    17         24
    18         90
    19         83
    24          2
    25         13
    26         78
    27        251
    28        342
    29        283
    30         38
    31        624
    32         17
    33         80
    34          1
    36          2
    37          2
    38          2
    39          7
    40          3
    41         24
    42         35
    43        999
    44        180
    45        292
    46          8
    47          8
    52          1
    53          8
    54          3
    55        171
    56         12
    57          7
    58         54
    59        109
    60          8
    61         40
    62          1
    67          1
    68          7
    69          6
    70          1
    71        105
    72         32
    73        464
    74        536
    75         21
    76          7
    77         13
    83          1
    84         52
    85         73
    86         13
    87          1
    88          2
    89          1
   103         20
   104          8
   105          9