##TITLE=Library Entry 58178
##JCAMP-DX=Revision 4.10 
##DATA TYPE=MASS SPECTRUM
##SAMPLE DESCRIPTION=Japan AIST/NIMC Database- Spectrum MS-NW-1422
##NAMES=HP
##CAS NAME=2,5-Cyclohexadiene-1,4-dione, 2,5-dichloro-
##MOLFORM=C6H2Cl2O2
##CAS REGISTRY NO=615-93-0
##MP= -300
##BP= -300
##MW= 176
##$RETENTION INDEX=0
##$CONDENSED SPECTRUM=NO
##NPOINTS= 105
##XYDATA=(XY..XY) 1 
    12          9
    13          6
    14          2
    16          2
    24         22
    25        118
    26         13
    28         15
    29          9
    30          1
    35         19
    36         38
    37         63
    38         11
    39          4
    40          3
    41          9
    42          3
    43          4
    44         15
    45          2
    47         26
    48         29
    49        104
    50        179
    51         23
    52         48
    53        573
    54         23
    55          3
    56          2
    57          1
    58          1
    59         24
    60        690
    61         66
    62        219
    63         44
    64          1
    65         12
    69          6
    71          7
    72         10
    73          6
    74          3
    75          1
    76          1
    77         11
    78          8
    79          9
    80          3
    82          2
    83          5
    84         35
    85        115
    86         34
    87         98
    88        999
    89         64
    90        322
    91         12
    92          1
    94          2
    95          3
    96          5
    97          7
    98          2
    99          2
   105          2
   106          1
   110          1
   111          1
   113        505
   114         55
   115        170
   116        271
   117         13
   118         82
   119          6
   120        338
   121         15
   122        212
   123         19
   124         35
   125          9
   126          1
   127          1
   141         36
   142          9
   143         12
   144          4
   147          1
   148        299
   149         20
   150        194
   151         12
   152         31
   153          2
   176        879
   177         60
   178        636
   179         43
   180        138
   181          9
   182          8