##TITLE=Library Entry 68488
##JCAMP-DX=Revision 4.10 
##DATA TYPE=MASS SPECTRUM
##SAMPLE DESCRIPTION=Japan AIST/NIMC Database- Spectrum MS-IW-2226
##NAMES=HP
##CAS NAME=2-Furancarboxylic acid, propyl ester
##MOLFORM=C8H10O3
##CAS REGISTRY NO=615-10-1
##MP= -300
##BP= -300
##MW= 154
##$RETENTION INDEX=1125
##$CONDENSED SPECTRUM=NO
##NPOINTS= 95
##XYDATA=(XY..XY) 1 
    14          1
    15          4
    25          1
    26         10
    27         71
    28         19
    29         35
    30          3
    31         78
    32          1
    33          1
    36          1
    37         12
    38         36
    39        162
    40         15
    41         83
    42         39
    43        112
    44          6
    45          6
    47          1
    50          1
    51          5
    53          8
    54          6
    55         36
    56         17
    57         12
    58         11
    59         48
    60          9
    61          2
    65          2
    66          9
    67         24
    68         33
    69          5
    70          1
    71          3
    72          1
    73         10
    74         11
    75          6
    77          1
    81          2
    82          2
    83         12
    84         40
    85         61
    86          3
    87          2
    89          4
    91          1
    93          1
    94          3
    95        999
    96         87
    97         15
    98          2
    99         15
   100          6
   101         88
   102          4
   103          2
   105          1
   108          1
   109          2
   110          6
   111          2
   112        677
   113        196
   114         14
   115          4
   116          3
   117          4
   119          1
   121          1
   123          1
   124          2
   125          8
   126          4
   127          1
   128          1
   129          3
   131          2
   136          2
   137          6
   138          2
   139         17
   140          2
   153          3
   154        113
   155         10
   156          1