##TITLE=Library Entry 29641
##JCAMP-DX=Revision 4.10 
##DATA TYPE=MASS SPECTRUM
##SAMPLE DESCRIPTION=NIST Mass Spectrometry Data Center, 1990.
##NAMES=HP
##CAS NAME=3-Hexanol, 4-methyl-
##MOLFORM=C7H16O
##CAS REGISTRY NO=615-29-2
##MP= -300
##BP= -300
##MW= 116
##$RETENTION INDEX=721
##$CONDENSED SPECTRUM=NO
##NPOINTS= 41
##XYDATA=(XY..XY) 1 
    15         19
    16          4
    18         14
    26         27
    27        188
    28         92
    29        266
    30          4
    31        319
    32          8
    39        131
    40         33
    41        464
    42         43
    43        124
    44          8
    45        389
    46          9
    50          9
    51         15
    52          6
    53         32
    54          6
    55        109
    56         90
    57        188
    58        257
    59        999
    60         33
    65          7
    67         16
    69        209
    70         28
    71         13
    73          5
    83          9
    85          6
    86         15
    87        153
    88          9
    98         21