##TITLE=Library Entry 68104
##JCAMP-DX=Revision 4.10 
##DATA TYPE=MASS SPECTRUM
##SAMPLE DESCRIPTION=Japan AIST/NIMC Database- Spectrum MS-IW-2219
##NAMES=HP
##CAS NAME=2-Furancarboxylic acid, 3-methylbutyl ester
##MOLFORM=C10H14O3
##CAS REGISTRY NO=615-12-3
##MP= -300
##BP= -300
##MW= 182
##$RETENTION INDEX=1318
##$CONDENSED SPECTRUM=NO
##NPOINTS= 92
##XYDATA=(XY..XY) 1 
    15          3
    26          5
    27         61
    28         19
    29         77
    30          2
    31         14
    36          1
    37          9
    38         33
    39        184
    40         17
    41        148
    42        161
    43        247
    44         10
    45         21
    46          3
    50          2
    51          9
    52          1
    53         16
    54          9
    55        437
    56         39
    57         34
    58          2
    59          2
    65          3
    66          9
    67         29
    68         29
    69         69
    70        970
    71        176
    72          8
    73          6
    74          3
    77          1
    79          1
    81          3
    82          1
    83          3
    84         19
    85         16
    86          2
    87          4
    91          1
    93          1
    94          2
    95        999
    96         73
    97         13
    98          1
    99          3
   100          2
   101         13
   103          1
   107          1
   109          1
   110          9
   111          2
   112        382
   113        410
   114         26
   115          5
   117          4
   119          3
   123          1
   124          2
   125          5
   126          4
   127          1
   128          1
   129          1
   133          1
   136          1
   137          3
   138          1
   139         12
   140          1
   141          1
   144          1
   149          1
   153          3
   157          2
   159          3
   165          3
   167          2
   168          1
   182         16
   183          2