##TITLE=Library Entry 15739
##JCAMP-DX=Revision 4.10 
##DATA TYPE=MASS SPECTRUM
##SAMPLE DESCRIPTION=NIST Mass Spectrometry Data Center
##NAMES=HP
##CAS NAME=N,N'-Diethyloxamide
##MOLFORM=C6H12N2O2
##CAS REGISTRY NO=615-84-9
##MP= -300
##BP= -300
##MW= 144
##$RETENTION INDEX=0
##$CONDENSED SPECTRUM=NO
##NPOINTS= 46
##XYDATA=(XY..XY) 1 
    15          3
    18          3
    26          6
    27         72
    28         14
    29        242
    30        125
    31          2
    38          1
    39          2
    40         11
    41         17
    42         46
    43         41
    44        999
    45        124
    46         64
    47          1
    50          1
    52          1
    54          3
    55         11
    56         30
    57         51
    58        511
    59         12
    60          1
    64          4
    70          8
    71          7
    72        663
    73        267
    74         25
    75          1
    87          3
    99          1
   100          1
   101         11
   115          1
   116        148
   117          9
   129         18
   130          1
   144        296
   145         23
   146          2