##TITLE=Library Entry 27662
##JCAMP-DX=Revision 4.10 
##DATA TYPE=MASS SPECTRUM
##SAMPLE DESCRIPTION=Chemical Concepts
##NAMES=HP
##CAS NAME=Pentanal, 3-hydroxy-2-methyl-
##MOLFORM=C6H12O2
##CAS REGISTRY NO=615-30-5
##MP= -300
##BP= -300
##MW= 116
##$RETENTION INDEX=0
##$CONDENSED SPECTRUM=NO
##NPOINTS= 60
##XYDATA=(XY..XY) 1 
    25         23
    26        171
    27        629
    28        415
    29        754
    30        105
    31        597
    33          1
    36          5
    37         28
    38         45
    39        267
    40         55
    41        736
    42        138
    43        130
    44          7
    45         67
    46          1
    47          0
    49          2
    50         13
    51         18
    52          6
    53         48
    54         12
    55        251
    56         33
    57        474
    58        999
    59        544
    60         19
    61          3
    62          3
    63          5
    65          6
    66          1
    67         13
    68          2
    69        100
    70        238
    71         18
    73          0
    74          0
    75          1
    77          1
    79          9
    80          1
    81          1
    82          0
    83         29
    84          1
    85          3
    86          2
    87         44
    88          1
    97          7
    98         70
    99          5
   101          2