##TITLE=Library Entry 21647
##JCAMP-DX=Revision 4.10 
##DATA TYPE=MASS SPECTRUM
##SAMPLE DESCRIPTION=NIST Mass Spectrometry Data Center, 1990.
##NAMES=HP
##CAS NAME=Ethyl 2-bromovalerate
##MOLFORM=C7H13BrO2
##CAS REGISTRY NO=615-83-8
##MP= -300
##BP= -300
##MW= 208
##$RETENTION INDEX=1124
##$CONDENSED SPECTRUM=NO
##NPOINTS= 63
##XYDATA=(XY..XY) 1 
    14         20
    15         20
    16          9
    25          7
    26         49
    27        292
    28         83
    29        389
    30         15
    31         24
    38         20
    39        116
    40         27
    41        106
    42         22
    43        122
    44         28
    45         38
    50         13
    51         21
    53         60
    55        999
    56         79
    57         66
    58         13
    59         34
    60          9
    71         13
    73         48
    80          9
    81         15
    82         22
    83        112
    84         18
    85         21
    88         10
    93         10
    95          7
    99         39
   100         31
   101        238
   102         13
   106         19
   107         32
   108         27
   109         36
   120         31
   121          9
   122         19
   129        275
   130         18
   135        125
   136         20
   137        136
   138        192
   139         18
   140        210
   163         61
   166        680
   168        687
   169         27
   179         13
   181         19