##TITLE=Library Entry 83010
##JCAMP-DX=Revision 4.10 
##DATA TYPE=MASS SPECTRUM
##SAMPLE DESCRIPTION=NIST Mass Spectrometry Data Center, 1998.
##NAMES=HP
##CAS NAME=Benzenamine, 2-chloro-4-methyl-
##MOLFORM=C7H8ClN
##CAS REGISTRY NO=615-65-6
##MP= -300
##BP= -300
##MW= 141
##$RETENTION INDEX=1196
##$CONDENSED SPECTRUM=NO
##NPOINTS= 87
##XYDATA=(XY..XY) 1 
    15          1
    25          1
    26          8
    27         22
    28         25
    29          2
    30          6
    35          2
    36          2
    37         12
    38         22
    39         47
    40          8
    41         15
    42          8
    43          2
    44          2
    45          1
    47          2
    48          2
    49         15
    50         78
    51        188
    52        158
    54         26
    55          2
    56          1
    57          8
    60          6
    61         22
    62         38
    63         57
    64         18
    65         28
    66         15
    67          5
    68          1
    70         21
    73         20
    74         25
    75         40
    76         42
    77        348
    78        123
    79         97
    80         22
    81          2
    84          4
    85         10
    86         11
    87         16
    88          8
    89         22
    90         10
    91          7
    92          1
    96          1
    97          4
    98          2
    99         10
   100          5
   101          4
   102         16
   103          5
   104        126
   105         36
   106        999
   107         82
   108          3
   111          3
   112          6
   113         28
   114         22
   115         10
   116          7
   123          4
   124          1
   125          7
   126          1
   127          2
   138          6
   140        666
   141        734
   142        268
   143        239
   144         18
   145          1