##TITLE=Library Entry 55666
##JCAMP-DX=Revision 4.10 
##DATA TYPE=MASS SPECTRUM
##SAMPLE DESCRIPTION=Japan AIST/NIMC Database- Spectrum MS-NW-1865
##NAMES=HP
##CAS NAME=N-dl-Leucylglycine
##MOLFORM=C8H16N2O3
##CAS REGISTRY NO=615-82-7
##MP= -300
##BP= -300
##MW= 188
##$RETENTION INDEX=0
##$CONDENSED SPECTRUM=NO
##NPOINTS= 113
##XYDATA=(XY..XY) 1 
    14          2
    15          9
    16          2
    17          3
    18         11
    26          3
    27         51
    28         79
    29         37
    30        460
    31         10
    32          4
    36          4
    37          1
    38          2
    39         28
    40          8
    41         90
    42         48
    43        187
    44        433
    45         17
    46          2
    48          1
    50          1
    51          2
    52          2
    53          8
    54          8
    55         24
    56         27
    57         28
    58          7
    59          3
    60          6
    61          1
    65          1
    66          1
    67          9
    68          9
    69         18
    70         34
    71          8
    72          7
    73          6
    74         16
    75          3
    76          7
    77          1
    79          2
    80          2
    81          9
    82          6
    83          7
    84         25
    85         51
    86        999
    87         60
    88          3
    91          1
    93          1
    94          1
    95          4
    96          5
    97          8
    98          8
    99          7
   100          2
   101          1
   104          2
   105          1
   107          2
   108          1
   109          2
   110          5
   111          3
   112          3
   113         17
   114         54
   115          4
   116          1
   117          1
   121          1
   123          1
   124          1
   125          2
   126          2
   127          9
   128          2
   129          2
   130          1
   131         23
   132          5
   133          1
   135          1
   137          1
   138          1
   139          1
   140          1
   141          1
   142          1
   143          2
   144          1
   145          1
   153          1
   154          1
   155          1
   156          2
   157          1
   168          1
   170          1
   171          1
   173          1