##TITLE=Library Entry 83528
##JCAMP-DX=Revision 4.10 
##DATA TYPE=MASS SPECTRUM
##SAMPLE DESCRIPTION=NIST Mass Spectrometry Data Center, 1994
##NAMES=HP
##CAS NAME=Phenol, 3-chloro-4-methyl-
##MOLFORM=C7H7ClO
##CAS REGISTRY NO=615-62-3
##MP= -300
##BP= -300
##MW= 142
##$RETENTION INDEX=0
##$CONDENSED SPECTRUM=NO
##NPOINTS= 88
##XYDATA=(XY..XY) 1 
    13          2
    14          8
    15         15
    18          2
    19          3
    25          8
    26         54
    27         99
    28          8
    29         47
    30          2
    31          3
    35          7
    36         11
    37         43
    38         73
    39        128
    40          9
    41          4
    42          9
    43         17
    44          8
    47          5
    48          5
    49         44
    50        175
    51        309
    52         96
    53        122
    54         10
    55         27
    56          3
    57          2
    58          1
    60         17
    61         43
    62         59
    63         93
    64         10
    65          8
    66          8
    67          8
    68          2
    71         19
    72         14
    73         35
    74         43
    75         42
    76          2
    77        449
    78        133
    79        102
    80          9
    81          8
    84          7
    85         12
    86         13
    87         23
    88          5
    89         24
    90          3
    91          2
    96          1
    97          6
    99          5
   100          2
   101          2
   105         53
   107        999
   108         74
   109          5
   111          4
   112          6
   113         18
   114          4
   115         11
   117          1
   123          3
   124          4
   125          6
   126          2
   127          2
   139          2
   141        239
   142        416
   143        111
   144        134
   145         10