##TITLE=Library Entry 28966
##JCAMP-DX=Revision 4.10 
##DATA TYPE=MASS SPECTRUM
##SAMPLE DESCRIPTION=NIST Mass Spectrometry Data Center, 1994
##NAMES=HP
##CAS NAME=N,N'-Dimethyloxamide
##MOLFORM=C4H8N2O2
##CAS REGISTRY NO=615-35-0
##MP= -300
##BP= -300
##MW= 116
##$RETENTION INDEX=0
##$CONDENSED SPECTRUM=NO
##NPOINTS= 22
##XYDATA=(XY..XY) 1 
    14          6
    15         81
    16          8
    27         28
    28        166
    29         39
    30        156
    31         54
    32          9
    40         10
    41          7
    42         10
    43          7
    44        183
    56         18
    58        999
    59        290
    60         17
    88        180
    89          9
   116        472
   117         22