##TITLE=Library Entry 77575
##JCAMP-DX=Revision 4.10 
##DATA TYPE=MASS SPECTRUM
##SAMPLE DESCRIPTION=Japan AIST/NIMC Database- Spectrum MS-IW-2325
##NAMES=HP
##CAS NAME=2H-Inden-2-one, 1,3-dihydro-
##MOLFORM=C9H8O
##CAS REGISTRY NO=615-13-4
##MP= -300
##BP= -300
##MW= 132
##$RETENTION INDEX=0
##$CONDENSED SPECTRUM=NO
##NPOINTS= 65
##XYDATA=(XY..XY) 1 
    26          3
    27         11
    28         10
    29          9
    31          2
    37          6
    38         14
    39         47
    40          3
    41          2
    42          1
    43          4
    44          7
    45          9
    46         11
    49          6
    50         54
    51        154
    52         67
    53          9
    54          1
    55          1
    57          1
    59          1
    60          2
    61          9
    62         21
    63         54
    64          9
    65         13
    66          2
    73          4
    74         24
    75         21
    76         40
    77        142
    78        244
    79         16
    82          1
    84          1
    85          3
    86          4
    87          5
    88          1
    89         16
    90          2
    91          6
    92          1
    97          1
    98          5
    99          1
   101          5
   102         52
   103        328
   104        999
   105        106
   106          5
   107          1
   108          1
   115          4
   116          1
   131          2
   132        496
   133         50
   134          3