##TITLE=Library Entry 33943
##JCAMP-DX=Revision 4.10 
##DATA TYPE=MASS SPECTRUM
##SAMPLE DESCRIPTION=Japan AIST/NIMC Database- Spectrum MS-NW-9987
##NAMES=HP
##CAS NAME=Hexanoic acid, 2-bromo-, ethyl ester
##MOLFORM=C8H15BrO2
##CAS REGISTRY NO=615-96-3
##MP= -300
##BP= -300
##MW= 222
##$RETENTION INDEX=0
##$CONDENSED SPECTRUM=NO
##NPOINTS= 128
##XYDATA=(XY..XY) 1 
    14          1
    15         10
    17          1
    18          3
    26         18
    27        263
    28         46
    29        705
    30         16
    31         11
    32          1
    37          1
    38          6
    39        121
    40         24
    41        694
    42        151
    43        314
    44         12
    45         61
    46          2
    47          1
    50          2
    51          6
    52          3
    53         27
    54          9
    55        268
    56         23
    57         89
    58          5
    59         10
    60         10
    61          3
    62          1
    63          1
    65          5
    66          2
    67         30
    68         19
    69        999
    70         87
    71         43
    72          3
    73        260
    74         10
    75          2
    79          4
    80         10
    81          9
    82         10
    83          5
    85         15
    86          7
    87         40
    88         11
    89          1
    92          1
    93          3
    94          1
    95          9
    96          3
    97         79
    98         10
    99         33
   100          3
   101        105
   102          7
   103          1
   105          3
   106         10
   107         42
   108         11
   109         39
   110          1
   111          1
   113          9
   114          6
   115        349
   116         27
   117          3
   119          6
   120         18
   121         13
   122         18
   123          9
   125          1
   127          1
   133          4
   135          6
   137          2
   138        182
   139          5
   140        179
   141          5
   142          2
   143        355
   144         31
   145          3
   147          2
   148          3
   149         23
   150          4
   151         27
   152          2
   153          8
   165          8
   166        517
   167         31
   168        502
   169         22
   170          3
   175          1
   176          1
   177         32
   178          3
   179         38
   180          2
   181          9
   193          3
   194          3
   195          6
   196          3
   197          3
   222          5
   223          8
   224          5
   225          7