##TITLE=Library Entry 84258
##JCAMP-DX=Revision 4.10 
##DATA TYPE=MASS SPECTRUM
##SAMPLE DESCRIPTION=RADIAN CORP
##NAMES=HP
##CAS NAME=Phenol, 2-chloro-5-methyl-
##MOLFORM=C7H7ClO
##CAS REGISTRY NO=615-74-7
##MP= -300
##BP= -300
##MW= 142
##$RETENTION INDEX=1111
##$CONDENSED SPECTRUM=NO
##NPOINTS= 77
##XYDATA=(XY..XY) 1 
    15         12
    19          3
    25          2
    26         18
    27         28
    29         20
    35          6
    36          6
    37         32
    38         43
    39         59
    41          3
    42          5
    43          5
    47          6
    48          3
    49          7
    50         67
    51        116
    52         38
    53         55
    54          4
    55          8
    60          9
    61         26
    62         37
    63         63
    64          8
    65          7
    66         10
    67          8
    68          1
    71         10
    72         13
    73         37
    74         35
    75         32
    76         17
    77        312
    78         81
    79         99
    80          7
    81          5
    85          9
    86          7
    87         14
    88          3
    89         17
    90          2
    91          2
    96          1
    97          5
    98          1
    99          6
   100          1
   101          2
   102          1
   105         33
   107        999
   108         78
   109          5
   111          2
   112          4
   113         13
   114          3
   115          8
   123          2
   124          2
   125          9
   126          2
   127          3
   140          2
   141        158
   142        637
   143         98
   144        206
   145         16