##TITLE=Library Entry 81174
##JCAMP-DX=Revision 4.10 
##DATA TYPE=MASS SPECTRUM
##SAMPLE DESCRIPTION=Exported from NIST MS Search
##NAMES=HP
##CAS NAME=Benzene, 4-chloro-1,2-dimethyl-
##MOLFORM=C8H9Cl
##CAS REGISTRY NO=615-60-1
##MP= -300
##BP= -300
##MW= 140
##$RETENTION INDEX=1075
##$CONDENSED SPECTRUM=NO
##NPOINTS= 97
##XYDATA=(XY..XY) 1 
    13          3
    14          7
    15         60
    16          1
    25          2
    26         28
    27        113
    28         11
    29          4
    30          1
    35          5
    36          5
    37         27
    38         50
    39        154
    40         14
    41         12
    42          1
    43          5
    44          3
    45          1
    47          3
    48          2
    49         25
    50        118
    51        291
    52         56
    53         37
    54          3
    55          2
    56          2
    57          2
    60          8
    61         29
    62         55
    63        120
    64         20
    65         33
    66          4
    67          1
    68          8
    69         26
    70         16
    71          4
    72          5
    73         37
    74         43
    75         62
    76         28
    77        212
    78         74
    79         77
    80          6
    84          6
    85         12
    86         16
    87         19
    88          5
    89         53
    90         13
    91         13
    92          1
    96          2
    97          8
    98          9
    99         24
   100          4
   101         22
   102         38
   103        132
   104         57
   105        999
   106         89
   107          3
   108          1
   109          1
   110          1
   111          3
   112          9
   113          4
   114          3
   115          1
   123          3
   124          1
   125        247
   126         19
   127         78
   128          6
   136          2
   137          3
   138          7
   139         94
   140        463
   141         68
   142        141
   143         12
   144          1