##TITLE=Library Entry 22808
##JCAMP-DX=Revision 4.10 
##DATA TYPE=MASS SPECTRUM
##SAMPLE DESCRIPTION=A.A.Kutin, Moscow, Russia
##NAMES=HP
##CAS NAME=Pyrrolidine-1-acetonitrile, 2,5-dioxo-
##MOLFORM=C6H6N2O2
##CAS REGISTRY NO=61516-81-2
##MP= -300
##BP= -300
##MW= 138
##$RETENTION INDEX=0
##$CONDENSED SPECTRUM=NO
##NPOINTS= 82
##XYDATA=(XY..XY) 1 
    33          2
    34          0
    35          1
    36          3
    37          6
    38         19
    39         31
    40         83
    41         52
    42        112
    43         22
    44         12
    45          2
    47          0
    48          4
    49          0
    50          2
    51          8
    52         21
    53         59
    54         60
    55        227
    56        999
    57         42
    58          4
    59          1
    60          5
    62          0
    63          1
    64          1
    65          2
    66          4
    67         10
    68         10
    69          8
    70         35
    71          4
    73          3
    76          0
    77          2
    78          1
    79          3
    80          5
    81         20
    82         24
    83         52
    84          8
    85          5
    86          0
    91          1
    92          1
    93          7
    94          7
    95          3
    96          2
    97          3
    98          2
    99          1
   102          0
   105          0
   109          5
   110         84
   111         15
   112          2
   113          0
   115          1
   116          0
   117          0
   119          1
   123          0
   126          1
   127          0
   130          0
   131          0
   133          1
   134          0
   136          1
   137         11
   138        515
   139         39
   140          2
   141          0