##TITLE=Library Entry 39145
##JCAMP-DX=Revision 4.10 
##DATA TYPE=MASS SPECTRUM
##SAMPLE DESCRIPTION=LAC, NIDDK, NIH, Bethesda, MD 20892
##NAMES=HP
##CAS NAME=5-Hydroxynorvaline
##MOLFORM=C5H11NO3
##CAS REGISTRY NO=6152-89-2
##MP= -300
##BP= -300
##MW= 133
##$RETENTION INDEX=0
##$CONDENSED SPECTRUM=NO
##NPOINTS= 75
##XYDATA=(XY..XY) 1 
    41        320
    42        231
    43        669
    44        163
    45        115
    46        124
    47          4
    48          1
    49          1
    50          3
    51          7
    52          9
    53         66
    54         43
    55         46
    56        179
    57        148
    58         57
    59         63
    60          9
    61          1
    62          0
    63          0
    64          2
    65          2
    66          2
    67          7
    68         66
    69         69
    70        602
    71        999
    72         45
    73         20
    74        519
    75        103
    76          4
    77          4
    78          6
    79          2
    80          1
    81          6
    82          4
    83          9
    84          7
    85          9
    86         11
    87        177
    88        788
    89         57
    90          3
    91          3
    92          0
    93          1
    94          2
    95          5
    96          5
    97          9
    98          4
    99          3
   100          6
   101          0
   102          4
   103         44
   104          2
   105          0
   114          7
   115         23
   116          4
   117          1
   118          0
   131          1
   132          8
   133         63
   134          4
   135          0