##TITLE=Library Entry 37897
##JCAMP-DX=Revision 4.10 
##DATA TYPE=MASS SPECTRUM
##SAMPLE DESCRIPTION=V.G. Zaikin, R.S.Borisov, TIPS RAS, Moscow, Russia
##NAMES=HP
##CAS NAME=Nonanoic acid, pentyl ester
##MOLFORM=C14H28O2
##CAS REGISTRY NO=61531-45-1
##MP= -300
##BP= -300
##MW= 228
##$RETENTION INDEX=1574
##$CONDENSED SPECTRUM=NO
##NPOINTS= 93
##XYDATA=(XY..XY) 1 
    26          7
    27         61
    29        120
    30          3
    31          4
    39         44
    40         10
    41        233
    42        174
    43        508
    44         23
    45         11
    53         14
    54         17
    55        269
    56         48
    57        254
    58         17
    59         11
    60        180
    61        158
    62          4
    65          1
    66          1
    67         30
    68         22
    69        113
    70        999
    71        315
    72         17
    73        190
    74         19
    75          5
    80          1
    81         34
    82          5
    83         40
    84         39
    85         12
    86          7
    87         60
    88          5
    89         38
    90          1
    93          2
    94          4
    95          9
    96         19
    97         44
    98         32
    99          7
   100          5
   101         33
   102         28
   103         29
   104          1
   109          1
   111          9
   112         16
   113          4
   114          1
   115        126
   116          9
   117          6
   121          5
   122          2
   123         13
   124          1
   125          4
   127          1
   129         83
   130         50
   131         10
   138          3
   139         15
   140          2
   141        553
   142         57
   143         28
   144          2
   156          1
   157          6
   158         71
   159        849
   160         87
   161          7
   171          1
   185         11
   186          1
   199         10
   200          1
   228          8
   229          2