##TITLE=Library Entry 65216
##JCAMP-DX=Revision 4.10 
##DATA TYPE=MASS SPECTRUM
##SAMPLE DESCRIPTION=Chemical Concepts
##NAMES=HP
##CAS NAME=1,13-Diphenyltridecane
##MOLFORM=C25H36
##CAS REGISTRY NO=61549-39-1
##MP= -300
##BP= -300
##MW= 336
##$RETENTION INDEX=0
##$CONDENSED SPECTRUM=NO
##NPOINTS= 173
##XYDATA=(XY..XY) 1 
    25          3
    27         14
    28          4
    29         27
    39         19
    40          3
    41         83
    42         12
    43         51
    44          4
    50          4
    51         12
    52          4
    53          9
    54          7
    55         66
    56         11
    57         29
    58          2
    62          2
    63          6
    64          2
    65         41
    66          5
    67         11
    68          5
    69         24
    70          5
    71         12
    75          2
    76          3
    77         32
    78         28
    79         40
    80         10
    81          9
    82          4
    83         16
    84          3
    85          8
    88          2
    89         10
    90         12
    91        942
    92        999
    93         94
    94         17
    95          8
    96          3
    97          9
    98          2
    99          2
   101          2
   102          5
   103         23
   104        261
   105        174
   106         37
   107          6
   108          2
   109          3
   111          3
   113          2
   115         30
   116         13
   117        146
   118         40
   119         37
   120         12
   121          4
   122          2
   123          2
   127          3
   128          7
   129         11
   130         13
   131         55
   132         13
   133         93
   134         32
   135          7
   136          2
   141          4
   142          2
   143          4
   144          9
   145         11
   146          3
   147         18
   148          7
   149         12
   150          2
   151          2
   152          3
   153          2
   157          2
   158          2
   159          5
   160          4
   161          8
   162          3
   163          1
   164          1
   165          5
   166          3
   167         17
   168          6
   169          2
   170          3
   171          1
   172          1
   173          2
   174          3
   175          5
   176          2
   177          2
   178          2
   179          2
   180          3
   181          7
   182          5
   183          2
   184          2
   185          2
   186          1
   187          1
   188          3
   189          3
   190          3
   191          1
   201          1
   202          2
   203          2
   215          2
   216          2
   230          3
   231          1
   232          1
   241          1
   242          3
   243          3
   244          5
   245          3
   246          2
   255          1
   256          1
   257          1
   258          3
   259          1
   260          3
   261          1
   262          2
   263          1
   269          1
   270          1
   279          1
   280          2
   281          1
   282          3
   283          1
   293          1
   294          1
   295          1
   308          1
   332          6
   333          2
   334         59
   335         19
   336        539
   337        180
   338         27
   339          3
   340          1