##TITLE=Library Entry 5046
##JCAMP-DX=Revision 4.10 
##DATA TYPE=MASS SPECTRUM
##SAMPLE DESCRIPTION=Chemical Concepts
##NAMES=HP
##CAS NAME=5-Amino-2-methyl-2H-tetrazole
##MOLFORM=C2H5N5
##CAS REGISTRY NO=6154-04-7
##MP= -300
##BP= -300
##MW= 99
##$RETENTION INDEX=0
##$CONDENSED SPECTRUM=NO
##NPOINTS= 25
##XYDATA=(XY..XY) 1 
    26         11
    27        175
    28        616
    29         79
    30          8
    31         14
    39          3
    40          9
    41         46
    42        999
    43        632
    44         24
    45         10
    46          3
    52          4
    54          3
    55          6
    57          4
    69         21
    70         41
    71        413
    72         11
    97         10
    99        663
   100         12