##TITLE=Library Entry 89608
##JCAMP-DX=Revision 4.10 
##DATA TYPE=MASS SPECTRUM
##SAMPLE DESCRIPTION=Chemical Concepts
##NAMES=HP
##CAS NAME=.alpha.-D-Mannopyranoside, methyl, cyclic 2,3:4,6-bis(ethyl boron
ate)
##MOLFORM=C11H20B2O6
##CAS REGISTRY NO=61553-44-4
##MP= -300
##BP= -300
##MW= 270
##$RETENTION INDEX=0
##$CONDENSED SPECTRUM=NO
##NPOINTS= 147
##XYDATA=(XY..XY) 1 
    26          9
    27         59
    28         27
    29        128
    30          3
    31         15
    32          1
    33         12
    34          0
    35          0
    36          0
    37          1
    38          2
    39         51
    40         14
    41         52
    42         43
    43        120
    44          5
    45         80
    46          1
    47          0
    48          0
    49          0
    50          4
    51          7
    52          7
    53         42
    54         17
    55         62
    56         32
    57        103
    58          8
    59         18
    60          1
    61        284
    62         10
    63          6
    64          1
    65          4
    66          4
    67         10
    68         16
    69         63
    70        144
    71         42
    72          6
    73          4
    74          7
    75          0
    76          0
    77          1
    78          1
    79          3
    80          2
    81         23
    82         18
    83         97
    84        141
    85         30
    86          4
    87          5
    88          0
    89          0
    91          0
    92          0
    93          1
    94          1
    95          6
    96         14
    97         86
    98        352
    99         92
   100         10
   101          6
   102          0
   105          0
   106          0
   107          1
   108          2
   109         15
   110         86
   111        527
   112        999
   113         77
   114          8
   115          4
   116          0
   117          0
   121          0
   122          1
   123          7
   124         13
   125         18
   126          4
   127          5
   128          2
   129          7
   130          0
   134          0
   135          1
   136          1
   137          4
   138          2
   139          4
   140          7
   141         24
   142         32
   143        141
   144          8
   145          1
   150          1
   151          3
   152          2
   153          9
   154         14
   155          2
   156          0
   157          3
   158         18
   159          1
   163          0
   165          1
   166          0
   167          0
   168          0
   169          0
   170          0
   171          0
   179          0
   180          2
   181          6
   182          0
   183          0
   185          0
   195          0
   197          0
   207          0
   208          0
   209          1
   210          1
   211          0
   237          0
   238          3
   239          6
   240          1
   269          0