##TITLE=Library Entry 91774
##JCAMP-DX=Revision 4.10 
##DATA TYPE=MASS SPECTRUM
##SAMPLE DESCRIPTION=V.G.Zaikin, TIPS, Russian Acad. Sci.
##NAMES=HP
##CAS NAME=trans-2,4-Dimethylthiane
##MOLFORM=C7H14S
##CAS REGISTRY NO=61568-42-1
##MP= -300
##BP= -300
##MW= 130
##$RETENTION INDEX=1008
##$CONDENSED SPECTRUM=NO
##NPOINTS= 31
##XYDATA=(XY..XY) 1 
    51         30
    53         40
    55        580
    59        240
    60        260
    61        230
    67        120
    68         60
    69        260
    70        130
    73        145
    74        150
    75        180
    81        550
    82         60
    83         50
    87         90
    88         20
    96        130
    97         40
   101        325
   102        100
   103         20
   115        999
   116         70
   117         50
   129         15
   130        560
   131         48
   132         26
   133          2