##TITLE=Library Entry 58323
##JCAMP-DX=Revision 4.10 
##DATA TYPE=MASS SPECTRUM
##SAMPLE DESCRIPTION=Exported from NIST MS Search
##NAMES=HP
##CAS NAME=Propane, 2,2-bis(methylthio)-
##MOLFORM=C5H12S2
##CAS REGISTRY NO=6156-18-9
##MP= -300
##BP= -300
##MW= 136
##$RETENTION INDEX=986
##$CONDENSED SPECTRUM=NO
##NPOINTS= 64
##XYDATA=(XY..XY) 1 
    14          5
    15         22
    16          4
    26          2
    29          7
    32          8
    33          7
    34         11
    35          5
    37          4
    38          9
    39         91
    40         15
    41        302
    42         13
    43         10
    44         48
    45        162
    46         45
    47        157
    48        123
    49        329
    50         11
    51         14
    53          5
    54         21
    55         79
    56          4
    57          5
    58         24
    59         82
    60         21
    61         42
    62          3
    63          2
    64          2
    69          4
    71         10
    72          5
    73         86
    74         26
    75          8
    76         13
    78          1
    79          6
    80          1
    81          1
    87          3
    88         90
    89        999
    90         57
    91         48
    92          2
    94          2
   105          1
   106          2
   119          1
   121         10
   122          1
   123          1
   136        104
   137          8
   138         10
   139          1