##TITLE=Library Entry 91775
##JCAMP-DX=Revision 4.10 
##DATA TYPE=MASS SPECTRUM
##SAMPLE DESCRIPTION=V.G.Zaikin, TIPS, Russian Acad. Sci.
##NAMES=HP
##CAS NAME=cis-2,4-Dimethylthiane
##MOLFORM=C7H14S
##CAS REGISTRY NO=61568-43-2
##MP= -300
##BP= -300
##MW= 130
##$RETENTION INDEX=998
##$CONDENSED SPECTRUM=NO
##NPOINTS= 33
##XYDATA=(XY..XY) 1 
    53        110
    54         60
    55        630
    56         70
    58         50
    59        240
    60        290
    61        260
    67        140
    68         70
    69        310
    70        150
    71         40
    73        160
    74        180
    75        220
    81        590
    82         60
    83         60
    87        100
    88         30
    96        110
    97         60
   101        440
   102        140
   103         40
   115        999
   116         95
   117         60
   130        630
   131         54
   132         30
   133          2