##TITLE=Library Entry 73744
##JCAMP-DX=Revision 4.10 
##DATA TYPE=MASS SPECTRUM
##SAMPLE DESCRIPTION=V.G.Zaikin, TIPS, Russian Acad. Sci., Moscow
##NAMES=HP
##CAS NAME=cis-2-Ethyl-3-methylthiophane
##MOLFORM=C7H14S
##CAS REGISTRY NO=61568-37-4
##MP= -300
##BP= -300
##MW= 130
##$RETENTION INDEX=0
##$CONDENSED SPECTRUM=NO
##NPOINTS= 66
##XYDATA=(XY..XY) 1 
    38         10
    39        132
    40         30
    41        266
    42         38
    43         21
    44         30
    45        138
    46         75
    47         75
    48          3
    50          9
    51         35
    52          5
    53         41
    54         17
    55        177
    56         31
    57         17
    58         24
    59        178
    60         41
    61         41
    62          6
    63          5
    64          5
    65         17
    66          4
    67        163
    68         15
    69         65
    70         18
    71         27
    72          7
    73        104
    74         54
    75         15
    76          5
    77         13
    78          2
    79          9
    80          3
    81         62
    82         11
    83         16
    84         10
    85         32
    86          5
    87         25
    88         27
    95         14
    96         14
    97         12
    99         19
   100         12
   101        999
   102         81
   103         49
   104          6
   115         20
   116          2
   129         11
   130        244
   131         21
   132         12
   133          1