##TITLE=Library Entry 73743
##JCAMP-DX=Revision 4.10 
##DATA TYPE=MASS SPECTRUM
##SAMPLE DESCRIPTION=V.G.Zaikin, TIPS, Russian Acad. Sci., Moscow
##NAMES=HP
##CAS NAME=trans-2-Ethyl-3-methylthiophane
##MOLFORM=C7H14S
##CAS REGISTRY NO=61568-36-3
##MP= -300
##BP= -300
##MW= 130
##$RETENTION INDEX=986
##$CONDENSED SPECTRUM=NO
##NPOINTS= 60
##XYDATA=(XY..XY) 1 
    39        131
    40         22
    41        249
    42         35
    43         20
    44         18
    45        135
    46         53
    47         74
    48          4
    49          5
    50          5
    51         17
    52          6
    53         46
    54         17
    55        178
    56         19
    57          8
    58         23
    59        185
    60         42
    61         46
    65         12
    66          6
    67        171
    68         17
    69         55
    70         14
    71         14
    72          8
    73         79
    74         55
    75         21
    77          6
    79          5
    81         60
    82          6
    83          8
    84          6
    85         30
    86          6
    87         21
    88         14
    95         10
    96          8
    97          5
    99         30
   100         10
   101        999
   102         86
   103         51
   104          4
   115         60
   116          4
   129          4
   130        244
   131         21
   132         12
   133          1