##TITLE=Library Entry 53996
##JCAMP-DX=Revision 4.10 
##DATA TYPE=MASS SPECTRUM
##SAMPLE DESCRIPTION=E. GRASSI, ZAMBELETTI RES. LABS., MILAN
##NAMES=HP
##CAS NAME=N(2)-(Biphenyl-4-ylacetyl)glutamine
##MOLFORM=C19H20N2O4
##CAS REGISTRY NO=61578-79-8
##MP= -300
##BP= -300
##MW= 340
##$RETENTION INDEX=0
##$CONDENSED SPECTRUM=NO
##NPOINTS= 33
##XYDATA=(XY..XY) 1 
    63        100
    65         70
    82        300
    83        220
    84        999
    85        230
    89         80
    91         40
   101        150
   102        260
   110        150
   115        250
   127        190
   128        200
   129         60
   139        120
   151        190
   152        280
   153        140
   155        130
   163        190
   164        160
   165        150
   166        290
   168        210
   169        110
   192         70
   195        300
   322        150
   323        160
   339         30
   340         80
   341         30