##TITLE=Library Entry 90781
##JCAMP-DX=Revision 4.10 
##DATA TYPE=MASS SPECTRUM
##SAMPLE DESCRIPTION=H. Fales, LC, NHLBI, NIH, Bethesda, MD 20892
##NAMES=HP
##CAS NAME=Acetylsolasodine
##MOLFORM=C29H45NO3
##CAS REGISTRY NO=6159-99-5
##MP= -300
##BP= -300
##MW= 455
##$RETENTION INDEX=0
##$CONDENSED SPECTRUM=NO
##NPOINTS= 178
##XYDATA=(XY..XY) 1 
    41        130
    42         56
    43        752
    44         30
    45          5
    47          5
    48          1
    49         22
    50          1
    51         11
    52          1
    53         25
    54         27
    55        153
    56         32
    57         27
    58         12
    59          1
    60          1
    61          3
    65         12
    66          4
    67         76
    68         60
    69         50
    70         34
    71         10
    72          3
    73          4
    74          1
    77         38
    78         10
    79         86
    80         17
    81         86
    82         27
    83         24
    84         31
    85          4
    86         14
    88          1
    91        109
    92         23
    93         85
    94         25
    95         46
    96         35
    97         15
    98         40
    99          3
   103          6
   104          8
   105        107
   106         24
   107         58
   108         28
   109         36
   110         41
   111         55
   112         22
   113        574
   114        999
   115         63
   116          1
   117         43
   118         13
   119         47
   120         34
   121         34
   122         19
   123         11
   124         72
   125         64
   126         13
   127          3
   128         10
   129         22
   130         11
   131         40
   132         11
   133         37
   134          2
   135         18
   136         10
   137          1
   138        632
   139         94
   140         11
   141         10
   142          8
   143         35
   144         11
   145         43
   146         12
   147         24
   148         11
   149          8
   150         12
   151          3
   152         32
   153          8
   154          4
   155         10
   156          4
   157         32
   158         17
   159         28
   160         11
   161         20
   162         16
   163          7
   164         20
   165          6
   166         22
   167          6
   168          8
   169          8
   170          2
   171         10
   172          5
   173         10
   174          9
   175         11
   176          7
   177          4
   178         10
   179          3
   180         10
   181          4
   182          2
   183          8
   184          2
   185          6
   186          2
   187          2
   188          1
   189          1
   190          2
   192          8
   193          1
   195          2
   197          7
   198          4
   199         15
   200          4
   201          1
   209          1
   211          3
   212          7
   213          8
   214         14
   215          2
   225          2
   227          1
   251          1
   253         11
   254          2
   260          1
   267         10
   268          1
   276          6
   282         14
   283          6
   328          1
   356          1
   394          2
   396          2
   399          1
   412          5
   413          1
   426         11
   427         27
   428          7
   440          4
   441          1
   455         46
   456         15
   457          2