##TITLE=Library Entry 76630
##JCAMP-DX=Revision 4.10 
##DATA TYPE=MASS SPECTRUM
##SAMPLE DESCRIPTION=Chemical Concepts
##NAMES=HP
##CAS NAME=Bicyclo[4.2.0]octa-1,3,5-triene, 7-chloro-
##MOLFORM=C8H7Cl
##CAS REGISTRY NO=61599-88-0
##MP= -300
##BP= -300
##MW= 138
##$RETENTION INDEX=0
##$CONDENSED SPECTRUM=NO
##NPOINTS= 72
##XYDATA=(XY..XY) 1 
    24          1
    26         11
    27         31
    29          0
    35          2
    36          2
    37         21
    38         42
    39         61
    40          1
    41          0
    43          1
    44          1
    47          0
    48          2
    49         20
    50        158
    51        261
    52         38
    53         11
    56          0
    57          0
    58          3
    60          3
    61         20
    62         41
    63         75
    64          8
    65          3
    67          0
    68          8
    69         12
    70          3
    72          2
    73         19
    74         64
    75         72
    76         67
    77        347
    78         32
    79          1
    84          3
    85          5
    86          5
    87         10
    88          2
    89          8
    90          0
    91          1
    96          1
    97          6
    98         11
    99          6
   100          2
   101         41
   102        145
   103        999
   104         77
   105          3
   111          1
   112         10
   113          1
   114          3
   123          1
   134          0
   136          2
   137         10
   138        639
   139         55
   140        192
   141         16
   142          0