##TITLE=Library Entry 63224
##JCAMP-DX=Revision 4.10 
##DATA TYPE=MASS SPECTRUM
##SAMPLE DESCRIPTION=Chemical Concepts
##NAMES=HP
##CAS NAME=Acetamide, 2,2'-[1,2-phenylenebis(oxy)]bis[N-phenyl-N-(phenylmeth
yl)-
##MOLFORM=C36H32N2O4
##CAS REGISTRY NO=61595-77-5
##MP= -300
##BP= -300
##MW= 556
##$RETENTION INDEX=0
##$CONDENSED SPECTRUM=NO
##NPOINTS= 66
##XYDATA=(XY..XY) 1 
    27          5
    29          6
    39         12
    41         13
    43          9
    51         17
    52          8
    55          6
    56          5
    57         13
    63          6
    64          6
    65         58
    69          5
    71          6
    76          7
    77         92
    78         15
    79          8
    80         10
    89          8
    91        999
    92        103
    93         15
    95          7
   104         55
   105         67
   106        100
   107         15
   117         12
   118         57
   120         34
   121         29
   122         14
   123         25
   132         27
   135         52
   137         11
   146         37
   149         74
   150          7
   164         13
   168          9
   180         33
   181        180
   182        194
   183        112
   184         18
   194         12
   195         44
   196         43
   197          7
   211         13
   222         27
   223        169
   224        131
   225         36
   226          7
   324          5
   329         11
   334         25
   335          5
   346        150
   347         41
   556         14
   557          6