##TITLE=Library Entry 48477
##JCAMP-DX=Revision 4.10 
##DATA TYPE=MASS SPECTRUM
##SAMPLE DESCRIPTION=L.L. MILLER, DEP. CHEM., UNIV. MINNESOTA, MINN., USA
##NAMES=HP
##CAS NAME=Bicyclo[4.2.0]oct-7-ene
##MOLFORM=C8H12
##CAS REGISTRY NO=616-10-4
##MP= -300
##BP= -300
##MW= 108
##$RETENTION INDEX=0
##$CONDENSED SPECTRUM=NO
##NPOINTS= 30
##XYDATA=(XY..XY) 1 
    37         20
    38         60
    39        660
    40        100
    41        420
    42         30
    50         80
    51        170
    52        100
    53        130
    54        160
    55         20
    62         20
    63         40
    65        170
    66        260
    67        580
    68         20
    77        290
    78        110
    79        999
    80        650
    81         40
    82         10
    91        160
    92         20
    93        400
    94         20
   107         20
   108        100