##TITLE=Library Entry 27711
##JCAMP-DX=Revision 4.10 
##DATA TYPE=MASS SPECTRUM
##SAMPLE DESCRIPTION=Japan AIST/NIMC Database- Spectrum MS-NW-6034
##NAMES=HP
##CAS NAME=3-Pentanamine
##MOLFORM=C5H13N
##CAS REGISTRY NO=616-24-0
##MP= -300
##BP= -300
##MW= 87
##$RETENTION INDEX=0
##$CONDENSED SPECTRUM=NO
##NPOINTS= 36
##XYDATA=(XY..XY) 1 
    14          1
    15          9
    26          8
    27         34
    28         58
    29         19
    30        111
    31          2
    37          1
    38          2
    39         20
    40          4
    41        205
    42         35
    43         40
    44         10
    50          1
    51          3
    52          5
    53          3
    54          8
    55         15
    56         39
    57          9
    58        999
    59         38
    67          1
    68          1
    69          3
    70          8
    71          1
    72          2
    84          2
    85          1
    86         11
    87          2