##TITLE=Library Entry 30864
##JCAMP-DX=Revision 4.10 
##DATA TYPE=MASS SPECTRUM
##SAMPLE DESCRIPTION=Japan AIST/NIMC Database- Spectrum MS-NW-2509
##NAMES=HP
##CAS NAME=L-Cysteine, N-acetyl-
##MOLFORM=C5H9NO3S
##CAS REGISTRY NO=616-91-1
##MP= -300
##BP= -300
##MW= 163
##$RETENTION INDEX=1547
##$CONDENSED SPECTRUM=NO
##NPOINTS= 79
##XYDATA=(XY..XY) 1 
    14          7
    15         71
    18          2
    19          2
    26          6
    27         24
    28          9
    29          9
    30         35
    31          2
    33          5
    34          9
    35          3
    36          1
    38          1
    39          2
    40          8
    41         22
    42         82
    43        835
    44         94
    45         39
    46         24
    47         49
    48         11
    49          2
    52          1
    53          1
    54          2
    55          7
    56          9
    57         68
    58         30
    59        129
    60        999
    61         26
    62          2
    68          2
    69          1
    70         28
    71         16
    72          2
    73          3
    74        317
    75         58
    76        260
    77          9
    78         10
    83          1
    84         17
    85         28
    86         77
    87         28
    88         28
    89          1
    92          1
    99         86
   100         24
   101          9
   102          6
   103          3
   104          9
   105          2
   111          3
   112          2
   116          7
   117         20
   118         32
   119          2
   120          7
   121         14
   122          2
   129          3
   130          9
   145          6
   146          1
   163         25
   164          3
   165          1