##TITLE=Library Entry 3382
##JCAMP-DX=Revision 4.10 
##DATA TYPE=MASS SPECTRUM
##SAMPLE DESCRIPTION=Exported from NIST MS Search
##NAMES=HP
##CAS NAME=2-Pentene, 3-methyl-, (E)-
##MOLFORM=C6H12
##CAS REGISTRY NO=616-12-6
##MP= -300
##BP= -300
##MW= 84
##$RETENTION INDEX=613
##$CONDENSED SPECTRUM=NO
##NPOINTS= 58
##XYDATA=(XY..XY) 1 
     1          4
     2          4
    12          1
    13          1
    14          3
    15         48
    16          1
    26         24
    27        323
    28         68
    29        184
    30          5
    31          1
    32          1
    33          1
    36          1
    37          5
    38         16
    39        278
    40         51
    41        999
    42        140
    43         77
    44          3
    49          1
    50         18
    51         43
    52         20
    53        114
    54         45
    55        442
    56        213
    57         11
    58          1
    61          1
    62          2
    63          6
    64          1
    65         15
    66          8
    67         64
    68         14
    69        798
    70         44
    71          1
    72          1
    74          1
    75          1
    77          5
    78          1
    79          4
    80          1
    81          4
    82          1
    83         10
    84        379
    85         24
    86          1