##TITLE=Library Entry 31472
##JCAMP-DX=Revision 4.10 
##DATA TYPE=MASS SPECTRUM
##SAMPLE DESCRIPTION=NIST Mass Spectrometry Data Center, 1998.
##NAMES=HP
##CAS NAME=1-Propanol, 2,3-dichloro-
##MOLFORM=C3H6Cl2O
##CAS REGISTRY NO=616-23-9
##MP= -300
##BP= -300
##MW= 128
##$RETENTION INDEX=959
##$CONDENSED SPECTRUM=NO
##NPOINTS= 73
##XYDATA=(XY..XY) 1 
    13          1
    14          2
    15          8
    24          1
    25          6
    26         38
    27        111
    28         11
    29        119
    30         12
    31        220
    32          3
    35         11
    36         10
    37         21
    38         25
    39         59
    40          6
    41          9
    42         14
    43         38
    44          2
    47          7
    48          9
    49         56
    50          5
    51         18
    52          1
    53          8
    54          1
    55         27
    56          3
    57        101
    58          4
    59          1
    60         14
    61         78
    62        999
    63         97
    64        530
    65         38
    66         70
    67          5
    72          1
    73          4
    74          1
    75         26
    76          2
    77          8
    78          4
    79          4
    80          1
    81          1
    83          3
    85          1
    89          1
    91          7
    92         75
    93          5
    94         24
    95          2
    96          5
    97          8
    98          8
    99          5
   100          3
   101          1
   102          1
   110          1
   111          1
   112          1
   127          1
   129          1