##TITLE=Library Entry 11286
##JCAMP-DX=Revision 4.10 
##DATA TYPE=MASS SPECTRUM
##SAMPLE DESCRIPTION=Exported from NIST MS Search
##NAMES=HP
##CAS NAME=2,4-Imidazolidinedione, 5-methyl-
##MOLFORM=C4H6N2O2
##CAS REGISTRY NO=616-03-5
##MP= -300
##BP= -300
##MW= 114
##$RETENTION INDEX=0
##$CONDENSED SPECTRUM=NO
##NPOINTS= 15
##XYDATA=(XY..XY) 1 
    41        170
    42        700
    43        999
    44        280
    53         20
    54         30
    55         40
    56         60
    70        130
    71        270
    86        780
    87         50
    99        120
   114        810
   115         80