##TITLE=Library Entry 19447
##JCAMP-DX=Revision 4.10 
##DATA TYPE=MASS SPECTRUM
##SAMPLE DESCRIPTION=Exported from NIST MS Search
##NAMES=HP
##CAS NAME=Propane, 1,3-dichloro-2-methyl-
##MOLFORM=C4H8Cl2
##CAS REGISTRY NO=616-19-3
##MP= -300
##BP= -300
##MW= 126
##$RETENTION INDEX=810
##$CONDENSED SPECTRUM=NO
##NPOINTS= 89
##XYDATA=(XY..XY) 1 
    12          1
    13          1
    14          4
    15         14
    16          1
    25          2
    26         29
    27        184
    28         34
    29         81
    30          2
    35          4
    36          8
    37         22
    38         37
    39        258
    40         30
    41        717
    42         54
    43          9
    44          3
    45          1
    47         10
    48         11
    49        207
    50         31
    51         98
    52         12
    53        172
    54        149
    55        999
    56         46
    57          5
    58          1
    59          1
    60          4
    61         29
    62         67
    63         96
    64         24
    65         29
    66          1
    67          1
    68          1
    69          1
    70          1
    71          2
    72          3
    73         17
    74          3
    75        156
    76         61
    77        615
    78         39
    79        184
    80          7
    81          1
    82          1
    83         12
    84          1
    85          9
    86          1
    87          9
    88         80
    89        167
    90        701
    91        100
    92        220
    93         17
    94          1
    95          2
    96          3
    97          6
    98          2
    99          4
   110          2
   111         10
   112          2
   113          4
   121          1
   122          1
   123          5
   124         40
   125         10
   126         36
   127         12
   128         12
   129          4
   130          1