##TITLE=Library Entry 3517
##JCAMP-DX=Revision 4.10 
##DATA TYPE=MASS SPECTRUM
##SAMPLE DESCRIPTION=CONTINENTAL OIL CO., PONCA CITY, OKLAHOMA, USA
##NAMES=HP
##CAS NAME=Pentane, 3-chloro-
##MOLFORM=C5H11Cl
##CAS REGISTRY NO=616-20-6
##MP= -300
##BP= -300
##MW= 106
##$RETENTION INDEX=721
##$CONDENSED SPECTRUM=NO
##NPOINTS= 59
##XYDATA=(XY..XY) 1 
    13          9
    14         26
    15        136
    16          5
    25          7
    26         88
    27        466
    28         59
    29        290
    30          8
    31          3
    35          6
    36         11
    37         29
    38         55
    39        361
    40         20
    41        999
    42        351
    43        439
    44          9
    47          4
    48          4
    49         61
    50         24
    51         47
    52         10
    53         44
    54         16
    55        327
    56         20
    57         19
    58          0
    60          2
    61         18
    62         32
    63         30
    64         11
    65         11
    66          3
    67          7
    68          3
    69         22
    70        695
    71        430
    72         24
    73          6
    74          1
    75         12
    76        159
    77        275
    78         60
    79         88
    80          5
    89          4
    91          7
    93          4
   106          4
   108          1