##TITLE=Library Entry 10063
##JCAMP-DX=Revision 4.10 
##DATA TYPE=MASS SPECTRUM
##SAMPLE DESCRIPTION=V.G. Zaikin, R.S.Borisov, TIPS RAS, Moscow, Russia
##NAMES=HP
##CAS NAME=Acetic acid, 3,3-dimethylbut-2-yl ester
##MOLFORM=C8H16O2
##CAS REGISTRY NO=616-51-3
##MP= -300
##BP= -300
##MW= 144
##$RETENTION INDEX=881
##$CONDENSED SPECTRUM=NO
##NPOINTS= 44
##XYDATA=(XY..XY) 1 
    15          5
    26          2
    27         21
    28         10
    29         27
    36         11
    38          5
    39         46
    40         14
    41        203
    42         64
    43        999
    44         32
    45         54
    53         17
    54          4
    55         52
    56         66
    57        414
    58         21
    59          5
    60          3
    61         19
    65          2
    67         15
    68         18
    69        282
    70         39
    71          9
    72          2
    73          2
    83          3
    84        118
    85         57
    86         15
    87        676
    88         87
    89        208
    90         10
   100         83
   101         32
   102          2
   129         25
   130          2