##TITLE=Library Entry 6237
##JCAMP-DX=Revision 4.10 
##DATA TYPE=MASS SPECTRUM
##SAMPLE DESCRIPTION=Exported from NIST MS Search
##NAMES=HP
##CAS NAME=3-Pentanethiol
##MOLFORM=C5H12S
##CAS REGISTRY NO=616-31-9
##MP= -300
##BP= -300
##MW= 104
##$RETENTION INDEX=758
##$CONDENSED SPECTRUM=NO
##NPOINTS= 67
##XYDATA=(XY..XY) 1 
     2          4
    12          1
    13          3
    14         10
    15         61
    16          2
    25          2
    26         41
    27        351
    28         48
    29        304
    30          8
    32          9
    33         24
    34         14
    35         18
    36          1
    37          9
    38         24
    39        252
    40         29
    41        855
    42        173
    43        999
    44         34
    45        151
    46         28
    47        415
    48          9
    49         22
    50         11
    51         15
    52          5
    53         30
    54          7
    55        264
    56         14
    57         10
    58         32
    59         36
    60         15
    61         43
    62          5
    63          5
    64          1
    65          3
    66          1
    67          5
    68          2
    69         20
    70         68
    71        368
    72         21
    73         21
    74        127
    75        520
    76         27
    77         23
    78          1
    87          1
    89          1
   101          1
   102          1
   103          1
   104        404
   105         25
   106         19