##TITLE=Library Entry 54653
##JCAMP-DX=Revision 4.10 
##DATA TYPE=MASS SPECTRUM
##SAMPLE DESCRIPTION=Japan AIST/NIMC Database- Spectrum MS-NW-4213
##NAMES=HP
##CAS NAME=2-Pyrrolidinone
##MOLFORM=C4H7NO
##CAS REGISTRY NO=616-45-5
##MP= -300
##BP= -300
##MW= 85
##$RETENTION INDEX=1076
##$CONDENSED SPECTRUM=NO
##NPOINTS= 45
##XYDATA=(XY..XY) 1 
    12          1
    13          3
    14         14
    15         29
    16          2
    17          1
    18          3
    24          2
    25          9
    26         65
    27        160
    28        454
    29        149
    30        697
    31         10
    32          3
    36          2
    37         11
    38         16
    39         93
    40        134
    41        617
    42        738
    43         27
    44         21
    50          1
    51          6
    52         14
    53          7
    54         21
    55         38
    56        114
    57         15
    58          2
    66          5
    67          2
    68          2
    69          1
    70          1
    82          1
    83          3
    84        193
    85        999
    86         55
    87          3