##TITLE=Library Entry 90753
##JCAMP-DX=Revision 4.10 
##DATA TYPE=MASS SPECTRUM
##SAMPLE DESCRIPTION=Exported from NIST MS Search
##NAMES=HP
##CAS NAME=2,4-Imidazolidinedione, 1-methyl-
##MOLFORM=C4H6N2O2
##CAS REGISTRY NO=616-04-6
##MP= -300
##BP= -300
##MW= 114
##$RETENTION INDEX=0
##$CONDENSED SPECTRUM=NO
##NPOINTS= 10
##XYDATA=(XY..XY) 1 
    41         50
    42        380
    43        390
    44         10
    55         10
    70         30
    71         30
    86         40
   114        999
   115         70