##TITLE=Library Entry 60859
##JCAMP-DX=Revision 4.10 
##DATA TYPE=MASS SPECTRUM
##SAMPLE DESCRIPTION=Japan AIST/NIMC Database- Spectrum MS-NW-2363
##NAMES=HP
##CAS NAME=Benzylmalonic acid
##MOLFORM=C10H10O4
##CAS REGISTRY NO=616-75-1
##MP= -300
##BP= -300
##MW= 194
##$RETENTION INDEX=0
##$CONDENSED SPECTRUM=NO
##NPOINTS= 89
##XYDATA=(XY..XY) 1 
    12          5
    14          1
    15          2
    16         16
    17          3
    18         10
    26          9
    27         67
    28         10
    29          5
    31          3
    32          2
    37          8
    38         16
    39         86
    40          6
    41         13
    42          4
    43          6
    44        117
    45          8
    46          1
    49          6
    50         68
    51        177
    52         47
    53         13
    54          6
    55         37
    56          1
    60          2
    61          7
    62         16
    63         52
    64          9
    65        109
    66         12
    73          6
    74         24
    75         19
    76         23
    77        201
    78        247
    79         80
    80          6
    85          1
    86          2
    87          3
    88          1
    89         24
    90          9
    91        999
    92         80
    93          3
    94          2
    98          2
    99          1
   101          4
   102         34
   103        230
   104        602
   105        175
   106         12
   107         15
   108          2
   115          4
   116          2
   117          1
   119          2
   120          5
   121          1
   129          1
   130          6
   131        181
   132        278
   133         38
   134          3
   135          1
   146          1
   147         53
   148        115
   149         21
   150        332
   151         32
   152          4
   158          1
   159          1
   194         23
   195          3