##TITLE=Library Entry 49546
##JCAMP-DX=Revision 4.10 
##DATA TYPE=MASS SPECTRUM
##SAMPLE DESCRIPTION=Chemical Concepts
##NAMES=HP
##CAS NAME=1H-Pyrrole, 3-methyl-
##MOLFORM=C5H7N
##CAS REGISTRY NO=616-43-3
##MP= -300
##BP= -300
##MW= 81
##$RETENTION INDEX=858
##$CONDENSED SPECTRUM=NO
##NPOINTS= 31
##XYDATA=(XY..XY) 1 
    29          8
    30          5
    36          5
    37         22
    38         45
    39         91
    40         70
    41         54
    42          6
    48          5
    49         30
    50        112
    51        135
    52        154
    53        395
    54         51
    55          6
    61          1
    62          2
    63          3
    64          3
    65          4
    66          2
    74          1
    75          5
    76          4
    78         74
    80        999
    81        736
    82         44
    83          1