##TITLE=Library Entry 553
##JCAMP-DX=Revision 4.10 
##DATA TYPE=MASS SPECTRUM
##SAMPLE DESCRIPTION=COMPAGNIE FRANCAISE DE RAFFINAGE, FRANCE.
##NAMES=HP
##CAS NAME=2-Butanone, 1-chloro-
##MOLFORM=C4H7ClO
##CAS REGISTRY NO=616-27-3
##MP= -300
##BP= -300
##MW= 106
##$RETENTION INDEX=757
##$CONDENSED SPECTRUM=NO
##NPOINTS= 62
##XYDATA=(XY..XY) 1 
    27        362
    28        110
    29        999
    30         30
    31          8
    35          4
    36         15
    37         11
    38         16
    39         40
    40          6
    41         50
    42        136
    43        151
    44         20
    45          2
    46          1
    47          6
    48          5
    49        130
    50         19
    51         47
    52          4
    53          4
    54          6
    55         20
    56         11
    57        993
    58         42
    59          3
    60          2
    61          3
    62          1
    63          6
    64          1
    65          2
    67          1
    68          0
    69          3
    70          5
    71         17
    72          4
    73          1
    75          1
    76         10
    77         92
    78          6
    79         30
    80          1
    81          1
    82          0
    83          1
    84          1
    85          1
    91          5
    92          0
    93          1
   105          1
   106         59
   107          3
   108         19
   109          1