##TITLE=Library Entry 1799
##JCAMP-DX=Revision 4.10 
##DATA TYPE=MASS SPECTRUM
##SAMPLE DESCRIPTION=Chemical Concepts
##NAMES=HP
##CAS NAME=2,5-Furandione, 3-methyl-
##MOLFORM=C5H4O3
##CAS REGISTRY NO=616-02-4
##MP= -300
##BP= -300
##MW= 112
##$RETENTION INDEX=949
##$CONDENSED SPECTRUM=NO
##NPOINTS= 48
##XYDATA=(XY..XY) 1 
    26         38
    27         17
    28         29
    29         19
    30          0
    31          0
    33         10
    34         13
    36         27
    37        141
    38        201
    39        999
    40        741
    41         25
    42          9
    43          6
    44         17
    45         14
    46          0
    48          3
    49          5
    50          4
    51          0
    52          6
    53         44
    54          3
    55          5
    56          0
    64          0
    65          0
    66          8
    67         20
    68        807
    69         36
    70          2
    71          0
    81          0
    82          0
    83          0
    84          0
    85          0
    86          0
    91          0
    96          4
    97          0
   112         92
   113         12
   114          0