##TITLE=Library Entry 39756
##JCAMP-DX=Revision 4.10 
##DATA TYPE=MASS SPECTRUM
##SAMPLE DESCRIPTION=Japan AIST/NIMC Database- Spectrum MS-NW-2121
##NAMES=HP
##CAS NAME=Ethanamine, N-ethyl-N-methyl-
##MOLFORM=C5H13N
##CAS REGISTRY NO=616-39-7
##MP= -300
##BP= -300
##MW= 87
##$RETENTION INDEX=604
##$CONDENSED SPECTRUM=NO
##NPOINTS= 36
##XYDATA=(XY..XY) 1 
    14          2
    15         46
    26         12
    27         72
    28         63
    29         95
    30        100
    31          2
    32          3
    39          5
    40          6
    41         21
    42        129
    43         37
    44        602
    45         15
    51          1
    52          2
    53          1
    54         10
    55          5
    56         64
    57         26
    58        143
    59          6
    68          1
    70         19
    71          9
    72        999
    73         53
    74          1
    84          1
    85          5
    86        110
    87        244
    88         13