##TITLE=Library Entry 1117
##JCAMP-DX=Revision 4.10 
##DATA TYPE=MASS SPECTRUM
##SAMPLE DESCRIPTION=Japan AIST/NIMC Database- Spectrum MS-NW-1528
##NAMES=HP
##CAS NAME=1,3-Diamino-2-propanol
##MOLFORM=C3H10N2O
##CAS REGISTRY NO=616-29-5
##MP= -300
##BP= -300
##MW= 90
##$RETENTION INDEX=0
##$CONDENSED SPECTRUM=NO
##NPOINTS= 43
##XYDATA=(XY..XY) 1 
    14          3
    15         52
    16          8
    17         13
    18        100
    19          2
    26          4
    27         13
    28        128
    29         25
    30        999
    31         34
    32         11
    38          2
    39          5
    40          7
    41         20
    42        183
    43         55
    44         66
    45         24
    46          1
    47          9
    52          2
    53          1
    54          8
    55         14
    56         47
    57          7
    58          8
    59         14
    60        314
    61         37
    62          1
    68          1
    69          2
    70          5
    71        102
    72         79
    73         19
    74          2
    75          1
    91          2