##TITLE=Library Entry 868
##JCAMP-DX=Revision 4.10 
##DATA TYPE=MASS SPECTRUM
##SAMPLE DESCRIPTION=Japan AIST/NIMC Database- Spectrum MS-NW-2855
##NAMES=HP
##CAS NAME=3-Amino-1,2-propanediol
##MOLFORM=C3H9NO2
##CAS REGISTRY NO=616-30-8
##MP= -300
##BP= -300
##MW= 91
##$RETENTION INDEX=0
##$CONDENSED SPECTRUM=NO
##NPOINTS= 56
##XYDATA=(XY..XY) 1 
    12          1
    13          1
    14          5
    15         58
    16          9
    17         76
    18        379
    19          6
    25          1
    26          7
    27         21
    28         97
    29         42
    30        999
    31         61
    32          5
    37          1
    38          2
    39          7
    40          5
    41         18
    42        156
    43        100
    44        108
    45         13
    46          4
    47          1
    48         17
    51          2
    52          2
    53          1
    54          6
    55          7
    56         18
    57          9
    58          9
    59          9
    60        165
    61         21
    62          5
    67          1
    68          2
    69          1
    70          5
    71          2
    72          9
    73         28
    74          4
    75          2
    83          2
    84          2
    85          1
    86          1
    87          2
    89          1
    91          1