##TITLE=Library Entry 20460
##JCAMP-DX=Revision 4.10 
##DATA TYPE=MASS SPECTRUM
##SAMPLE DESCRIPTION=Japan AIST/NIMC Database- Spectrum MS-NW-4357
##NAMES=HP
##CAS NAME=Butane, 1,2-dichloro-
##MOLFORM=C4H8Cl2
##CAS REGISTRY NO=616-21-7
##MP= -300
##BP= -300
##MW= 126
##$RETENTION INDEX=801
##$CONDENSED SPECTRUM=NO
##NPOINTS= 79
##XYDATA=(XY..XY) 1 
    13          1
    14          5
    15         16
    24          1
    25          7
    26         68
    27        323
    28         25
    29        274
    30          6
    35         11
    36         24
    37         22
    38         38
    39        271
    40         27
    41        909
    42         44
    43          3
    44          2
    45          1
    47          7
    48          8
    49        132
    50         44
    51         48
    52         13
    53        110
    54        189
    55        999
    56         58
    57          3
    59          1
    60          9
    61         92
    62        323
    63         99
    64        103
    65         22
    69          1
    72          1
    73         11
    74          1
    75        108
    76        414
    77        972
    78        162
    79        304
    80          9
    83          9
    84          1
    85          6
    87          2
    88          4
    89         35
    90        385
    91         73
    92        124
    93         20
    94          1
    95          2
    96         12
    97         35
    98          9
    99         22
   100          2
   101          4
   109          2
   110          2
   111         11
   112          1
   113          7
   115          1
   124          3
   125          3
   126          8
   127          2
   128          5
   130          1