##TITLE=Library Entry 56030
##JCAMP-DX=Revision 4.10 
##DATA TYPE=MASS SPECTRUM
##SAMPLE DESCRIPTION=Tox21 Consortium/NIST Mass Spectrometry Data Center, 20
12
##NAMES=HP
##CAS NAME=Trimecaine
##MOLFORM=C15H24N2O
##CAS REGISTRY NO=616-68-2
##MP= -300
##BP= -300
##MW= 248
##$RETENTION INDEX=1971
##$CONDENSED SPECTRUM=NO
##NPOINTS= 94
##XYDATA=(XY..XY) 1 
    15          1
    26          1
    27          9
    28         15
    29         28
    30         65
    31          1
    39          8
    40          2
    41         10
    42         28
    43         12
    44          4
    50          1
    51          4
    52          3
    53          4
    54          4
    55          3
    56         30
    57         12
    58         77
    59          3
    63          3
    64          1
    65          9
    66          2
    67          1
    68          1
    70          4
    71          2
    72         34
    73          2
    75          1
    76          1
    77         12
    78          4
    79          8
    80          1
    84         10
    85          6
    86        999
    87         57
    88          2
    89          2
    90          2
    91         30
    92          4
    93          3
    94          1
   100          1
   102          2
   103          4
   104          3
   105          5
   106          3
   107          2
   109          1
   112          1
   115          7
   116          3
   117          8
   118          7
   119         13
   120          7
   121          1
   128          1
   130          3
   131          3
   132          9
   133          7
   134         35
   135          8
   136          1
   144          1
   145          1
   146          8
   147          2
   148          6
   149          1
   158          1
   159          1
   160          2
   161          7
   162          4
   163          1
   173          1
   174          1
   176          1
   177          2
   233          1
   247          1
   248         15
   249          3