##TITLE=Library Entry 38837
##JCAMP-DX=Revision 4.10 
##DATA TYPE=MASS SPECTRUM
##SAMPLE DESCRIPTION=Japan AIST/NIMC Database- Spectrum MS-IW-1764
##NAMES=HP
##CAS NAME=5H-Tetrazole-5-thione, 1-[2-(dimethylamino)ethyl]-1,2-dihydro-
##MOLFORM=C5H11N5S
##CAS REGISTRY NO=61607-68-9
##MP= -300
##BP= -300
##MW= 173
##$RETENTION INDEX=0
##$CONDENSED SPECTRUM=NO
##NPOINTS= 58
##XYDATA=(XY..XY) 1 
    14          1
    15         14
    26          2
    27         11
    28         27
    29         10
    30         27
    32          3
    33          1
    34          1
    39          1
    40          5
    41         13
    42        106
    43         51
    44         37
    45          4
    46          3
    47          2
    52          1
    53          2
    54          6
    55          9
    56        100
    57         23
    58        889
    59         35
    60          7
    61          1
    64          2
    65          5
    66          1
    67          1
    68          3
    69         14
    70         34
    71        999
    72         70
    73          2
    74          2
    76          3
    83          3
    84          1
    85          1
    86          7
    88          1
    97          1
   100          1
   101          1
   102          1
   110          2
   111          2
   112          4
   129         11
   130          1
   171          3
   173         17
   174          1