##TITLE=Library Entry 34952
##JCAMP-DX=Revision 4.10 
##DATA TYPE=MASS SPECTRUM
##SAMPLE DESCRIPTION=V.G.Zaikin, TIPS, Russian Acad. Sci.
##NAMES=HP
##CAS NAME=3-n-Butylthiane, S,S-dioxide
##MOLFORM=C9H18O2S
##CAS REGISTRY NO=61639-17-6
##MP= -300
##BP= -300
##MW= 190
##$RETENTION INDEX=0
##$CONDENSED SPECTRUM=NO
##NPOINTS= 39
##XYDATA=(XY..XY) 1 
    53         70
    54         90
    55        740
    56        720
    57         20
    67        170
    68        130
    69        999
    70        390
    71        110
    77         40
    79         30
    81        120
    82         80
    83        540
    84        140
    85         60
    95        100
    96         40
    97        130
    98        100
   109         40
   110         10
   111         30
   120         40
   121         10
   123         40
   124        110
   125         50
   126         20
   133         50
   134         20
   161         10
   173        520
   174         60
   175         40
   190        110
   191         12
   192          5