##TITLE=Library Entry 74607
##JCAMP-DX=Revision 4.10 
##DATA TYPE=MASS SPECTRUM
##SAMPLE DESCRIPTION=V.G.Zaikin, TIPS, Russian Acad. Sci.
##NAMES=HP
##CAS NAME=3-Cyclohexylthiane
##MOLFORM=C11H20S
##CAS REGISTRY NO=61639-13-2
##MP= -300
##BP= -300
##MW= 184
##$RETENTION INDEX=0
##$CONDENSED SPECTRUM=NO
##NPOINTS= 81
##XYDATA=(XY..XY) 1 
    38          4
    39        166
    40         32
    41        402
    42         25
    43         35
    44         20
    45         93
    46         27
    47         87
    49          3
    50          8
    51         25
    52         12
    53         81
    54         70
    55        332
    56         21
    57          9
    58          8
    59         94
    60         36
    61         51
    62          5
    63          8
    65         31
    66         19
    67        324
    68         84
    69         62
    71         14
    72          5
    73         29
    74         17
    75          8
    77         35
    78         12
    79         65
    80         31
    81        172
    82         53
    83         55
    84          5
    85         27
    86         25
    87        587
    88         87
    89         48
    91         18
    93         32
    94         16
    95         71
    96         41
    97         16
    99         20
   100         27
   101        999
   102         87
   103         59
   105          2
   107         20
   108         18
   109         54
   110          9
   113          9
   114         12
   115          9
   121         12
   122          9
   123          5
   141        194
   142         18
   143         10
   151         10
   155          5
   156          3
   183         10
   184        236
   185         31
   186         12
   187          1