##TITLE=Library Entry 91919
##JCAMP-DX=Revision 4.10 
##DATA TYPE=MASS SPECTRUM
##SAMPLE DESCRIPTION=D.HENNEBERG, MAX-PLANCK INSTITUTE, MULHEIM, WEST GERMAN
Y
##NAMES=HP
##CAS NAME=Di-tert-Butyl ether
##MOLFORM=C8H18O
##CAS REGISTRY NO=6163-66-2
##MP= -300
##BP= -300
##MW= 130
##$RETENTION INDEX=0
##$CONDENSED SPECTRUM=NO
##NPOINTS= 37
##XYDATA=(XY..XY) 1 
    25         11
    26          4
    27         46
    28         34
    29        144
    30          4
    31         45
    32          0
    38          5
    39         68
    40         13
    41        293
    42         15
    43         49
    44          1
    45          1
    47          3
    48          2
    49          8
    50          8
    51          4
    52          1
    53          8
    54          3
    55         32
    56         82
    57        990
    58         50
    59        838
    60         28
    61          1
    71          0
    73          2
    85          6
   115        999
   116          7
   117          0