##TITLE=Library Entry 6104
##JCAMP-DX=Revision 4.10 
##DATA TYPE=MASS SPECTRUM
##SAMPLE DESCRIPTION=V.G.Zaikin, Petrochem. Synth. Inst., Moscow
##NAMES=HP
##CAS NAME=1-Bromo-4-bromomethyldecane
##MOLFORM=C11H22Br2
##CAS REGISTRY NO=61639-11-0
##MP= -300
##BP= -300
##MW= 312
##$RETENTION INDEX=0
##$CONDENSED SPECTRUM=NO
##NPOINTS= 95
##XYDATA=(XY..XY) 1 
    36          9
    37         12
    38         26
    39        245
    40         69
    41        972
    42        155
    43        999
    44         87
    45          9
    50         11
    51         45
    52         12
    53        207
    54         88
    55        871
    56        156
    57        885
    58         42
    63          8
    65         29
    66         10
    67        188
    68         45
    69        641
    70         89
    71        509
    72         25
    77         25
    78          6
    79         31
    80         12
    81        141
    82         32
    83        391
    84         39
    85        330
    86         21
    87          6
    91         22
    93         20
    95         75
    96         16
    97        359
    98         39
    99         37
   100          6
   101          6
   103          6
   104          7
   105         12
   107         45
   108         11
   109         71
   111         84
   112          8
   113          6
   115          6
   119         23
   120          6
   121         39
   123         28
   125         13
   131          7
   133         41
   134         11
   135         81
   136         15
   137         37
   147         18
   148         43
   149         69
   150         47
   151         45
   153         39
   154          9
   161         32
   162         16
   163         91
   164         18
   165         49
   166          8
   177         68
   179         65
   180          9
   191         45
   193         28
   232          7
   233         41
   234          8
   235         48
   236          6
   312          2
   314          4
   316          2