##TITLE=Library Entry 7977
##JCAMP-DX=Revision 4.10 
##DATA TYPE=MASS SPECTRUM
##SAMPLE DESCRIPTION=T. Higa, Dep. Mar. Sci., Univ. Ryukyus, Okinawa, Japan
##NAMES=HP
##CAS NAME=1,2-Dioxin-3-acetic acid, 6-hexadecyl-3,6-dihydro-6-methoxy-, met
hyl ester
##MOLFORM=C24H44O5
##CAS REGISTRY NO=61656-50-6
##MP= -300
##BP= -300
##MW= 412
##$RETENTION INDEX=0
##$CONDENSED SPECTRUM=NO
##NPOINTS= 24
##XYDATA=(XY..XY) 1 
    30        350
    31        250
    43        999
    55        610
    57        890
    69        370
    71        420
    81        190
    83        270
    85        230
    95        220
    97        450
   109        210
   111        290
   113        880
   123        270
   155         90
   170        100
   183         60
   211         90
   267        100
   293        100
   321        280
   380        690