##TITLE=Library Entry 52794
##JCAMP-DX=Revision 4.10 
##DATA TYPE=MASS SPECTRUM
##SAMPLE DESCRIPTION=CONTINENTAL OIL CO., PONCA CITY, OKLA, USA
##NAMES=HP
##CAS NAME=Cyclohexane, 1,1'-(1,4-butanediyl)bis-
##MOLFORM=C16H30
##CAS REGISTRY NO=6165-44-2
##MP= -300
##BP= -300
##MW= 222
##$RETENTION INDEX=1747
##$CONDENSED SPECTRUM=NO
##NPOINTS= 73
##XYDATA=(XY..XY) 1 
    13          0
    14          1
    15          6
    16          0
    26          4
    27         88
    28         42
    29        125
    30          2
    37          5
    38          2
    39         95
    40         20
    41        464
    42         45
    43         65
    44          5
    50          1
    51          5
    52          5
    53         50
    54         82
    55        668
    56         41
    57         19
    58          0
    63          1
    65          9
    66         11
    67        217
    68         43
    69        105
    70          9
    71          5
    77         11
    78          4
    79         19
    80          9
    81         92
    82        751
    83        999
    84         66
    85          3
    91          3
    92          0
    93          2
    94          2
    95         26
    96         93
    97         48
    98          3
   107          0
   108          1
   109         23
   110          8
   111          4
   112          0
   122          0
   123          2
   124          1
   125          1
   136          2
   137          3
   138         19
   139        148
   140         16
   141          0
   151          0
   152          0
   194          0
   221          0
   222         30
   223          5