##TITLE=Library Entry 73193
##JCAMP-DX=Revision 4.10 
##DATA TYPE=MASS SPECTRUM
##SAMPLE DESCRIPTION=A.A.Kutin, Moscow, Russia
##NAMES=HP
##CAS NAME=Thiocarbamic acid, N,N-diethyl-, S-benzothiazol-2-yl ester
##MOLFORM=C12H14N2OS2
##CAS REGISTRY NO=61670-49-3
##MP= -300
##BP= -300
##MW= 266
##$RETENTION INDEX=0
##$CONDENSED SPECTRUM=NO
##NPOINTS= 130
##XYDATA=(XY..XY) 1 
    33          2
    34          2
    35          0
    36          0
    37          6
    38         15
    39         44
    40         11
    41         22
    42        103
    44        368
    45         53
    47          5
    48          0
    50         22
    51         23
    52          9
    53          1
    54          7
    56         70
    57         17
    58         25
    59          5
    60          7
    61          7
    62         14
    63         53
    64         30
    65         11
    66          1
    67          1
    69         93
    70         44
    72        951
    73         31
    74         10
    75         16
    76         15
    77          6
    78         13
    79          1
    81         14
    82         36
    83          8
    84          8
    85          0
    86          1
    87          1
    88          5
    89          1
    90         14
    91          9
    93          7
    94          5
    95         15
    96         15
    97          2
   100        999
   101         55
   102         31
   103          6
   104          1
   105          1
   106          3
   108        126
   109         19
   110          6
   111          0
   112          0
   113          0
   114          0
   115          0
   116          2
   117          0
   118          0
   120          2
   121          6
   122         47
   123          9
   124          3
   125          0
   126          0
   127          0
   128          0
   133          9
   134          4
   135          7
   136          3
   137          0
   138          0
   139          7
   140          4
   141          1
   142          0
   148          0
   149          0
   150          0
   152          0
   160          0
   161          1
   162          4
   163          1
   164          1
   166         75
   167         37
   168         10
   169          3
   170          0
   171          0
   180          3
   181          0
   182          0
   189          0
   192          0
   193          0
   194          3
   195          0
   196          0
   222          1
   224          0
   231          0
   233         43
   234          6
   235          2
   236          0
   264          0
   266         35
   267          5
   268          3
   269          0