##TITLE=Library Entry 56208
##JCAMP-DX=Revision 4.10 
##DATA TYPE=MASS SPECTRUM
##SAMPLE DESCRIPTION=Dr. Jiri Zamecnik, DCIEM, North York, Canada, GP Librar
y
##NAMES=HP
##CAS NAME=Crotetamide
##MOLFORM=C12H22N2O2
##CAS REGISTRY NO=6168-76-9
##MP= -300
##BP= -300
##MW= 226
##$RETENTION INDEX=1675
##$CONDENSED SPECTRUM=NO
##NPOINTS= 38
##XYDATA=(XY..XY) 1 
    54          8
    55         16
    56         85
    57          5
    58         48
    68         12
    69        437
    70         40
    71          4
    72         93
    73          4
    82          2
    83          1
    84         38
    85          6
    86        999
    87         66
    96          2
    98          4
   100         43
   101          2
   110          1
   112          2
   114          8
   115         31
   116          1
   124          2
   129         11
   138          3
   152          1
   153          3
   154        196
   155         20
   157          5
   166          3
   181         25
   182         12
   211          2