##TITLE=Library Entry 52230
##JCAMP-DX=Revision 4.10 
##DATA TYPE=MASS SPECTRUM
##SAMPLE DESCRIPTION=Chemical Concepts
##NAMES=HP
##CAS NAME=2-Butenoic acid, 2-methyl-, 1-methylethyl ester, (Z)-
##MOLFORM=C8H14O2
##CAS REGISTRY NO=61692-76-0
##MP= -300
##BP= -300
##MW= 142
##$RETENTION INDEX=0
##$CONDENSED SPECTRUM=NO
##NPOINTS= 87
##XYDATA=(XY..XY) 1 
    25          5
    26         36
    27        269
    28         57
    29        212
    30          5
    31         15
    32          1
    34          1
    36          1
    37          6
    38         14
    39        204
    40         28
    41        235
    42         51
    43        552
    44         16
    45         35
    46          1
    47          1
    49          2
    50         13
    51         22
    52         11
    53         83
    54        102
    55        856
    56         92
    57         42
    58         11
    59        237
    60          9
    61          0
    63          0
    65          0
    67          2
    69         30
    70          2
    71          5
    72         10
    73         14
    74          1
    75          1
    77          0
    78          0
    79          0
    80          0
    81          9
    82        194
    83        999
    84        115
    85        181
    86          6
    87          4
    91          1
    95          0
    96          2
    97         10
    98          1
    99         29
   100        302
   101        310
   102         18
   103          1
   109         14
   110          0
   111          0
   112          0
   113          5
   114          1
   117          4
   119          2
   121          0
   122          0
   124          4
   125          1
   126          0
   127        267
   128         18
   129          2
   130          0
   140          0
   141         12
   142        118
   143         11
   144          1