##TITLE=Library Entry 20617
##JCAMP-DX=Revision 4.10 
##DATA TYPE=MASS SPECTRUM
##SAMPLE DESCRIPTION=NIST Mass Spectrometry Data Center
##NAMES=HP
##CAS NAME=2-Butenoic acid, 2-methyl-, 2-methyl-2-propenyl ester, (Z)-
##MOLFORM=C9H14O2
##CAS REGISTRY NO=61692-78-2
##MP= -300
##BP= -300
##MW= 154
##$RETENTION INDEX=1069
##$CONDENSED SPECTRUM=NO
##NPOINTS= 73
##XYDATA=(XY..XY) 1 
    26          6
    27         91
    28         22
    29        134
    30          3
    31          3
    37          4
    38         12
    39        187
    40         24
    41         46
    42          8
    43         59
    44          4
    45          8
    49          1
    50         14
    51         24
    52         12
    53        109
    54         81
    55        999
    56         74
    57         13
    58          1
    59          2
    65          1
    66          1
    67         25
    68         12
    69         18
    70          3
    71         28
    72          2
    73          2
    74          1
    77          2
    79          5
    80          3
    81         36
    82        125
    83        960
    84         56
    85          9
    86          1
    91          3
    93         24
    94          3
    95          5
    96          1
    97          4
    98          7
    99         10
   100          5
   101          6
   107          4
   108          9
   109         29
   110          3
   111         28
   112          4
   113          2
   121         14
   122          1
   123          1
   125         13
   126          1
   135          1
   136          2
   137          1
   139         16
   140          1
   154          5