##TITLE=Library Entry 84273
##JCAMP-DX=Revision 4.10 
##DATA TYPE=MASS SPECTRUM
##SAMPLE DESCRIPTION=ORMSBG,10(11)992(1975); H. BUDZIKIEWICZ
##NAMES=HP
##CAS NAME=1-Benzoxepin, 2,3,4,5-tetrahydro-
##MOLFORM=C10H12O
##CAS REGISTRY NO=6169-78-4
##MP= -300
##BP= -300
##MW= 148
##$RETENTION INDEX=0
##$CONDENSED SPECTRUM=NO
##NPOINTS= 49
##XYDATA=(XY..XY) 1 
    41         70
    43         40
    45         20
    50         50
    51        140
    52         70
    53         30
    55         40
    62         20
    63         70
    64         40
    65         90
    66         20
    73         70
    74         10
    75         20
    76         20
    77        200
    78        270
    79        150
    80         10
    89         60
    90         20
    91        360
    92         50
    93         10
    94         70
   103         40
   104         20
   105        220
   106        110
   107        999
   108         90
   115        120
   116         20
   117         40
   118         20
   119        260
   120         80
   121         10
   130         20
   131         40
   132         30
   133        570
   134         70
   147         70
   148        830
   149        100
   150         10