##TITLE=Library Entry 84430
##JCAMP-DX=Revision 4.10 
##DATA TYPE=MASS SPECTRUM
##SAMPLE DESCRIPTION=Dr. Jiri Zamecnik, DCIEM, North York, Canada, GP Librar
y
##NAMES=HP
##CAS NAME=4-(2',3'-Dihydroxypropoxy)phenylacetamide
##MOLFORM=C11H15NO4
##CAS REGISTRY NO=61698-76-8
##MP= -300
##BP= -300
##MW= 225
##$RETENTION INDEX=0
##$CONDENSED SPECTRUM=NO
##NPOINTS= 34
##XYDATA=(XY..XY) 1 
    43        115
    44        206
    51        108
    52         58
    57         93
    63         55
    65         46
    77        302
    78         98
    79         80
    89        135
    90        115
    91         99
   107        999
   108        227
   109         22
   120         16
   121         37
   122         20
   131        125
   133         17
   134         34
   149         56
   151        205
   152         61
   164         55
   165         14
   178         10
   181        610
   182         64
   190          6
   194         10
   225        435
   226         94