##TITLE=Library Entry 11285
##JCAMP-DX=Revision 4.10 
##DATA TYPE=MASS SPECTRUM
##SAMPLE DESCRIPTION=Chuck Anderson, Aldrich Chemical Co.
##NAMES=HP
##CAS NAME=3,4-Diisopropoxy-3-cyclobutene-1,2-dione
##MOLFORM=C10H14O4
##CAS REGISTRY NO=61699-62-5
##MP= -300
##BP= -300
##MW= 198
##$RETENTION INDEX=0
##$CONDENSED SPECTRUM=NO
##NPOINTS= 42
##XYDATA=(XY..XY) 1 
    15         10
    18          0
    26         11
    27        191
    28         44
    29         26
    30          3
    31          5
    38          7
    39         81
    40         19
    41        245
    42         48
    43        999
    44         41
    45         28
    54          3
    56         11
    57         57
    58         83
    59         15
    68         16
    69         27
    71         33
    72         17
    82         12
    85         60
    86        274
    87         26
    99          8
   100         13
   113         15
   114        675
   115        164
   116         12
   127         36
   128         19
   141         20
   156        220
   157         17
   198        190
   199         19