##TITLE=Library Entry 52412
##JCAMP-DX=Revision 4.10 
##DATA TYPE=MASS SPECTRUM
##SAMPLE DESCRIPTION=Chuck Anderson, Aldrich Chemical Co.
##NAMES=HP
##CAS NAME=2-Butenoic acid, 2-methyl-, propyl ester, (E)-
##MOLFORM=C8H14O2
##CAS REGISTRY NO=61692-83-9
##MP= -300
##BP= -300
##MW= 142
##$RETENTION INDEX=1039
##$CONDENSED SPECTRUM=NO
##NPOINTS= 93
##XYDATA=(XY..XY) 1 
    13          0
    14          0
    15          4
    16          0
    19          0
    24          0
    25          0
    26         18
    27        268
    28         59
    29        232
    30          8
    31         16
    32          0
    36          0
    37          2
    38          9
    39        151
    40         18
    41        124
    42         27
    43        130
    44          6
    45         24
    46          0
    47          0
    49          1
    50         10
    51         19
    52         11
    53         75
    54         71
    55        665
    56         56
    57         26
    58          5
    59         15
    60          1
    61          0
    62          0
    63          0
    65          0
    66          0
    67          2
    68          0
    69         21
    70          2
    71          5
    72          5
    73         11
    74          2
    75          0
    77          0
    79          0
    80          0
    81          9
    82        134
    83        999
    84         59
    85        122
    86          5
    87          6
    88          0
    89          0
    93          0
    95          1
    96          1
    97          2
    98          2
    99         20
   100        242
   101        411
   102         23
   103          2
   104          0
   109          9
   110          0
   111          0
   112          0
   113         10
   114          1
   115          0
   123          0
   124          1
   125          2
   126          0
   127         97
   128          7
   129          0
   141          0
   142         25
   143          3
   144          0