##TITLE=Library Entry 11309
##JCAMP-DX=Revision 4.10 
##DATA TYPE=MASS SPECTRUM
##SAMPLE DESCRIPTION=A.Pleshkova, Nesmeyanov Inst.Org.Elem.Cpds, Moscow
##NAMES=HP
##CAS NAME=2,3-Butanedione, mono(O-methyloxime)
##MOLFORM=C5H9NO2
##CAS REGISTRY NO=617-32-3
##MP= -300
##BP= -300
##MW= 115
##$RETENTION INDEX=0
##$CONDENSED SPECTRUM=NO
##NPOINTS= 16
##XYDATA=(XY..XY) 1 
    27         24
    28         35
    29         49
    30         12
    31         12
    40         24
    41         66
    42        261
    43        999
    44         42
    45         12
    72        247
    73         21
   115        365
   116         32
   117          6