##TITLE=Library Entry 15099
##JCAMP-DX=Revision 4.10 
##DATA TYPE=MASS SPECTRUM
##SAMPLE DESCRIPTION=James Little,Eastman Chem.Co.,Kingsport,TN
##NAMES=HP
##CAS NAME=Ethyl hydrogen oxalate
##MOLFORM=C4H6O4
##CAS REGISTRY NO=617-37-8
##MP= -300
##BP= -300
##MW= 118
##$RETENTION INDEX=0
##$CONDENSED SPECTRUM=NO
##NPOINTS= 20
##XYDATA=(XY..XY) 1 
    12         20
    14         27
    15         28
    16         36
    26         80
    27        258
    28        901
    29        430
    31        562
    32         75
    42         22
    43         84
    44        999
    45        253
    46         20
    47         73
    56         61
    59         11
    73         36
    74        101