##TITLE=Library Entry 30515
##JCAMP-DX=Revision 4.10 
##DATA TYPE=MASS SPECTRUM
##SAMPLE DESCRIPTION=NIST Mass Spectrometry Data Center
##NAMES=HP
##CAS NAME=Butanedioic acid, methylene-, dimethyl ester
##MOLFORM=C7H10O4
##CAS REGISTRY NO=617-52-7
##MP= -300
##BP= -300
##MW= 158
##$RETENTION INDEX=1097
##$CONDENSED SPECTRUM=NO
##NPOINTS= 86
##XYDATA=(XY..XY) 1 
    14          5
    15        220
    16          3
    25          2
    26         14
    27         53
    28         29
    29        143
    30         18
    31         28
    32          2
    33          3
    34          3
    36          1
    37         25
    38         73
    39        432
    40        268
    41        270
    42         60
    43         43
    44         10
    45         86
    46          2
    47          4
    48          2
    49          1
    50          5
    51          6
    52          3
    53         72
    54         50
    55        243
    56         29
    57         11
    59        999
    60         22
    61          6
    65          1
    66          9
    67        102
    68        159
    69        446
    70         24
    71        161
    72         21
    73          3
    74          9
    75          6
    81         18
    82         44
    83         93
    84         12
    85         20
    86          4
    87         11
    88          2
    91          1
    95         36
    96          3
    97          2
    98         54
    99        487
   100         33
   101          5
   102          1
   111          1
   112          1
   113        210
   114         14
   115         13
   116          3
   126        537
   127        748
   128         57
   129          7
   130         96
   131          6
   132          1
   143         84
   144          6
   145          1
   157          2
   158         16
   159          2
   160          1