##TITLE=Library Entry 49600
##JCAMP-DX=Revision 4.10 
##DATA TYPE=MASS SPECTRUM
##SAMPLE DESCRIPTION=AP-2100
##NAMES=HP
##CAS NAME=1H-Pyrrole, 1-ethyl-
##MOLFORM=C6H9N
##CAS REGISTRY NO=617-92-5
##MP= -300
##BP= -300
##MW= 95
##$RETENTION INDEX=821
##$CONDENSED SPECTRUM=NO
##NPOINTS= 64
##XYDATA=(XY..XY) 1 
    12          3
    13          4
    14         10
    15         36
    16          0
    17          0
    18          0
    24          1
    25         10
    26         86
    27        237
    28        148
    29         88
    30          4
    31          0
    36          4
    37         47
    38         96
    39        255
    40        140
    41        176
    42         27
    43          1
    44          0
    46          1
    47          2
    48          3
    49          8
    50         43
    51         65
    52         50
    53        200
    54         24
    55          3
    56          4
    57          0
    60          0
    61          1
    62          3
    63          8
    64         10
    65         27
    66         48
    67        271
    68         44
    69          3
    70          0
    74          0
    75          1
    76          3
    77          4
    78         51
    79         19
    80        999
    81         58
    82          1
    90          0
    91          0
    92          9
    93         30
    94        102
    95        693
    96         49
    97          1