##TITLE=Library Entry 65918
##JCAMP-DX=Revision 4.10 
##DATA TYPE=MASS SPECTRUM
##SAMPLE DESCRIPTION=Chuck Anderson, Aldrich Chemical Co.
##NAMES=HP
##CAS NAME=2-Furancarbonitrile
##MOLFORM=C5H3NO
##CAS REGISTRY NO=617-90-3
##MP= -300
##BP= -300
##MW= 93
##$RETENTION INDEX=822
##$CONDENSED SPECTRUM=NO
##NPOINTS= 39
##XYDATA=(XY..XY) 1 
    13          2
    14          6
    24          3
    25          8
    26         17
    27          5
    28         10
    29         76
    30          0
    32          2
    36         20
    37        144
    38        224
    39        160
    40          7
    41          9
    42         49
    43          1
    46         13
    48          4
    49         11
    50         11
    51         13
    52          4
    53          5
    54         20
    62         25
    63         62
    64        511
    65        301
    66         76
    67         14
    74          2
    75          5
    76          0
    92          0
    93        999
    94         51
    95          3