##TITLE=Library Entry 73029
##JCAMP-DX=Revision 4.10 
##DATA TYPE=MASS SPECTRUM
##SAMPLE DESCRIPTION=Japan AIST/NIMC Database- Spectrum MS-IW-5246
##NAMES=HP
##CAS NAME=Pentanedioic acid, 2-methyl-
##MOLFORM=C6H10O4
##CAS REGISTRY NO=617-62-9
##MP= -300
##BP= -300
##MW= 146
##$RETENTION INDEX=0
##$CONDENSED SPECTRUM=NO
##NPOINTS= 80
##XYDATA=(XY..XY) 1 
    14          3
    15          8
    16          1
    17          5
    18         30
    25          1
    26         25
    27        151
    28        146
    29        167
    30         13
    31         41
    37          4
    38          9
    39        103
    40         16
    41        257
    42        247
    43        217
    44         19
    45        165
    46          8
    47          4
    49          2
    50          9
    51         10
    52          5
    53         35
    54         62
    55        611
    56        627
    57         70
    58         70
    59        147
    60        336
    61         16
    62          1
    63          1
    65          1
    66          1
    67          1
    68          9
    69        276
    70         12
    71         14
    72         41
    73        155
    74        251
    75          9
    76          1
    78          1
    79          1
    81          7
    82         54
    83        171
    84         55
    85         91
    86         16
    87        126
    88          5
    89          1
    95          2
    97          1
    98          1
    99         21
   100        999
   101        123
   102         24
   103          1
   109          1
   110          7
   111          1
   113          7
   118          1
   127          3
   128        321
   129         76
   130          6
   146          7
   147          3