##TITLE=Library Entry 30986
##JCAMP-DX=Revision 4.10 
##DATA TYPE=MASS SPECTRUM
##SAMPLE DESCRIPTION=Japan AIST/NIMC Database- Spectrum MS-NW-2268
##NAMES=HP
##CAS NAME=.alpha.-Methyl-D-mannopyranoside
##MOLFORM=C7H14O6
##CAS REGISTRY NO=617-04-9
##MP= -300
##BP= -300
##MW= 194
##$RETENTION INDEX=0
##$CONDENSED SPECTRUM=NO
##NPOINTS= 106
##XYDATA=(XY..XY) 1 
    13          1
    14          9
    15        112
    16          2
    17         19
    18        102
    19          9
    25          1
    26         12
    27         72
    28         63
    29        161
    30         28
    31        224
    32         29
    33         75
    34          1
    37          1
    38          3
    39         29
    40          7
    41         58
    42         73
    43        164
    44         64
    45        182
    46          7
    47         14
    49          1
    50          1
    51          2
    52          2
    53          9
    54         13
    55         80
    56        122
    57        417
    58         23
    59         97
    60        999
    61        404
    62         13
    63          3
    67          2
    68          9
    69         80
    70         65
    71        244
    72         34
    73        488
    74        792
    75        158
    76          8
    77          1
    78          3
    79          3
    80          2
    81          7
    82          2
    83          7
    84          6
    85         89
    86         26
    87         91
    88          9
    89         12
    90          2
    91         14
    95          2
    96          3
    97         55
    98         68
    99         20
   100          4
   101         13
   102          5
   103         36
   104         26
   105          4
   109          3
   110          1
   111          1
   112          3
   113          5
   114          3
   115          7
   116         53
   117          8
   120          5
   121         16
   122          1
   126          3
   127         22
   128          2
   129          1
   131         46
   132          3
   133          9
   134          2
   143          1
   144         34
   145         63
   146          5
   149          1
   163         19
   164          2