##TITLE=Library Entry 21086
##JCAMP-DX=Revision 4.10 
##DATA TYPE=MASS SPECTRUM
##SAMPLE DESCRIPTION=Pu Leung, NIH, Bethesda, MD
##NAMES=HP
##CAS NAME=2-Hydroxyoctanoic acid
##MOLFORM=C8H16O3
##CAS REGISTRY NO=617-73-2
##MP= -300
##BP= -300
##MW= 160
##$RETENTION INDEX=0
##$CONDENSED SPECTRUM=NO
##NPOINTS= 73
##XYDATA=(XY..XY) 1 
    41        477
    42        132
    43        579
    44        146
    45        140
    46         16
    47         16
    48          3
    52          6
    53         51
    55        999
    57        212
    58         48
    59         17
    60          9
    61          1
    62          4
    63          3
    65          8
    66          3
    67         47
    68         23
    69        230
    70         77
    71         61
    72         12
    73         64
    74          4
    76        379
    77          9
    78          4
    79          7
    81         37
    82         14
    83         10
    84         18
    85         18
    86         24
    87          8
    88          4
    89         54
    90          2
    91          1
    93          1
    95         26
    97        617
    98         57
    99         14
   100         28
   101         12
   102          8
   103          1
   106          0
   109          2
   111          1
   113        101
   115        511
   116         34
   117          2
   118          0
   123          0
   124          2
   125          1
   127          6
   129          0
   130          0
   131          9
   132          0
   133          2
   142          7
   143          1
   160          6
   161          0