##TITLE=Library Entry 8984
##JCAMP-DX=Revision 4.10 
##DATA TYPE=MASS SPECTRUM
##SAMPLE DESCRIPTION=Japan AIST/NIMC Database- Spectrum MS-NW- 765
##NAMES=HP
##CAS NAME=Propanoic acid, 2-methyl-, 1-methylethyl ester
##MOLFORM=C7H14O2
##CAS REGISTRY NO=617-50-5
##MP= -300
##BP= -300
##MW= 130
##$RETENTION INDEX=784
##$CONDENSED SPECTRUM=NO
##NPOINTS= 39
##XYDATA=(XY..XY) 1 
    15         10
    18          3
    26          3
    27         59
    28          6
    31          6
    37          1
    38          4
    39         32
    40          7
    41        116
    42         43
    43        999
    44         32
    45         61
    59         60
    60          2
    69          3
    70          6
    71        367
    72          9
    73         21
    74          1
    79          1
    83          3
    84          3
    85          4
    86          4
    87          2
    88         28
    89        181
    90          9
    91          3
    92          1
    98          3
   100          2
   115         46
   116          2
   130          4