##TITLE=Library Entry 35760
##JCAMP-DX=Revision 4.10 
##DATA TYPE=MASS SPECTRUM
##SAMPLE DESCRIPTION=RADIAN CORP
##NAMES=HP
##CAS NAME=2-Furanmethanamine
##MOLFORM=C5H7NO
##CAS REGISTRY NO=617-89-0
##MP= -300
##BP= -300
##MW= 97
##$RETENTION INDEX=854
##$CONDENSED SPECTRUM=NO
##NPOINTS= 54
##XYDATA=(XY..XY) 1 
    14          6
    15         13
    16         10
    17          2
    18          1
    25          4
    26         27
    27         90
    28         83
    29        107
    30        235
    31          9
    32          5
    34          4
    35         11
    36         10
    37         85
    38        153
    39        370
    40         87
    41        487
    42        176
    43        367
    44         24
    48         10
    49         26
    50        108
    51        138
    52        134
    53        462
    54        121
    55         19
    56         13
    57          3
    62          4
    63          7
    64         17
    65         25
    66         32
    67         67
    68        358
    69        999
    70         56
    78         73
    79         15
    80        247
    81        275
    82         16
    93          5
    94         30
    95          7
    96        268
    97        539
    98         32