##TITLE=Library Entry 5548
##JCAMP-DX=Revision 4.10 
##DATA TYPE=MASS SPECTRUM
##SAMPLE DESCRIPTION=NIST Mass Spectrometry Data Center, 1994
##NAMES=HP
##CAS NAME=Propanoic acid, 2-oxo-, ethyl ester
##MOLFORM=C5H8O3
##CAS REGISTRY NO=617-35-6
##MP= -300
##BP= -300
##MW= 116
##$RETENTION INDEX=774
##$CONDENSED SPECTRUM=NO
##NPOINTS= 37
##XYDATA=(XY..XY) 1 
    12          1
    13          6
    14         23
    15         89
    16          2
    18          0
    24          0
    25          4
    26         28
    27        111
    28         26
    29        205
    30         11
    31          3
    32          0
    39          0
    40          1
    41         11
    42          0
    43        999
    44         33
    45         29
    46          0
    47          0
    53          2
    54          0
    55          0
    56          4
    57          9
    58          0
    61         17
    70          0
    73         13
    74          0
    87          0
   116         28
   117          1