##TITLE=Library Entry 78632
##JCAMP-DX=Revision 4.10 
##DATA TYPE=MASS SPECTRUM
##SAMPLE DESCRIPTION=T.A.BLAZER DU PONT, GIBBSTOWN, N.J., USA
##NAMES=HP
##CAS NAME=Benzoic acid, 2-methylphenyl ester
##MOLFORM=C14H12O2
##CAS REGISTRY NO=617-02-7
##MP= -300
##BP= -300
##MW= 212
##$RETENTION INDEX=0
##$CONDENSED SPECTRUM=NO
##NPOINTS= 53
##XYDATA=(XY..XY) 1 
    12          2
    15          0
    26          3
    27         24
    28         45
    29          0
    31          1
    37          2
    38          6
    39         27
    41          5
    43          1
    44          5
    49          1
    50         29
    51         92
    52         15
    53         12
    54          1
    55          6
    56          2
    62          2
    63          6
    64          2
    65          9
    67          1
    68          2
    69          1
    73          5
    74          5
    75          5
    76         13
    77        309
    78         31
    79          7
    83          3
    85          2
    86          1
    87          2
    89          4
    90          3
    91          6
    99          2
   104          5
   105        999
   106         90
   107         21
   108          4
   115          3
   128          4
   139          3
   212         51
   213         11