##TITLE=Library Entry 459
##JCAMP-DX=Revision 4.10 
##DATA TYPE=MASS SPECTRUM
##SAMPLE DESCRIPTION=NIST Mass Spectrometry Data Center, 1990.
##NAMES=HP
##CAS NAME=Ethyl dibromoacetate
##MOLFORM=C4H6Br2O2
##CAS REGISTRY NO=617-33-4
##MP= -300
##BP= -300
##MW= 244
##$RETENTION INDEX=1045
##$CONDENSED SPECTRUM=NO
##NPOINTS= 64
##XYDATA=(XY..XY) 1 
    12          5
    13         20
    14         17
    15         38
    16          2
    17          2
    19          3
    25          7
    26         70
    27        372
    28        128
    29        999
    30         32
    31          8
    32          2
    39         15
    41        729
    42         45
    43         38
    44         11
    45         40
    46          2
    57          2
    73         20
    79         34
    80         11
    81         36
    82          8
    83          2
    91         53
    92        116
    93         72
    94        106
    95         28
   105          1
   107         67
   109         79
   110          3
   111         11
   120        111
   121         37
   122        112
   123         28
   137          4
   138          3
   139          5
   140          3
   169          1
   171        113
   172        150
   173        228
   174        262
   175        114
   176        129
   199         45
   200          9
   201        101
   202          5
   203         45
   229          2
   231          4
   244          4
   246          8
   248          5