##TITLE=Library Entry 12869
##JCAMP-DX=Revision 4.10 
##DATA TYPE=MASS SPECTRUM
##SAMPLE DESCRIPTION=A.A.Kutin, Moscow, Russia
##NAMES=HP
##CAS NAME=Acetic acid, 2-(4-methylphenyl)-hydrazide
##MOLFORM=C9H12N2O
##CAS REGISTRY NO=61700-79-6
##MP= -300
##BP= -300
##MW= 164
##$RETENTION INDEX=0
##$CONDENSED SPECTRUM=NO
##NPOINTS= 79
##XYDATA=(XY..XY) 1 
    37          3
    38         23
    39        256
    40         35
    41        107
    42         78
    43        999
    44         40
    45          6
    49          0
    50         68
    51        193
    52        123
    53         90
    54          9
    55          4
    56          0
    57          2
    59          0
    60          5
    61          1
    62         23
    63         93
    64         39
    65        283
    66         24
    67         28
    68          1
    69          1
    71          0
    73          0
    74          3
    75          5
    76         17
    77        328
    78        107
    79         99
    80          8
    81          0
    82          0
    83          0
    85          0
    87          0
    88          0
    89         31
    90         16
    91        158
    92         36
    93         16
    94         19
    95          0
    96          0
    98          0
    99          0
   102          0
   103          0
   104         34
   105         44
   106        221
   107         37
   108          1
   110          0
   118          0
   119         12
   120         25
   121        611
   122        929
   123         73
   124          1
   125          0
   126          2
   127          0
   147          0
   149          3
   162          3
   163         15
   164        951
   165         98
   166          2