##TITLE=Library Entry 100079
##JCAMP-DX=Revision 4.10 
##DATA TYPE=MASS SPECTRUM
##SAMPLE DESCRIPTION=NIST Mass Spectrometry Data Center, 1994
##NAMES=HP
##CAS NAME=Methylenebis(ethyl thioglycolate)
##MOLFORM=C9H16O4S2
##CAS REGISTRY NO=61713-23-3
##MP= -300
##BP= -300
##MW= 252
##$RETENTION INDEX=0
##$CONDENSED SPECTRUM=NO
##NPOINTS= 82
##XYDATA=(XY..XY) 1 
    12          8
    13          7
    14         17
    15         61
    17          3
    18         10
    19          6
    25          6
    26         38
    27        346
    28          3
    29        806
    30         38
    31        139
    33          9
    34         13
    35         16
    39          5
    41         41
    42        237
    43        117
    44         60
    45        496
    46        350
    47        404
    48         29
    49         20
    53         10
    57          9
    59        631
    60        408
    61        359
    62         21
    63         60
    64         23
    65          4
    70        114
    71          7
    73         10
    75         63
    77        807
    78         73
    79        103
    80          8
    81          6
    87        102
    88        229
    89         36
    90          6
    91        110
    92         26
    93         40
    95          5
   103         17
   105        831
   106         38
   107         56
   109         20
   117          3
   119        999
   120         62
   121        133
   122          7
   123          6
   131          6
   133        301
   134         24
   135         16
   137          5
   165        401
   166         32
   167         36
   179        159
   180         15
   181         15
   206        230
   207         62
   208         28
   209          7
   252        119
   253         15
   254         12