##TITLE=Library Entry 48615
##JCAMP-DX=Revision 4.10 
##DATA TYPE=MASS SPECTRUM
##SAMPLE DESCRIPTION=Exported from NIST MS Search
##NAMES=HP
##CAS NAME=Urea, 1-ethyl-3-(methylsulfonyl)-2-thio-
##MOLFORM=C4H10N2O2S2
##CAS REGISTRY NO=6171-08-0
##MP= -300
##BP= -300
##MW= 182
##$RETENTION INDEX=0
##$CONDENSED SPECTRUM=NO
##NPOINTS= 62
##XYDATA=(XY..XY) 1 
    41         60
    42        160
    43        130
    44        490
    45         70
    46         40
    47         80
    48         60
    49         10
    51         10
    52         10
    53        100
    54         20
    55        600
    56        100
    57         10
    58         10
    59        110
    60         80
    61         10
    62         20
    63         50
    64         80
    65         60
    67         20
    68         10
    69        400
    70        410
    71         80
    72         50
    74         10
    76        130
    77         30
    78         10
    79        999
    80        150
    81         70
    82         10
    83         20
    86         10
    87        180
    88         20
    89         30
    95         50
   103        160
   104         10
   105        140
   107         10
   110         10
   120         20
   121         10
   133        330
   134         20
   135         30
   137         10
   141         10
   148        590
   149         50
   150         40
   182        120
   183         10
   184         10