##TITLE=Library Entry 12501
##JCAMP-DX=Revision 4.10 
##DATA TYPE=MASS SPECTRUM
##SAMPLE DESCRIPTION=Organic Synthesis Lab, MSU, Moscow.TRC 546
##NAMES=HP
##CAS NAME=17.beta.-Acetoxy-2.alpha.-bromo-5.alpha.-androstan-3-one
##MOLFORM=C21H31BrO3
##CAS REGISTRY NO=6173-35-9
##MP= -300
##BP= -300
##MW= 410
##$RETENTION INDEX=0
##$CONDENSED SPECTRUM=NO
##NPOINTS= 286
##XYDATA=(XY..XY) 1 
    27         33
    29         59
    30          1
    31          3
    36          3
    38          2
    39         31
    40         11
    41        183
    42         21
    43        999
    44         24
    45         11
    50          1
    51          5
    52          4
    53         60
    54         19
    55        291
    56         16
    57         51
    58          7
    59          2
    60          7
    61          3
    63          1
    64          1
    65         24
    66         13
    67        140
    68         86
    69         75
    70          9
    71         19
    72          3
    73          5
    74          1
    77         70
    78         15
    79        171
    80         59
    81        208
    82         48
    83         30
    84         10
    85          9
    86          3
    87          2
    89          1
    91        121
    92         24
    93        187
    94        229
    95        182
    96         21
    97         22
    98          7
    99          3
   100          1
   101          3
   102          1
   103          7
   104          6
   105        122
   106         33
   107        144
   108         39
   109         68
   110         19
   111         22
   112          3
   113          1
   114          1
   115          8
   116          4
   117         23
   118         12
   119         77
   120         26
   121        125
   122         78
   123         70
   124         46
   125          9
   126          1
   127          2
   128          6
   129         13
   130          5
   131         39
   132         13
   133         73
   134         26
   135         67
   136         20
   137         24
   138          4
   139          2
   141          3
   142          3
   143         14
   144         10
   145         46
   146         24
   147         95
   148         89
   149        320
   150         39
   151          9
   152          1
   153          1
   155          4
   156          2
   157         15
   158          8
   159         40
   160         15
   161         92
   162         33
   163         35
   164          6
   165          6
   166          1
   167          1
   169          4
   170          1
   171         17
   172          6
   173         30
   174         13
   175         34
   176         11
   177         11
   178          3
   179          6
   180          1
   181          2
   183          5
   184          2
   185         19
   186         12
   187         33
   188          9
   189         18
   190          6
   191          3
   192          1
   193          1
   194          1
   195          1
   196          1
   197          8
   198          3
   199         22
   200         17
   201        114
   202         38
   203         18
   204          9
   205          2
   207          1
   208          1
   209          3
   210          1
   211          9
   212          2
   213         25
   214         10
   215         26
   216          9
   217         14
   218          4
   219          6
   220          1
   221          1
   222          1
   223          1
   225          5
   226          1
   227          8
   228          9
   229         17
   230          9
   231         42
   232          8
   233          8
   234          2
   236          1
   237          4
   238          1
   239         11
   240          3
   241         13
   242          6
   243         11
   244         19
   245         14
   246         18
   247          6
   248          1
   251          2
   252          3
   253         37
   254         13
   255          9
   256          5
   257         61
   258         14
   259          6
   260          8
   261          7
   262          6
   263          1
   265          1
   267          4
   268          3
   269         10
   270         16
   271        154
   272        135
   273         26
   274          4
   275          3
   276          1
   279          1
   280          1
   281          4
   282          4
   283          4
   284          3
   285          1
   287          2
   288         39
   289         18
   290          4
   293          4
   294          3
   295         13
   296          4
   297          9
   298          1
   302          1
   303          1
   307          9
   308          5
   309         38
   310         11
   311         33
   312          7
   313          6
   314          1
   315          2
   317          2
   321          2
   322         12
   323          5
   324         18
   325          7
   326          7
   327          4
   329          1
   330         22
   331        139
   332         51
   333          9
   334          1
   335         51
   336         10
   337         50
   338         10
   339          1
   349          6
   350        152
   351         38
   352        153
   353         33
   354          4
   355          3
   366          1
   367          1
   368          3
   369          1
   370          1
   410         10
   411          2
   412          9