##TITLE=Library Entry 810
##JCAMP-DX=Revision 4.10 
##DATA TYPE=MASS SPECTRUM
##SAMPLE DESCRIPTION=NIST Mass Spectrometry Data Center
##NAMES=HP
##CAS NAME=Tetraethyl ethylenetetracarboxylate
##MOLFORM=C14H20O8
##CAS REGISTRY NO=6174-95-4
##MP= -300
##BP= -300
##MW= 316
##$RETENTION INDEX=0
##$CONDENSED SPECTRUM=NO
##NPOINTS= 80
##XYDATA=(XY..XY) 1 
    12          6
    15         35
    17         15
    18         33
    19         10
    26         41
    27        317
    28          8
    29        999
    30         42
    31         65
    39          9
    41         10
    42         18
    43         62
    44         45
    45         82
    46          7
    47          8
    51          7
    53        347
    54         28
    55         12
    66          4
    67          4
    68          6
    69         38
    70         40
    71         19
    80         57
    81         46
    82         18
    97        207
    98        101
    99         35
   100          9
   108         38
   113          8
   115         45
   125        220
   126        199
   127         29
   128          6
   141         15
   143        124
   144          8
   151         64
   152        258
   153         33
   154         68
   155          7
   159          7
   167          3
   169        438
   170        305
   171         49
   172          5
   180         76
   181         11
   182          4
   187        798
   188         53
   189         13
   197        387
   198        201
   199         25
   200          6
   215        474
   216         44
   217          5
   226        186
   227         25
   228          4
   241          8
   243        495
   244         60
   245          8
   271        253
   272         36
   273          7