##TITLE=Library Entry 4953
##JCAMP-DX=Revision 4.10 
##DATA TYPE=MASS SPECTRUM
##SAMPLE DESCRIPTION=Chemical Concepts
##NAMES=HP
##CAS NAME=2,4(1H,3H)-Pyrimidinedione, dihydro-6-(hydroxymethyl)-1,3-dimethy
l-
##MOLFORM=C7H12N2O3
##CAS REGISTRY NO=61755-90-6
##MP= -300
##BP= -300
##MW= 172
##$RETENTION INDEX=0
##$CONDENSED SPECTRUM=NO
##NPOINTS= 71
##XYDATA=(XY..XY) 1 
    25          0
    26          8
    27         33
    28         63
    29         24
    30         21
    31         44
    37          0
    38          2
    39         12
    40          7
    41         23
    42        999
    43         36
    44         16
    45          0
    50          0
    51          0
    52          4
    53          3
    54         20
    55         43
    56         26
    57         24
    58         37
    59          2
    60          0
    64          0
    66          0
    67          0
    68          3
    69          2
    70          4
    71          1
    72         15
    73          3
    74          1
    81          0
    82          5
    84        537
    85         33
    86          2
    87          0
    88          0
    89          0
    96          1
    97          0
    98          2
    99          0
   100          4
   101          0
   111          1
   112          2
   113          2
   114          1
   115          0
   125          0
   126          0
   127          0
   140         35
   141        382
   142         32
   143          3
   144          0
   153          0
   154          0
   155          0
   171          0
   172          5
   173          6
   174          0