##TITLE=Library Entry 9932
##JCAMP-DX=Revision 4.10 
##DATA TYPE=MASS SPECTRUM
##SAMPLE DESCRIPTION=NIST Mass Spectrometry Data Center
##NAMES=HP
##CAS NAME=2,4-Nonanedione
##MOLFORM=C9H16O2
##CAS REGISTRY NO=6175-23-1
##MP= -300
##BP= -300
##MW= 156
##$RETENTION INDEX=1136
##$CONDENSED SPECTRUM=NO
##NPOINTS= 70
##XYDATA=(XY..XY) 1 
    13          1
    14         13
    15         82
    16          2
    17          2
    18          6
    19          3
    27        218
    28         51
    29        196
    30          8
    31         38
    37          3
    39        124
    40         27
    41        178
    42        129
    43        999
    44         27
    45          9
    50          4
    51          8
    52          3
    53         21
    55         77
    56         11
    57         23
    58         68
    59          7
    61          1
    62          1
    63          2
    65          3
    66          2
    67         13
    69         47
    70         14
    71         83
    72         58
    73          3
    77          2
    79          2
    80          9
    81          9
    82          2
    85        543
    86         26
    87          3
    95         11
    96          2
    97          6
    98         10
    99         49
   100        219
   101         17
   102          1
   109          1
   111          1
   113         54
   114         31
   115          2
   123          2
   127          3
   128          1
   138         11
   139          1
   141         19
   142          1
   156          8
   157          1