##TITLE=Library Entry 38281
##JCAMP-DX=Revision 4.10 
##DATA TYPE=MASS SPECTRUM
##SAMPLE DESCRIPTION=NIST Mass Spectrometry Data Center, 1990.
##NAMES=HP
##CAS NAME=5-Methyl-4-octanone
##MOLFORM=C9H18O
##CAS REGISTRY NO=6175-51-5
##MP= -300
##BP= -300
##MW= 142
##$RETENTION INDEX=0
##$CONDENSED SPECTRUM=NO
##NPOINTS= 22
##XYDATA=(XY..XY) 1 
    15         13
    27        181
    28         72
    29        108
    39        107
    40         23
    41        240
    42         88
    43        816
    44         30
    53         22
    55         81
    56         16
    57         20
    69         15
    71        999
    72        144
    99         64
   100        217
   101         15
   113          9
   142         11