##TITLE=Library Entry 59238
##JCAMP-DX=Revision 4.10 
##DATA TYPE=MASS SPECTRUM
##SAMPLE DESCRIPTION=Div. of Experiment Therapeutics WRAIR, WRAMC, Washingto
n DC 20307
##NAMES=HP
##CAS NAME=Carbomethoxy benzyl disulfide
##MOLFORM=C9H10O2S2
##CAS REGISTRY NO=61775-34-6
##MP= -300
##BP= -300
##MW= 214
##$RETENTION INDEX=0
##$CONDENSED SPECTRUM=NO
##NPOINTS= 52
##XYDATA=(XY..XY) 1 
    41         16
    43          1
    45        185
    47         10
    49          6
    50         14
    51         72
    53          1
    55          0
    57          0
    58          1
    59         52
    61          2
    62         11
    63         35
    64         35
    65        171
    69          5
    70          2
    71          1
    73          1
    74          3
    75          1
    76          3
    77         35
    79         14
    80          0
    81          0
    82          1
    83          1
    84          5
    86          5
    87          1
    89         21
    91        999
    92         33
    95          1
    97          1
   105         25
   108          1
   121         15
   123        110
   124          4
   125          4
   149          0
   153          4
   154          0
   155          1
   181          2
   214         39
   215          4
   216          3