##TITLE=Library Entry 41561
##JCAMP-DX=Revision 4.10 
##DATA TYPE=MASS SPECTRUM
##SAMPLE DESCRIPTION=O A MAMER, MCGILL UNIVERSITY, MONTRE
##NAMES=HP
##CAS NAME=Methyl 9,11,15-trihydroxy-6-oxoprost-13-en-1-oate, (9.alpha.,11.a
lpha.,13E,15S)-, 3TMS derivative
##MOLFORM=C30H60O6Si3
##CAS REGISTRY NO=61799-72-2
##MP= -300
##BP= -300
##MW= 600
##$RETENTION INDEX=0
##$CONDENSED SPECTRUM=NO
##NPOINTS= 374
##XYDATA=(XY..XY) 1 
    20         12
    25          3
    27         32
    28         48
    29        130
    31          9
    32         23
    34          3
    37          7
    38         12
    39         49
    40         37
    41        179
    42         32
    43        183
    44         19
    45         53
    46          5
    47         20
    48          4
    49          6
    50         15
    51         19
    52         26
    53         19
    54         17
    55        222
    56         44
    57        147
    58         11
    59         75
    60         10
    61         16
    62          4
    63          7
    64          3
    65          7
    66          7
    67         61
    68        103
    69        107
    70         28
    71         90
    72         16
    73        999
    74         90
    75        277
    76         19
    77         30
    78         12
    79         67
    80         14
    81         72
    82         25
    83         98
    84         23
    85         46
    86          8
    87         13
    88          5
    89         41
    90          7
    91         52
    92         10
    93         30
    94         11
    95         47
    96         20
    97         54
    98         21
    99         34
   100          6
   101         27
   102          7
   103         54
   104         11
   105         36
   106          9
   107         23
   108          8
   109         28
   110         11
   111        190
   112         16
   113         14
   114          7
   115         71
   116         25
   117         83
   118         15
   119         25
   120          7
   121         18
   122          6
   123         18
   124          7
   125         16
   126          9
   127         11
   128          7
   129         76
   130         23
   131         53
   132         23
   133         39
   134          9
   135         63
   136         12
   137         13
   138          5
   139         10
   140          9
   141         18
   142         13
   143        147
   144         19
   145         32
   146          8
   147        118
   148         21
   149         38
   150          6
   151         12
   152          5
   153          7
   154          8
   155         27
   156          6
   157         16
   158         11
   159         15
   160          6
   161         19
   162          7
   163         12
   164          7
   165         11
   166          8
   167         28
   168         15
   169         19
   170          8
   171         18
   172         11
   173         74
   174         13
   175         15
   176          5
   177         13
   178          6
   179         31
   180         17
   181         40
   182         17
   183         17
   184          7
   185         11
   186          7
   187         21
   188         11
   189         11
   190          7
   191         70
   192         18
   193         19
   194          9
   195         12
   196         18
   197         15
   198          7
   199         48
   200         13
   201         18
   202          7
   203          9
   204          7
   205         16
   206          9
   207         26
   208          7
   209         11
   210          6
   211          5
   212          8
   213          7
   214          3
   215         23
   216          7
   217         54
   218         18
   219         13
   220          7
   221         17
   222          5
   223          6
   224         14
   225          8
   226          2
   227         11
   228          5
   229          4
   230          9
   231         12
   232          6
   233         14
   234          7
   235          3
   236         18
   237         20
   238          8
   239         10
   240          4
   241          3
   242          6
   243         15
   244          7
   245         12
   246          5
   247          8
   248          4
   249          6
   250          4
   251         29
   252          9
   253         13
   254          5
   255         10
   256          8
   257         10
   258          4
   259         18
   260          5
   261          7
   262         45
   263         35
   264         13
   265          8
   266          4
   267          5
   268          4
   269         15
   270          6
   271          7
   272          3
   273          8
   274          4
   275          5
   277         57
   278         23
   279         10
   280          6
   281         14
   282          5
   283          6
   284          3
   285          4
   286          3
   287          3
   288          2
   289          4
   290          3
   291          7
   292          4
   293          4
   294          5
   295          6
   296          5
   297          4
   298          3
   299          8
   300          3
   301          3
   303          3
   305          6
   307          5
   308          3
   309          8
   310          5
   311          7
   312          4
   313         18
   314          7
   315          2
   317          4
   319          4
   320          4
   321          5
   322          9
   323         24
   324        171
   325         47
   326         15
   327          9
   328          5
   329          6
   330         13
   331         11
   332          3
   333          3
   335          2
   337         12
   338          4
   339          6
   341          9
   342          3
   343          8
   344          3
   345          3
   346          3
   349        270
   350         75
   351         25
   352         17
   353         11
   354          5
   355          7
   356          6
   357          4
   363          5
   364          2
   365          1
   367          8
   369          3
   370          2
   371          3
   379          3
   381          3
   383          5
   384          3
   389         14
   390          5
   391          3
   394         13
   395          9
   396          4
   397          3
   398          3
   399          8
   400          3
   401          5
   403          7
   405          9
   406          6
   407          4
   410          4
   412         13
   413          6
   414          3
   415          8
   417          5
   418          5
   420        110
   421         39
   422         13
   423          4
   425          3
   429          3
   430          3
   439         14
   440          6
   441          3
   442          4
   479          8
   480          4
   491          3
   492          3
   493          2
   495          6
   496          2
   503          2
   510         16
   511          6
   512          3
   529          3