##TITLE=Library Entry 77526
##JCAMP-DX=Revision 4.10 
##DATA TYPE=MASS SPECTRUM
##SAMPLE DESCRIPTION=NIST Mass Spectrometry Data Center
##NAMES=HP
##CAS NAME=Benzamidine
##MOLFORM=C7H8N2
##CAS REGISTRY NO=618-39-3
##MP= -300
##BP= -300
##MW= 120
##$RETENTION INDEX=0
##$CONDENSED SPECTRUM=NO
##NPOINTS= 46
##XYDATA=(XY..XY) 1 
    14          3
    16          8
    17          6
    18          4
    26         10
    27         24
    28         94
    29          2
    36         19
    37         17
    38         31
    39         54
    40          8
    41          8
    42         12
    43        192
    44          7
    49         14
    50        143
    51        267
    52         78
    53          8
    60          7
    61          7
    62         13
    63         21
    64         13
    65         25
    66         14
    73         15
    74         50
    75         48
    76        110
    77        428
    78        133
    79          9
    91          8
    92         22
    93         28
   102         12
   103        184
   104        999
   105         86
   119         48
   120        897
   121         77