##TITLE=Library Entry 78649
##JCAMP-DX=Revision 4.10 
##DATA TYPE=MASS SPECTRUM
##SAMPLE DESCRIPTION=RADIAN CORP
##NAMES=HP
##CAS NAME=Benzoyl bromide
##MOLFORM=C7H5BrO
##CAS REGISTRY NO=618-32-6
##MP= -300
##BP= -300
##MW= 184
##$RETENTION INDEX=0
##$CONDENSED SPECTRUM=NO
##NPOINTS= 36
##XYDATA=(XY..XY) 1 
    25          1
    26          6
    27          8
    29          2
    35          7
    36          3
    37         22
    38         30
    39         22
    48          2
    49         20
    50        123
    51        172
    52          2
    53          7
    60          2
    61         10
    62         12
    63         11
    64          1
    65          4
    72          2
    73         19
    74         69
    75         38
    76         39
    77        558
    78         38
    79          4
    84          2
    85          3
    86          2
   104          4
   105        999
   106         76
   107          5