##TITLE=Library Entry 76333
##JCAMP-DX=Revision 4.10 
##DATA TYPE=MASS SPECTRUM
##SAMPLE DESCRIPTION=D.HENNEBERG, MAX-PLANCK INSTITUTE, MULHEIM, WEST GERMAN
Y
##NAMES=HP
##CAS NAME=Benzene, (1-chloroethenyl)-
##MOLFORM=C8H7Cl
##CAS REGISTRY NO=618-34-8
##MP= -300
##BP= -300
##MW= 138
##$RETENTION INDEX=0
##$CONDENSED SPECTRUM=NO
##NPOINTS= 95
##XYDATA=(XY..XY) 1 
    24          0
    25          3
    26         11
    27         28
    28         14
    31          0
    32          0
    33          1
    34          1
    35          2
    36          6
    37         14
    38         32
    39         48
    40          1
    42          0
    43          2
    44          0
    45          1
    47          1
    48          2
    49         22
    50        143
    51        376
    52         40
    53          8
    54          1
    55          1
    56          2
    57          4
    59          1
    60          3
    61         18
    62         28
    63         55
    64          5
    65          0
    66          0
    67          1
    68         12
    69         37
    70          9
    71          0
    72          2
    73         14
    74         60
    75         66
    76         68
    77        349
    78         35
    79          2
    80          0
    81          0
    82          0
    83          0
    84          2
    85          3
    86          4
    87          7
    88          1
    89          2
    90          0
    91          0
    92          0
    93          0
    94          0
    97          2
    98          6
    99          5
   100          3
   101         30
   102         92
   103        999
   104         82
   105          8
   106          0
   108          0
   109          0
   110          0
   111          1
   112          1
   113          0
   115          0
   118          0
   120          1
   123          0
   132          0
   134          0
   135          0
   136          1
   138        356
   139         31
   140        121
   141          8
   142          0