##TITLE=Library Entry 55728
##JCAMP-DX=Revision 4.10 
##DATA TYPE=MASS SPECTRUM
##SAMPLE DESCRIPTION=Japan AIST/NIMC Database- Spectrum MS-NW-6967
##NAMES=HP
##CAS NAME=cis-4-Hydroxy-L-proline
##MOLFORM=C5H9NO3
##CAS REGISTRY NO=618-27-9
##MP= -300
##BP= -300
##MW= 131
##$RETENTION INDEX=0
##$CONDENSED SPECTRUM=NO
##NPOINTS= 79
##XYDATA=(XY..XY) 1 
    14          7
    15         41
    16          2
    17          3
    18         10
    25          2
    26         14
    27         68
    28        156
    29         48
    30        214
    31         33
    32          3
    33          2
    36          1
    37          6
    38         10
    39         49
    40         20
    41        373
    42        117
    43        137
    44         20
    45         29
    46          3
    47          3
    50          1
    51          2
    52          5
    53          6
    54         11
    55         48
    56         82
    57         37
    58         95
    59         14
    60          3
    64          1
    65          2
    66          5
    67         21
    68        350
    69        246
    70         16
    71          3
    72          1
    73         36
    74          3
    77          1
    79          1
    80          1
    81          3
    82          2
    83          4
    84         15
    85          7
    86        999
    87        162
    88         10
    89          1
    91          1
    93          2
    94          2
    95          3
    96          1
    97          3
    98          1
    99          1
   102          3
   105          1
   109          1
   110          1
   111          3
   112          2
   113          2
   115          1
   129          1
   131         10
   132          2