##TITLE=Library Entry 99564
##JCAMP-DX=Revision 4.10 
##DATA TYPE=MASS SPECTRUM
##SAMPLE DESCRIPTION=Japan AIST/NIMC Database- Spectrum MS-NW-9024
##NAMES=HP
##CAS NAME=m-Toluamide
##MOLFORM=C8H9NO
##CAS REGISTRY NO=618-47-3
##MP= -300
##BP= -300
##MW= 135
##$RETENTION INDEX=0
##$CONDENSED SPECTRUM=NO
##NPOINTS= 63
##XYDATA=(XY..XY) 1 
    26          1
    27          5
    28          1
    37          4
    38          9
    39         59
    40          5
    41         12
    42          1
    43          4
    44         28
    45          6
    49          2
    50         21
    51         34
    52          9
    53          9
    54          2
    58          1
    59          6
    60          1
    61          8
    62         23
    63         63
    64         17
    65        176
    66         10
    67          1
    73          1
    74          8
    75          7
    76          6
    77         17
    78          5
    79          8
    80          2
    84          1
    85          4
    86          7
    87          6
    88          3
    89         69
    90         50
    91        769
    92         64
    93          3
   104          5
   105          8
   106          9
   107          2
   109          1
   115          1
   116         25
   117         36
   118         13
   119        999
   120         89
   121          8
   133          1
   134          7
   135        628
   136         61
   137          4