##TITLE=Library Entry 67473
##JCAMP-DX=Revision 4.10 
##DATA TYPE=MASS SPECTRUM
##SAMPLE DESCRIPTION=NIST Mass Spectrometry Data Center, 2010
##NAMES=HP
##CAS NAME=1-Propanol, 3-phenoxy-
##MOLFORM=C9H12O2
##CAS REGISTRY NO=6180-61-6
##MP= -300
##BP= -300
##MW= 152
##$RETENTION INDEX=1371
##$CONDENSED SPECTRUM=NO
##NPOINTS= 64
##XYDATA=(XY..XY) 1 
    26          3
    27         12
    28          4
    29         17
    30          2
    31         67
    32          1
    37          3
    38         12
    39         79
    40         18
    41         26
    42          3
    43          8
    44          1
    45          1
    49          1
    50         20
    51         61
    52          6
    53          5
    54          1
    55         17
    56          1
    57         14
    58          8
    59          8
    61          3
    62          8
    63         26
    64         11
    65        115
    66        121
    67          8
    68          2
    69          1
    73          1
    74          5
    75          4
    76          4
    77         95
    78         13
    79         11
    80          1
    91         11
    92          3
    93         21
    94        999
    95         93
    96          5
   103          2
   105          2
   107         11
   108          2
   119          2
   120          1
   121          6
   122          1
   133          3
   134          3
   150          1
   152        200
   153         20
   154          2