##TITLE=Library Entry 77963
##JCAMP-DX=Revision 4.10 
##DATA TYPE=MASS SPECTRUM
##SAMPLE DESCRIPTION=NIST Mass Spectrometry Data Center
##NAMES=HP
##CAS NAME=3,9-Dodecadiyne
##MOLFORM=C12H18
##CAS REGISTRY NO=61827-89-2
##MP= -300
##BP= -300
##MW= 162
##$RETENTION INDEX=0
##$CONDENSED SPECTRUM=NO
##NPOINTS= 99
##XYDATA=(XY..XY) 1 
    11          2
    13          2
    14          2
    15         28
    16          3
    18          5
    20          1
    23          1
    26         27
    27        282
    28         39
    29        122
    30          2
    32          1
    34          2
    37         10
    38         45
    39        606
    40        133
    41        853
    42         39
    43         25
    44          2
    45          1
    46          1
    48          1
    50         68
    51        198
    52        113
    53        257
    54         50
    55        270
    56         14
    57          3
    59          1
    61          5
    62         25
    63         80
    64         21
    65        253
    66        103
    67        427
    68         43
    69         33
    70          2
    74          9
    75          8
    77        369
    78         96
    79        466
    80         61
    81         68
    82         19
    83          1
    85          1
    86          2
    87          2
    88          1
    89         10
    91        782
    92        101
    93        149
    94         21
    95         10
    96          1
   100          1
   102          9
   103         72
   105        999
   106        114
   107         26
   108         12
   113          1
   115         61
   116         27
   117        142
   118         54
   119        336
   120         58
   121         16
   122          1
   127          5
   128         13
   129         14
   130          7
   131         46
   133        445
   134         96
   135          8
   139          1
   141          2
   142          1
   143          2
   145          8
   147        312
   148         37
   149          2
   159          1
   162         13