##TITLE=Library Entry 48531
##JCAMP-DX=Revision 4.10 
##DATA TYPE=MASS SPECTRUM
##SAMPLE DESCRIPTION=D.HENNEBERG, MAX-PLANCK INSTITUTE, MULHEIM, WEST GERMAN
Y
##NAMES=HP
##CAS NAME=3-Decen-1-yne, (Z)-
##MOLFORM=C10H16
##CAS REGISTRY NO=61827-88-1
##MP= -300
##BP= -300
##MW= 136
##$RETENTION INDEX=0
##$CONDENSED SPECTRUM=NO
##NPOINTS= 83
##XYDATA=(XY..XY) 1 
    27        494
    28         88
    29        459
    30          9
    31          6
    32          7
    37         16
    38         43
    39        622
    40         92
    41        644
    42        270
    43        862
    44         47
    45          2
    47          2
    48          2
    49          6
    50         74
    51        159
    52        139
    53        132
    54         66
    55        478
    56        329
    57         32
    58          5
    59          8
    61          4
    62         24
    63         77
    64         23
    65        271
    66        288
    67        228
    68         85
    69        168
    70         35
    71         26
    72          3
    73          2
    74         10
    75         10
    76          8
    77        334
    78        130
    79        999
    80        330
    81        157
    82         82
    83         17
    84         25
    85          3
    86          3
    89          8
    90          3
    91        200
    92         32
    93        446
    94        184
    95        112
    96         13
    97          7
    98          3
   102          1
   103          6
   104          1
   105         30
   106          8
   107        294
   108         87
   109          7
   110          1
   115          3
   119          4
   121        118
   122         10
   123          1
   128          2
   134          1
   135          4
   136         34
   137          3