##TITLE=Library Entry 14785
##JCAMP-DX=Revision 4.10 
##DATA TYPE=MASS SPECTRUM
##SAMPLE DESCRIPTION=H. Fales, LC, NHLBI, NIH, Bethesda, MD 20892
##NAMES=HP
##CAS NAME=Allopregnane-3,7,11,20-tetra-one
##MOLFORM=C21H28O4
##CAS REGISTRY NO=61834-65-9
##MP= -300
##BP= -300
##MW= 344
##$RETENTION INDEX=0
##$CONDENSED SPECTRUM=NO
##NPOINTS= 173
##XYDATA=(XY..XY) 1 
    41        137
    42         57
    43        999
    44         23
    45         11
    47          5
    49          3
    51          2
    53         60
    54          5
    55        185
    56          9
    57         15
    65         35
    66         16
    67        104
    68         47
    69         73
    70          4
    71         71
    77        102
    78         19
    79        164
    80         49
    81        126
    82         27
    83         40
    84          9
    85          5
    86          2
    91        151
    92         26
    93        117
    94         60
    95        147
    96         41
    97         36
    98         19
   103         14
   105         82
   106         33
   107         83
   108         55
   109         88
   110         70
   111         34
   115         27
   116          4
   117         32
   118          4
   119         55
   120         18
   121        124
   122        124
   123         99
   124         80
   125         34
   128         11
   129         16
   131         38
   132         10
   133         47
   134         31
   135         61
   136         53
   137         77
   138         94
   139         15
   141          4
   143         13
   145         40
   146         30
   147         69
   148         20
   149         50
   150         50
   151         66
   152         37
   153         10
   157         14
   159         40
   160         13
   161         41
   162         30
   163         36
   164        107
   165         90
   166         16
   169          9
   171         15
   173         40
   174         14
   175         63
   176         27
   177         30
   178         13
   179         84
   180         13
   181         35
   183         11
   185         16
   187         16
   188          9
   189         13
   190          4
   191         13
   192          4
   193         76
   194         10
   197         20
   199         12
   201         17
   203         13
   205         11
   206         23
   207         11
   213         15
   215         11
   216         17
   217         21
   218          4
   219         17
   220         61
   221         13
   225         10
   227         12
   229         23
   230          9
   231         63
   232         36
   233         15
   234         14
   241         14
   243         26
   245         24
   246         14
   247         10
   255         27
   256         10
   257         13
   258         27
   259        102
   260         99
   261         38
   262         15
   269         10
   273         35
   274        124
   275         31
   276         22
   279          5
   283         47
   284         31
   285         14
   286         36
   287         26
   288          5
   298         16
   299         22
   300         15
   301         65
   302         20
   303          9
   311         12
   316         40
   318          4
   326         68
   327         13
   328         11
   329         27
   344        576
   345        137
   346          9