##TITLE=Library Entry 2432
##JCAMP-DX=Revision 4.10 
##DATA TYPE=MASS SPECTRUM
##SAMPLE DESCRIPTION=TNO Volatile Compounds in Food - Chemical Concepts
##NAMES=HP
##CAS NAME=Nonanal, 3-(methylthio)-
##MOLFORM=C10H20OS
##CAS REGISTRY NO=61837-76-1
##MP= -300
##BP= -300
##MW= 188
##$RETENTION INDEX=0
##$CONDENSED SPECTRUM=NO
##NPOINTS= 88
##XYDATA=(XY..XY) 1 
    26         38
    27        449
    28         39
    29        369
    30          4
    31         20
    33          8
    34          1
    35          9
    37         12
    38         21
    39        428
    40         30
    41        999
    42        350
    43        849
    45        289
    46         76
    47        577
    48        474
    49         88
    50         38
    51         36
    52         22
    53        123
    54        151
    55        807
    56        361
    57        402
    58         75
    59         24
    60          8
    61         50
    62         10
    63         10
    64         12
    65         29
    66         26
    67        186
    68         96
    69        416
    70        627
    71        101
    72         65
    73          6
    74         17
    75         70
    76         15
    77         45
    78         14
    79         67
    80         46
    81        188
    82         73
    83        475
    84        264
    85         50
    86          7
    87         16
    89          9
    91         21
    92          9
    93         72
    94         40
    95         33
    96        165
    97         87
    98         76
   101         10
   102         10
   103         14
   105          8
   107         32
   109         20
   111         43
   112        121
   113         13
   115          8
   117          7
   118          9
   122         36
   123          9
   139          7
   140          7
   145         11
   160         20
   188         40
   189         10