##TITLE=Library Entry 62359
##JCAMP-DX=Revision 4.10 
##DATA TYPE=MASS SPECTRUM
##SAMPLE DESCRIPTION=NIST Mass Spectrometry Data Center
##NAMES=HP
##CAS NAME=Benzyl trans-4-coumarate
##MOLFORM=C16H14O3
##CAS REGISTRY NO=61844-62-0
##MP= -300
##BP= -300
##MW= 254
##$RETENTION INDEX=2490
##$CONDENSED SPECTRUM=NO
##NPOINTS= 51
##XYDATA=(XY..XY) 1 
    38          8
    39         76
    50         20
    51         61
    52         14
    53         18
    62         17
    63         70
    64         33
    65        266
    66         19
    69         30
    74         10
    75         15
    76          9
    77         78
    78         20
    79         36
    89         93
    90         57
    91        999
    92         93
   101         15
   102         11
   107         41
   115         52
   116         17
   118         56
   119        141
   120        321
   121         41
   132         13
   146         17
   147        532
   148         65
   160         20
   163         39
   176          9
   181          7
   191          5
   194         31
   195         17
   208        117
   209        224
   210         35
   211          6
   236         50
   237         11
   253          8
   254        242
   255         44