##TITLE=Library Entry 29335
##JCAMP-DX=Revision 4.10 
##DATA TYPE=MASS SPECTRUM
##SAMPLE DESCRIPTION=A.A.Kutin, Moscow, Russia
##NAMES=HP
##CAS NAME=2-(4-Nitrobenzylideneamino)thiazole
##MOLFORM=C10H7N3O2S
##CAS REGISTRY NO=61863-68-1
##MP= -300
##BP= -300
##MW= 233
##$RETENTION INDEX=0
##$CONDENSED SPECTRUM=NO
##NPOINTS= 149
##XYDATA=(XY..XY) 1 
    33          6
    34          3
    36          3
    37         27
    38         65
    39        153
    40         54
    41         11
    42          4
    43         13
    44         24
    45        162
    46         23
    47          7
    48          2
    50        203
    51        213
    52         45
    53         36
    54          5
    55         10
    57        193
    58        999
    59        257
    60         58
    61         34
    62        103
    63        164
    64         43
    65         44
    66          7
    67          3
    69         13
    70         13
    71          8
    72          4
    73         14
    74         47
    75        104
    76        136
    77         72
    78         12
    79          9
    80         10
    81          3
    82          6
    83         16
    84         75
    85        381
    86         51
    87         49
    88         46
    89         91
    90         24
    91         12
    92          6
    93          9
    94          6
    95          2
    96          3
    99          4
   100         22
   101         17
   102         91
   103         60
   104         16
   105          5
   107          4
   108          5
   109          5
   110          5
   111         53
   112          4
   113          3
   114         25
   115         32
   116         82
   117         13
   118          9
   119          7
   120         15
   121          6
   122          4
   123          2
   126          2
   127          7
   128         19
   129         43
   130         12
   131         11
   132          5
   133         32
   134         36
   135         10
   136          4
   141          2
   142         11
   143          6
   145          2
   146         10
   147          7
   148         15
   149          7
   150          9
   151          7
   153          3
   154          4
   155          5
   158          2
   159         25
   160        149
   161         22
   162          8
   163          2
   171          0
   174         32
   175         16
   176          9
   177          1
   178          0
   179          0
   180          0
   185         24
   186        347
   187         74
   188         22
   189          3
   190          0
   193          0
   200          1
   201          0
   202          9
   203          6
   204          1
   206         12
   207          1
   208          0
   216         78
   217         11
   218          4
   219          0
   228          0
   230          1
   232        603
   233        233
   234         66
   235         13
   236          1
   237          0