##TITLE=Library Entry 22380
##JCAMP-DX=Revision 4.10 
##DATA TYPE=MASS SPECTRUM
##SAMPLE DESCRIPTION=Chemical Concepts
##NAMES=HP
##CAS NAME=2-Methylhexadec-1-ene
##MOLFORM=C17H34
##CAS REGISTRY NO=61868-19-7
##MP= -300
##BP= -300
##MW= 238
##$RETENTION INDEX=1687
##$CONDENSED SPECTRUM=NO
##NPOINTS= 106
##XYDATA=(XY..XY) 1 
    26          1
    27         61
    28         11
    29        170
    30          3
    36          0
    38          0
    39         66
    40         15
    41        465
    42         69
    43        361
    44         10
    45          0
    50          0
    51          2
    52          1
    53         30
    54         33
    55        365
    56        999
    57        574
    58         21
    59          0
    65          5
    66          4
    67         63
    68         51
    69        388
    70        165
    71         83
    72          3
    74          0
    75          0
    76          0
    77          4
    78          0
    79          9
    80          3
    81         32
    82         48
    83        176
    84         94
    85         51
    86          3
    91          2
    92          0
    93          1
    94          1
    95         15
    96         32
    97        140
    98         44
    99         12
   100          0
   104          0
   105          0
   107          0
   108          0
   109          6
   110         18
   111         97
   112         33
   113          7
   114          0
   115          0
   121          0
   122          0
   123          3
   124          8
   125         39
   126         17
   127          4
   128          0
   129          0
   137          1
   138          6
   139         19
   140         11
   141          3
   152          5
   153         11
   154         13
   155          2
   165          0
   166          1
   167          7
   168          4
   169          0
   180          5
   181          3
   182         33
   183          4
   194          3
   195          8
   196          4
   197          0
   209          0
   210         33
   211          5
   212          0
   223         14
   224          2
   238         79
   239         14
   240          1