##TITLE=Library Entry 22425
##JCAMP-DX=Revision 4.10 
##DATA TYPE=MASS SPECTRUM
##SAMPLE DESCRIPTION=J. Klune, Insect Chem. Ecol. Lab., USDA, Beltsville, MD
 20705
##NAMES=HP
##CAS NAME=2-Methyl-1-octadecene
##MOLFORM=C19H38
##CAS REGISTRY NO=61868-20-0
##MP= -300
##BP= -300
##MW= 266
##$RETENTION INDEX=1890
##$CONDENSED SPECTRUM=NO
##NPOINTS= 94
##XYDATA=(XY..XY) 1 
    41        470
    42         87
    43        465
    44         14
    47          0
    50          0
    51          3
    52          1
    53         45
    54         56
    55        475
    56        999
    57        647
    58         26
    59          0
    65          7
    66          6
    67         81
    68         69
    69        377
    70        162
    71        108
    72          5
    77          5
    78          0
    79         12
    80          4
    81         41
    82         60
    83        182
    84         81
    85         62
    86          4
    91          3
    93          2
    94          1
    95         20
    96         36
    97        149
    98         38
    99         11
   100          1
   105          0
   107          0
   108          0
   109          8
   110         17
   111         91
   112         25
   113          6
   123          4
   124          7
   125         27
   126         11
   127          3
   137          2
   138          4
   139         10
   140          6
   141          2
   151          1
   152          2
   153          5
   154          4
   155          1
   165          1
   166          2
   167          3
   168          2
   169          1
   179          0
   180          2
   181          2
   182          4
   183          1
   194          1
   195          1
   196          1
   201          1
   208          3
   209          1
   210         13
   211          2
   215          1
   222          1
   223          1
   224          1
   238         19
   239          3
   251          4
   252          1
   266         59
   267         13
   268          1