##TITLE=Library Entry 24855
##JCAMP-DX=Revision 4.10 
##DATA TYPE=MASS SPECTRUM
##SAMPLE DESCRIPTION=Chemical Concepts
##NAMES=HP
##CAS NAME=Heptane, 2,2,3,5-tetramethyl-
##MOLFORM=C11H24
##CAS REGISTRY NO=61868-42-6
##MP= -300
##BP= -300
##MW= 156
##$RETENTION INDEX=0
##$CONDENSED SPECTRUM=NO
##NPOINTS= 44
##XYDATA=(XY..XY) 1 
    27         75
    28          1
    29        152
    30          3
    39         69
    40          2
    41        283
    42         55
    43        188
    44          4
    51          9
    52          2
    53         27
    54         13
    55         99
    56        602
    57        999
    58         49
    59          8
    67         10
    68          4
    69         87
    70         71
    71        105
    72          6
    77          4
    78          0
    79          6
    80          1
    81          5
    82          2
    83         20
    84          5
    85         88
    86          6
    97          3
    98        185
    99         85
   100          8
   101          1
   141          9
   142          1
   156          0
   157          0