##TITLE=Library Entry 16465
##JCAMP-DX=Revision 4.10 
##DATA TYPE=MASS SPECTRUM
##SAMPLE DESCRIPTION=AAFS Toxicology Section MS DB Committee, U. Alberta, Ca
nada
##NAMES=HP
##CAS NAME=Paroxetine
##MOLFORM=C19H20FNO3
##CAS REGISTRY NO=61869-08-7
##MP= -300
##BP= -300
##MW= 329
##$RETENTION INDEX=2627
##$CONDENSED SPECTRUM=NO
##NPOINTS= 129
##XYDATA=(XY..XY) 1 
    37          1
    38          7
    39         81
    40          9
    41        200
    42        187
    43        117
    44        999
    45         26
    50         26
    51         92
    52         46
    53        135
    54         26
    55         35
    56        120
    57         44
    58          3
    59          2
    61          2
    62         17
    63         58
    64          8
    65         86
    66          9
    67         24
    68        140
    69        189
    70        518
    71         26
    74          4
    75         22
    76          4
    77         21
    78          6
    79        158
    80         35
    81         23
    82         32
    83         50
    84          3
    85          1
    87          2
    88          1
    89         10
    90          1
    91         19
    92          4
    93         18
    94         10
    95         19
    96         40
    97          8
    98          1
   101         43
   102          8
   103         22
   104          3
   105          1
   107        127
   108         21
   109        379
   110         29
   115        118
   116         14
   117          1
   119          8
   120         19
   121         85
   122         58
   123         79
   124          8
   125          3
   126          1
   127         13
   128         15
   129          5
   130          1
   131          1
   133        167
   134         45
   135        182
   136         32
   137        222
   138        536
   139         46
   140          5
   141          1
   143          2
   145          6
   146         51
   147         66
   148         49
   149         28
   150         25
   151         12
   152          5
   157          1
   159          7
   160          5
   161         15
   162         16
   163         52
   164         16
   165          1
   173          1
   174          4
   175          5
   176         57
   177        162
   178         46
   179          6
   188          5
   189          4
   190         36
   191         84
   192        593
   193         81
   194          4
   206          3
   208          6
   273          1
   282          2
   298          7
   299          1
   327          1
   329        286
   330         60
   331          6