##TITLE=Library Entry 7823
##JCAMP-DX=Revision 4.10 
##DATA TYPE=MASS SPECTRUM
##SAMPLE DESCRIPTION=W.L.MEAD BRITISH PETROLEUM CO. LTD., SUNBURY-ON-THAMES,
 UK
##NAMES=HP
##CAS NAME=Heptadecane, 2,3-dimethyl-
##MOLFORM=C19H40
##CAS REGISTRY NO=61868-03-9
##MP= -300
##BP= -300
##MW= 268
##$RETENTION INDEX=0
##$CONDENSED SPECTRUM=NO
##NPOINTS= 69
##XYDATA=(XY..XY) 1 
    39         90
    40         23
    41        485
    42        134
    43        999
    44         33
    53         29
    54         33
    55        320
    56        144
    57        825
    58         36
    67         37
    68         23
    69        144
    70        149
    71        711
    72         37
    81         16
    82         27
    83        100
    84         48
    85        351
    86         23
    96         20
    97         88
    98         27
    99        113
   100          7
   110         13
   111         51
   112         18
   113         78
   114          7
   124          9
   125         32
   126         15
   127         57
   128          7
   138          7
   139         14
   140         11
   141         48
   142          5
   152          4
   153         10
   154          8
   155         39
   156          4
   166          3
   167          7
   168          6
   169         24
   170          3
   180          2
   181          5
   182          4
   183         12
   184          2
   195          1
   196          3
   197         10
   198          2
   224         93
   225         86
   226         16
   227          1
   239          1
   253          1