##TITLE=Library Entry 41824
##JCAMP-DX=Revision 4.10 
##DATA TYPE=MASS SPECTRUM
##SAMPLE DESCRIPTION=D.HENNEBERG, MAX-PLANCK INSTITUTE, MULHEIM, WEST GERMAN
Y
##NAMES=HP
##CAS NAME=Silanamine, N-(2,2-dimethylpropylidene)-1,1,1-trimethyl-
##MOLFORM=C8H19NSi
##CAS REGISTRY NO=61860-99-9
##MP= -300
##BP= -300
##MW= 157
##$RETENTION INDEX=0
##$CONDENSED SPECTRUM=NO
##NPOINTS= 58
##XYDATA=(XY..XY) 1 
    26          2
    27         30
    29         43
    30          6
    31          9
    37          3
    38          6
    39         34
    40          8
    41        144
    42        124
    43         58
    44          8
    45         85
    46          5
    47          7
    50          2
    51          3
    52          6
    54          6
    55         12
    56         12
    57         62
    58         34
    59         87
    60          7
    61          2
    64          1
    66          4
    67         16
    68         46
    69          1
    70          8
    71          4
    72         18
    73        999
    74         79
    75         52
    76          2
    77          1
    82          4
    83          0
    84          4
    85          6
    86        117
    87          9
    88          3
    96          0
    99          2
   100        382
   101         35
   102         12
   115          1
   126          0
   142         30
   143          3
   157         16
   158          1