##TITLE=Library Entry 32463
##JCAMP-DX=Revision 4.10 
##DATA TYPE=MASS SPECTRUM
##SAMPLE DESCRIPTION=D.HENNEBERG, MAX-PLANCK INSTITUTE, MULHEIM, WEST GERMAN
Y
##NAMES=HP
##CAS NAME=3-Octadecyne
##MOLFORM=C18H34
##CAS REGISTRY NO=61886-64-4
##MP= -300
##BP= -300
##MW= 250
##$RETENTION INDEX=0
##$CONDENSED SPECTRUM=NO
##NPOINTS= 121
##XYDATA=(XY..XY) 1 
    22          0
    23          0
    24          0
    25          2
    26          9
    27        103
    28         24
    29        268
    30          6
    33          0
    34          0
    35          1
    36          0
    37          5
    38          3
    39        104
    40         32
    41        618
    42         72
    43        540
    44          8
    47          2
    48          1
    49          1
    50          4
    51         13
    52         15
    53         98
    54        123
    55        502
    56         77
    57        251
    58         11
    59          1
    60          1
    61          2
    62          1
    63          6
    64          3
    65         49
    66         89
    67        999
    68        541
    69        334
    70         46
    71         60
    72          3
    73          1
    74          0
    75          4
    76          2
    77         50
    78         26
    79        139
    80         60
    81        609
    82        573
    83        213
    84         24
    85         23
    86          1
    89          1
    90          1
    91         35
    92         12
    93         54
    94         34
    95        515
    96        200
    97         88
    98         10
    99          1
   102          0
   103          1
   104          2
   105         11
   106          5
   107         28
   108         21
   109        475
   110        216
   111         40
   112          4
   115          1
   116          0
   117          3
   118          1
   119          4
   120          1
   121         11
   122          7
   123        113
   124         45
   125         12
   126          1
   127          0
   128          0
   129          1
   131          1
   133          1
   135          6
   136          1
   137         21
   138         10
   139          2
   149          1
   151          6
   152          5
   153          0
   163          0
   165          2
   166          1
   179          0
   180          1
   194          2
   207          2
   208          2
   221          8
   222          1
   248          0
   250          2