##TITLE=Library Entry 98564
##JCAMP-DX=Revision 4.10 
##DATA TYPE=MASS SPECTRUM
##SAMPLE DESCRIPTION=A.A.Kutin, Moscow, Russia
##NAMES=HP
##CAS NAME=5-(4-Methylphenyl)cyclohexane-1,3-dione
##MOLFORM=C13H14O2
##CAS REGISTRY NO=61888-37-7
##MP= -300
##BP= -300
##MW= 202
##$RETENTION INDEX=0
##$CONDENSED SPECTRUM=NO
##NPOINTS= 100
##XYDATA=(XY..XY) 1 
    34          0
    38          4
    39         83
    40         15
    41         39
    42        125
    43         30
    44          2
    45          1
    50         13
    51         46
    52         15
    53         21
    54          2
    55         13
    56        181
    57         11
    58          5
    59          0
    61          0
    62         10
    63         38
    64         31
    65        101
    66         12
    67          2
    69         40
    70          2
    71          2
    74          4
    75          8
    76          9
    77         66
    78         29
    79         19
    80          8
    81          3
    82          5
    83          3
    84         75
    85          4
    86          4
    87          3
    88          2
    89         32
    90         12
    91        236
    92         40
    93          4
    97          1
    98          0
   100          1
   101          5
   102         22
   103         49
   104         10
   105         37
   106          4
   111          1
   113          1
   115        218
   116         76
   117        542
   118        999
   119        118
   120          6
   126          1
   127         12
   128         27
   129         19
   130          7
   131         43
   132         52
   133          6
   139          1
   141          6
   142          2
   143          5
   145        895
   146        102
   147          5
   153          0
   155          0
   156          6
   157          4
   158          5
   159         52
   160         14
   161          1
   173         11
   174         48
   175          7
   184          4
   185          1
   187          7
   199          1
   200          2
   202        707
   203        102
   204         10