##TITLE=Library Entry 33104
##JCAMP-DX=Revision 4.10 
##DATA TYPE=MASS SPECTRUM
##SAMPLE DESCRIPTION=D.HENNEBERG, MAX-PLANCK INSTITUTE, MULHEIM, WEST GERMAN
Y
##NAMES=HP
##CAS NAME=3-Eicosyne
##MOLFORM=C20H38
##CAS REGISTRY NO=61886-66-6
##MP= -300
##BP= -300
##MW= 278
##$RETENTION INDEX=1988
##$CONDENSED SPECTRUM=NO
##NPOINTS= 106
##XYDATA=(XY..XY) 1 
    26         36
    27         38
    28          1
    29         98
    30          3
    31          2
    34          2
    39         30
    40         17
    41        302
    42         52
    43        503
    44         18
    48          2
    50          3
    51          4
    52          6
    53         54
    54         87
    55        454
    56         95
    57        384
    58         16
    61          2
    62          2
    65         22
    66         72
    67        999
    68        557
    69        422
    70         88
    71        170
    72          9
    76          2
    77         16
    78          9
    79         98
    80         48
    81        783
    82        835
    83        360
    84         60
    85         85
    86          5
    91         15
    92          5
    93         48
    94         44
    95        768
    96        371
    97        229
    98         34
    99         13
   100          4
   105          4
   107         21
   108         34
   109        920
   110        552
   111        130
   112         24
   113         10
   121          9
   122         15
   123        264
   124        124
   125         41
   126         11
   127          7
   135          7
   136          3
   137         60
   138         36
   139         14
   140          6
   141          2
   149          2
   151         20
   152         17
   153          6
   154          4
   155          3
   165          7
   166         11
   167          8
   168          4
   177          1
   179          5
   180          9
   182          3
   192          1
   193          3
   194          9
   208         12
   209         11
   222         14
   223          3
   235         18
   236         15
   237          2
   249         47
   250         12
   263          3
   277          3
   278         32
   279          6