##TITLE=Library Entry 32459
##JCAMP-DX=Revision 4.10 
##DATA TYPE=MASS SPECTRUM
##SAMPLE DESCRIPTION=D.HENNEBERG, MAX-PLANCK INSTITUTE, MULHEIM, WEST GERMAN
Y
##NAMES=HP
##CAS NAME=3-Hexadecyne
##MOLFORM=C16H30
##CAS REGISTRY NO=61886-62-2
##MP= -300
##BP= -300
##MW= 222
##$RETENTION INDEX=0
##$CONDENSED SPECTRUM=NO
##NPOINTS= 91
##XYDATA=(XY..XY) 1 
    23          1
    25          4
    26          9
    27        150
    28         19
    29        298
    30          7
    33          1
    34          1
    36          1
    38          6
    39        133
    40         42
    41        654
    42         89
    43        509
    44         91
    47          3
    48          2
    49          2
    50          7
    51         22
    52         19
    53        114
    54        132
    55        502
    56         88
    57        217
    58         12
    61          2
    62          2
    63          7
    64          5
    65         50
    66         84
    67        999
    68        446
    69        287
    70         50
    71         56
    72          3
    73          1
    75          5
    76          2
    77         52
    78         19
    79        138
    80         46
    81        563
    82        443
    83        144
    84         21
    85         16
    86          1
    91         33
    92          6
    93         48
    94         28
    95        508
    96        144
    97         69
    98         11
    99          1
   103          1
   105          6
   106          1
   107         22
   108         15
   109        408
   110        164
   111         29
   112          2
   121         10
   122          6
   123         86
   124         31
   125          4
   133          0
   135          2
   137         19
   138          6
   151          3
   152          1
   165          1
   166          2
   179          3
   180          1
   193         10
   194          0
   208          0
   222          1