##TITLE=Library Entry 46837
##JCAMP-DX=Revision 4.10 
##DATA TYPE=MASS SPECTRUM
##SAMPLE DESCRIPTION=NIST Mass Spectrometry Data Center, 2010
##NAMES=HP
##CAS NAME=Benzenemethanol, 3-nitro-
##MOLFORM=C7H7NO3
##CAS REGISTRY NO=619-25-0
##MP= -300
##BP= -300
##MW= 153
##$RETENTION INDEX=1545
##$CONDENSED SPECTRUM=NO
##NPOINTS= 92
##XYDATA=(XY..XY) 1 
    18          6
    25          1
    26          7
    27         39
    28          7
    29         39
    30         41
    31         50
    36          2
    37         17
    38         28
    39        103
    40         17
    41         29
    42          6
    43          6
    45          1
    46         14
    48          1
    49          9
    50        157
    51        288
    52         75
    53         96
    54          7
    55         18
    56          2
    57          4
    58          4
    60          3
    61         17
    62         44
    63        122
    64         40
    65         42
    66         28
    67         17
    68          5
    69          2
    71          1
    73         13
    74         72
    75         57
    76         95
    77        999
    78        298
    79        113
    80          7
    81          4
    84          2
    85          6
    86          9
    87          9
    88          4
    89        545
    90         77
    91         19
    92         21
    93         11
    94         51
    95         10
    98          2
    99          1
   103          3
   104         15
   105        186
   106        297
   107        374
   108        147
   109          9
   120          8
   121         27
   122         14
   123         27
   124         52
   125          8
   127         10
   128         20
   134          2
   135          7
   136        305
   137         58
   138          4
   139          3
   147          1
   149          1
   150         16
   151         12
   152         52
   153        293
   154         20
   155          2