##TITLE=Library Entry 31937
##JCAMP-DX=Revision 4.10 
##DATA TYPE=MASS SPECTRUM
##SAMPLE DESCRIPTION=Chemical Concepts
##NAMES=HP
##CAS NAME=Benzoic acid, 4-nitroso-
##MOLFORM=C7H5NO3
##CAS REGISTRY NO=619-68-1
##MP= -300
##BP= -300
##MW= 151
##$RETENTION INDEX=0
##$CONDENSED SPECTRUM=NO
##NPOINTS= 74
##XYDATA=(XY..XY) 1 
    25          2
    26         11
    27         37
    29         13
    30         48
    31          5
    36          6
    37         38
    38         51
    39        279
    40         66
    41          9
    42          2
    43         14
    44         13
    45         48
    46          2
    49         15
    50        244
    51        188
    52         22
    53         43
    54          2
    55          4
    56          3
    57          3
    59          2
    60          6
    61         22
    62         30
    63         44
    64         27
    65        999
    66         55
    67          5
    69          3
    71          2
    73         24
    74        131
    75        185
    76        140
    77         20
    78          3
    79          2
    87          2
    88          3
    89          5
    90          4
    91          4
    92         23
    93         95
    94          6
    97          2
    98          4
   102          3
   103         55
   104         65
   105          8
   106          4
   109          2
   119          2
   120         45
   121        469
   122         41
   123          3
   134         12
   137         31
   138          4
   149          5
   150          3
   151        945
   152         65
   153          9
   155          4