##TITLE=Library Entry 17958
##JCAMP-DX=Revision 4.10 
##DATA TYPE=MASS SPECTRUM
##SAMPLE DESCRIPTION=Japan AIST/NIMC Database- Spectrum MS-NW-1284
##NAMES=HP
##CAS NAME=Ethane, 1,1-dichloro-2,2-diethoxy-
##MOLFORM=C6H12Cl2O2
##CAS REGISTRY NO=619-33-0
##MP= -300
##BP= -300
##MW= 186
##$RETENTION INDEX=0
##$CONDENSED SPECTRUM=NO
##NPOINTS= 93
##XYDATA=(XY..XY) 1 
    13          1
    14          9
    15         32
    16          1
    17          1
    18          3
    25          1
    26         25
    27        203
    28         40
    29        647
    30         14
    31        113
    32          5
    35          2
    36          8
    38          3
    39          3
    40          1
    41         16
    42         22
    43         37
    44          7
    45         98
    46          3
    47        999
    48         19
    49         71
    50          9
    51         22
    52          1
    54          1
    55          1
    57          2
    59         20
    60          4
    61         11
    62          1
    63         19
    65         11
    67          3
    73          2
    74          1
    75        626
    76         21
    77         69
    78         65
    79         26
    80         21
    81          2
    82          1
    83         21
    84          4
    85         13
    86          3
    87          7
    93          9
    94          4
    95          7
    96          4
    97          2
    98          2
   103        441
   104         24
   105          6
   106          7
   107          3
   108          2
   109          4
   111          4
   112         11
   113        322
   114         12
   115        209
   116          6
   117         32
   118          1
   127          1
   129          6
   131          4
   133          1
   137          2
   140          1
   141        173
   142          9
   143        109
   144          5
   145         16
   146          1
   147          2
   149          2
   157          2
   159          1