##TITLE=Library Entry 9065
##JCAMP-DX=Revision 4.10 
##DATA TYPE=MASS SPECTRUM
##SAMPLE DESCRIPTION=NIST Mass Spectrometry Data Center
##NAMES=HP
##CAS NAME=4-Isopropyl-1-methylcyclohex-2-enol
##MOLFORM=C10H18O
##CAS REGISTRY NO=619-62-5
##MP= -300
##BP= -300
##MW= 154
##$RETENTION INDEX=1126
##$CONDENSED SPECTRUM=NO
##NPOINTS= 102
##XYDATA=(XY..XY) 1 
    15          1
    26          3
    27         80
    28         11
    29         44
    30          1
    31         10
    37          2
    38          8
    39        153
    40         29
    41        290
    42         29
    43        999
    44         23
    45         48
    46          2
    49          1
    50         12
    51         47
    52         20
    53         88
    54         23
    55        242
    56         25
    57         45
    58         80
    59         21
    60          1
    61          2
    62          5
    63         17
    64          5
    65         67
    66         37
    67        185
    68         52
    69        339
    70         32
    71        387
    72         19
    73          3
    74         30
    75          5
    76          3
    77        176
    78         36
    79        335
    80         44
    81        268
    82         35
    83        171
    84        193
    85         23
    86         37
    87         12
    88          2
    89          3
    90          1
    91        112
    92         73
    93        283
    94        257
    95        147
    96         81
    97         81
    98         16
    99          3
   102          2
   103          5
   104          2
   105         13
   106          4
   107         43
   108         17
   109         13
   110         29
   111        336
   112         29
   113          2
   115          5
   116          1
   117          2
   119          6
   120          1
   121        222
   122         24
   123          8
   124          1
   125         22
   126         21
   127          5
   129          1
   132          1
   135          2
   136        119
   137         13
   139        356
   140         35
   141          2
   154         63
   155          6