##TITLE=Library Entry 81296
##JCAMP-DX=Revision 4.10 
##DATA TYPE=MASS SPECTRUM
##SAMPLE DESCRIPTION=NIST Mass Spectrometry Data Center
##NAMES=HP
##CAS NAME=4-Ethylbenzoic acid
##MOLFORM=C9H10O2
##CAS REGISTRY NO=619-64-7
##MP= -300
##BP= -300
##MW= 150
##$RETENTION INDEX=0
##$CONDENSED SPECTRUM=NO
##NPOINTS= 60
##XYDATA=(XY..XY) 1 
    12         25
    13         15
    15         74
    16         22
    18          5
    19         29
    27        164
    28         40
    29         34
    34          9
    36         10
    37         17
    38         63
    39        188
    40         24
    41         22
    43         23
    45        158
    50        186
    51        322
    52         52
    53         69
    55         17
    61         28
    62         83
    63        181
    64         45
    65         96
    66         21
    73         19
    74         92
    75         73
    77        436
    78        116
    79        252
    80         17
    87         15
    89        124
    90         93
    91        231
    92         33
   101         21
   102         49
   103        161
   105        999
   106        167
   107        477
   108         38
   111         18
   117          9
   118         11
   131         28
   132         22
   133         65
   135        541
   136         72
   139         24
   147         16
   150        598
   151         69