##TITLE=Library Entry 50764
##JCAMP-DX=Revision 4.10 
##DATA TYPE=MASS SPECTRUM
##SAMPLE DESCRIPTION=Japan AIST/NIMC Database- Spectrum MS-NW-1667
##NAMES=HP
##CAS NAME=1,4-Cyclohexanedicarboxylic acid, trans-
##MOLFORM=C8H12O4
##CAS REGISTRY NO=619-82-9
##MP= -300
##BP= -300
##MW= 172
##$RETENTION INDEX=0
##$CONDENSED SPECTRUM=NO
##NPOINTS= 89
##XYDATA=(XY..XY) 1 
    15          7
    17          4
    18         14
    26         12
    27        140
    28         26
    29         81
    30          2
    31         14
    37          3
    38          9
    39        164
    40         25
    41        243
    42         18
    43        181
    44          8
    45         67
    46          3
    47         10
    49          1
    50         12
    51         29
    52         16
    53         98
    54        164
    55        126
    56         11
    57         36
    58          6
    59          5
    60          5
    61          2
    62          1
    63          4
    65         15
    66         50
    67        184
    68         34
    69         32
    70          8
    71          9
    72          3
    73         67
    74          5
    75          1
    77         34
    78          9
    79        111
    80        271
    81        999
    82         82
    83         12
    84          8
    85         11
    86         36
    87          9
    91          5
    92          4
    93          3
    94         16
    95         36
    96          3
    97         31
    98         16
    99         12
   100          8
   105          1
   106          1
   107          9
   108        413
   109        136
   110         12
   111         24
   112         45
   113          4
   118          1
   123          1
   125         12
   126        534
   127         59
   128          5
   136         56
   137          6
   153          1
   154        227
   155         21
   156          2
   172          1