##TITLE=Library Entry 100357
##JCAMP-DX=Revision 4.10 
##DATA TYPE=MASS SPECTRUM
##SAMPLE DESCRIPTION=Japan AIST/NIMC Database- Spectrum MS-IW- 262
##NAMES=HP
##CAS NAME=Benzamide, 4-methyl-
##MOLFORM=C8H9NO
##CAS REGISTRY NO=619-55-6
##MP= -300
##BP= -300
##MW= 135
##$RETENTION INDEX=0
##$CONDENSED SPECTRUM=NO
##NPOINTS= 59
##XYDATA=(XY..XY) 1 
    27          5
    28          9
    37          2
    38          6
    39         44
    40          4
    41         12
    43          4
    44         21
    45          8
    46          1
    49          1
    50         12
    51         20
    52          7
    53         20
    54          2
    58          1
    59          5
    60          1
    61          3
    62         10
    63         33
    64          9
    65        137
    66          8
    67          3
    73          1
    74          3
    75          3
    76          2
    77          9
    78          2
    79          4
    85          1
    86          3
    87          2
    88          1
    89         35
    90         23
    91        558
    92         44
    93          1
   104          2
   105          1
   106          6
   107          1
   109          1
   116          5
   117          9
   118          9
   119        999
   120         88
   121          5
   133          1
   134          2
   135        764
   136         75
   137          5