##TITLE=Library Entry 76023
##JCAMP-DX=Revision 4.10 
##DATA TYPE=MASS SPECTRUM
##SAMPLE DESCRIPTION=NIST Mass Spectrometry Data Center, 1998.
##NAMES=HP
##CAS NAME=Benzonitrile, 4-nitro-
##MOLFORM=C7H4N2O2
##CAS REGISTRY NO=619-72-7
##MP= -300
##BP= -300
##MW= 148
##$RETENTION INDEX=0
##$CONDENSED SPECTRUM=NO
##NPOINTS= 50
##XYDATA=(XY..XY) 1 
    26          4
    27         22
    28         11
    29          4
    30        241
    36          3
    37         40
    38         39
    39         42
    40          3
    41          6
    46          8
    48          5
    49         36
    50        232
    51        268
    52         69
    53          2
    60          5
    61         15
    62         43
    63         82
    64         59
    65          4
    72          2
    73         19
    74         97
    75        402
    76        221
    77          9
    85          3
    86          4
    87          6
    88          7
    89          5
    90        271
    91         35
    98          1
    99         34
   100         12
   101         11
   102        999
   103         79
   104          2
   117          3
   118        128
   119          6
   132         20
   148        361
   149         28