##TITLE=Library Entry 50763
##JCAMP-DX=Revision 4.10 
##DATA TYPE=MASS SPECTRUM
##SAMPLE DESCRIPTION=NIST Mass Spectrometry Data Center, 2011
##NAMES=HP
##CAS NAME=cis-Hexahydroterephthalic acid
##MOLFORM=C8H12O4
##CAS REGISTRY NO=619-81-8
##MP= -300
##BP= -300
##MW= 172
##$RETENTION INDEX=0
##$CONDENSED SPECTRUM=NO
##NPOINTS= 103
##XYDATA=(XY..XY) 1 
    15          5
    19          2
    20          1
    25          1
    26         15
    27        147
    28         46
    29         99
    30          3
    31         19
    36          3
    37          4
    38         15
    39        264
    40         39
    41        320
    42         39
    43        183
    44         22
    45        237
    46         10
    47         17
    49          2
    50         26
    51         58
    52         31
    53        172
    54        341
    55        294
    56         32
    57         46
    58          9
    59          6
    60         13
    61          4
    62          3
    63          8
    64          2
    65         32
    66         92
    67        326
    68         87
    69         63
    70         12
    71         18
    72          5
    73        120
    74          9
    75         17
    76          2
    77         82
    78         18
    79        261
    80        513
    81        999
    82        104
    83         21
    84         15
    85         18
    86         81
    87         18
    88          2
    90          1
    91          8
    92          9
    93          5
    94         27
    95         55
    96          4
    97         83
    98         18
    99         25
   100         17
   101          1
   105          2
   106          1
   107         14
   108        834
   109        106
   110         16
   111         36
   112         82
   113          8
   118          2
   119          5
   121          2
   123          2
   124          1
   125         12
   126        840
   127         75
   128         15
   129          1
   135          1
   136         60
   137          6
   138          1
   139          1
   152          1
   153          1
   154         87
   155         14
   156          1