##TITLE=Library Entry 66379
##JCAMP-DX=Revision 4.10 
##DATA TYPE=MASS SPECTRUM
##SAMPLE DESCRIPTION=Japan AIST/NIMC Database- Spectrum MS-NW-7606
##NAMES=HP
##CAS NAME=Cyclohexanol, 2-methyl-5-(1-methylethenyl)-
##MOLFORM=C10H18O
##CAS REGISTRY NO=619-01-2
##MP= -300
##BP= -300
##MW= 154
##$RETENTION INDEX=1195
##$CONDENSED SPECTRUM=NO
##NPOINTS= 123
##XYDATA=(XY..XY) 1 
    14          2
    15         21
    16          1
    17          3
    18         10
    26         13
    27        253
    28         44
    29        214
    30         11
    31         51
    32          7
    37          4
    38         18
    39        376
    40         98
    41        706
    42         88
    43        301
    44         24
    45         38
    46          1
    47          1
    48          1
    49          2
    50         24
    51         67
    52         42
    53        278
    54         86
    55        485
    56        122
    57        123
    58        156
    59         45
    60          3
    61          2
    62          9
    63         24
    64          8
    65         81
    66         50
    67        544
    68        662
    69        409
    70        134
    71        154
    72        114
    73          8
    74          4
    75          3
    76          3
    77        157
    78         41
    79        705
    80        188
    81        548
    82        311
    83        167
    84         91
    85         30
    86          7
    87          2
    88          1
    89          5
    90          2
    91        176
    92        215
    93        999
    94        455
    95        250
    96        150
    97        226
    98         40
    99         10
   100          2
   101          1
   102          2
   103         10
   104          5
   105         74
   106         34
   107        866
   108        244
   109         50
   110         36
   111         99
   112         21
   113          5
   115          9
   116          3
   117         12
   118          3
   119         40
   120          9
   121        814
   122         87
   123         23
   124          4
   125          8
   126          3
   127          1
   128          2
   129          1
   130          1
   131          3
   132         10
   133          4
   134         20
   135         24
   136        717
   137         87
   138          6
   139         25
   140          3
   148          2
   149          1
   150          7
   151          2
   152         15
   153          4
   154         26
   155          3