##TITLE=Library Entry 47150
##JCAMP-DX=Revision 4.10 
##DATA TYPE=MASS SPECTRUM
##SAMPLE DESCRIPTION=Japan AIST/NIMC Database- Spectrum MS-NW-1714
##NAMES=HP
##CAS NAME=Benzenemethanol, 4-nitro-
##MOLFORM=C7H7NO3
##CAS REGISTRY NO=619-73-8
##MP= -300
##BP= -300
##MW= 153
##$RETENTION INDEX=0
##$CONDENSED SPECTRUM=NO
##NPOINTS= 98
##XYDATA=(XY..XY) 1 
    15          2
    16          1
    18          1
    25          1
    26         13
    27         91
    28         38
    29         82
    30         85
    31        106
    32          2
    36          1
    37         23
    38         50
    39        178
    40         21
    41         77
    42          4
    43          9
    44          3
    45          1
    46         15
    48          1
    49         13
    50        210
    51        384
    52         99
    53         99
    54          6
    55         30
    56          2
    57          7
    60          5
    61         19
    62         51
    63        144
    64         38
    65         46
    66         41
    67         42
    68          8
    69         12
    70          2
    71          3
    73         16
    74         76
    75         62
    76         83
    77        999
    78        362
    79        264
    80         18
    81          9
    82          2
    83          3
    84          1
    85          5
    86          9
    87         10
    88          4
    89        430
    90         54
    91         15
    92         16
    93          6
    94         65
    95         19
    96          2
    97          3
    98          1
   103          2
   104         15
   105        112
   106        232
   107        475
   108        178
   109         12
   110          1
   111          1
   120          4
   121          7
   122         16
   123          9
   124         65
   125         19
   126          1
   129          2
   135          3
   136        156
   137         32
   138          3
   149          1
   150         12
   151          8
   152         50
   153        446
   154         36
   155          4