##TITLE=Library Entry 81295
##JCAMP-DX=Revision 4.10 
##DATA TYPE=MASS SPECTRUM
##SAMPLE DESCRIPTION=Japan AIST/NIMC Database- Spectrum MS-NW-3615
##NAMES=HP
##CAS NAME=Benzoic acid, 3,4-dimethyl-
##MOLFORM=C9H10O2
##CAS REGISTRY NO=619-04-5
##MP= -300
##BP= -300
##MW= 150
##$RETENTION INDEX=1387
##$CONDENSED SPECTRUM=NO
##NPOINTS= 93
##XYDATA=(XY..XY) 1 
    14          1
    15          3
    17          1
    18          3
    26          4
    27         56
    28          6
    29          5
    32          1
    37          6
    38         16
    39         89
    40          9
    41         18
    42          1
    43         12
    44          4
    45         18
    49          6
    50         42
    51        109
    52         29
    53         39
    54          3
    55          7
    56          1
    57          1
    59          6
    60          2
    61          8
    62         22
    63         57
    64         12
    65         45
    66         15
    67          4
    68          1
    69          1
    73          4
    74         29
    75         15
    76         12
    77        201
    78         67
    79        128
    80          9
    81          3
    83          1
    85          2
    86          5
    87          5
    88          2
    89         22
    90         10
    91        299
    92         24
    93          7
    94          6
    95          1
    97          1
    98          4
    99          1
   101          4
   102         16
   103        102
   104         77
   105        999
   106        127
   107         36
   108          3
   109          1
   111          1
   117          1
   118          2
   119          5
   120          2
   121         29
   122          6
   123          1
   129          1
   131          8
   132         46
   133        325
   134         42
   135        118
   136         10
   137          1
   147          1
   148          7
   149         55
   150        878
   151         89
   152          9