##TITLE=Library Entry 45407
##JCAMP-DX=Revision 4.10 
##DATA TYPE=MASS SPECTRUM
##SAMPLE DESCRIPTION=R.T. LOEFFLER,LONG ASHTON RES. STN.,LONG ASHTON,BRISTOL
,U.K.
##NAMES=HP
##CAS NAME=1-Chloro-2,5-dinitrobenzene
##MOLFORM=C6H3ClN2O4
##CAS REGISTRY NO=619-16-9
##MP= -300
##BP= -300
##MW= 202
##$RETENTION INDEX=0
##$CONDENSED SPECTRUM=NO
##NPOINTS= 57
##XYDATA=(XY..XY) 1 
    36         19
    37         65
    38        104
    39         29
    44         13
    45         15
    46         81
    47         10
    49         42
    50        212
    51         52
    52         25
    53         51
    54         14
    60         21
    61         65
    62        159
    63        546
    64         62
    65         13
    72         39
    73        151
    74        735
    75        999
    76        112
    77         14
    79         18
    84        171
    85         34
    86         65
    87         39
    88         26
    89         11
    90         11
    91         52
    97         34
    98         61
    99         17
   100         20
   108         27
   109        379
   110        426
   111        165
   112        131
   113         16
   121         12
   125         12
   126        103
   127         11
   128         33
   156         59
   158         18
   186         16
   202        407
   203         36
   204        126
   205         10