##TITLE=Library Entry 49763
##JCAMP-DX=Revision 4.10 
##DATA TYPE=MASS SPECTRUM
##SAMPLE DESCRIPTION=Japan AIST/NIMC Database- Spectrum MS-IW-6651
##NAMES=HP
##CAS NAME=cis-Hept-4-enol
##MOLFORM=C7H14O
##CAS REGISTRY NO=6191-71-5
##MP= -300
##BP= -300
##MW= 114
##$RETENTION INDEX=949
##$CONDENSED SPECTRUM=NO
##NPOINTS= 72
##XYDATA=(XY..XY) 1 
    14          1
    15         11
    17          1
    18          3
    26         10
    27        177
    28         33
    29        165
    30          7
    31        152
    32          4
    37          3
    38         11
    39        217
    40         43
    41        723
    42        237
    43        198
    44        127
    45         47
    46          3
    47          1
    49          1
    50         12
    51         27
    52         12
    53        141
    54        333
    55        612
    56         92
    57        175
    58         22
    59          6
    61          1
    62          3
    63          6
    64          1
    65         34
    66         27
    67        384
    68        403
    69        105
    70         80
    71        321
    72         29
    73          3
    74          1
    75          1
    77         21
    78          4
    79        103
    80         11
    81        999
    82         68
    83         20
    84          8
    85         34
    86         35
    87          2
    91          5
    93          5
    94          2
    95         45
    96        316
    97         32
    98          2
    99          3
   110          2
   112          1
   113          4
   114         54
   115          5