##TITLE=Library Entry 57112
##JCAMP-DX=Revision 4.10 
##DATA TYPE=MASS SPECTRUM
##SAMPLE DESCRIPTION=NIST Mass Spectrometry Data Center, 2009
##NAMES=HP
##CAS NAME=Ethanol, 2-phenoxy-, acetate
##MOLFORM=C10H12O3
##CAS REGISTRY NO=6192-44-5
##MP= -300
##BP= -300
##MW= 180
##$RETENTION INDEX=1427
##$CONDENSED SPECTRUM=NO
##NPOINTS= 65
##XYDATA=(XY..XY) 1 
    14          1
    15          9
    26          3
    27         10
    28          6
    29          6
    30          1
    31          1
    37          3
    38         12
    39         62
    40          8
    41          3
    42         17
    43        738
    44         19
    45         11
    49          1
    50         27
    51         99
    52          9
    53          5
    54          1
    55          7
    61          6
    62          8
    63         25
    64         10
    65         78
    66         34
    67          2
    68          1
    73          2
    74          7
    75          5
    76          8
    77        215
    78         22
    79         30
    80          2
    81          1
    86         33
    87        999
    88         46
    89          6
    91         42
    92         10
    93         14
    94        203
    95         18
    96          1
   103          2
   105          1
   107         37
   108          6
   109          1
   119         13
   120         26
   121          9
   122          1
   137          1
   179          1
   180         40
   181          4
   182          1