##TITLE=Library Entry 12829
##JCAMP-DX=Revision 4.10 
##DATA TYPE=MASS SPECTRUM
##SAMPLE DESCRIPTION=NIST Mass Spectrometry Data Center
##NAMES=HP
##CAS NAME=Phenol, 2,3-dichloro-, acetate
##MOLFORM=C8H6Cl2O2
##CAS REGISTRY NO=61925-85-7
##MP= -300
##BP= -300
##MW= 204
##$RETENTION INDEX=1351
##$CONDENSED SPECTRUM=NO
##NPOINTS= 115
##XYDATA=(XY..XY) 1 
    12          1
    13          3
    14         15
    15         77
    16          1
    17          1
    18          5
    25          1
    26          6
    27          3
    28          9
    29          4
    31          2
    32          1
    35          2
    36          2
    37         27
    38         15
    39         21
    41          5
    42         31
    43        999
    44         29
    45          3
    47          4
    48          5
    49         11
    50         13
    51          5
    52          1
    53          6
    54          2
    55          2
    60          4
    61         26
    62         48
    63        167
    64         15
    65          5
    66          3
    67          1
    71          4
    72         36
    73         56
    74         26
    75         25
    76          1
    77          3
    78          1
    83         11
    84         10
    85          9
    86          4
    87          5
    89          2
    90          1
    91          7
    92          2
    94          1
    95          1
    96          6
    97         24
    98         53
    99         29
   100         17
   101          8
   102          1
   106          1
   107         22
   108          2
   109         24
   110          4
   111          7
   112          2
   113          1
   119          2
   123          1
   125          1
   126        148
   127         13
   128         50
   129          5
   130          1
   131          1
   133         58
   134          5
   135         37
   136          3
   137          6
   138          1
   141          1
   145         11
   146          1
   147          7
   148          1
   149          1
   154          1
   156          1
   157          1
   158          1
   161          7
   162        828
   163         61
   164        496
   165         36
   166         80
   167          6
   169          1
   189          1
   204        105
   205          9
   206         64
   207          6
   208         10
   209          1