##TITLE=Library Entry 12159
##JCAMP-DX=Revision 4.10 
##DATA TYPE=MASS SPECTRUM
##SAMPLE DESCRIPTION=MYCOTOXINS MASS SPECTRAL DATA BANK, L.R. DUSOLD ET AL,
 FDA, USA
##NAMES=HP
##CAS NAME=4H-Furo[3,2-c]pyran-2(6H)-one, 4-(acetyloxy)-
##MOLFORM=C9H8O5
##CAS REGISTRY NO=6192-26-3
##MP= -300
##BP= -300
##MW= 196
##$RETENTION INDEX=0
##$CONDENSED SPECTRUM=NO
##NPOINTS= 18
##XYDATA=(XY..XY) 1 
    27        160
    43        999
    53        210
    54         71
    55        400
    66         92
    81        194
    82         80
   108         67
   109         67
   110         97
   125         67
   126         92
   136        746
   137        637
   138         84
   154        215
   196         75