##TITLE=Library Entry 74
##JCAMP-DX=Revision 4.10 
##DATA TYPE=MASS SPECTRUM
##SAMPLE DESCRIPTION=F. TURECEK,HEYROVSKY INST PHYS CHEM & ELECTROCHEM,PRAGU
E,CZECH
##NAMES=HP
##CAS NAME=Propane, 1-(ethenylsulfinyl)-
##MOLFORM=C5H10OS
##CAS REGISTRY NO=61926-31-6
##MP= -300
##BP= -300
##MW= 118
##$RETENTION INDEX=0
##$CONDENSED SPECTRUM=NO
##NPOINTS= 48
##XYDATA=(XY..XY) 1 
    14         19
    15         87
    25         13
    26        111
    27        999
    28         72
    29        111
    31         72
    32         26
    33         11
    34         18
    37         22
    38         43
    39        333
    40         44
    41        930
    42         92
    43        761
    44         36
    45        195
    46         93
    47        249
    48         81
    49         38
    50         47
    55         19
    56         10
    57         32
    58         96
    59        136
    60        153
    61         32
    63         67
    67         11
    68         56
    69        164
    70         14
    73         52
    74         10
    75         34
    76        840
    77         39
    78         40
    89         11
   100        114
   101         60
   102         11
   118         40