##TITLE=Library Entry 12830
##JCAMP-DX=Revision 4.10 
##DATA TYPE=MASS SPECTRUM
##SAMPLE DESCRIPTION=TNO Volatile Compounds in Food - Chemical Concepts
##NAMES=HP
##CAS NAME=Phenol, 3,5-dichloro-, acetate
##MOLFORM=C8H6Cl2O2
##CAS REGISTRY NO=61925-86-8
##MP= -300
##BP= -300
##MW= 204
##$RETENTION INDEX=1336
##$CONDENSED SPECTRUM=NO
##NPOINTS= 91
##XYDATA=(XY..XY) 1 
    35          2
    36          8
    37         10
    38         21
    39          9
    40         25
    41         55
    42         51
    43        999
    44         59
    45         12
    46          0
    47          3
    48          4
    49         13
    50         13
    51          2
    53          9
    55          8
    56         19
    57          5
    58          0
    60          3
    61         12
    62         38
    63        126
    64         10
    66          2
    67          2
    68          0
    70          1
    71          4
    72          5
    73         33
    74         26
    75         22
    77          1
    78          1
    82          0
    83         12
    84          8
    85          7
    86          9
    87          3
    91         11
    92          2
    96          3
    97         10
    98         37
    99         58
   100         14
   101         17
   103          3
   108          1
   109         16
   110          2
   111          4
   117          0
   125          0
   126          9
   127          6
   128          4
   129          1
   132          1
   133         37
   134          9
   135         25
   136          4
   137          4
   143          1
   145          8
   146          0
   147          6
   149          2
   160          0
   161          5
   162        732
   163         50
   164        467
   165         26
   166         76
   167          5
   170          0
   187          0
   191          0
   204        164
   205         18
   206        122
   207          5
   208         14
   209          1