##TITLE=Library Entry 17321
##JCAMP-DX=Revision 4.10 
##DATA TYPE=MASS SPECTRUM
##SAMPLE DESCRIPTION=Japan AIST/NIMC Database- Spectrum MS-NW-1484
##NAMES=HP
##CAS NAME=cis-3-Hexenyllactate
##MOLFORM=C9H16O3
##CAS REGISTRY NO=61931-81-5
##MP= -300
##BP= -300
##MW= 172
##$RETENTION INDEX=1187
##$CONDENSED SPECTRUM=NO
##NPOINTS= 82
##XYDATA=(XY..XY) 1 
    13          1
    14          6
    15         40
    16          2
    17          2
    18          7
    25          1
    26         15
    27        181
    28         33
    29        116
    30          8
    31         27
    32          5
    36          1
    37          3
    38          9
    39        156
    40         28
    41        434
    42         73
    43        169
    44         29
    45        999
    46         23
    47          2
    49          1
    50          9
    51         19
    52          9
    53         76
    54        100
    55        527
    56         43
    57         36
    58         15
    59         13
    60          4
    61          1
    62          1
    63          4
    64          1
    65         15
    66         12
    67        931
    68         61
    69         42
    70         34
    71         10
    72          5
    73          4
    74          2
    75         26
    76          1
    77          8
    78          3
    79         22
    80         12
    81         96
    82        992
    83        165
    84         10
    85          8
    86          9
    87          7
    89          1
    91          2
    95          4
    96          9
    97          6
    98          9
    99         43
   100          7
   101          2
   102          2
   103          1
   113          6
   114          2
   115          2
   124          1
   127          2
   128          1