##TITLE=Library Entry 72332
##JCAMP-DX=Revision 4.10 
##DATA TYPE=MASS SPECTRUM
##SAMPLE DESCRIPTION=P.TOFT DEPT. NATIONAL HEALTH & WELFARE, OTTAWA, CANADA
##NAMES=HP
##CAS NAME=Estr-5-ene-3,17-dione, cyclic 3-(1,2-ethanediyl acetal)
##MOLFORM=C20H28O3
##CAS REGISTRY NO=6193-98-2
##MP= -300
##BP= -300
##MW= 316
##$RETENTION INDEX=0
##$CONDENSED SPECTRUM=NO
##NPOINTS= 15
##XYDATA=(XY..XY) 1 
    77        226
    79        365
    86        366
    91        419
    98         86
    99        999
   100        115
   105        246
   117         75
   288         52
   289         26
   290         10
   316        200
   317         60
   318         18