##TITLE=Library Entry 81121
##JCAMP-DX=Revision 4.10 
##DATA TYPE=MASS SPECTRUM
##SAMPLE DESCRIPTION=CHBEAM,111(2)673(1978); H. BRUNNER AND J. DOPPELBERGER
##NAMES=HP
##CAS NAME=Phosphinous amide, N-ethyl-P,P-diphenyl-N-(1-phenylethyl)-, (S)-
##MOLFORM=C22H24NP
##CAS REGISTRY NO=61937-85-7
##MP= -300
##BP= -300
##MW= 333
##$RETENTION INDEX=0
##$CONDENSED SPECTRUM=NO
##NPOINTS= 10
##XYDATA=(XY..XY) 1 
   105        999
   108        330
   109        250
   134        460
   183        280
   185        270
   214        140
   228         70
   262        130
   333         30