##TITLE=Library Entry 88683
##JCAMP-DX=Revision 4.10 
##DATA TYPE=MASS SPECTRUM
##SAMPLE DESCRIPTION=Japan AIST/NIMC Database- Spectrum MS-NW-8583
##NAMES=HP
##CAS NAME=Cyclopropyl 2-thienyl ketone
##MOLFORM=C8H8OS
##CAS REGISTRY NO=6193-47-1
##MP= -300
##BP= -300
##MW= 152
##$RETENTION INDEX=0
##$CONDENSED SPECTRUM=NO
##NPOINTS= 88
##XYDATA=(XY..XY) 1 
    15          2
    26          3
    27          9
    29          1
    34          1
    37          6
    38         17
    39        230
    40         16
    41         61
    42          4
    43          1
    44          4
    45         39
    46          1
    47          2
    49          2
    50          9
    51          9
    52          2
    53         11
    54          1
    55          5
    57         21
    58         12
    59          2
    60          2
    61          4
    62          4
    63          7
    64          1
    65          7
    66          2
    67          4
    68          9
    69         50
    70          5
    71          2
    74          1
    75          2
    76          2
    77          7
    78          4
    79          8
    80          1
    81          9
    82         13
    83         78
    84         12
    85          5
    86          1
    89          3
    90          1
    91         31
    92          2
    93          1
    95          3
    96          7
    97         17
    98          2
    99          1
   107          6
   108          2
   109          4
   110          2
   111        999
   112         63
   113         47
   114          2
   119         13
   120          1
   121         11
   122         12
   123         27
   124          5
   125          3
   126          4
   128          1
   133         10
   134          2
   135          8
   137          4
   150          1
   151         98
   152        264
   153         31
   154         13
   155          1