##TITLE=Library Entry 30455
##JCAMP-DX=Revision 4.10 
##DATA TYPE=MASS SPECTRUM
##SAMPLE DESCRIPTION=ATLAS OF MASS SPECTRA OF ORGANIC COMPOUNDS, V. A. KOPTY
UG, ED.
##NAMES=HP
##CAS NAME=Diazene, [1-(2,2-dimethylhydrazino)-2-methylpropyl]ethyl-
##MOLFORM=C8H20N4
##CAS REGISTRY NO=61940-94-1
##MP= -300
##BP= -300
##MW= 172
##$RETENTION INDEX=0
##$CONDENSED SPECTRUM=NO
##NPOINTS= 32
##XYDATA=(XY..XY) 1 
    27        112
    28        180
    29        135
    30        101
    39         37
    40         11
    41         91
    42        146
    43        213
    44        360
    45        101
    46        112
    54          9
    55         92
    56         54
    57         34
    58         54
    59        999
    60         54
    68          7
    70         44
    71         21
    72         79
    73         55
    85         18
    86          8
    99         33
   100         16
   113          9
   114         27
   115        561
   116         47