##TITLE=Library Entry 57185
##JCAMP-DX=Revision 4.10 
##DATA TYPE=MASS SPECTRUM
##SAMPLE DESCRIPTION=ATLAS OF MASS SPECTRA OF ORGANIC COMPOUNDS, V. A. KOPTY
UG, ED.
##NAMES=HP
##CAS NAME=Diazene, butyl[1-(2,2-dimethylhydrazino)ethyl]-
##MOLFORM=C8H20N4
##CAS REGISTRY NO=61940-95-2
##MP= -300
##BP= -300
##MW= 172
##$RETENTION INDEX=0
##$CONDENSED SPECTRUM=NO
##NPOINTS= 24
##XYDATA=(XY..XY) 1 
    28        133
    29        216
    30         87
    39         43
    40         15
    41        150
    42        216
    43        133
    44        867
    45        133
    46         52
    55         15
    56         20
    57         70
    58         87
    59        104
    60          8
    70         15
    71         55
    72         10
    85         55
    86        110
    87        999
    88         62