##TITLE=Library Entry 66100
##JCAMP-DX=Revision 4.10 
##DATA TYPE=MASS SPECTRUM
##SAMPLE DESCRIPTION=G.S. GROENEWOLD, THE BRISTOL-MYERS CO., SYRACUSE, N.Y.,
 USA
##NAMES=HP
##CAS NAME=1-Methylene-2-vinylcyclopentane
##MOLFORM=C8H12
##CAS REGISTRY NO=6196-78-7
##MP= -300
##BP= -300
##MW= 108
##$RETENTION INDEX=0
##$CONDENSED SPECTRUM=NO
##NPOINTS= 18
##XYDATA=(XY..XY) 1 
    39        340
    41        240
    51        120
    52         66
    53        140
    54         75
    65        130
    66         72
    67        230
    77        470
    78        150
    79        830
    80        220
    91        410
    93        999
   105         32
   107         76
   108        240