##TITLE=Library Entry 20695
##JCAMP-DX=Revision 4.10 
##DATA TYPE=MASS SPECTRUM
##SAMPLE DESCRIPTION=NIST Mass Spectrometry Data Center, 1990.
##NAMES=HP
##CAS NAME=1-Pentene, 3-ethyl-3-methyl-
##MOLFORM=C8H16
##CAS REGISTRY NO=6196-60-7
##MP= -300
##BP= -300
##MW= 112
##$RETENTION INDEX=742
##$CONDENSED SPECTRUM=NO
##NPOINTS= 35
##XYDATA=(XY..XY) 1 
    15          7
    26         16
    27        111
    28         34
    29         85
    39        169
    40         33
    41        289
    42         30
    43         70
    44          7
    50         20
    51         39
    52         19
    53         97
    54          7
    55        999
    56         79
    57         18
    63         10
    65         32
    66         13
    67        107
    68         24
    69         59
    70         86
    71         11
    77         13
    79         17
    81         15
    83        622
    84        122
    85         16
    97         21
   112         36