##TITLE=Library Entry 3603
##JCAMP-DX=Revision 4.10 
##DATA TYPE=MASS SPECTRUM
##SAMPLE DESCRIPTION=D. Rasala, Inst. Chem., Pedagogical Univ., Kielce, Pola
nd
##NAMES=HP
##CAS NAME=2-Cyclohexylamino-3-nitropyridine
##MOLFORM=C11H15N3O2
##CAS REGISTRY NO=61963-88-0
##MP= -300
##BP= -300
##MW= 221
##$RETENTION INDEX=0
##$CONDENSED SPECTRUM=NO
##NPOINTS= 60
##XYDATA=(XY..XY) 1 
    41        999
    50         60
    51        290
    52        290
    54        150
    55        390
    56         70
    64        120
    65        200
    66        200
    67        200
    76         80
    77        800
    78        270
    79        300
    80        140
    81        160
    82         80
    83         30
    91         80
    92        140
    93        370
    94        140
    95         30
   104        110
   105         50
   107         30
   108         50
   109         70
   118        520
   119        190
   120        110
   121         30
   122         30
   123        130
   124         30
   131        240
   132        230
   133         60
   139        360
   140        110
   145        230
   146         90
   147         40
   148        190
   164        210
   165         21
   174        110
   175         60
   176         40
   178        120
   179         10
   186         30
   191          2
   204        250
   205        100
   220          2
   221        140
   222         23
   223          5