##TITLE=Library Entry 12192
##JCAMP-DX=Revision 4.10 
##DATA TYPE=MASS SPECTRUM
##SAMPLE DESCRIPTION=Chemical Concepts
##NAMES=HP
##CAS NAME=(E)-4-Hexenoic acid, 2-acetyl-2-(2-buten-1-yl)-, ethyl ester
##MOLFORM=C14H22O3
##CAS REGISTRY NO=61979-97-3
##MP= -300
##BP= -300
##MW= 238
##$RETENTION INDEX=0
##$CONDENSED SPECTRUM=NO
##NPOINTS= 148
##XYDATA=(XY..XY) 1 
    25          0
    26          8
    27        118
    28         24
    29        250
    30          7
    31          7
    37          0
    38          4
    39        100
    40         17
    41        121
    43        999
    44         27
    45         16
    46          0
    47          0
    50          5
    51         20
    52         11
    53         67
    54         17
    55        246
    56         15
    57         36
    58          5
    59          5
    60          0
    61          4
    62          0
    63          6
    64          2
    65         39
    66         25
    67         96
    68         31
    69         38
    70          6
    71         16
    72          2
    73          7
    74          1
    75          0
    77         67
    78         14
    79        108
    80         25
    81        101
    82         14
    83         14
    84          7
    85          5
    86          3
    87          4
    88          9
    89          2
    90          0
    91         62
    92         11
    93        127
    94         23
    95        129
    96         43
    97         48
    98          6
    99         10
   100          0
   101          6
   102          1
   103          4
   104          2
   105         23
   106          8
   107         54
   108         19
   109         43
   110         14
   111         64
   112          9
   113         43
   114         15
   115          8
   116          1
   117          5
   118          0
   119         26
   120          8
   121        114
   122         21
   123         36
   124          9
   125         46
   126         13
   127         10
   128          1
   129          1
   130          2
   131          6
   132          1
   133          6
   134          1
   135         25
   137        619
   138         68
   139        132
   140         16
   141         16
   142         46
   143          8
   144          0
   145          1
   146          2
   147          7
   148          2
   149         67
   150         12
   151         23
   152          3
   153         18
   154         23
   155         53
   156          5
   163          4
   164          7
   165         32
   166          8
   167         29
   168          5
   169          0
   175          3
   177          1
   180          1
   181          5
   183        454
   184         56
   185          5
   191          0
   192          3
   193         17
   194          7
   195         30
   196         20
   197          3
   207          0
   209          0
   220          0
   223          1
   238          4