##TITLE=Library Entry 87303
##JCAMP-DX=Revision 4.10 
##DATA TYPE=MASS SPECTRUM
##SAMPLE DESCRIPTION=Chemical Concepts
##NAMES=HP
##CAS NAME=1H-Imidazole, 5-octanoyl-
##MOLFORM=C11H18N2O
##CAS REGISTRY NO=61985-27-1
##MP= -300
##BP= -300
##MW= 194
##$RETENTION INDEX=0
##$CONDENSED SPECTRUM=NO
##NPOINTS= 72
##XYDATA=(XY..XY) 1 
    26          2
    27         13
    29         13
    30          2
    39         11
    40         23
    41         33
    42          6
    43         14
    44          1
    51          1
    52          2
    53          6
    54          4
    55         19
    56          3
    57          9
    58          2
    65          3
    66          2
    67         32
    68         46
    69         33
    70          3
    77          1
    78          1
    79          1
    80          3
    81         14
    82         14
    83          3
    84          3
    92          1
    93         10
    94          5
    95        440
    96         29
    97         13
    98          4
   105          1
   106          0
   107          2
   108          2
   109          4
   110        999
   111         74
   112          3
   119          1
   121          1
   122          0
   123        119
   124         15
   125          1
   133          1
   134          0
   135          3
   136          2
   137         13
   138          3
   147          1
   149          8
   150          0
   151          7
   152          2
   165          4
   166          3
   177          1
   178          0
   179          2
   193          2
   194         47
   195          4