##TITLE=Library Entry 17730
##JCAMP-DX=Revision 4.10 
##DATA TYPE=MASS SPECTRUM
##SAMPLE DESCRIPTION=V.A.Korolev, Moscow, Russia
##NAMES=HP
##CAS NAME=2-(2-Chloroimidazo[2,1-b][1,3]thiazol-6-yl)acetic acid
##MOLFORM=C7H5ClN2O2S
##CAS REGISTRY NO=61984-80-3
##MP= -300
##BP= -300
##MW= 216
##$RETENTION INDEX=0
##$CONDENSED SPECTRUM=NO
##NPOINTS= 109
##XYDATA=(XY..XY) 1 
    33          5
    35          2
    36          5
    37          1
    38         34
    39        373
    40         88
    41         34
    42         52
    43         27
    44         94
    45        999
    46         19
    47         39
    48         14
    49         32
    50         29
    51        110
    52        142
    53         52
    54         27
    55         31
    56         20
    57        181
    58         89
    59         63
    60        148
    61         15
    62         48
    63         13
    64         43
    65         40
    66         57
    67          9
    68          8
    69         45
    70         77
    71         30
    72         12
    73         18
    74         25
    75         20
    76         23
    77         10
    78         22
    79        110
    80         11
    81         41
    82         25
    83         72
    84         82
    85         38
    86         39
    87         14
    88         12
    89         11
    91         13
    92         58
    93         36
    94         21
    95         11
    96          7
    97          8
    98          3
   100         31
   101         11
   102         14
   103          2
   104          2
   105          7
   106          1
   108         12
   109         15
   110         17
   112        100
   113         14
   114          6
   115          4
   117          6
   118         13
   119          9
   120          7
   121          2
   127         19
   129          5
   130          5
   133          3
   135          7
   136          3
   137         27
   138          4
   139          2
   144         28
   145         87
   146         14
   147         29
   149          1
   159          3
   165          1
   171        291
   172        441
   173        142
   174        148
   175         14
   176          5
   216        103
   217          7
   218         34
   219          2