##TITLE=Library Entry 2750
##JCAMP-DX=Revision 4.10 
##DATA TYPE=MASS SPECTRUM
##SAMPLE DESCRIPTION=NIST Mass Spectrometry Data Center, 1994
##NAMES=HP
##CAS NAME=5-Methyl-1-hexyn-3-ol
##MOLFORM=C7H12O
##CAS REGISTRY NO=61996-79-0
##MP= -300
##BP= -300
##MW= 112
##$RETENTION INDEX=0
##$CONDENSED SPECTRUM=NO
##NPOINTS= 67
##XYDATA=(XY..XY) 1 
    12          2
    13          3
    14         14
    15         95
    16          3
    17          5
    18          3
    19          3
    24          2
    25         13
    26         75
    27        475
    28         88
    29        812
    30         13
    32          5
    36          2
    37         24
    38         69
    39        454
    40         74
    41        999
    42        140
    43        330
    44         24
    45          8
    47          4
    49         10
    50         74
    51        104
    52         97
    53        162
    54          4
    55        932
    56        412
    57        924
    58         41
    61          4
    62         11
    63         16
    64          2
    65         21
    66         13
    67         36
    68         25
    69         98
    70        141
    71         16
    75          3
    77        104
    78         15
    79        207
    80         14
    81         18
    82          7
    83         76
    84         59
    85          6
    91         16
    92          2
    93         19
    94          7
    95          6
    96          2
    97        166
    98         10
   111         10