##TITLE=Library Entry 31943
##JCAMP-DX=Revision 4.10 
##DATA TYPE=MASS SPECTRUM
##SAMPLE DESCRIPTION=NIST Mass Spectrometry Data Center, 1998.
##NAMES=HP
##CAS NAME=Benzoic acid, 4-nitro-
##MOLFORM=C7H5NO4
##CAS REGISTRY NO=62-23-7
##MP= -300
##BP= -300
##MW= 167
##$RETENTION INDEX=1543
##$CONDENSED SPECTRUM=NO
##NPOINTS= 98
##XYDATA=(XY..XY) 1 
    16          1
    25          1
    26          5
    27         19
    29          6
    30        118
    31          1
    36          2
    37         32
    38         51
    39        195
    40          8
    41          4
    42          3
    43          3
    44          5
    45         62
    46         24
    47          1
    48          2
    49         25
    50        379
    51        245
    52         24
    53        103
    54          7
    55         11
    57          1
    60          5
    61         25
    62         39
    63         79
    64         48
    65        999
    66         65
    67          5
    68          1
    69          3
    71          1
    72          3
    73         41
    74        220
    75        278
    76        233
    77         35
    78          5
    79          4
    80          4
    81        133
    82          8
    83          1
    85          1
    86          2
    87          3
    88          3
    89          5
    90          5
    91          8
    92         71
    93         71
    94          6
    95          1
   101          2
   102          5
   103         78
   104         97
   105         10
   106          4
   107          2
   108          4
   109        211
   110         15
   111          1
   117          1
   118          2
   119          6
   120         71
   121        400
   122         33
   123          3
   130          1
   133          1
   134          1
   135          1
   136          1
   137        202
   138         17
   139          2
   149          3
   150         29
   151         27
   152          3
   153          1
   164          4
   165          2
   167        701
   168         59
   169          8