##TITLE=Library Entry 49221
##JCAMP-DX=Revision 4.10 
##DATA TYPE=MASS SPECTRUM
##SAMPLE DESCRIPTION=NIST Mass Spectrometry Data Center, 1998.
##NAMES=HP
##CAS NAME=Methanesulfonic acid, ethyl ester
##MOLFORM=C3H8O3S
##CAS REGISTRY NO=62-50-0
##MP= -300
##BP= -300
##MW= 124
##$RETENTION INDEX=0
##$CONDENSED SPECTRUM=NO
##NPOINTS= 60
##XYDATA=(XY..XY) 1 
    13          1
    14          5
    15         75
    16          2
    19          1
    25          1
    26         20
    27         83
    28         69
    29        248
    30         19
    31         27
    32          4
    33          5
    34          3
    35          1
    39          1
    41          4
    42         15
    43         64
    44          8
    45        174
    46         12
    47          6
    48         46
    49         10
    50          8
    51          2
    56          1
    59         21
    60          1
    62          2
    63         28
    64         30
    65        106
    66          4
    67          5
    69          1
    78         12
    79        999
    80        144
    81         59
    82          6
    83          4
    92          1
    94          1
    95         11
    96         18
    97        230
    98          5
    99         11
   107          2
   109        711
   110         22
   111         36
   112          1
   123         19
   124         31
   125          3
   126          1