##TITLE=Library Entry 46221
##JCAMP-DX=Revision 4.10 
##DATA TYPE=MASS SPECTRUM
##SAMPLE DESCRIPTION=Japan AIST/NIMC Database- Spectrum MS-NW-1171
##NAMES=HP
##CAS NAME=Thiourea
##MOLFORM=CH4N2S
##CAS REGISTRY NO=62-56-6
##MP= -300
##BP= -300
##MW= 76
##$RETENTION INDEX=532
##$CONDENSED SPECTRUM=NO
##NPOINTS= 38
##XYDATA=(XY..XY) 1 
    12          2
    13          8
    14          8
    15          2
    16         14
    17         26
    18         10
    26          3
    27         15
    28          8
    29          1
    32         15
    33         26
    34         17
    35          1
    36          1
    38         12
    39          2
    40          4
    41         19
    42        100
    43        523
    44         30
    45          3
    46         11
    47         12
    48         25
    49          2
    50          1
    58          9
    59        115
    60        235
    61          9
    62         10
    76        999
    77         26
    78         45
    79          1