##TITLE=Library Entry 45209
##JCAMP-DX=Revision 4.10 
##DATA TYPE=MASS SPECTRUM
##SAMPLE DESCRIPTION=Japan AIST/NIMC Database- Spectrum MS-NW-4995
##NAMES=HP
##CAS NAME=Ethanethioamide
##MOLFORM=C2H5NS
##CAS REGISTRY NO=62-55-5
##MP= -300
##BP= -300
##MW= 75
##$RETENTION INDEX=0
##$CONDENSED SPECTRUM=NO
##NPOINTS= 48
##XYDATA=(XY..XY) 1 
    12          9
    13          7
    14         34
    15         98
    16          3
    17          2
    24          3
    25          6
    26         10
    27         10
    28         84
    29          7
    30         71
    31          1
    32         82
    33         82
    34        189
    35          5
    36         10
    38         38
    39         73
    40        213
    41        429
    42        423
    43         28
    44         15
    45         47
    46         16
    47         15
    48          5
    49          1
    56          4
    57         21
    58         76
    59        167
    60        449
    61         17
    62         19
    64          1
    70          4
    71          1
    72          3
    73          9
    74          4
    75        999
    76         36
    77         45
    78          1