##TITLE=Library Entry 44526
##JCAMP-DX=Revision 4.10 
##DATA TYPE=MASS SPECTRUM
##SAMPLE DESCRIPTION=Japan AIST/NIMC Database- Spectrum MS-NW- 697
##NAMES=HP
##CAS NAME=N-Nitrosodimethylamine
##MOLFORM=C2H6N2O
##CAS REGISTRY NO=62-75-9
##MP= -300
##BP= -300
##MW= 74
##$RETENTION INDEX=734
##$CONDENSED SPECTRUM=NO
##NPOINTS= 29
##XYDATA=(XY..XY) 1 
    12          3
    13          8
    14         27
    15        232
    16          3
    17          4
    18          9
    26          1
    27         33
    28         56
    29          4
    30         61
    38          5
    39          6
    40         20
    41         34
    42        513
    43        251
    44         62
    45          3
    55          1
    56         10
    57         12
    58          1
    59         13
    73          1
    74        999
    75         29
    76          1