##TITLE=Library Entry 85526
##JCAMP-DX=Revision 4.10 
##DATA TYPE=MASS SPECTRUM
##SAMPLE DESCRIPTION=NIST Mass Spectrometry Data Center, 1990.
##NAMES=HP
##CAS NAME=Dichlorvos
##MOLFORM=C4H7Cl2O4P
##CAS REGISTRY NO=62-73-7
##MP= -300
##BP= -300
##MW= 220
##$RETENTION INDEX=1249
##$CONDENSED SPECTRUM=NO
##NPOINTS= 126
##XYDATA=(XY..XY) 1 
    11          0
    12          1
    13          3
    14         15
    15        280
    16          2
    17          0
    18          3
    24          0
    25          5
    26          3
    27          4
    28         10
    29         77
    30         11
    31         52
    32          1
    33          1
    35          4
    36          3
    37          1
    38          1
    39          0
    40          0
    41          2
    42          0
    43          0
    45          4
    47        157
    48         43
    49         28
    50         12
    51          2
    52          0
    53          0
    54          0
    55          4
    59          3
    60         35
    61          5
    62         15
    63         13
    64          4
    65         14
    66          4
    67          1
    68          0
    69          0
    71          0
    72          0
    73          1
    76         34
    77         11
    78         24
    79        269
    80          7
    81          7
    82         19
    83         56
    84         12
    85         34
    86          2
    87          5
    89          0
    91          1
    93         42
    94          3
    95         25
    96         10
    97         34
    98          2
    99         12
   101          1
   102          0
   103          0
   105          0
   109        999
   110         32
   111         24
   112          9
   113         37
   114          4
   115          8
   116          1
   118          0
   119          0
   122          0
   123          1
   125          1
   126          3
   127          0
   128          6
   130          2
   131          1
   140          0
   143          0
   145         81
   146          3
   147         26
   148          0
   149          0
   155          1
   157          0
   169          0
   170          0
   171          0
   173          0
   174          2
   176          1
   178          0
   185        279
   186         17
   187         90
   188          4
   189          1
   191          1
   192          4
   193          1
   194          3
   195          0
   196          0
   204          0
   220         52
   222         34
   223          2
   224          5