##TITLE=Library Entry 64199
##JCAMP-DX=Revision 4.10 
##DATA TYPE=MASS SPECTRUM
##SAMPLE DESCRIPTION=Patti Price, Georgia Bureau of Investigation, Decatur,
 Georgia
##NAMES=HP
##CAS NAME=Nandrolone phenpropionate
##MOLFORM=C27H34O3
##CAS REGISTRY NO=62-90-8
##MP= -300
##BP= -300
##MW= 406
##$RETENTION INDEX=0
##$CONDENSED SPECTRUM=NO
##NPOINTS= 154
##XYDATA=(XY..XY) 1 
    39         26
    40          4
    41         49
    42         13
    43         19
    44          2
    50          5
    51         28
    52         10
    53         34
    54          7
    55         89
    56          5
    57          7
    63         11
    64          4
    65         90
    66         16
    67         89
    68         11
    69         26
    70          1
    71          6
    75          2
    76          5
    77        216
    78         79
    79        294
    80         37
    81        106
    82         13
    83         25
    84          2
    85          2
    86          3
    89         13
    91        999
    92         95
    93        113
    94         29
    95         95
    96         11
    97         19
    99          1
   100          1
   102          7
   103         96
   104        148
   105        785
   106         82
   107        255
   108         43
   109         79
   110        137
   111         21
   115         26
   116         11
   117         58
   118         17
   119         87
   120         34
   121         46
   122         22
   123         47
   124          7
   127          5
   128         19
   129         37
   130         13
   131         79
   132         21
   133        192
   134         34
   135        160
   136         19
   137          7
   139          2
   141         11
   142          9
   143         39
   144         15
   145         73
   146         34
   147        266
   148         45
   149         56
   150         34
   151          5
   155         11
   156          5
   157         27
   158         12
   159         45
   160         23
   161         66
   162         23
   163         27
   164          8
   165          4
   169         10
   170          3
   171         22
   172          9
   173         20
   174          8
   175         21
   176          5
   181          3
   182          3
   183         19
   184          5
   185         19
   186          9
   187         40
   188          7
   189          8
   190          2
   195          5
   197         22
   198          7
   199         41
   200         11
   201         30
   202          8
   211         12
   212          7
   213         20
   214         10
   215         57
   216         10
   217         15
   218          4
   227          5
   228          5
   229         16
   230          5
   231         25
   237          3
   238         15
   239        173
   240         30
   241         11
   242          1
   246         12
   255          8
   256        175
   257        961
   258        217
   259         28
   273          7
   274         11
   275          1
   406         32
   407         13