##TITLE=Library Entry 71057
##JCAMP-DX=Revision 4.10 
##DATA TYPE=MASS SPECTRUM
##SAMPLE DESCRIPTION=Japan AIST/NIMC Database- Spectrum MS-IW-5078
##NAMES=HP
##CAS NAME=Triarachine
##MOLFORM=C63H122O6
##CAS REGISTRY NO=620-64-4
##MP= -300
##BP= -300
##MW= 974
##$RETENTION INDEX=0
##$CONDENSED SPECTRUM=NO
##NPOINTS= 349
##XYDATA=(XY..XY) 1 
    15          2
    16          3
    17         15
    18         97
    19          1
    24          2
    25          9
    26         60
    27        123
    28        255
    29        172
    30          7
    31          5
    32          1
    34          1
    36          4
    37          7
    38         14
    39        121
    40         38
    41        519
    42        156
    43        738
    44         45
    45         16
    46          1
    48          1
    49          2
    50          8
    51         12
    52         10
    53         45
    54        107
    55        832
    56        274
    57        887
    58         63
    59         22
    60        266
    61        108
    62          5
    63          5
    64          2
    65         17
    66         23
    67        216
    68        148
    69        530
    70        233
    71        604
    72         40
    73        367
    74         38
    75          6
    76          3
    77         21
    78         19
    79         70
    80         57
    81        239
    82        186
    83        543
    84        346
    85        407
    86         33
    87         93
    88         13
    89          4
    90          1
    91         38
    92         20
    93         49
    94         41
    95        218
    96        150
    97        471
    98        999
    99        180
   100         69
   101         61
   102         20
   103          6
   104          6
   105         15
   106          8
   107         36
   108         20
   109        129
   110         63
   111        291
   112        260
   113        132
   114         17
   115         74
   116         61
   117         24
   118          8
   119          9
   120          7
   121         47
   122         14
   123         73
   124         38
   125        114
   126         48
   127         53
   128         11
   129        226
   130         29
   131          9
   132          3
   133          9
   134          7
   135         37
   136         11
   137         42
   138         26
   139         51
   140         26
   141         32
   142          9
   143         35
   144         10
   145          6
   146          3
   147          6
   148          4
   149         19
   150          7
   151         17
   152         17
   153         28
   154         24
   155         29
   156          7
   157         37
   158         54
   159         10
   160          3
   161          4
   162          2
   163         10
   164          4
   165          9
   166         12
   167         17
   168         14
   169         28
   170          7
   171        117
   172         21
   173          5
   174          1
   175          2
   176          1
   177          6
   178          3
   179          7
   180          9
   181         13
   182         10
   183         22
   184          5
   185         78
   186         12
   187          3
   188          1
   189          2
   190          1
   191          4
   192          3
   193          5
   194          9
   195          9
   196          9
   197         13
   198          4
   199         24
   200          8
   201          2
   202          1
   203          1
   204          1
   205          3
   206          2
   207          5
   208          9
   209          8
   210          9
   211         10
   212          3
   213         61
   214         12
   215          2
   216          1
   217          1
   218          1
   219          2
   220          2
   221          3
   222          5
   223          6
   224         10
   225          9
   226          3
   227         66
   228         10
   229          3
   232          1
   233          2
   234          1
   235          2
   236          4
   237          5
   238          9
   239          8
   240          2
   241         26
   242          6
   243          2
   246          1
   247          2
   248          2
   249          2
   250         12
   251          9
   252          9
   253          9
   254          2
   255         20
   256          7
   257          2
   258          1
   259          1
   260          1
   261          1
   262          1
   263          2
   264          3
   265          4
   266          4
   267          6
   268          3
   269         71
   270         14
   271          2
   272          1
   273          1
   274          2
   275          4
   276          6
   277          7
   278          4
   279          2
   280          1
   281          4
   282          1
   283         20
   284          6
   285          1
   290          1
   291          1
   292          8
   293         11
   294         27
   295        204
   296         46
   297          9
   298          2
   306          1
   307          1
   308          1
   309          7
   310          4
   311          9
   312        140
   313         33
   314          5
   321          1
   323          4
   324          1
   325          9
   326          3
   327          1
   336          5
   337          5
   338          2
   339          5
   340          2
   342          3
   344          1
   350          2
   351          3
   352          8
   353         23
   354          7
   355          2
   364          1
   365          2
   366          2
   367         15
   368         10
   369         93
   370         24
   371          5
   372          1
   379          1
   381          3
   382          1
   387          2
   395          4
   396          1
   397          1
   409          1
   410         32
   411         21
   412          5
   413          1
   421          2
   423        139
   424         41
   425          7
   437          9
   438          3
   451          2
   452          1
   465         13
   466          3
   467          1
   479         24
   480         14
   481          3
   493          3
   494          1
   507          4
   521          6
   535          1
   536          4
   549          2
   563          5
   577          4
   592          1
   605          1
   606          1
   619         10
   620          1
   633          4
   663         40
   704          2