##TITLE=Library Entry 12012
##JCAMP-DX=Revision 4.10 
##DATA TYPE=MASS SPECTRUM
##SAMPLE DESCRIPTION=NIST Mass Spectrometry Data Center
##NAMES=HP
##CAS NAME=Ethyl 2-benzylacetoacetate
##MOLFORM=C13H16O3
##CAS REGISTRY NO=620-79-1
##MP= -300
##BP= -300
##MW= 220
##$RETENTION INDEX=0
##$CONDENSED SPECTRUM=NO
##NPOINTS= 93
##XYDATA=(XY..XY) 1 
    12          3
    15        145
    16          1
    17          3
    19          3
    25          3
    26         42
    27        170
    28         46
    29        264
    30         17
    31         56
    37          7
    38         19
    39         84
    40          9
    41         22
    43        999
    44         32
    45         33
    46         10
    49          5
    50         62
    51        150
    52         39
    53         16
    54          7
    55         48
    58          2
    61          7
    62         12
    63         46
    64         15
    65         95
    66          9
    68          1
    69          8
    71          2
    73          9
    74         19
    75         20
    76         36
    77        182
    78        193
    79         41
    80          3
    85          3
    87          5
    89         23
    91        286
    92         26
    97          3
    99          4
   101         10
   102         48
   103        218
   104        177
   105         62
   106         10
   107         57
   108          4
   115         22
   116          5
   117         10
   118          3
   119          6
   120          2
   127         10
   128         19
   129         47
   131        753
   132        113
   133         85
   134          9
   135          4
   143          2
   145        111
   146         49
   147        187
   148         25
   149        113
   150         17
   159         12
   173          7
   174         22
   175         42
   177        647
   178         85
   179          8
   202         24
   203          5
   220         32
   221          3