##TITLE=Library Entry 63661
##JCAMP-DX=Revision 4.10 
##DATA TYPE=MASS SPECTRUM
##SAMPLE DESCRIPTION=RADIAN CORP
##NAMES=HP
##CAS NAME=Benzenemethanamine, N,N-bis(phenylmethyl)-
##MOLFORM=C21H21N
##CAS REGISTRY NO=620-40-6
##MP= -300
##BP= -300
##MW= 287
##$RETENTION INDEX=2271
##$CONDENSED SPECTRUM=NO
##NPOINTS= 62
##XYDATA=(XY..XY) 1 
    14         19
    16          2
    27          2
    38          2
    39         35
    40          2
    41         15
    42          9
    50         10
    51         33
    52          7
    53          1
    62          4
    63         24
    64          9
    65        176
    66         10
    73          2
    74          2
    75          3
    76          4
    77         20
    78         10
    79          1
    89         37
    90         14
    91        999
    92        124
    93          7
   103          1
   104          7
   105          3
   115          2
   116          5
   117          6
   118         19
   119          2
   152          5
   153          1
   164          1
   165         12
   166          6
   167          6
   178          1
   179          2
   181         40
   182          6
   193          1
   194         14
   195          3
   196        202
   197         33
   198          2
   208         10
   209          2
   210        242
   211         40
   212          3
   286         35
   287        175
   288         40
   289          4