##TITLE=Library Entry 80224
##JCAMP-DX=Revision 4.10 
##DATA TYPE=MASS SPECTRUM
##SAMPLE DESCRIPTION=Japan AIST/NIMC Database- Spectrum MS-NW-9685
##NAMES=HP
##CAS NAME=m-Xylyl bromide
##MOLFORM=C8H9Br
##CAS REGISTRY NO=620-13-3
##MP= -300
##BP= -300
##MW= 184
##$RETENTION INDEX=0
##$CONDENSED SPECTRUM=NO
##NPOINTS= 57
##XYDATA=(XY..XY) 1 
    26          1
    27         14
    28          1
    37          1
    38          6
    39         27
    40          3
    41          2
    49          1
    50         15
    51         64
    52         21
    53          8
    61          2
    62          9
    63         23
    64          6
    65         11
    66          2
    73          1
    74          6
    75          5
    76          7
    77        103
    78         38
    79        124
    80          8
    81          1
    82          3
    86          1
    87          1
    89         10
    90          5
    91         17
    92         12
    93          1
    98          1
   101          1
   102          9
   103         94
   104         44
   105        999
   106         95
   107          4
   119          1
   120          1
   125          1
   140         11
   141          1
   142          4
   169          2
   171          2
   183          5
   184         92
   185         12
   186         90
   187          8