##TITLE=Library Entry 67096
##JCAMP-DX=Revision 4.10 
##DATA TYPE=MASS SPECTRUM
##SAMPLE DESCRIPTION=V.Zaikin,Inst.Petrochem.Synth.,RAS,Moscow
##NAMES=HP
##CAS NAME=Acetic acid, chloro-, phenyl ester
##MOLFORM=C8H7ClO2
##CAS REGISTRY NO=620-73-5
##MP= -300
##BP= -300
##MW= 170
##$RETENTION INDEX=0
##$CONDENSED SPECTRUM=NO
##NPOINTS= 66
##XYDATA=(XY..XY) 1 
    25          5
    26         21
    27         18
    28          2
    29         12
    39        229
    40         30
    41         25
    42         62
    43          8
    49        144
    50         76
    51         46
    52         98
    53         18
    55         14
    56          5
    57          6
    60          3
    61         15
    62         23
    63         53
    64         28
    65        204
    66         83
    67          6
    68          3
    69          4
    73          5
    74         11
    75         15
    76         17
    77        267
    78         36
    79         88
    80         15
    81          9
    82          8
    83          3
    91          5
    92          4
    93         37
    94        999
    95        106
    96          8
   100          2
   101         18
   102          6
   105          2
   107          7
   108          2
   112          4
   113         14
   120          7
   121         23
   122          7
   123         17
   126          5
   128          4
   129          4
   130        139
   131          9
   170         88
   171          9
   172         30
   173          3