##TITLE=Library Entry 66076
##JCAMP-DX=Revision 4.10 
##DATA TYPE=MASS SPECTRUM
##SAMPLE DESCRIPTION=RADIAN CORP
##NAMES=HP
##CAS NAME=Ethanediamide, N,N'-diphenyl-
##MOLFORM=C14H12N2O2
##CAS REGISTRY NO=620-81-5
##MP= -300
##BP= -300
##MW= 240
##$RETENTION INDEX=0
##$CONDENSED SPECTRUM=NO
##NPOINTS= 63
##XYDATA=(XY..XY) 1 
    27          7
    29          2
    37          4
    38         17
    39         87
    40         14
    41         10
    42          2
    44          5
    50         28
    51        122
    52         26
    53          4
    54          5
    55          1
    60          2
    61          2
    62          8
    63         42
    64         56
    65        206
    66        149
    67         13
    74          9
    75         11
    76         24
    77        523
    78         48
    79          3
    80          2
    88          1
    89          2
    90         11
    91         74
    92        305
    93        999
    94         85
    95          4
   102          2
   103          2
   104         12
   105         20
   106          3
   111          2
   115          2
   119         86
   120        396
   121        344
   122         28
   123          2
   136          6
   146          3
   147          1
   163          4
   166          1
   167          2
   198          8
   199          1
   221          2
   239          5
   240        477
   241         79
   242          8