##TITLE=Library Entry 83932
##JCAMP-DX=Revision 4.10 
##DATA TYPE=MASS SPECTRUM
##SAMPLE DESCRIPTION=A.A.Kutin, Moscow, Russia
##NAMES=HP
##CAS NAME=Urea, N,N'-bis(3-methylphenyl)-
##MOLFORM=C15H16N2O
##CAS REGISTRY NO=620-50-8
##MP= -300
##BP= -300
##MW= 240
##$RETENTION INDEX=0
##$CONDENSED SPECTRUM=NO
##NPOINTS= 68
##XYDATA=(XY..XY) 1 
    34          2
    36         29
    38         64
    39        188
    40         86
    41         57
    42        207
    44         26
    45          0
    50         55
    51        106
    52         83
    53         52
    54         12
    55          7
    56         24
    57          6
    58          3
    61          3
    62         17
    63         55
    65        141
    66         22
    67          4
    68          0
    69          0
    70          0
    71          0
    73          1
    74          6
    75          9
    77        214
    78         96
    79        119
    80         30
    81          2
    86          5
    87          3
    89         24
    90         20
    91        132
    92         12
    93          2
    97          8
    98          0
    99          0
   102          1
   104         90
   106        456
   107        999
   108         69
   112         41
   113          0
   119          8
   120          5
   127         14
   128          0
   129          3
   132         56
   133         99
   134         15
   135          0
   147          0
   153          0
   222          0
   240        168
   241         21
   242          0