##TITLE=Library Entry 81176
##JCAMP-DX=Revision 4.10 
##DATA TYPE=MASS SPECTRUM
##SAMPLE DESCRIPTION=NIST Mass Spectrometry Data Center, 1992
##NAMES=HP
##CAS NAME=Benzene, 1-(chloromethyl)-3-methyl-
##MOLFORM=C8H9Cl
##CAS REGISTRY NO=620-19-9
##MP= -300
##BP= -300
##MW= 140
##$RETENTION INDEX=1089
##$CONDENSED SPECTRUM=NO
##NPOINTS= 84
##XYDATA=(XY..XY) 1 
    13          1
    14          0
    15         21
    25          1
    26         21
    27         82
    29          0
    31          0
    35          8
    36          5
    37         22
    38         50
    39        148
    40         14
    41          7
    42          0
    43          2
    44          0
    45          0
    47          1
    48          2
    49         18
    50         85
    51        181
    52         50
    53         26
    54          1
    55          1
    60          2
    61         18
    62         43
    63         94
    64         17
    65         35
    66          4
    67          0
    68          2
    69         18
    70          5
    73         13
    74         27
    75         24
    76         27
    77        197
    78         94
    79        159
    80         10
    81          0
    84          1
    85          3
    86          6
    87          8
    88          0
    89         35
    90          8
    91         13
    92          0
    96          0
    97          2
    98          3
    99          5
   100          1
   101          6
   102         26
   103        147
   104          0
   105        999
   106         85
   107          3
   108          0
   111          0
   112          1
   113          0
   114          0
   123          0
   125         42
   126          3
   127         13
   128          1
   140        220
   141         27
   142         67
   143          5
   144          0