##TITLE=Library Entry 84111
##JCAMP-DX=Revision 4.10 
##DATA TYPE=MASS SPECTRUM
##SAMPLE DESCRIPTION=Japan AIST/NIMC Database- Spectrum MS-NW-8681
##NAMES=HP
##CAS NAME=Phenol, 3-ethyl-
##MOLFORM=C8H10O
##CAS REGISTRY NO=620-17-7
##MP= -300
##BP= -300
##MW= 122
##$RETENTION INDEX=1169
##$CONDENSED SPECTRUM=NO
##NPOINTS= 68
##XYDATA=(XY..XY) 1 
    15          2
    26          3
    27         29
    28          6
    29          5
    31          1
    37          4
    38         13
    39         72
    40          9
    41         14
    42          2
    43          6
    44          1
    45          8
    46          7
    49          2
    50         16
    51         43
    52         16
    53         31
    54          2
    55         18
    59         10
    60         15
    61          6
    62          9
    63         25
    64          8
    65         36
    66         13
    67          5
    68          2
    69          1
    73          1
    74          5
    75          5
    76          3
    77        185
    78         33
    79         65
    80          5
    81          7
    86          1
    87          1
    89          6
    90          2
    91         48
    92          6
    93         16
    94         57
    95          9
   101          1
   102          3
   103         32
   104          5
   105         11
   106          2
   107        999
   108         77
   109          4
   118          1
   119          4
   120          7
   121         51
   122        457
   123         40
   124          2