##TITLE=Library Entry 80899
##JCAMP-DX=Revision 4.10 
##DATA TYPE=MASS SPECTRUM
##SAMPLE DESCRIPTION=Japan AIST/NIMC Database- Spectrum MS-NW- 137
##NAMES=HP
##CAS NAME=Benzene, 1-ethyl-3-methyl-
##MOLFORM=C9H12
##CAS REGISTRY NO=620-14-4
##MP= -300
##BP= -300
##MW= 120
##$RETENTION INDEX=957
##$CONDENSED SPECTRUM=NO
##NPOINTS= 55
##XYDATA=(XY..XY) 1 
    15          4
    18          7
    26          2
    27         32
    28          4
    29          3
    37          2
    38          7
    39         62
    40          6
    41         22
    43          7
    50         16
    51         48
    52         15
    53         18
    55          2
    57         10
    58         15
    59         19
    61          3
    62          9
    63         33
    64          7
    65         51
    66          5
    69          2
    73          3
    74          6
    75          6
    76          6
    77        105
    78         35
    79         75
    80          5
    86          2
    87          3
    89         15
    90          5
    91        110
    92         38
    93          7
   102         10
   103         58
   104         25
   105        999
   106         91
   107          3
   115         22
   116          5
   117         22
   118          6
   119         37
   120        323
   121         31