##TITLE=Library Entry 97407
##JCAMP-DX=Revision 4.10 
##DATA TYPE=MASS SPECTRUM
##SAMPLE DESCRIPTION=NIST Mass Spectrometry Data Center, 1990.
##NAMES=HP
##CAS NAME=Benzonitrile, 3-methyl-
##MOLFORM=C8H7N
##CAS REGISTRY NO=620-22-4
##MP= -300
##BP= -300
##MW= 117
##$RETENTION INDEX=1094
##$CONDENSED SPECTRUM=NO
##NPOINTS= 57
##XYDATA=(XY..XY) 1 
    15          5
    17          0
    18          2
    26         15
    27         26
    28          5
    36          4
    37         37
    38         58
    39        136
    40         17
    41         10
    43         10
    44          4
    45          7
    48          3
    49         14
    50         67
    51         78
    52         29
    53          6
    56          4
    57         14
    58         15
    60          5
    61         43
    62         74
    63        150
    64         65
    65         34
    66          5
    73          8
    74         22
    75         52
    76         38
    77         14
    78          5
    84          4
    85          7
    86         15
    87         29
    88         46
    89        325
    90        499
    91         67
    92          4
    98          2
    99          5
   100          3
   102          5
   110          1
   111          2
   114         20
   116        673
   117        999
   118         85
   119          3