##TITLE=Library Entry 61651
##JCAMP-DX=Revision 4.10 
##DATA TYPE=MASS SPECTRUM
##SAMPLE DESCRIPTION=Japan AIST/NIMC Database- Spectrum MS-NW-3491
##NAMES=HP
##CAS NAME=Benzaldehyde, 3-methyl-
##MOLFORM=C8H8O
##CAS REGISTRY NO=620-23-5
##MP= -300
##BP= -300
##MW= 120
##$RETENTION INDEX=1070
##$CONDENSED SPECTRUM=NO
##NPOINTS= 68
##XYDATA=(XY..XY) 1 
    15          2
    18          1
    26          6
    27         20
    28          5
    29         22
    31          1
    36          3
    37         16
    38         30
    39        152
    40         14
    41         35
    42          2
    43          7
    44          2
    45          4
    48          1
    49          8
    50         52
    51         85
    52         18
    53          9
    55          2
    56          1
    57          1
    59          5
    60          4
    61         21
    62         46
    63        113
    64         29
    65        253
    66         17
    67          1
    69          2
    70          1
    73          4
    74         16
    75         12
    76          8
    77         15
    78          4
    79          1
    84          2
    85          8
    86         12
    87          9
    88          3
    89         76
    90         41
    91        999
    92        114
    93          6
    98          1
   101          1
   102          3
   103          6
   104          2
   105          9
   106          1
   116          1
   117          1
   118          8
   119        932
   120        863
   121         78
   122          5