##TITLE=Library Entry 87360
##JCAMP-DX=Revision 4.10 
##DATA TYPE=MASS SPECTRUM
##SAMPLE DESCRIPTION=Japan AIST/NIMC Database- Spectrum MS-NW-1340
##NAMES=HP
##CAS NAME=2-Furancarboxaldehyde, 5-methyl-
##MOLFORM=C6H6O2
##CAS REGISTRY NO=620-02-0
##MP= -300
##BP= -300
##MW= 110
##$RETENTION INDEX=965
##$CONDENSED SPECTRUM=NO
##NPOINTS= 58
##XYDATA=(XY..XY) 1 
    12          1
    13          2
    14          7
    15         32
    17          1
    18          8
    25          6
    26         38
    27        225
    28         28
    29         58
    30          1
    31          3
    32          4
    36          4
    37         26
    38         41
    39        115
    40          7
    41          9
    42         18
    43         97
    44          4
    48          2
    49         17
    50         77
    51        104
    52         59
    53        515
    54         48
    55         12
    56          2
    58          1
    60          1
    61          4
    62          3
    63          4
    64          2
    65          2
    66          4
    67          5
    68          2
    69          6
    77          1
    79         17
    80         14
    81        102
    82          8
    83          1
    84          1
    94          1
    95         19
    96          7
   108          3
   109        788
   110        999
   111         69
   112          6