##TITLE=Library Entry 10738
##JCAMP-DX=Revision 4.10 
##DATA TYPE=MASS SPECTRUM
##SAMPLE DESCRIPTION=NIST Mass Spectrometry Data Center, 2010
##NAMES=HP
##CAS NAME=1-Ethylpropyl acetate
##MOLFORM=C7H14O2
##CAS REGISTRY NO=620-11-1
##MP= -300
##BP= -300
##MW= 130
##$RETENTION INDEX=793
##$CONDENSED SPECTRUM=NO
##NPOINTS= 48
##XYDATA=(XY..XY) 1 
    14          2
    15         11
    26          5
    27         46
    28         15
    29         54
    30          4
    31         15
    37          1
    38          3
    39         39
    40          5
    41         59
    42         64
    43        999
    44         25
    45         17
    50          2
    51          4
    52          1
    53         10
    54         11
    55        134
    56          8
    57         38
    58          6
    59         30
    60          2
    61         33
    62          1
    63          1
    65          1
    67          3
    68          1
    69          9
    70        204
    71         40
    72         10
    73         50
    74          2
    86          1
    87         20
    88          1
   101        465
   102         25
   103          3
   115          1
   130          2