##TITLE=Library Entry 109363
##JCAMP-DX=Revision 4.10 
##DATA TYPE=MASS SPECTRUM
##SAMPLE DESCRIPTION=Exported from NIST MS Search
##NAMES=HP
##CAS NAME=Benzene, 1-chloro-3-ethyl-
##MOLFORM=C8H9Cl
##CAS REGISTRY NO=620-16-6
##MP= -300
##BP= -300
##MW= 140
##$RETENTION INDEX=1036
##$CONDENSED SPECTRUM=NO
##NPOINTS= 100
##XYDATA=(XY..XY) 1 
    14          1
    15          3
    26          3
    27         30
    28          1
    29          3
    31          1
    35          1
    36          1
    37          7
    38         15
    39         46
    40          4
    41          6
    42          1
    43         13
    44          3
    45          2
    47          1
    48          1
    49         10
    50         63
    51        165
    52         38
    53          9
    54          5
    55          1
    56          1
    57          1
    60          2
    61         12
    62         22
    63         61
    64         10
    65         13
    66          2
    67          1
    68          9
    69         17
    70          7
    71          1
    72          2
    73         27
    74         30
    75         70
    76         19
    77        147
    78         24
    79         54
    80          4
    83          1
    84          4
    85         11
    86          7
    87          9
    88          2
    89         96
    90         29
    91          5
    92          1
    93          1
    96          1
    97          4
    98          4
    99         29
   100          4
   101         29
   102         29
   103        130
   104         23
   105        881
   106         79
   107          4
   108          1
   109          1
   110          1
   111         30
   112         35
   113         15
   114         11
   115          2
   121          1
   122          1
   123          4
   124          2
   125        999
   126         78
   127        320
   128         25
   129          1
   135          1
   136          2
   137          3
   138          5
   139         75
   140        521
   141         73
   142        168
   143         16
   144          1