##TITLE=Library Entry 66913
##JCAMP-DX=Revision 4.10 
##DATA TYPE=MASS SPECTRUM
##SAMPLE DESCRIPTION=V.Zaikin,Inst.Petrochem.Synth.,RAS,Moscow
##NAMES=HP
##CAS NAME=Acetic acid, bromo-, phenyl ester
##MOLFORM=C8H7BrO2
##CAS REGISTRY NO=620-72-4
##MP= -300
##BP= -300
##MW= 214
##$RETENTION INDEX=0
##$CONDENSED SPECTRUM=NO
##NPOINTS= 50
##XYDATA=(XY..XY) 1 
    25          5
    26         22
    27         19
    28          1
    29         11
    39        155
    40         28
    41         34
    42         49
    43         15
    54          5
    55          8
    56          4
    57          3
    60          4
    61          9
    62         15
    63         42
    64         20
    65        117
    66         48
    67          4
    69          8
    73          3
    74          3
    75         11
    76          8
    77         95
    78         34
    80         12
    81          7
    82          5
    83          3
    85          2
    90          6
    91         11
    92          9
    93         45
    94        999
    95        101
    96          5
   120          8
   121         37
   122          4
   123         32
   213          2
   214         33
   215          3
   216         31
   217          3