##TITLE=Library Entry 79010
##JCAMP-DX=Revision 4.10 
##DATA TYPE=MASS SPECTRUM
##SAMPLE DESCRIPTION=A.A.Kutin, Moscow, Russia
##NAMES=HP
##CAS NAME=1H-Benzotriazole-1-methanamine, N-phenyl-
##MOLFORM=C13H12N4
##CAS REGISTRY NO=62001-29-0
##MP= -300
##BP= -300
##MW= 224
##$RETENTION INDEX=0
##$CONDENSED SPECTRUM=NO
##NPOINTS= 155
##XYDATA=(XY..XY) 1 
    33          3
    34          1
    36         10
    37         93
    38        157
    39        161
    40         46
    41         90
    42          9
    43         18
    44         19
    45         13
    46         16
    48          4
    49         23
    50        158
    51        357
    52        197
    53         31
    54          4
    55         13
    56          5
    57         15
    58          1
    60         17
    61         38
    62         63
    63        238
    64        342
    65        113
    66         13
    67          8
    68          3
    69         10
    70          7
    71          9
    72          3
    73         15
    74         43
    75         34
    76         63
    77        833
    78        114
    79         34
    80          4
    81          6
    82          3
    83          8
    84          5
    85          6
    86          3
    87          7
    88          7
    89          5
    90         33
    91        353
    92         43
    93         18
    94          2
    95          4
    96          3
    97          6
    98          4
    99          4
   100          1
   102          8
   104        664
   105        999
   106        259
   107         19
   108          1
   109          2
   111          3
   112          2
   113          2
   114          0
   115          2
   116          0
   117          5
   119        406
   120         36
   121          3
   122          1
   123          1
   124          1
   125          1
   126          1
   127          2
   129          3
   130          1
   132         43
   133          5
   134          1
   135          3
   137          3
   138          0
   139          3
   140          1
   141          1
   143          2
   144          0
   145          1
   147          2
   148          0
   149          7
   150          2
   151          2
   152          2
   153          1
   154          0
   155          2
   157          1
   159          1
   161          0
   162          0
   163          1
   164          1
   165          1
   166          3
   167         10
   168          4
   169          1
   170          1
   171          4
   173          0
   175          0
   176          0
   177          1
   178          1
   179          1
   180          1
   182          0
   185          1
   190          0
   192          1
   193          2
   194          1
   195          4
   196          1
   199          1
   203          1
   205          0
   206          0
   207          0
   208          0
   211          0
   213          0
   214          0
   219          0
   220          0
   222          2
   223          4
   224         72
   225         12
   226          1