##TITLE=Library Entry 24316
##JCAMP-DX=Revision 4.10 
##DATA TYPE=MASS SPECTRUM
##SAMPLE DESCRIPTION=D.HENNEBERG, MAX-PLANCK INSTITUTE, MULHEIM, WEST GERMAN
Y
##NAMES=HP
##CAS NAME=Octane, 2,4,6-trimethyl-
##MOLFORM=C11H24
##CAS REGISTRY NO=62016-37-9
##MP= -300
##BP= -300
##MW= 156
##$RETENTION INDEX=959
##$CONDENSED SPECTRUM=NO
##NPOINTS= 62
##XYDATA=(XY..XY) 1 
    24          0
    25          0
    26          6
    27         68
    28          3
    29        130
    30          4
    32          2
    33          1
    34          0
    39         51
    40         13
    41        231
    42         45
    43        684
    44         18
    45          1
    46          0
    49          0
    50          1
    51          2
    52          0
    53         13
    54         12
    55         80
    56        131
    57        999
    58         40
    63          0
    65          1
    66          1
    67         13
    68          8
    69         57
    70         65
    71        257
    72         12
    77          2
    79          9
    81          5
    82          1
    83         15
    84         45
    85        232
    86         17
    89          0
    91          1
    94          0
    95          0
    98         25
    99         63
   100          3
   110          1
   111          0
   112          2
   113          5
   114          0
   126          1
   127         17
   128          0
   141          2
   156          0