##TITLE=Library Entry 24402
##JCAMP-DX=Revision 4.10 
##DATA TYPE=MASS SPECTRUM
##SAMPLE DESCRIPTION=Chemical Concepts
##NAMES=HP
##CAS NAME=Nonadecane, 1-chloro-
##MOLFORM=C19H39Cl
##CAS REGISTRY NO=62016-76-6
##MP= -300
##BP= -300
##MW= 302
##$RETENTION INDEX=0
##$CONDENSED SPECTRUM=NO
##NPOINTS= 119
##XYDATA=(XY..XY) 1 
    26          2
    27         80
    29        238
    30          4
    36          2
    39         46
    41        419
    42        111
    43        688
    44         27
    45         15
    49          4
    51          2
    53         22
    54         31
    55        427
    56        162
    57        999
    58         45
    63          9
    65          5
    66          4
    67         43
    68         39
    69        250
    70        103
    71        430
    72         26
    77          8
    79          5
    81         16
    82         32
    83        177
    84         70
    85        258
    86         16
    91        172
    92          8
    93         62
    94          3
    95          9
    96         16
    97        116
    98         45
    99         70
   100          5
   104         11
   105         66
   106          7
   107         20
   109          4
   110          8
   111         47
   112         26
   113         46
   114          5
   118          4
   119         29
   120          5
   121          9
   123          3
   124          5
   125         16
   126         25
   127         26
   133         27
   134          2
   135          9
   139          6
   140         15
   141         15
   146          3
   147         22
   148          4
   149          6
   153          4
   154         11
   155         11
   160          3
   161         17
   162          3
   163          4
   167          2
   168          7
   169          8
   174          4
   175         11
   176          2
   177          3
   182          4
   183          6
   188          4
   189          9
   190          2
   191          4
   196          3
   197          5
   202          5
   203         10
   204          3
   205          3
   211          2
   216          4
   217          9
   218          2
   219          2
   230          4
   231          9
   232          2
   233          3
   244          4
   245          8
   247          2
   259          6
   273          4
   302         46
   303         12
   304         16
   305          4