##TITLE=Library Entry 25346
##JCAMP-DX=Revision 4.10 
##DATA TYPE=MASS SPECTRUM
##SAMPLE DESCRIPTION=D.HENNEBERG, MAX-PLANCK INSTITUTE, MULHEIM, WEST GERMAN
Y
##NAMES=HP
##CAS NAME=Octane, 2,3,6-trimethyl-
##MOLFORM=C11H24
##CAS REGISTRY NO=62016-33-5
##MP= -300
##BP= -300
##MW= 156
##$RETENTION INDEX=0
##$CONDENSED SPECTRUM=NO
##NPOINTS= 58
##XYDATA=(XY..XY) 1 
    24          0
    25          0
    27         86
    28         15
    29        162
    30          5
    31          0
    33          0
    36          3
    38          4
    39         55
    40         12
    41        271
    42         55
    43        777
    44         12
    45          1
    49          0
    50          2
    51          0
    52          2
    53         15
    54          8
    55        111
    56        119
    57        999
    58         47
    62          0
    63          2
    64          2
    65          0
    66          1
    67          6
    68          2
    69         23
    70        208
    71        843
    72         47
    73          1
    75          0
    77          2
    79          1
    80          0
    82          9
    83         52
    84         38
    85         63
    86          2
    91          0
    97          1
    99          2
   112         70
   113         80
   114          6
   117          0
   127          0
   140          0
   156          0