##TITLE=Library Entry 17017
##JCAMP-DX=Revision 4.10 
##DATA TYPE=MASS SPECTRUM
##SAMPLE DESCRIPTION=D.HENNEBERG, MAX-PLANCK INSTITUTE, MULHEIM, WEST GERMAN
Y
##NAMES=HP
##CAS NAME=Butane, 1-methoxy-2-methyl-
##MOLFORM=C6H14O
##CAS REGISTRY NO=62016-48-2
##MP= -300
##BP= -300
##MW= 102
##$RETENTION INDEX=683
##$CONDENSED SPECTRUM=NO
##NPOINTS= 47
##XYDATA=(XY..XY) 1 
    26          7
    27         45
    28         21
    29        173
    30          6
    31         28
    32          1
    33         14
    37          0
    39         36
    40          9
    41        260
    42         55
    43         49
    44          4
    45        999
    46         26
    47        149
    48          2
    50          1
    51          2
    52          0
    53          7
    54          4
    55         89
    56        322
    57        115
    58          6
    59         16
    60          0
    65          0
    67          1
    68          0
    69          5
    70        285
    71         26
    72          2
    73         12
    74          1
    77          1
    78          1
    79          1
    80          1
    85          1
    87          0
   101          2
   102          3