##TITLE=Library Entry 7872
##JCAMP-DX=Revision 4.10 
##DATA TYPE=MASS SPECTRUM
##SAMPLE DESCRIPTION=D.HENNEBERG, MAX-PLANCK INSTITUTE, MULHEIM, WEST GERMAN
Y
##NAMES=HP
##CAS NAME=Octane, 5-ethyl-2-methyl-
##MOLFORM=C11H24
##CAS REGISTRY NO=62016-18-6
##MP= -300
##BP= -300
##MW= 156
##$RETENTION INDEX=1037
##$CONDENSED SPECTRUM=NO
##NPOINTS= 46
##XYDATA=(XY..XY) 1 
    21          0
    27        110
    28         11
    29        154
    30          2
    37          0
    38          0
    39         61
    40          7
    41        280
    42         68
    43        999
    44         12
    51          5
    52          0
    53         15
    54          6
    55        122
    56        147
    57        843
    58         35
    65          1
    67          7
    68          6
    69         67
    70         52
    71        631
    72         33
    77          0
    81          0
    82          0
    83         11
    84        129
    85        312
    86         19
    97          4
    98         15
    99          5
   111         13
   112         57
   113         44
   114          2
   126         74
   127         92
   128          6
   156          9