##TITLE=Library Entry 24140
##JCAMP-DX=Revision 4.10 
##DATA TYPE=MASS SPECTRUM
##SAMPLE DESCRIPTION=D.HENNEBERG, MAX-PLANCK INSTITUTE, MULHEIM, WEST GERMAN
Y
##NAMES=HP
##CAS NAME=Octane, 2,5,6-trimethyl-
##MOLFORM=C11H24
##CAS REGISTRY NO=62016-14-2
##MP= -300
##BP= -300
##MW= 156
##$RETENTION INDEX=0
##$CONDENSED SPECTRUM=NO
##NPOINTS= 61
##XYDATA=(XY..XY) 1 
    24          0
    26          3
    27         52
    28          1
    29        105
    30          3
    31          1
    32          1
    35          2
    36          0
    37          1
    38          1
    39         38
    40          8
    41        190
    42         24
    43        449
    44          9
    45          2
    47          0
    48          0
    50          1
    51          3
    52          1
    53         10
    54          8
    55         53
    56        298
    57        999
    58         47
    59          1
    63          1
    65          1
    67          4
    68          1
    69         54
    70        114
    71         94
    72          5
    73          1
    77          1
    78          2
    79          0
    81          1
    83         12
    84         17
    85        102
    86          6
    91          0
    97          2
    98         40
    99         41
   100          3
   111          0
   112          1
   113          1
   115          0
   117          2
   118          1
   127         11
   156          3