##TITLE=Library Entry 29547
##JCAMP-DX=Revision 4.10 
##DATA TYPE=MASS SPECTRUM
##SAMPLE DESCRIPTION=D.HENNEBERG, MAX-PLANCK INSTITUTE, MULHEIM, WEST GERMAN
Y
##NAMES=HP
##CAS NAME=Butane, 2-methoxy-3-methyl-
##MOLFORM=C6H14O
##CAS REGISTRY NO=62016-49-3
##MP= -300
##BP= -300
##MW= 102
##$RETENTION INDEX=0
##$CONDENSED SPECTRUM=NO
##NPOINTS= 46
##XYDATA=(XY..XY) 1 
    26          6
    27         32
    28         17
    29        114
    30          3
    31        110
    32          3
    33          3
    35          0
    39         20
    40          3
    41         63
    42         13
    43         86
    44          2
    45         34
    46          0
    50          0
    51          0
    53          6
    54          1
    55         94
    56          5
    57          4
    58         75
    59        999
    60         35
    61          1
    65          0
    67          1
    69          8
    70         11
    71         24
    72          1
    73          2
    79          0
    80          0
    81          0
    85          1
    86          0
    87         51
    88          2
    91          0
   101          5
   102          3
   103          0