##TITLE=Library Entry 24884
##JCAMP-DX=Revision 4.10 
##DATA TYPE=MASS SPECTRUM
##SAMPLE DESCRIPTION=D.HENNEBERG, MAX-PLANCK INSTITUTE, MULHEIM, WEST GERMAN
Y
##NAMES=HP
##CAS NAME=Octane, 2,2,6-trimethyl-
##MOLFORM=C11H24
##CAS REGISTRY NO=62016-28-8
##MP= -300
##BP= -300
##MW= 156
##$RETENTION INDEX=964
##$CONDENSED SPECTRUM=NO
##NPOINTS= 47
##XYDATA=(XY..XY) 1 
    24          0
    25          0
    26          2
    27         33
    28          6
    29        108
    30          5
    36          3
    38          1
    39         25
    40          7
    41        160
    42         16
    43        188
    44          5
    45          0
    46          0
    49          0
    50          0
    52          0
    53          6
    54          3
    55         45
    56        422
    57        999
    58         49
    59          1
    63          0
    65          0
    66          0
    67          1
    70         45
    71        111
    72          5
    83          3
    84          1
    85         78
    86          6
    97          0
    98         18
    99         25
   100          1
   111          0
   114          0
   140          0
   141         10
   142          1