##TITLE=Library Entry 7835
##JCAMP-DX=Revision 4.10 
##DATA TYPE=MASS SPECTRUM
##SAMPLE DESCRIPTION=Chemical Concepts
##NAMES=HP
##CAS NAME=Octane, 2,3,3-trimethyl-
##MOLFORM=C11H24
##CAS REGISTRY NO=62016-30-2
##MP= -300
##BP= -300
##MW= 156
##$RETENTION INDEX=0
##$CONDENSED SPECTRUM=NO
##NPOINTS= 60
##XYDATA=(XY..XY) 1 
    24          0
    25          0
    26          8
    27        209
    28          8
    29        246
    30          5
    33          0
    36          0
    37          1
    38          3
    39        125
    40         22
    41        515
    42         51
    43        999
    44         29
    45          2
    50          2
    51          7
    52          3
    53         33
    54          7
    55        147
    56        236
    57        991
    58         38
    59          0
    63          1
    65          5
    66          1
    67         14
    68          8
    69        138
    70         52
    71        631
    72         31
    77          2
    78          0
    79          2
    80          0
    81          2
    82          1
    83         15
    84        113
    85        437
    86         25
    87          0
    91          0
    95          0
    96          0
    97         15
    98          1
    99         10
   100          0
   112        115
   113        123
   114          9
   141          9
   142          0