##TITLE=Library Entry 22912
##JCAMP-DX=Revision 4.10 
##DATA TYPE=MASS SPECTRUM
##SAMPLE DESCRIPTION=Institute of Organic Chemistry, Novosibirsk, USSR 1988
##NAMES=HP
##CAS NAME=Vinyl(allylamino)bis(isopropylideneaminooxy)silane
##MOLFORM=C11H21N3O2Si
##CAS REGISTRY NO=62025-27-8
##MP= -300
##BP= -300
##MW= 255
##$RETENTION INDEX=0
##$CONDENSED SPECTRUM=NO
##NPOINTS= 25
##XYDATA=(XY..XY) 1 
    30        168
    38         71
    39         30
    40        111
    41          8
    42        208
    54         37
    55         39
    56        999
    57        171
    58         68
   126         69
   127          7
   128         85
   129         10
   130         58
   144        410
   145         59
   146         41
   183         62
   184         10
   199        431
   200         78
   201         60
   255         11