##TITLE=Library Entry 46875
##JCAMP-DX=Revision 4.10 
##DATA TYPE=MASS SPECTRUM
##SAMPLE DESCRIPTION=N.Klyuev, Institute of Ecology & Evolution, RAS, Moscow
##NAMES=HP
##CAS NAME=Diazene, [(hydroxyimino)(4-nitrophenyl)methyl]phenyl-
##MOLFORM=C13H10N4O3
##CAS REGISTRY NO=62031-31-6
##MP= -300
##BP= -300
##MW= 270
##$RETENTION INDEX=0
##$CONDENSED SPECTRUM=NO
##NPOINTS= 41
##XYDATA=(XY..XY) 1 
    40         16
    41         57
    42         15
    43        122
    44          1
    50         12
    51        281
    52         68
    63         51
    64        108
    65        171
    75        109
    76        159
    77        999
    78        271
    79         23
    90         42
    91        181
    92        403
    93         38
   102        178
   103         64
   104         11
   105        394
   106         37
   107         10
   118         20
   119        197
   120         19
   122         63
   148         40
   149         66
   150         13
   165         84
   166         12
   179         11
   212          5
   240         29
   253          4
   270          4
   271          1