##TITLE=Library Entry 5748
##JCAMP-DX=Revision 4.10 
##DATA TYPE=MASS SPECTRUM
##SAMPLE DESCRIPTION=J. SHAW, BORRISTON RESEARCH, ROCKVILLE, MD, USA
##NAMES=HP
##CAS NAME=Benzofuran, 7-(2,4-dinitrophenoxy)-2,3-dihydro-2,2-dimethyl-3-(1-
methylethoxy)-
##MOLFORM=C19H20N2O7
##CAS REGISTRY NO=62059-48-7
##MP= -300
##BP= -300
##MW= 388
##$RETENTION INDEX=0
##$CONDENSED SPECTRUM=NO
##NPOINTS= 229
##XYDATA=(XY..XY) 1 
    12          6
    13          2
    15         87
    16         11
    17         16
    18         48
    19          4
    27        476
    28         95
    29        123
    30        222
    31         34
    32          1
    39        293
    41        664
    43        999
    44         95
    46         20
    50         40
    51        123
    52         57
    53         90
    55        110
    57         29
    59         89
    60          3
    63        173
    64         64
    65        139
    66         23
    67         15
    68          9
    69         31
    70         19
    71         49
    72         10
    74         43
    75         85
    76         52
    77        165
    79        311
    80         49
    81         46
    82         18
    83          7
    84          6
    86          5
    87         10
    88         12
    89         40
    91        173
    92         62
    93         73
    94         31
    95         17
    96          7
    97          5
    98          2
    99          5
   100          5
   101         17
   102         29
   103         42
   105        140
   107        201
   108         35
   109         78
   110         10
   111          6
   113         16
   115         90
   116         19
   117         18
   118         13
   119         43
   120         36
   121         40
   122         18
   123         28
   124          3
   126         36
   127         46
   128         32
   129         11
   130          9
   131         28
   133        267
   134         54
   135         37
   136         19
   137         47
   138         39
   139         64
   140         13
   141          7
   142          3
   143          6
   144          7
   145         15
   146         15
   147         16
   149         32
   151        113
   152         20
   153         12
   155         40
   156          8
   157          8
   158          2
   159          3
   161         58
   162         53
   163        136
   164         21
   165         26
   167         40
   168         21
   169         22
   170          7
   171          5
   172          1
   173          1
   175          1
   176          2
   177          4
   179         93
   180         13
   181          9
   182          7
   183         17
   184          8
   185          5
   186          1
   189          2
   190          2
   191          3
   192          3
   193          7
   194         10
   195         11
   196         11
   197         24
   198          6
   199          4
   200          1
   201          1
   202          2
   203          1
   205          3
   206          2
   207          4
   208          4
   209         13
   210         13
   211         15
   212          5
   213          8
   214          7
   215          6
   216          1
   217          1
   218          1
   220          5
   221         12
   222          4
   223          3
   224          3
   225          6
   226          3
   227          3
   228          1
   229          2
   230          1
   231          1
   234          4
   235          3
   236          2
   237          3
   238          2
   239          2
   240          5
   241          7
   243         35
   244          4
   249          2
   251          1
   252          2
   253          2
   255         12
   256          8
   257         14
   259         12
   260          1
   265          2
   266          4
   267          2
   268          1
   269          1
   271         10
   272          1
   280          6
   281          2
   282          5
   283          4
   284          2
   285          1
   287          3
   288          1
   294          2
   295          2
   296          1
   301          1
   303        157
   304         19
   305          5
   311         15
   313         12
   314          1
   317         33
   318          4
   327          5
   329         22
   330          3
   345          7
   346          4
   347          2
   388         31
   389          7
   390          1