##TITLE=Library Entry 26355
##JCAMP-DX=Revision 4.10 
##DATA TYPE=MASS SPECTRUM
##SAMPLE DESCRIPTION=Chemical Concepts
##NAMES=HP
##CAS NAME=2,2-Dimethyl-N-phenethylpropionamide
##MOLFORM=C13H19NO
##CAS REGISTRY NO=62056-54-6
##MP= -300
##BP= -300
##MW= 205
##$RETENTION INDEX=0
##$CONDENSED SPECTRUM=NO
##NPOINTS= 106
##XYDATA=(XY..XY) 1 
    26          3
    27         57
    28         33
    29        166
    30        302
    31          5
    32          3
    36          0
    37          0
    38          4
    39         82
    40         11
    41        240
    42         32
    43         11
    44          6
    45          0
    46          0
    50          8
    51         34
    52          9
    53         11
    54          2
    55         19
    56         16
    57        999
    58         48
    59          1
    62          3
    63         17
    64          5
    65         79
    66          5
    67          1
    68          1
    69         31
    70         14
    71          5
    72          1
    73          0
    74          1
    75          2
    76          3
    77         75
    78         34
    79         55
    80          4
    81          1
    82          0
    83          5
    84          2
    85        469
    86         28
    87          2
    88          0
    89         13
    90          6
    91        145
    92         41
    93          4
    94          0
    95          1
    96          0
    97          1
    98          2
    99          3
   100          0
   101          1
   102         12
   103         46
   104        730
   105        252
   106         21
   107          1
   109          0
   111          0
   112          0
   114        206
   115         15
   116          1
   117          2
   118          6
   119         10
   120          8
   121          1
   122          1
   123          0
   125          0
   128          1
   130          1
   131          0
   132          0
   147          0
   148         16
   149          2
   150          1
   162         21
   163          3
   178          0
   186          0
   190         12
   191          2
   204          0
   205        361
   206         58
   207          6