##TITLE=Library Entry 54538
##JCAMP-DX=Revision 4.10 
##DATA TYPE=MASS SPECTRUM
##SAMPLE DESCRIPTION=ORMSBG,10(6)435(1975); C. MARAZANO
##NAMES=HP
##CAS NAME=Cholestan-2-amine, N,N-dimethyl-, (2.alpha.)-
##MOLFORM=C29H53N
##CAS REGISTRY NO=62057-64-1
##MP= -300
##BP= -300
##MW= 415
##$RETENTION INDEX=0
##$CONDENSED SPECTRUM=NO
##NPOINTS= 40
##XYDATA=(XY..XY) 1 
    41         20
    42         10
    43         40
    44         20
    46         10
    55         30
    56         10
    57         30
    58         30
    67         10
    69         20
    70         30
    71         90
    72         10
    79         10
    81         20
    83         10
    84        999
    85         70
    91         10
    93         10
    95         20
    98        100
    99         90
   100         10
   107         10
   109         10
   111         10
   124         10
   139         20
   152         20
   344         30
   345         10
   400         30
   401         10
   413         10
   414         30
   415        650
   416        220
   417         30