##TITLE=Library Entry 498
##JCAMP-DX=Revision 4.10 
##DATA TYPE=MASS SPECTRUM
##SAMPLE DESCRIPTION=J. SHAW, BORRISTON RESEARCH, ROCKVILLE, MD, USA
##NAMES=HP
##CAS NAME=Benzofuran, 7-(2,4-dinitrophenoxy)-3-ethoxy-2,3-dihydro-2,2-dimet
hyl-
##MOLFORM=C18H18N2O7
##CAS REGISTRY NO=62059-46-5
##MP= -300
##BP= -300
##MW= 374
##$RETENTION INDEX=0
##$CONDENSED SPECTRUM=NO
##NPOINTS= 245
##XYDATA=(XY..XY) 1 
    12          7
    13          3
    14         15
    15         61
    16         23
    17         53
    18        140
    19          7
    20          1
    24          1
    27        450
    29        999
    30        247
    32          2
    36          2
    39        311
    41        473
    43        692
    44         35
    45         39
    46         24
    47          1
    48          1
    50         57
    51        178
    52         75
    53        122
    55        157
    56          9
    57         34
    58         12
    59         41
    62         51
    63        172
    64         62
    65        157
    66         27
    67         20
    68         10
    69         58
    70         21
    71         61
    72         11
    74         65
    75        109
    76         60
    77        216
    78         55
    79        309
    80         51
    81         60
    82         16
    83         10
    84          6
    85          2
    86          6
    87         13
    88         14
    89         54
    91        181
    92         55
    93         81
    94         27
    95         18
    96          7
    97          5
    98          3
    99         10
   100         12
   101         18
   102         33
   103         51
   104         19
   105        153
   107        178
   108         27
   109        100
   110         10
   111          7
   112          3
   113         14
   114         14
   115         76
   116         18
   117         18
   118         12
   119         42
   120         33
   121         41
   122         13
   123         31
   124          3
   125          7
   126         39
   127         50
   128         36
   129         12
   130          8
   131         26
   133        353
   134         56
   135         35
   136         15
   137         81
   138         29
   139         75
   140         16
   141          8
   142          3
   143          7
   144          8
   145         13
   146         12
   147         16
   148          5
   149         29
   150         15
   151         70
   152         24
   153         17
   154          9
   155         31
   156         10
   157          9
   158          2
   159          3
   161         99
   162         44
   163         60
   164         13
   165         29
   166         11
   167         33
   168         24
   169         27
   170          6
   171          5
   172          1
   173          1
   174          1
   175          1
   176          3
   177          8
   178         10
   179         67
   180         12
   181         10
   182          7
   183         16
   184          8
   185          5
   186          1
   189          2
   190          2
   191          1
   192          3
   193          6
   194          8
   195         12
   196         11
   197         36
   198          7
   199          3
   200          1
   202          1
   203          1
   205          2
   207         43
   208          9
   209         11
   210         11
   211         11
   212          4
   213          6
   214          3
   215          3
   219          1
   220          4
   221         10
   222          4
   223          2
   224          2
   225          5
   226          3
   227          2
   228          1
   229          1
   230          1
   231          1
   234          4
   235          3
   236          2
   237          4
   238          2
   239          2
   240          3
   241          4
   242          4
   243         11
   244          1
   249          1
   251          1
   252          2
   253          2
   254          1
   255          3
   256          5
   257          7
   258          2
   259          5
   260          1
   265          1
   266          4
   267          3
   268          1
   269          1
   270          1
   271          2
   280          6
   281          2
   282          4
   283          4
   284          2
   285          1
   287          1
   294          1
   295          1
   296          1
   301          1
   303         36
   304          5
   305          1
   311         10
   312          4
   313          9
   314          1
   317          1
   327          2
   328          1
   329          6
   330          1
   357          5
   358          1
   374         18
   375          3