##TITLE=Library Entry 2089
##JCAMP-DX=Revision 4.10 
##DATA TYPE=MASS SPECTRUM
##SAMPLE DESCRIPTION=J. SHAW, BORRISTON RESEARCH, ROCKVILLE, MD, USA
##NAMES=HP
##CAS NAME=Benzofuran, 7-(2,4-dinitrophenoxy)-2,3-dihydro-2,2-dimethyl-
##MOLFORM=C16H14N2O6
##CAS REGISTRY NO=62059-44-3
##MP= -300
##BP= -300
##MW= 330
##$RETENTION INDEX=0
##$CONDENSED SPECTRUM=NO
##NPOINTS= 232
##XYDATA=(XY..XY) 1 
    12         14
    13          3
    14         18
    15         85
    16         62
    17        131
    18        348
    19          5
    20          1
    27        493
    28        204
    29        604
    30        974
    31         21
    32          5
    36          3
    37         29
    38        161
    39        945
    41        999
    43        883
    44         33
    46        111
    47          1
    48          3
    50        179
    51        600
    52        145
    53        338
    54         45
    55        481
    56         27
    57         30
    58         12
    59          4
    60          3
    61         21
    62        145
    63        488
    64        133
    65        516
    66        130
    67         74
    68         17
    69         50
    70         18
    71         10
    74        213
    75        295
    76        140
    77        577
    78        176
    79        676
    80         63
    81         40
    82         30
    83         26
    84         14
    85          4
    86         10
    87         28
    88         33
    89        103
    91        662
    92        121
    93        195
    94         51
    95        146
    96         17
    97         12
    98         10
    99         12
   100         11
   101         35
   102         85
   103        149
   104         51
   105        201
   107        548
   108         40
   109         15
   110          6
   111         14
   112          3
   113         24
   114         30
   115        270
   116         64
   117        182
   118         40
   119        122
   120         52
   121         29
   122         12
   123         40
   124          4
   125         11
   126         49
   127         91
   128         65
   129         27
   130         25
   131        112
   132         50
   133         81
   134         57
   135        481
   136         47
   137         10
   138         11
   139        124
   140         26
   141         25
   142          8
   143         15
   144         17
   145         92
   146         31
   147         56
   148         58
   149         36
   150         21
   151         48
   152         66
   153         24
   154         14
   155         26
   156         18
   157          6
   158          3
   159          3
   160          4
   161         44
   162         59
   163        592
   164         71
   165         81
   166         20
   167         45
   168         27
   169         18
   170          6
   171          5
   172          2
   175          1
   176          8
   177          6
   178         11
   179         14
   180         16
   181         17
   182         13
   183         11
   184          6
   185          2
   186          1
   187          1
   189          4
   190          2
   191          3
   192          5
   193         12
   194         27
   195         16
   196         26
   197         14
   198          3
   199          2
   202          4
   203          1
   204          1
   205          6
   206          7
   207         20
   208         13
   209         13
   210          5
   211          3
   212          3
   213          2
   214          1
   215          2
   218          1
   219          2
   220         10
   221         46
   222         23
   223         17
   224          9
   225          3
   226          4
   227          2
   228          1
   229          5
   234          1
   235          4
   236          6
   237          5
   238          3
   239          8
   240          9
   241          6
   242          5
   243          3
   249          9
   250          4
   251          5
   252          2
   253          4
   254          9
   255          3
   259          1
   266          3
   267          8
   268          9
   269          4
   270          2
   271          2
   280          3
   281         10
   282          3
   283          1
   285          4
   295         12
   296         41
   297         10
   298          1
   313         14
   314          2
   330         50
   331          9
   332          1