##TITLE=Library Entry 5489
##JCAMP-DX=Revision 4.10 
##DATA TYPE=MASS SPECTRUM
##SAMPLE DESCRIPTION=J. SHAW, BORRISTON RESEARCH, ROCKVILLE, MD, USA
##NAMES=HP
##CAS NAME=2,5-Benzofurandiol, 2,3-dihydro-3,3-dimethyl-, 5-methanesulfonate
, (.+/-.)-
##MOLFORM=C11H14O5S
##CAS REGISTRY NO=62059-52-3
##MP= -300
##BP= -300
##MW= 258
##$RETENTION INDEX=0
##$CONDENSED SPECTRUM=NO
##NPOINTS= 145
##XYDATA=(XY..XY) 1 
    12          5
    13          4
    15        976
    16         19
    17         24
    18         85
    19         15
    25          2
    26         80
    27        267
    28        114
    29        181
    30         15
    31         45
    32         11
    33          7
    34          9
    35          1
    36          1
    37          5
    38         28
    39        275
    40         42
    41        207
    43        999
    44         37
    45         90
    46         10
    47         10
    48         34
    49          7
    50         46
    51        158
    52         93
    53        220
    54        154
    55        232
    56         11
    57         42
    58          3
    59          5
    60          1
    61          4
    62         27
    63        101
    64         56
    65        147
    66         37
    67         64
    68         12
    69         23
    70          2
    71          6
    72          4
    74          7
    75          9
    77        395
    78        116
    79        555
    80         48
    81         71
    82         51
    83         11
    84          1
    85          1
    86          1
    87          3
    89         44
    90         31
    91        126
    92         16
    93         32
    94         31
    95         26
    96          4
    97          2
    99          1
   101          3
   102         10
   103        120
   104         34
   105        364
   106         42
   107         83
   108         39
   109         64
   110          9
   111          5
   115         71
   116          9
   117          8
   118         13
   119         21
   120          5
   121         42
   122         62
   123         69
   124          6
   125          1
   131         13
   133        342
   134         74
   135         50
   137        456
   138         35
   139          4
   143         28
   144          5
   145          2
   146          2
   147         10
   149         85
   150         64
   151        110
   152         11
   153          2
   161        343
   162         40
   163         12
   164         10
   165          1
   177          7
   179        731
   180         72
   181          7
   185          2
   187          2
   197          1
   201         67
   202          5
   203          3
   207          2
   213         11
   215         11
   229        178
   230         20
   231          9
   241         13
   242          1
   243          1
   256          1
   258        166
   259         20
   260          9
   261          1