##TITLE=Library Entry 5745
##JCAMP-DX=Revision 4.10 
##DATA TYPE=MASS SPECTRUM
##SAMPLE DESCRIPTION=J. SHAW, BORRISTON RESEARCH, ROCKVILLE, MD, USA
##NAMES=HP
##CAS NAME=Benzofuran, 7-(2,4-dinitrophenoxy)-2,3-dihydro-2,2-dimethyl-3-pro
poxy-
##MOLFORM=C19H20N2O7
##CAS REGISTRY NO=62059-47-6
##MP= -300
##BP= -300
##MW= 388
##$RETENTION INDEX=0
##$CONDENSED SPECTRUM=NO
##NPOINTS= 249
##XYDATA=(XY..XY) 1 
    12          9
    13          3
    14         12
    15         48
    16         16
    17         35
    18         97
    19          3
    20          1
    27        706
    28        168
    29        306
    30        303
    31         72
    32          2
    36          2
    39        350
    41        832
    43        999
    44         59
    46         26
    50         48
    51        150
    52         66
    53        108
    55        148
    57         49
    58         12
    59         44
    60          2
    62         41
    63        159
    64         63
    65        153
    66         26
    67         18
    68         10
    69         50
    70         17
    71         80
    72         14
    74         52
    75         98
    76         57
    77        201
    79        377
    80         47
    81         52
    82         18
    83          9
    84          6
    86          6
    87         11
    88         13
    89         49
    91        203
    92         60
    93         82
    94         28
    95         19
    96          8
    97          6
    98          3
    99          5
   100          6
   101         17
   102         32
   103         52
   105        184
   107        203
   108         30
   109         88
   110         10
   111          7
   112          2
   113         14
   114         17
   115         87
   116         20
   117         23
   118         12
   119         52
   120         34
   121         47
   122         16
   123         42
   124          4
   125          6
   126         33
   127         47
   128         36
   129         13
   130         10
   131         33
   133        393
   134         74
   135         40
   136         17
   137         77
   138         33
   139         70
   140         15
   141          8
   142          4
   143          8
   144          8
   145         17
   146         18
   147         19
   148          6
   149         35
   150         19
   151        142
   152         30
   153         16
   154          9
   155         32
   156         10
   157          9
   158          2
   159          3
   161         85
   162         59
   163        103
   164         18
   165         33
   166         11
   167         37
   168         26
   169         27
   170          6
   171          5
   172          1
   173          1
   174          1
   175          1
   176          3
   177          7
   178         13
   179         98
   180         16
   181         11
   182          8
   183         17
   184          8
   185          5
   186          1
   189          2
   190          2
   191          2
   192          3
   193          8
   194         10
   195         13
   196         11
   197         36
   198          7
   199          4
   200          1
   201          1
   202          2
   203          1
   204          1
   205          3
   206          2
   207          5
   208          5
   209         14
   210         12
   211         13
   212          4
   213          6
   214          5
   215          5
   216          1
   217          1
   218          1
   219          1
   220          5
   221         33
   222          7
   223          3
   224          3
   225          5
   226          3
   227          2
   228          1
   229          2
   230          1
   231          1
   234          4
   235          3
   236          3
   237          4
   238          2
   239          2
   240          4
   241          6
   242          4
   243         18
   244          2
   249          2
   251          1
   252          2
   253          2
   254          2
   255          6
   256          6
   257         10
   258          2
   259          7
   260          1
   265          2
   266          5
   267          3
   268          1
   269          2
   270          1
   271          3
   280          6
   281          3
   282          5
   283          5
   284          2
   285          1
   287          2
   294          2
   295          2
   296          1
   301          1
   303         81
   304         11
   305          2
   311         16
   312          3
   313         10
   314          2
   317          9
   318          1
   327          3
   329         20
   330          3
   345          1
   346          1
   347          1
   371          1
   388         22
   389          5
   390          1