##TITLE=Library Entry 2025
##JCAMP-DX=Revision 4.10 
##DATA TYPE=MASS SPECTRUM
##SAMPLE DESCRIPTION=J. SHAW, BORRISTON RESEARCH, ROCKVILLE, MD, USA
##NAMES=HP
##CAS NAME=Alanine, N-[6-(cyclopropylamino)-1,4-dihydro-4-oxo-1,3,5-triazin-
2-yl]-2-methyl-
##MOLFORM=C10H15N5O3
##CAS REGISTRY NO=62059-49-8
##MP= -300
##BP= -300
##MW= 253
##$RETENTION INDEX=0
##$CONDENSED SPECTRUM=NO
##NPOINTS= 113
##XYDATA=(XY..XY) 1 
    12          6
    15        276
    18        292
    19          2
    20          1
    27        745
    29        107
    30         51
    31          4
    32          2
    39        463
    41        999
    43        195
    44         32
    45          9
    46          1
    48          2
    53        106
    54        141
    55        179
    56        344
    58        318
    59          8
    60          1
    61          3
    62          2
    63          1
    67        221
    68        303
    69        450
    70         67
    71          7
    72          1
    73          2
    75          4
    76          1
    77          2
    80         70
    81         96
    82        152
    83        286
    84        171
    85          9
    86          6
    87          1
    88          1
    89          1
    91          1
    94         88
    95         37
    96         34
    97         50
    98         19
    99          5
   100          1
   103          2
   109        214
   110         49
   111         34
   112         10
   113          2
   121         15
   123         82
   124         52
   125         14
   126         15
   127          2
   128          2
   129          1
   135         28
   137         49
   138         11
   139          5
   140          3
   149         12
   151         73
   152         29
   153         19
   154          6
   155          1
   161          1
   163         20
   164         28
   165          8
   166         15
   167          8
   168          1
   175          2
   177         21
   178          9
   179         13
   180         12
   181          1
   189          1
   190          2
   192         23
   193          5
   194          3
   195          3
   196          2
   204          1
   206         15
   207         16
   208          7
   209          2
   218          3
   220        142
   221         13
   222          1
   234        113
   235         84
   236         25
   237          2