##TITLE=Library Entry 86331
##JCAMP-DX=Revision 4.10 
##DATA TYPE=MASS SPECTRUM
##SAMPLE DESCRIPTION=J. SHAW, BORRISTON RESEARCH, ROCKVILLE, MD, USA
##NAMES=HP
##CAS NAME=Phosphorothioic acid, S-[[(4-chlorophenyl)sulfinyl]methyl] O,O-di
methyl ester
##MOLFORM=C9H12ClO4PS2
##CAS REGISTRY NO=62059-36-3
##MP= -300
##BP= -300
##MW= 314
##$RETENTION INDEX=0
##$CONDENSED SPECTRUM=NO
##NPOINTS= 158
##XYDATA=(XY..XY) 1 
    12          5
    13          4
    14         23
    15        685
    16         15
    17         32
    18        107
    19          3
    26          5
    27         23
    28         38
    29         68
    30         15
    31         67
    32         15
    33         10
    34          4
    35         12
    36         13
    37         10
    38         24
    39         42
    40          2
    41          4
    42          1
    43         11
    44         24
    45        682
    46        172
    47        166
    48         28
    49         25
    50        139
    51         85
    52          7
    53          4
    54          2
    55          3
    56          1
    57         12
    58         14
    59          5
    60         10
    61        145
    62         33
    63        110
    64         14
    65         24
    66          4
    67          1
    69         62
    70         10
    71         10
    72          4
    73         40
    74         55
    75        272
    76         51
    77         68
    78         23
    79        291
    80         33
    81         24
    82         31
    83          5
    84         10
    85         27
    86          5
    87         22
    88          2
    89         25
    90          5
    91          5
    92          3
    93         55
    95         49
    96         23
    97          7
    99         48
   100          8
   101         14
   102          3
   103          1
   105          5
   106          4
   107         17
   108        136
   109        999
   110         86
   111        131
   112         45
   113         39
   114         12
   115         15
   116          1
   117          2
   118          1
   119          1
   121         37
   122         22
   123          8
   125        919
   126         37
   127         68
   128          5
   129          2
   131         52
   132          4
   133         18
   134          1
   135          1
   137          1
   139          5
   140          4
   141          5
   142         27
   143        105
   144         45
   145         34
   146         13
   147          2
   149          1
   152          1
   153          4
   155        645
   156         42
   157        301
   158         34
   159        150
   160         22
   161         24
   162          4
   163          1
   169          1
   171          2
   172          1
   173          2
   174          3
   175          6
   176          1
   177          2
   187          5
   188          3
   189         20
   190          4
   191          6
   203          2
   205          1
   235          1
   236          2
   268         21
   269          2
   270          7
   286          1
   288          1
   298         16
   300          8
   315          1