##TITLE=Library Entry 75847
##JCAMP-DX=Revision 4.10 
##DATA TYPE=MASS SPECTRUM
##SAMPLE DESCRIPTION=J. SHAW, BORRISTON RESEARCH, ROCKVILLE, MD, USA
##NAMES=HP
##CAS NAME=1H-Imidazole, 2-(butylthio)-4,5-dihydro-
##MOLFORM=C7H14N2S
##CAS REGISTRY NO=62059-38-5
##MP= -300
##BP= -300
##MW= 158
##$RETENTION INDEX=0
##$CONDENSED SPECTRUM=NO
##NPOINTS= 123
##XYDATA=(XY..XY) 1 
    12          1
    13          3
    14         19
    15        191
    16         10
    17         54
    18        254
    19          1
    25          2
    26         44
    27        374
    28        331
    29        560
    30        791
    31         17
    32         10
    33          4
    34          7
    35          4
    37          2
    38         10
    39        142
    40         54
    41        459
    42        265
    43        296
    44        348
    45        189
    46         68
    47         54
    48          5
    49          2
    50          5
    51          8
    52          4
    53         26
    54         19
    55         77
    56         72
    57        185
    58         33
    59         50
    60         55
    61         20
    62          4
    63          1
    64          3
    65          3
    66          1
    67          8
    68         24
    69         31
    70        127
    71         74
    72        247
    73        223
    74        289
    75        107
    76         19
    77          5
    78          1
    79          1
    81          8
    82          5
    83         25
    84         10
    85          7
    86         48
    87         46
    88          9
    89          6
    90          2
    91          1
    93          1
    94          1
    95          3
    96          4
    97         34
    98         15
    99          6
   100         35
   101        217
   102        999
   103        315
   104         81
   105         14
   106          1
   107          1
   108          1
   109          7
   111        469
   112         33
   113          3
   115         82
   116        242
   117         17
   118         11
   119          1
   121          1
   123          1
   125         13
   126          1
   127          8
   129        358
   130         26
   131         16
   132          1
   138          1
   139          1
   141          2
   143          2
   145          3
   146          1
   149          2
   152          6
   153          2
   155          1
   156          1
   157         14
   158         28
   159         40
   160          4
   161          2