##TITLE=Library Entry 3010
##JCAMP-DX=Revision 4.10 
##DATA TYPE=MASS SPECTRUM
##SAMPLE DESCRIPTION=J. SHAW, BORRISTON RESEARCH, ROCKVILLE, MD, USA
##NAMES=HP
##CAS NAME=Butanoic acid, 4-(2,4-dichlorophenoxy)-, 2-(2-methylpropoxy)ethyl
 ester
##MOLFORM=C16H22Cl2O4
##CAS REGISTRY NO=62059-41-0
##MP= -300
##BP= -300
##MW= 348
##$RETENTION INDEX=0
##$CONDENSED SPECTRUM=NO
##NPOINTS= 128
##XYDATA=(XY..XY) 1 
    12          3
    15         90
    16          8
    17         14
    18         40
    19         20
    27        427
    29        739
    31        103
    32          1
    35          5
    36         10
    37         13
    39        295
    41        999
    43        345
    45        707
    46         31
    49         10
    50         19
    51         16
    53         27
    55        253
    57        905
    59         37
    60          8
    61         20
    62         39
    63        157
    64         12
    65          9
    66          3
    69        468
    70         56
    71         27
    73         93
    74         33
    75         62
    76          7
    77         15
    78          2
    79          3
    81          2
    83         97
    85         87
    87        555
    88         31
    89         17
    91         13
    92          2
    93          1
    94          1
    95          1
    97         22
    98         46
    99         47
   101        494
   103         45
   105          7
   107         11
   109         49
   110         12
   111         44
   112         14
   113        101
   114          9
   115         15
   117         17
   119          4
   120          1
   121          1
   123          1
   125         10
   126         19
   127          9
   128         24
   129          7
   130          7
   131         13
   133         80
   135         51
   137         19
   139         10
   140          3
   141          6
   142          1
   143          3
   145         40
   147         33
   148          4
   149          8
   150          1
   151          1
   153          3
   154          3
   155          2
   156          1
   157          3
   159          3
   161         45
   162        213
   163         36
   164        132
   166         34
   167          3
   168          4
   169          1
   170          1
   173          1
   175         22
   177         15
   179          3
   187        184
   188         19
   189          7
   191          5
   197          2
   201          1
   203          1
   205          1
   231         32
   233         23
   235          5
   248          1
   275          8
   276          1
   277          5
   279          1