##TITLE=Library Entry 30972
##JCAMP-DX=Revision 4.10 
##DATA TYPE=MASS SPECTRUM
##SAMPLE DESCRIPTION=Chemical Concepts
##NAMES=HP
##CAS NAME=.alpha.-d-Ribopyranoside, methyl
##MOLFORM=C6H12O5
##CAS REGISTRY NO=6207-03-0
##MP= -300
##BP= -300
##MW= 164
##$RETENTION INDEX=0
##$CONDENSED SPECTRUM=NO
##NPOINTS= 107
##XYDATA=(XY..XY) 1 
    25          1
    26         14
    27         84
    28         36
    29        172
    30         26
    31        212
    32         16
    33        104
    34          1
    35          0
    36          0
    37          1
    38          2
    39         22
    40         13
    41         41
    42         89
    43        198
    44        151
    45        137
    46          3
    47         10
    49          0
    50          1
    51          1
    52          0
    53          2
    54          4
    55         32
    56         16
    57        133
    58         36
    59         53
    60        999
    61        297
    62         11
    63          2
    65          0
    66          0
    67          2
    68          9
    69         30
    70          4
    71        101
    72         10
    73        405
    74        273
    75         24
    76          6
    77          1
    79          1
    80          0
    81          5
    82          1
    83          2
    84          2
    85         23
    86         47
    87         36
    88          3
    89          6
    90          0
    91          9
    92          0
    93          1
    94          1
    95          2
    96          2
    97          2
    98          0
    99          1
   100         16
   101          2
   102          2
   103          9
   104          4
   105          4
   107          0
   109          0
   110          0
   111          0
   112          2
   113          1
   114         11
   115         11
   116          6
   117          1
   120          1
   121          0
   123          0
   124          1
   125          0
   131          0
   132          3
   133         29
   134          3
   135          0
   136          0
   137          0
   139          0
   141          0
   142          0
   145          0
   146          2
   149          5
   150          0