##TITLE=Library Entry 94327
##JCAMP-DX=Revision 4.10 
##DATA TYPE=MASS SPECTRUM
##SAMPLE DESCRIPTION=Chemical Concepts
##NAMES=HP
##CAS NAME=Butanoic acid, 4-(4-nitrophenyl)-3-oxo-, ethyl ester
##MOLFORM=C12H13NO5
##CAS REGISTRY NO=62088-12-4
##MP= -300
##BP= -300
##MW= 251
##$RETENTION INDEX=0
##$CONDENSED SPECTRUM=NO
##NPOINTS= 146
##XYDATA=(XY..XY) 1 
    25         18
    26        153
    27         80
    29        891
    30        149
    31         27
    32          7
    37          4
    38         23
    40         24
    41         71
    42        123
    43        606
    44         75
    45         44
    46          6
    47          6
    48          4
    49          3
    50         52
    51        105
    52         51
    53         14
    54          5
    55         23
    56         13
    57         38
    58         11
    59         13
    60         32
    61         17
    63        203
    64        110
    65         44
    66         13
    67         10
    68          6
    69        224
    70         10
    71          8
    72          4
    73         56
    74         18
    75         30
    76         32
    77        100
    78        265
    79         33
    80         12
    81          7
    82          9
    83          9
    85          5
    86         19
    87        602
    88         48
    89        454
    90        577
    92         17
    93          7
    95          7
    97          7
   100          4
   101          6
   102         23
   103         39
   104         27
   105         19
   106         91
   107        210
   108         18
   109          6
   111          4
   113          5
   114          7
   115        999
   116         81
   117         30
   118         14
   119          9
   120        146
   121         81
   122          9
   123          8
   128          5
   129          8
   130          8
   131         37
   132         16
   133         20
   134          5
   135          8
   136        282
   137        985
   138         96
   139          9
   141          7
   147         41
   148         12
   157         14
   158          5
   159          4
   160         14
   161          6
   162          6
   163        278
   164        249
   165         24
   166          4
   167          3
   168          4
   169          4
   170          4
   172          7
   176          8
   177          4
   178          4
   179          9
   180          5
   186          6
   189          6
   190          6
   200          4
   201          3
   202          3
   203          4
   204          9
   206        150
   207         15
   208          4
   210          4
   217          7
   218          4
   219          4
   220          5
   221          3
   222          4
   223         10
   224          4
   232          6
   233          9
   234          5
   235          5
   251        567
   252        113
   253         10