##TITLE=Library Entry 89830
##JCAMP-DX=Revision 4.10 
##DATA TYPE=MASS SPECTRUM
##SAMPLE DESCRIPTION=A. Musjce, AT&T Bell Labs., Murray Hill, N.J., USA
##NAMES=HP
##CAS NAME=Phenylhydrazine, 5-chloro-2,4-dinitro-
##MOLFORM=C6H5ClN4O4
##CAS REGISTRY NO=62088-24-8
##MP= -300
##BP= -300
##MW= 232
##$RETENTION INDEX=0
##$CONDENSED SPECTRUM=NO
##NPOINTS= 182
##XYDATA=(XY..XY) 1 
    25          5
    26          7
    27         13
    28         81
    29         94
    30        802
    31         70
    32          5
    35         22
    36          5
    37         69
    38         59
    39         50
    40         45
    41         30
    42         35
    43         45
    44          5
    45         16
    46        198
    47         31
    48         42
    49         62
    50        185
    51        159
    52        232
    53         84
    54         42
    55         40
    56         18
    57         11
    59          7
    60         65
    61        259
    62        335
    63        276
    64        107
    65        100
    66         44
    67         61
    68         93
    69         32
    70          2
    71         43
    72         97
    73        248
    74        479
    75        616
    76        603
    77        219
    78        277
    79         77
    80         39
    81          8
    82          8
    83         19
    84        111
    85        253
    86        140
    87        201
    88        249
    89        127
    90         71
    91         83
    92         54
    93         42
    94         14
    95         59
    96         28
    97        221
    98        118
    99        136
   100        108
   101         78
   102         49
   103         95
   104         58
   105         88
   106         29
   107         47
   108         41
   109        223
   110        309
   111        214
   112        727
   113        999
   114        304
   115        366
   116         55
   117          8
   118         23
   119         25
   120         14
   121         34
   122         24
   123         44
   124         76
   125         86
   126        119
   127         67
   128         56
   129         39
   130         20
   131          5
   133         18
   134          7
   135         25
   136          7
   137         10
   138         40
   139         63
   140        143
   141         92
   142         71
   143         30
   144          5
   145          2
   146         12
   147         10
   148         10
   149         27
   151         15
   152         21
   153         24
   154         11
   155         13
   156        154
   157         32
   158         78
   159          7
   162          5
   163          4
   164         10
   165         10
   166          9
   167          4
   168         30
   169         59
   170         42
   171         49
   172         39
   173         17
   174         13
   175          2
   176          4
   177          7
   178          2
   179          7
   180         14
   181         16
   182          4
   183          4
   184         16
   185          2
   186         70
   187         18
   188         46
   189          5
   190          7
   191          5
   192          7
   193          4
   194          4
   195         16
   196          2
   197         27
   198         20
   199          5
   200          2
   202         46
   203          5
   204         29
   214        119
   215         10
   216         65
   217          7
   218          5
   230          4
   232        164
   233         34
   234         78
   235          7