##TITLE=Library Entry 60680
##JCAMP-DX=Revision 4.10 
##DATA TYPE=MASS SPECTRUM
##SAMPLE DESCRIPTION=Japan AIST/NIMC Database- Spectrum MS-IW- 794
##NAMES=HP
##CAS NAME=Benzenemethanamine, N-hydroxy-N-(phenylmethyl)-
##MOLFORM=C14H15NO
##CAS REGISTRY NO=621-07-8
##MP= -300
##BP= -300
##MW= 213
##$RETENTION INDEX=0
##$CONDENSED SPECTRUM=NO
##NPOINTS= 70
##XYDATA=(XY..XY) 1 
    18          2
    27          2
    28          6
    30          1
    38          2
    39         19
    40          2
    41          7
    50          7
    51         20
    52          5
    53          1
    62          3
    63         13
    64          4
    65         96
    66          6
    74          1
    75          2
    76          4
    77         27
    78          8
    79          9
    82          1
    83          1
    89         25
    90         17
    91        999
    92        185
    93         10
    96          1
    97          2
   103          6
   104         18
   105         17
   106        137
   107         11
   116          7
   117         22
   118         19
   119          2
   120         15
   121          6
   122         21
   123          2
   135          1
   136          3
   152          3
   153          1
   165          7
   166          4
   167          6
   168          9
   169          1
   178          1
   181         11
   182          2
   192          1
   193          3
   194         71
   195         94
   196         37
   197         33
   198          5
   210          1
   211         20
   212          5
   213        184
   214         29
   215          3