##TITLE=Library Entry 84910
##JCAMP-DX=Revision 4.10 
##DATA TYPE=MASS SPECTRUM
##SAMPLE DESCRIPTION=Japan AIST/NIMC Database- Spectrum MS-NW-3302
##NAMES=HP
##CAS NAME=Benzylcarbamate
##MOLFORM=C8H9NO2
##CAS REGISTRY NO=621-84-1
##MP= -300
##BP= -300
##MW= 151
##$RETENTION INDEX=0
##$CONDENSED SPECTRUM=NO
##NPOINTS= 68
##XYDATA=(XY..XY) 1 
    14          1
    15          3
    16          6
    17          1
    18          3
    26          6
    27         25
    28         12
    29         26
    30          2
    31         11
    32          2
    37          9
    38         20
    39         90
    40          8
    41         15
    42         15
    43         79
    44         75
    45         18
    46          3
    49          5
    50         55
    51        126
    52         35
    53         19
    54          2
    55          2
    58          1
    60          1
    61          7
    62         19
    63         57
    64         18
    65        137
    66          9
    73          4
    74         14
    75          9
    76         10
    77        229
    78         55
    79        486
    80         46
    81          2
    85          1
    86          3
    87          3
    88          2
    89        138
    90        304
    91        521
    92         56
    93          3
   103          3
   104          2
   105         38
   106         19
   107        416
   108        999
   109         78
   110          4
   132          1
   133          2
   151        196
   152         19
   153          2