##TITLE=Library Entry 96545
##JCAMP-DX=Revision 4.10 
##DATA TYPE=MASS SPECTRUM
##SAMPLE DESCRIPTION=NIST Mass Spectrometry Data Center, 1994
##NAMES=HP
##CAS NAME=Benzeneacetonitrile, 3-nitro-
##MOLFORM=C8H6N2O2
##CAS REGISTRY NO=621-50-1
##MP= -300
##BP= -300
##MW= 162
##$RETENTION INDEX=0
##$CONDENSED SPECTRUM=NO
##NPOINTS= 53
##XYDATA=(XY..XY) 1 
    26         14
    27         19
    28         29
    29         14
    30        189
    32          3
    37         33
    38         76
    39        189
    40         20
    41         12
    43          5
    46         30
    49         18
    50        185
    51        100
    52         26
    53          6
    61         46
    62        119
    63        303
    64         91
    65         56
    66         12
    73         11
    74         74
    75         67
    76         61
    77        135
    78         24
    85         12
    86         23
    87         36
    88         90
    89        892
    90        162
    91         10
    92          5
    99          2
   100          3
   102          9
   104        139
   105         17
   114         42
   116        999
   117         88
   132        129
   133         10
   145          6
   146          8
   162        570
   163         58
   164          5