##TITLE=Library Entry 55695
##JCAMP-DX=Revision 4.10 
##DATA TYPE=MASS SPECTRUM
##SAMPLE DESCRIPTION=Chuck Anderson, Aldrich Chemical Co.
##NAMES=HP
##CAS NAME=3-(Diethylamino)-1,2-propanediol
##MOLFORM=C7H17NO2
##CAS REGISTRY NO=621-56-7
##MP= -300
##BP= -300
##MW= 147
##$RETENTION INDEX=0
##$CONDENSED SPECTRUM=NO
##NPOINTS= 50
##XYDATA=(XY..XY) 1 
    15         11
    18          7
    19          4
    20          1
    26          4
    27         44
    28         68
    29         94
    30        183
    31         31
    32          1
    36          0
    39          2
    40          1
    41         12
    42         69
    43         27
    44         38
    45          7
    54          4
    55          3
    56         32
    57         16
    58        153
    59          6
    60         16
    61          0
    68          1
    70         14
    71          5
    72         48
    73         10
    74          2
    75          0
    84          4
    85          1
    86        999
    87         54
    88         15
    98          0
   100          5
   112          0
   114          1
   116        156
   117         10
   130          2
   132          2
   146          1
   147         15
   148          1