##TITLE=Library Entry 62880
##JCAMP-DX=Revision 4.10 
##DATA TYPE=MASS SPECTRUM
##SAMPLE DESCRIPTION=Japan AIST/NIMC Database- Spectrum MS-NW-8575
##NAMES=HP
##CAS NAME=Thiourea, (phenylmethyl)-
##MOLFORM=C8H10N2S
##CAS REGISTRY NO=621-83-0
##MP= -300
##BP= -300
##MW= 166
##$RETENTION INDEX=0
##$CONDENSED SPECTRUM=NO
##NPOINTS= 87
##XYDATA=(XY..XY) 1 
    13          1
    14          1
    16          1
    26          2
    27          8
    28         18
    32          4
    33          1
    34          1
    39         60
    40          5
    41         15
    42         40
    43        276
    44         76
    45        125
    46          5
    47          9
    48          5
    49          1
    50         18
    51         50
    52         11
    53          4
    58          2
    59          5
    60          7
    61          5
    62         13
    63         40
    64         10
    65        126
    66          8
    69          8
    70          1
    71          3
    73          1
    74          4
    75          5
    76         10
    77         48
    78         28
    79         18
    80          1
    82          2
    83          1
    84          1
    85          1
    86          2
    87          2
    88          5
    89         39
    90         15
    91        999
    92         82
    93          7
    95          1
    97          2
   103          1
   104          9
   105          1
   106         12
   107          2
   108          2
   116          2
   117          1
   119         49
   120          9
   121         27
   122         11
   123         32
   124        112
   125          9
   126          5
   132          2
   133         51
   134          5
   148          3
   149         16
   150          9
   151         18
   152          2
   165         10
   166        546
   167         56
   168         26
   169          2