##TITLE=Library Entry 64459
##JCAMP-DX=Revision 4.10 
##DATA TYPE=MASS SPECTRUM
##SAMPLE DESCRIPTION=NIST Mass Spectrometry Data Center
##NAMES=HP
##CAS NAME=1,4-Dibenzyloxybenzene
##MOLFORM=C20H18O2
##CAS REGISTRY NO=621-91-0
##MP= -300
##BP= -300
##MW= 290
##$RETENTION INDEX=0
##$CONDENSED SPECTRUM=NO
##NPOINTS= 46
##XYDATA=(XY..XY) 1 
    38          2
    39         23
    41          8
    50          5
    51         16
    52          7
    53          3
    54          7
    55          1
    62          4
    63         28
    64         12
    65        141
    66          7
    75          1
    76          1
    77          5
    82          3
    89         29
    90         17
    91        999
    92        103
    93          3
   104          4
   105          1
   108          1
   110          1
   115          4
   116          1
   128          1
   141          4
   142          2
   152          1
   153          1
   165          1
   167          1
   169          2
   171          3
   181          4
   182          1
   198          1
   199          7
   200          1
   290        174
   291         38
   292          4