##TITLE=Library Entry 83185
##JCAMP-DX=Revision 4.10 
##DATA TYPE=MASS SPECTRUM
##SAMPLE DESCRIPTION=Chemical Concepts
##NAMES=HP
##CAS NAME=Benzenamine, 4,4'-(1,2-ethanediyl)bis-
##MOLFORM=C14H16N2
##CAS REGISTRY NO=621-95-4
##MP= -300
##BP= -300
##MW= 212
##$RETENTION INDEX=0
##$CONDENSED SPECTRUM=NO
##NPOINTS= 105
##XYDATA=(XY..XY) 1 
    26          0
    27          4
    28         16
    29          1
    30          8
    31          0
    38          1
    39         11
    40          2
    41          3
    42          3
    43          0
    44          0
    45          0
    50          1
    51          8
    52          8
    53         10
    54          6
    55          0
    56          0
    57          0
    62          0
    63          4
    64          2
    65          9
    66          7
    67          3
    74          0
    75          0
    76          1
    77         52
    78         18
    79         37
    80         10
    81          0
    87          0
    88          0
    89          6
    90          2
    91          7
    92          1
    93          2
    94          0
   101          0
   102          1
   103          1
   104         11
   105          5
   106        999
   107         62
   108          2
   115          1
   116          1
   117          4
   118          5
   119          3
   120          1
   126          0
   127          0
   128          1
   129          0
   130          0
   131          0
   134          0
   135          0
   139          0
   140          0
   141          0
   143          0
   148          1
   151          0
   152          1
   153          0
   154          0
   155          0
   156          0
   162          2
   163          0
   164          0
   165          2
   166          0
   167          1
   168          0
   169          0
   176          0
   177          0
   178          0
   179          0
   180          1
   181          0
   182          0
   191          0
   192          0
   193          1
   194          1
   195          1
   196          0
   208          0
   209          1
   210          1
   211          0
   212         96
   213         16
   214          1