##TITLE=Library Entry 38474
##JCAMP-DX=Revision 4.10 
##DATA TYPE=MASS SPECTRUM
##SAMPLE DESCRIPTION=RADIAN CORP
##NAMES=HP
##CAS NAME=Boric acid (H3BO3), tripentyl ester
##MOLFORM=C15H33BO3
##CAS REGISTRY NO=621-78-3
##MP= -300
##BP= -300
##MW= 272
##$RETENTION INDEX=0
##$CONDENSED SPECTRUM=NO
##NPOINTS= 87
##XYDATA=(XY..XY) 1 
    27         19
    29         64
    30          1
    31          2
    39         18
    40          4
    41        126
    42         71
    43        354
    44         20
    45         33
    53          8
    54          4
    55         98
    56         19
    57         21
    58         11
    59         14
    63          1
    67          9
    68         11
    69        292
    70        251
    71        999
    72         59
    73          6
    75          4
    76          4
    77         15
    81          1
    83         13
    84          4
    85          7
    86          6
    87         24
    88          5
    89         19
    97          6
    98          2
    99          5
   100          4
   101         14
   102          6
   103         21
   111          1
   113          3
   114         26
   115        102
   116          7
   117          6
   127          3
   128          2
   129          9
   130         15
   131         52
   132         17
   133         61
   134          3
   143          2
   144         15
   145         67
   146          6
   147          8
   155          3
   157          5
   159          4
   171          2
   173          4
   184          7
   185         22
   186          2
   187          1
   198          1
   199          5
   200         18
   201         10
   202         27
   203          3
   213          1
   214          3
   215         14
   216          1
   229          3
   241          1
   242          2
   243          9
   257          5