##TITLE=Library Entry 71887
##JCAMP-DX=Revision 4.10 
##DATA TYPE=MASS SPECTRUM
##SAMPLE DESCRIPTION=Japan AIST/NIMC Database- Spectrum MS-NW-2755
##NAMES=HP
##CAS NAME=Tricaproin
##MOLFORM=C21H38O6
##CAS REGISTRY NO=621-70-5
##MP= -300
##BP= -300
##MW= 386
##$RETENTION INDEX=0
##$CONDENSED SPECTRUM=NO
##NPOINTS= 113
##XYDATA=(XY..XY) 1 
    14          3
    15          3
    16          1
    17          1
    18          5
    26          3
    27         37
    28         23
    29         50
    30          1
    31          4
    32          2
    38          1
    39         18
    40          4
    41         78
    42         22
    43        228
    44          7
    45          8
    51          2
    53          4
    54          3
    55         83
    56         13
    57         18
    58          2
    59          2
    60         72
    61          6
    67          2
    68          3
    69         26
    70         29
    71        206
    72         10
    73         36
    74          7
    75          2
    77          1
    78          1
    80          5
    81          4
    83          6
    85          1
    87         11
    88          1
    89          1
    91          2
    96          1
    97          7
    98         40
    99        999
   100         67
   101          5
   111          1
   112          3
   113          1
   115          2
   116         15
   117          7
   121         11
   122          1
   129          6
   130          1
   135          1
   137          1
   140          4
   141          3
   142          1
   143          2
   154          2
   155          1
   157          1
   158         44
   159         17
   160          2
   164          2
   168          1
   171         48
   172         22
   173         40
   174          4
   176          1
   185         11
   186          2
   191          2
   196          2
   197          1
   198          4
   199          2
   201          3
   202          1
   214         28
   215         10
   216          1
   227         75
   228         11
   229          1
   241         10
   242          3
   255          2
   257         46
   258          7
   259          1
   269          2
   270         12
   271         74
   272         11
   273          2
   313          6
   314          1
   315          1