##TITLE=Library Entry 61889
##JCAMP-DX=Revision 4.10 
##DATA TYPE=MASS SPECTRUM
##SAMPLE DESCRIPTION=Japan AIST/NIMC Database- Spectrum MS-NW-3461
##NAMES=HP
##CAS NAME=Carbamimidothioic acid, phenylmethyl ester
##MOLFORM=C8H10N2S
##CAS REGISTRY NO=621-85-2
##MP= -300
##BP= -300
##MW= 166
##$RETENTION INDEX=0
##$CONDENSED SPECTRUM=NO
##NPOINTS= 100
##XYDATA=(XY..XY) 1 
    12          1
    13          7
    14          2
    15          1
    16          5
    26          6
    27         10
    28         16
    29          2
    32          5
    33          4
    34          3
    39         60
    40          6
    41         20
    42        133
    43        113
    44         28
    45         85
    46          5
    47          7
    48          3
    49          4
    50         22
    51         49
    52         12
    53          4
    55          2
    56          1
    57          3
    58          3
    59          6
    60          7
    61         11
    62         23
    63         45
    64         12
    65        116
    66          8
    67          1
    69          8
    70          2
    71          3
    73          2
    74          6
    75          6
    76          6
    77         42
    78         21
    79         15
    80          2
    81          1
    82          2
    83          1
    84          2
    85          3
    86          4
    87          3
    88          2
    89         40
    90         18
    91        999
    92         93
    93          6
    94          2
    95          2
    97          3
   103          1
   104          5
   105          2
   106          6
   107          2
   108          2
   109          1
   111          1
   116          1
   117          1
   119         16
   120          4
   121         24
   122          7
   123         20
   124        236
   125         21
   126         13
   127          1
   128          2
   130          1
   132          1
   133         12
   134          2
   148          2
   149         10
   150          4
   151          6
   165          5
   166        168
   167         18
   168          9
   169          1