##TITLE=Library Entry 87475
##JCAMP-DX=Revision 4.10 
##DATA TYPE=MASS SPECTRUM
##SAMPLE DESCRIPTION=Japan AIST/NIMC Database- Spectrum MS-NW-1154
##NAMES=HP
##CAS NAME=Phenol, 3-ethoxy-
##MOLFORM=C8H10O2
##CAS REGISTRY NO=621-34-1
##MP= -300
##BP= -300
##MW= 138
##$RETENTION INDEX=1264
##$CONDENSED SPECTRUM=NO
##NPOINTS= 81
##XYDATA=(XY..XY) 1 
    14          2
    15          4
    18          1
    25          1
    26         11
    27         84
    28         19
    29         57
    30          1
    31          2
    32          2
    37          5
    38         18
    39         86
    40         11
    41         14
    42         11
    43         20
    44          2
    45          2
    47          1
    49          1
    50         11
    51         24
    52         19
    53         51
    54         25
    55         23
    56          2
    57          3
    61          4
    62          9
    63         31
    64         28
    65         50
    66         11
    67          7
    68         16
    69         45
    70          3
    71          7
    74          3
    75          2
    77          9
    78          2
    79          7
    80          6
    81         91
    82        121
    83          7
    84          2
    88          1
    89          1
    91          8
    92         10
    93         21
    94         26
    95         15
    96          1
   103          1
   105          1
   107          8
   108          6
   109         12
   110        999
   111         64
   112          5
   119          2
   120          1
   121          3
   122          1
   123         85
   124          7
   125          1
   133          1
   135          1
   136          1
   137         17
   138        550
   139         47
   140          4