##TITLE=Library Entry 81290
##JCAMP-DX=Revision 4.10 
##DATA TYPE=MASS SPECTRUM
##SAMPLE DESCRIPTION=NIST Mass Spectrometry Data Center, 1990.
##NAMES=HP
##CAS NAME=m-Tolylacetic acid
##MOLFORM=C9H10O2
##CAS REGISTRY NO=621-36-3
##MP= -300
##BP= -300
##MW= 150
##$RETENTION INDEX=0
##$CONDENSED SPECTRUM=NO
##NPOINTS= 54
##XYDATA=(XY..XY) 1 
    17          1
    18          2
    26          8
    27         52
    28         10
    29          9
    32          1
    37          6
    38         27
    39         89
    40         13
    41         12
    43          3
    44          5
    45         31
    49          4
    50         50
    51        109
    52         33
    53         36
    55          5
    61          7
    62         22
    63         53
    64         13
    65         41
    66          9
    67          2
    74         14
    75         14
    76         26
    77        235
    78         97
    79        198
    80         16
    87          4
    89         23
    91        244
    92         21
    93          4
   102         24
   103        125
   105        999
   106        181
   107         19
   108          3
   121         10
   122          4
   131          2
   132          8
   148          3
   150        381
   151         39
   152          4