##TITLE=Library Entry 84327
##JCAMP-DX=Revision 4.10 
##DATA TYPE=MASS SPECTRUM
##SAMPLE DESCRIPTION=Japan AIST/NIMC Database- Spectrum MS-NW-2403
##NAMES=HP
##CAS NAME=Benzeneacetic acid, 3-hydroxy-
##MOLFORM=C8H8O3
##CAS REGISTRY NO=621-37-4
##MP= -300
##BP= -300
##MW= 152
##$RETENTION INDEX=0
##$CONDENSED SPECTRUM=NO
##NPOINTS= 71
##XYDATA=(XY..XY) 1 
    14          1
    15          1
    17          3
    18         10
    26          6
    27         36
    28         11
    29         10
    31          2
    37          9
    38         22
    39         80
    40          9
    41         10
    42          5
    43          7
    44          3
    45         20
    49          4
    50         28
    51         68
    52         34
    53         45
    54          4
    55         27
    56          1
    60          1
    61          6
    62         14
    63         26
    64          8
    65         11
    66          7
    67          9
    68          4
    69          2
    73          2
    74          7
    75          5
    76          5
    77        236
    78         66
    79         91
    80         24
    81         14
    82          2
    86          1
    87          1
    89          8
    90         26
    91          9
    92          2
    93          1
    94          1
    95         12
    96          1
   105         17
   106         13
   107        999
   108        197
   109         13
   110          5
   123          7
   124         12
   125          1
   134         13
   135          2
   151          1
   152        521
   153         45
   154          5