##TITLE=Library Entry 66829
##JCAMP-DX=Revision 4.10 
##DATA TYPE=MASS SPECTRUM
##SAMPLE DESCRIPTION=A.A.Kutin, Moscow, Russia
##NAMES=HP
##CAS NAME=N,N'-Diphenylmalonamide
##MOLFORM=C15H14N2O2
##CAS REGISTRY NO=621-10-3
##MP= -300
##BP= -300
##MW= 254
##$RETENTION INDEX=0
##$CONDENSED SPECTRUM=NO
##NPOINTS= 138
##XYDATA=(XY..XY) 1 
    33          0
    34          0
    36          3
    38         19
    39         89
    40         26
    41         16
    42         19
    43         71
    44         18
    45          1
    50         15
    51         71
    52         17
    53          5
    54          5
    55          1
    56          0
    57          2
    58          0
    59          4
    60          0
    61          1
    62          5
    63         25
    64         36
    65        196
    66        140
    67         12
    69         28
    70          1
    71          1
    73          0
    74          2
    75          4
    77        272
    78         29
    79         24
    80          4
    81          0
    83          0
    84          2
    86          0
    88          0
    89          4
    90          9
    91        132
    92        519
    93        999
    94         88
    95          3
    96          0
   101          0
   102          1
   104         12
   105         10
   106         69
   107         10
   108          1
   109          0
   110          0
   112          0
   113          0
   115          0
   116          3
   117         13
   119         60
   120         87
   121          7
   122          2
   126          0
   127          5
   128          0
   129          0
   130          0
   131          0
   132          8
   134        302
   135        494
   136         44
   137          3
   139          0
   140          0
   141          0
   144          3
   145          0
   146          0
   147          0
   149          0
   152          0
   154          0
   157          0
   159          0
   160          5
   161          2
   162          6
   163          0
   164          0
   166          0
   167          1
   168          0
   169          0
   171          0
   175          0
   178          0
   179          0
   180          0
   183          0
   185          0
   188          0
   189          0
   190          0
   193         15
   194          2
   195          0
   196          0
   197          0
   205          0
   206          1
   207          2
   208          0
   209          0
   211          1
   212          0
   217          0
   218          0
   221          0
   231          0
   232          1
   233          0
   235          1
   250          0
   251          0
   252          2
   254        639
   255        109
   256         11
   257          0