##TITLE=Library Entry 85443
##JCAMP-DX=Revision 4.10 
##DATA TYPE=MASS SPECTRUM
##SAMPLE DESCRIPTION=Japan AIST/NIMC Database- Spectrum MS-NW- 210
##NAMES=HP
##CAS NAME=1,4-Diphenylsemicarbazide
##MOLFORM=C13H13N3O
##CAS REGISTRY NO=621-12-5
##MP= -300
##BP= -300
##MW= 227
##$RETENTION INDEX=0
##$CONDENSED SPECTRUM=NO
##NPOINTS= 100
##XYDATA=(XY..XY) 1 
    26          3
    27         10
    28         10
    29         18
    30          3
    31          2
    32          1
    37          5
    38         18
    39         77
    40         11
    41         16
    42          3
    43          6
    44          3
    45          2
    46          2
    50         22
    51         86
    52         25
    53         11
    54          7
    55          5
    56          4
    57          8
    59          2
    60          3
    61          2
    62          8
    63         30
    64         38
    65        157
    66         41
    67          7
    68          2
    69          6
    70          2
    71          3
    73          2
    74          6
    75          5
    76          9
    77        244
    78         72
    79         41
    80         20
    81         11
    82          2
    83          4
    84          2
    85          3
    87          2
    90          7
    91         89
    92        205
    93        152
    94         27
    95          5
    96          2
    97          4
    98          2
   101          2
   104          2
   105          9
   106         10
   107        124
   108        999
   109         75
   110          5
   111          2
   113          2
   115          2
   118          2
   119         44
   120         36
   121          3
   122          2
   125          4
   127          2
   128          2
   129          2
   134          7
   135          3
   136          2
   137          2
   141          2
   145          2
   149          3
   152          2
   154          2
   160          3
   167          2
   168          2
   169          3
   182          2
   183          2
   211          2
   227        413
   228         65
   229          6