##TITLE=Library Entry 7725
##JCAMP-DX=Revision 4.10 
##DATA TYPE=MASS SPECTRUM
##SAMPLE DESCRIPTION=Exported from NIST MS Search
##NAMES=HP
##CAS NAME=Octadecanoic acid, 2-hydroxy-1-(hydroxymethyl)ethyl ester
##MOLFORM=C21H42O4
##CAS REGISTRY NO=621-61-4
##MP= -300
##BP= -300
##MW= 358
##$RETENTION INDEX=0
##$CONDENSED SPECTRUM=NO
##NPOINTS= 190
##XYDATA=(XY..XY) 1 
    26         30
    27        150
    28        100
    29        320
    30         20
    31         80
    32         10
    36         20
    37         10
    38         10
    39         90
    40         20
    41        620
    42        160
    43        999
    44        110
    45        100
    46         10
    47         10
    51         10
    52         10
    53         40
    54         70
    55        710
    56        250
    57        850
    58         70
    59         40
    60        360
    61        180
    62         10
    63         10
    65         10
    66         10
    67        120
    68         80
    69        430
    70        140
    71        410
    72         30
    73        450
    74        450
    75        160
    76         10
    77         10
    78         10
    79         30
    80         20
    81        110
    82         90
    83        320
    84        420
    85        270
    86         30
    87        150
    88         20
    89         10
    91         20
    93         50
    94         20
    95        110
    96         70
    97        270
    98        710
    99        110
   100         40
   101         70
   102         20
   103         10
   104         10
   105         10
   107         20
   108         10
   109         60
   110         40
   111        150
   112        240
   113         70
   114         20
   115         70
   116        160
   117         30
   118         10
   119         10
   121         30
   122         10
   123         30
   124         20
   125         60
   126         60
   127         30
   128         10
   129        250
   130         30
   131         10
   132         10
   133         10
   134        350
   135         50
   136         10
   137         20
   138         20
   139         30
   140         40
   141         40
   142         10
   143         40
   144         10
   145         10
   147         60
   148         10
   149         20
   150         10
   151         10
   152         10
   153         20
   154         70
   155         30
   156         10
   157         20
   158         10
   159         10
   160         10
   163         10
   165         10
   166         10
   167         20
   168         40
   169         20
   170         10
   171         40
   172         10
   173         10
   176         30
   177         10
   179         10
   180         10
   181         20
   182         30
   183         10
   185         80
   186         10
   190         10
   191         10
   194         10
   195         10
   196         30
   197         10
   199         30
   200         10
   209         10
   210         50
   211         20
   213         10
   222         20
   223         20
   224         30
   225         10
   227         20
   228         10
   237         10
   238         10
   241         80
   242         10
   248         10
   249         10
   255         30
   256         10
   264         10
   265         10
   266        100
   267        430
   268         90
   269         20
   283         10
   284        250
   285        160
   286         30
   287         10
   297         10
   298         50
   299         10
   311         10
   312         10
   327         80
   328         20
   340         20
   341         10
   358         10
   359         10