##TITLE=Library Entry 85134
##JCAMP-DX=Revision 4.10 
##DATA TYPE=MASS SPECTRUM
##SAMPLE DESCRIPTION=Exported from NIST MS Search
##NAMES=HP
##CAS NAME=Benzene, 1-ethoxy-3-methyl-
##MOLFORM=C9H12O
##CAS REGISTRY NO=621-32-9
##MP= -300
##BP= -300
##MW= 136
##$RETENTION INDEX=0
##$CONDENSED SPECTRUM=NO
##NPOINTS= 73
##XYDATA=(XY..XY) 1 
    15         16
    26         34
    27        209
    28         37
    29        138
    30          6
    36          3
    37         10
    38         40
    39        202
    40         22
    41         38
    42          8
    43         30
    44          7
    45          2
    49          3
    50         60
    51        128
    52         71
    53         81
    54          8
    55         23
    56          5
    57         13
    60          3
    61          8
    62         26
    63         78
    64         34
    65        115
    66         21
    67         10
    68          7
    69          9
    70          2
    71          6
    73          2
    74         12
    75         17
    76         12
    77        227
    78         87
    79        192
    80        109
    81         19
    82          5
    83          5
    85          6
    87          3
    89         31
    90         91
    91        138
    92         22
    93         23
    94         16
    95          5
    97          3
   105         10
   106         38
   107        516
   108        999
   109         81
   110          9
   111          2
   119         16
   120          3
   121         29
   122          2
   135          9
   136        471
   137         48
   138          6