##TITLE=Library Entry 48554
##JCAMP-DX=Revision 4.10 
##DATA TYPE=MASS SPECTRUM
##SAMPLE DESCRIPTION=Japan AIST/NIMC Database- Spectrum MS-NW-1033
##NAMES=HP
##CAS NAME=Ethane, 2-chloro-1,1-diethoxy-
##MOLFORM=C6H13ClO2
##CAS REGISTRY NO=621-62-5
##MP= -300
##BP= -300
##MW= 152
##$RETENTION INDEX=930
##$CONDENSED SPECTRUM=NO
##NPOINTS= 72
##XYDATA=(XY..XY) 1 
    13          3
    14         14
    15         80
    16          3
    17          3
    18         10
    25          3
    26         31
    27        222
    28         54
    29        523
    30         12
    31        186
    32         11
    33          1
    35          1
    36          5
    38          1
    39          3
    41          9
    42         43
    43        208
    44         63
    45        163
    46         21
    47        945
    48         10
    49         48
    50         32
    51         16
    52          9
    54          1
    55          1
    56          1
    57          5
    58          1
    59          7
    60          5
    61         17
    62          3
    63          4
    64          1
    65          1
    70          1
    71         12
    72         13
    73          4
    74          1
    75        526
    76         16
    77         17
    78        103
    79        999
    80         52
    81        319
    82          8
    87          1
    89          4
    93          3
    95         20
    97          7
   103        736
   104         41
   105          4
   106         30
   107        499
   108         31
   109        157
   110          8
   123          4
   125          2
   151          3