##TITLE=Library Entry 6572
##JCAMP-DX=Revision 4.10 
##DATA TYPE=MASS SPECTRUM
##SAMPLE DESCRIPTION=Exported from NIST MS Search
##NAMES=HP
##CAS NAME=1-Propanamine, N-nitroso-N-propyl-
##MOLFORM=C6H14N2O
##CAS REGISTRY NO=621-64-7
##MP= -300
##BP= -300
##MW= 130
##$RETENTION INDEX=1079
##$CONDENSED SPECTRUM=NO
##NPOINTS= 83
##XYDATA=(XY..XY) 1 
    13          2
    14         19
    15        275
    16          3
    17          3
    18         16
    19          1
    25          1
    26         48
    27        502
    28        178
    29        155
    30        357
    31         23
    32          0
    36          0
    37          5
    38         15
    39        159
    40         30
    41        463
    42        661
    43        999
    44         46
    45          6
    46          0
    47          4
    50          0
    51          1
    52          5
    53          1
    54         25
    55         10
    56         68
    57         19
    58        191
    59         24
    60          2
    61          0
    62          0
    63          0
    64          0
    65          0
    66          0
    67          1
    68          6
    69          2
    70        658
    71        151
    72         37
    73          4
    74          3
    75          0
    80          0
    81          0
    82          0
    83          0
    84          5
    85          9
    86          0
    87          4
    88          6
    89          4
    90          7
    94          0
    95          0
    96          0
    97          0
    98          1
    99          3
   100          1
   101        120
   102         14
   103          0
   104          0
   113         52
   114          3
   115          1
   116          4
   117          0
   130        216
   131         16
   132          1