##TITLE=Library Entry 86397
##JCAMP-DX=Revision 4.10 
##DATA TYPE=MASS SPECTRUM
##SAMPLE DESCRIPTION=NIST Mass Spectrometry Data Center, 1998.
##NAMES=HP
##CAS NAME=Benzenamine, 3-ethoxy-
##MOLFORM=C8H11NO
##CAS REGISTRY NO=621-33-0
##MP= -300
##BP= -300
##MW= 137
##$RETENTION INDEX=1293
##$CONDENSED SPECTRUM=NO
##NPOINTS= 47
##XYDATA=(XY..XY) 1 
    26          7
    27         56
    29         40
    30          2
    37          3
    38         18
    39         80
    40         18
    41         35
    42         19
    43          8
    44          7
    50         15
    51         33
    52         86
    53        134
    54         40
    55          6
    61          7
    62         13
    63         36
    64         31
    65        114
    66         35
    67          7
    68         25
    69          5
    70          7
    77          8
    78         12
    79         19
    80        414
    81        282
    82         42
    91         25
    92         53
    93         99
    94         48
   106          6
   107          7
   108         37
   109        999
   110         61
   122         22
   136          6
   137        682
   138         56