##TITLE=Library Entry 46494
##JCAMP-DX=Revision 4.10 
##DATA TYPE=MASS SPECTRUM
##SAMPLE DESCRIPTION=Japan AIST/NIMC Database- Spectrum MS-NW-5668
##NAMES=HP
##CAS NAME=2-Propanone, 1-phenoxy-
##MOLFORM=C9H10O2
##CAS REGISTRY NO=621-87-4
##MP= -300
##BP= -300
##MW= 150
##$RETENTION INDEX=1956
##$CONDENSED SPECTRUM=NO
##NPOINTS= 85
##XYDATA=(XY..XY) 1 
    14          8
    15         43
    18          2
    25          1
    26         10
    27         47
    28         19
    29         22
    30          1
    31          4
    32          2
    36          1
    37         10
    38         29
    39        116
    40         12
    41         15
    42         21
    43        841
    44         20
    45          3
    49          4
    50         55
    51        221
    52         19
    53          9
    54          2
    55          8
    56          1
    57          9
    58          2
    61          4
    62         12
    63         36
    64         16
    65         80
    66         19
    67          3
    68          1
    69          3
    70          1
    71          4
    73          5
    74         14
    75         14
    76         19
    77        999
    78        106
    79        242
    80         17
    81          3
    82          1
    83          2
    85          2
    89          1
    90          2
    91          9
    92          6
    93         10
    94         54
    95          8
    96          1
    97          2
    99         22
   100          2
   101          1
   103          2
   104          1
   105          9
   106          2
   107        697
   108        145
   109         12
   110          1
   120          3
   121          3
   122          1
   131          4
   132          3
   133          2
   149          1
   150        693
   151         71
   152          8
   153          2