##TITLE=Library Entry 88245
##JCAMP-DX=Revision 4.10 
##DATA TYPE=MASS SPECTRUM
##SAMPLE DESCRIPTION=D.HENNEBERG, MAX-PLANCK INSTITUTE, MULHEIM, WEST GERMAN
Y
##NAMES=HP
##CAS NAME=Silane, 1-butynyltrimethyl-
##MOLFORM=C7H14Si
##CAS REGISTRY NO=62108-37-6
##MP= -300
##BP= -300
##MW= 126
##$RETENTION INDEX=0
##$CONDENSED SPECTRUM=NO
##NPOINTS= 82
##XYDATA=(XY..XY) 1 
    26          2
    27         14
    28          1
    29         18
    30          1
    31         10
    33          0
    35          0
    36          0
    38          1
    39         11
    40          1
    41          4
    42         11
    43        117
    44         13
    45         31
    46          2
    47          1
    49          0
    50          3
    51          5
    52          2
    53         76
    54         18
    55         71
    56          6
    57         10
    58         11
    59         44
    60          4
    61          2
    62         13
    63          4
    64          1
    65          9
    66         25
    67         48
    68         10
    69         52
    70          6
    71          8
    72          3
    73         45
    74          4
    75          2
    76          1
    77         10
    78          2
    79         17
    80          4
    81         51
    82          8
    83        231
    84         22
    85         14
    86          1
    87          1
    89          0
    90          1
    91          1
    92          0
    93          5
    94          1
    95         18
    96         26
    97         21
    98          5
    99          1
   105          0
   107          3
   108          1
   109         20
   110         11
   111        999
   112        110
   113         43
   114          3
   115          0
   126         56
   127          7
   128          2