##TITLE=Library Entry 25358
##JCAMP-DX=Revision 4.10 
##DATA TYPE=MASS SPECTRUM
##SAMPLE DESCRIPTION=Chemical Concepts
##NAMES=HP
##CAS NAME=Pentatriacontane, 1-bromo-
##MOLFORM=C35H71Br
##CAS REGISTRY NO=62108-51-4
##MP= -300
##BP= -300
##MW= 570
##$RETENTION INDEX=0
##$CONDENSED SPECTRUM=NO
##NPOINTS= 116
##XYDATA=(XY..XY) 1 
    27         21
    29         51
    39         10
    41        139
    42         56
    43        567
    44         26
    53          9
    54         20
    55        287
    56        126
    57        999
    58         50
    67         37
    68         34
    69        296
    70        112
    71        674
    72         48
    81         23
    82         38
    83        239
    84         59
    85        447
    86         32
    95         21
    96         31
    97        222
    98         34
    99        152
   100         13
   109          8
   110         21
   111         88
   112         24
   113         91
   114         13
   123          5
   124         15
   125         50
   126         26
   127         84
   128          5
   133          5
   135        160
   136         12
   137        198
   138         25
   139         18
   140         18
   141         60
   142         13
   147          4
   148         13
   149         48
   150         10
   151         43
   152          4
   153         17
   154         18
   155         52
   156          2
   162          7
   163         25
   165         24
   167         17
   168         13
   169         41
   177         26
   179         16
   181          0
   182         13
   183         48
   191         18
   193          7
   195          1
   196          5
   197         32
   205         18
   207          3
   208          2
   209         14
   210          5
   211         26
   212          0
   219          0
   221          5
   224          0
   225         22
   233          7
   235          5
   239         18
   247          0
   249          0
   252          0
   253         19
   254          0
   261          3
   263          0
   267         20
   271          0
   275          0
   281          6
   282          1
   283          4
   295         13
   309          8
   323          7
   337          3
   351          0
   355          5
   375          0
   379          0
   491         67
   492         37
   493          0