##TITLE=Library Entry 24268
##JCAMP-DX=Revision 4.10 
##DATA TYPE=MASS SPECTRUM
##SAMPLE DESCRIPTION=D.HENNEBERG, MAX-PLANCK INSTITUTE, MULHEIM, WEST GERMAN
Y
##NAMES=HP
##CAS NAME=Decane, 6-ethyl-2-methyl-
##MOLFORM=C13H28
##CAS REGISTRY NO=62108-21-8
##MP= -300
##BP= -300
##MW= 184
##$RETENTION INDEX=1390
##$CONDENSED SPECTRUM=NO
##NPOINTS= 28
##XYDATA=(XY..XY) 1 
    39         36
    41        301
    42         49
    43        758
    44         36
    53          2
    54          1
    55        106
    56        125
    57        999
    58         33
    69         49
    70         66
    71        431
    72         13
    83         13
    84         25
    85        251
    86          5
    98         53
    99         46
   113          6
   126         10
   127          8
   140          2
   141         53
   154         11
   155         18