##TITLE=Library Entry 48510
##JCAMP-DX=Revision 4.10 
##DATA TYPE=MASS SPECTRUM
##SAMPLE DESCRIPTION=D.HENNEBERG, MAX-PLANCK INSTITUTE, MULHEIM, WEST GERMAN
Y
##NAMES=HP
##CAS NAME=Spiro[2.9]dodeca-4,8-diene
##MOLFORM=C12H18
##CAS REGISTRY NO=62108-42-3
##MP= -300
##BP= -300
##MW= 162
##$RETENTION INDEX=0
##$CONDENSED SPECTRUM=NO
##NPOINTS= 108
##XYDATA=(XY..XY) 1 
    21          0
    23          4
    24          2
    25          1
    26         18
    27        296
    28        159
    29        125
    30          4
    31          1
    32         16
    34          2
    35         10
    36          3
    37         13
    38         17
    39        411
    40         89
    41        705
    42         38
    43         45
    44          9
    45          4
    46          5
    47          4
    48          5
    49          7
    50         31
    51        120
    52         75
    53        270
    54        391
    55        139
    56         15
    57          5
    58          8
    59          2
    60          3
    61          6
    62          5
    63         43
    64         21
    65        170
    66        138
    67        370
    68         56
    69         19
    70          7
    71          4
    72          1
    73          1
    74          9
    75         32
    76         14
    77        269
    78        209
    79        999
    80        587
    81        105
    82         17
    83         12
    84          3
    85          1
    86          2
    87          5
    88          3
    89         27
    90         19
    91        575
    92        219
    93        521
    94        141
    95        101
    96          9
    97          0
    98          0
    99          0
   100          2
   101          3
   102          4
   103         16
   104         13
   105        214
   106         76
   107         65
   108        100
   109          8
   110          1
   114          1
   115         11
   116          2
   117         13
   118          5
   119        158
   120         68
   121         32
   128          3
   129          1
   131          2
   132          6
   133        258
   134        130
   135         12
   141          0
   145          0
   147         52
   148          3
   162          4