##TITLE=Library Entry 25351
##JCAMP-DX=Revision 4.10 
##DATA TYPE=MASS SPECTRUM
##SAMPLE DESCRIPTION=Chemical Concepts
##NAMES=HP
##CAS NAME=Tetratriacontane, 1-bromo-
##MOLFORM=C34H69Br
##CAS REGISTRY NO=62108-50-3
##MP= -300
##BP= -300
##MW= 556
##$RETENTION INDEX=0
##$CONDENSED SPECTRUM=NO
##NPOINTS= 343
##XYDATA=(XY..XY) 1 
    24          0
    26          1
    27         13
    28          0
    29         66
    30          0
    31          0
    39          9
    40          5
    41        161
    42         43
    43        581
    44         18
    45          1
    51          0
    53          7
    54         25
    55        309
    56        130
    57        999
    58         47
    59         11
    60          0
    63          0
    65          0
    66          2
    67         40
    68         36
    69        297
    70        104
    71        659
    72         40
    73          4
    74          0
    75          0
    77          0
    78          0
    79          3
    80          4
    81         33
    82         53
    83        245
    84         71
    85        475
    86         28
    87          2
    91          0
    92          0
    93          1
    94          3
    95         22
    96         36
    97        215
    98         42
    99        181
   100         15
   101          0
   105          0
   106          0
   107          2
   108          2
   109         13
   110         14
   111        106
   112         26
   113        134
   114         12
   115          0
   119          0
   121          2
   122          1
   123          9
   124          9
   125         48
   126         20
   127        106
   128         10
   129          1
   133          0
   135        138
   136         10
   137        136
   138          9
   139         22
   140         15
   141         74
   142          9
   143          0
   147          0
   148          4
   149         31
   150          7
   151         31
   152          4
   153         13
   154         12
   155         59
   156         10
   157          0
   161          0
   162          3
   163          9
   164          3
   165          9
   166          4
   167          7
   168          9
   169         51
   170          7
   171          0
   175          0
   176          0
   177          7
   178          1
   179          8
   180          1
   181          6
   182          7
   183         47
   184          6
   185          0
   189          0
   190          0
   191          7
   192          1
   193          8
   194          2
   195          3
   196          8
   197         35
   198          6
   199          0
   203          0
   204          0
   205          8
   206          1
   207          5
   208          2
   209          3
   210          6
   211         30
   212          6
   213          0
   218          0
   219          5
   220          1
   221          6
   222          1
   223          2
   224          5
   225         29
   226          6
   231          0
   233          4
   234          0
   235          4
   236          1
   237          2
   238          4
   239         27
   240          6
   241          0
   246          0
   247          4
   248          1
   249          3
   250          1
   251          2
   252          4
   253         22
   254          4
   260          0
   261          3
   262          1
   263          4
   264          0
   265          1
   266          4
   267         19
   268          4
   274          0
   275          2
   276          1
   277          4
   278          1
   279          1
   280          3
   281         17
   282          4
   288          0
   289          2
   290          1
   291          3
   292          1
   293          0
   294          3
   295         15
   296          3
   297          0
   302          1
   303          3
   304          1
   305          2
   306          1
   307          0
   308          3
   309         16
   310          4
   311          1
   316          1
   317          2
   318          1
   319          3
   320          1
   321          0
   322          2
   323         14
   324          3
   325          0
   330          0
   331          3
   332          1
   333          2
   334          0
   335          0
   336          1
   337         13
   338          3
   339          0
   344          0
   345          2
   346          1
   347          3
   348          0
   349          0
   350          1
   351          9
   352          2
   359          3
   360          1
   361          2
   362          1
   363          0
   364          1
   365         10
   366          2
   372          0
   373          2
   374          1
   375          2
   376          1
   377          0
   378          1
   379          9
   380          2
   381          0
   386          0
   387          2
   388          1
   389          2
   390          1
   391          0
   392          0
   393          7
   394          3
   395          0
   400          0
   401          2
   402          1
   403          2
   404          0
   406          0
   407          7
   408          2
   409          0
   414          0
   415          2
   416          1
   417          1
   418          0
   419          0
   421          4
   422          1
   428          0
   429          2
   430          1
   431          2
   432          2
   433          1
   434          0
   435          2
   436          0
   437          0
   442          0
   443          2
   444          0
   445          3
   446          1
   447          1
   448          0
   449          2
   450          0
   451          0
   457          2
   458          1
   459          2
   460          0
   461          0
   462          0
   463          6
   464          1
   465          1
   466          1
   471          2
   472          2
   473          2
   474          3
   475          2
   476          4
   477        291
   478        109
   479         20
   480          4
   484          0
   485          1
   486          0
   487          1
   488          2
   489          2
   490          8
   491          9
   492          5
   493          1
   494          0
   499          1
   500          0
   501          1
   554          1
   555          1
   556          8
   557          4
   558          8
   559          3