##TITLE=Library Entry 24251
##JCAMP-DX=Revision 4.10 
##DATA TYPE=MASS SPECTRUM
##SAMPLE DESCRIPTION=Chemical Concepts
##NAMES=HP
##CAS NAME=Pentacosane, 1-bromo-
##MOLFORM=C25H51Br
##CAS REGISTRY NO=62108-45-6
##MP= -300
##BP= -300
##MW= 430
##$RETENTION INDEX=0
##$CONDENSED SPECTRUM=NO
##NPOINTS= 266
##XYDATA=(XY..XY) 1 
    26          0
    27         27
    28          2
    29        105
    30          2
    36          0
    38          0
    39         17
    40          5
    41        259
    42         60
    43        669
    44         22
    51          0
    53          9
    54         24
    55        378
    56        132
    57        999
    58         40
    59          3
    63          0
    65          1
    66          1
    67         31
    68         29
    69        317
    70         97
    71        619
    72         36
    73          0
    77          1
    78          0
    79          2
    80          1
    81         19
    82         36
    83        212
    84         67
    85        420
    86         28
    87          0
    90          0
    91          1
    92          0
    93          0
    94          0
    95         10
    96         18
    97        164
    98         42
    99        153
   100         12
   101          0
   103          0
   105          1
   107          5
   109          6
   110          7
   111         74
   112         28
   113        105
   114          8
   116          1
   118          0
   119          0
   120          0
   121          4
   122          0
   123          4
   124          4
   125         34
   126         19
   127         81
   128          9
   129          0
   133          0
   134          0
   135        326
   136         16
   137        313
   138         14
   139         12
   140         17
   141         64
   142          6
   143          0
   144          3
   145          0
   146          0
   147          0
   148         10
   149         69
   150         11
   151         68
   152          4
   153          7
   154         13
   155         46
   156          6
   161          0
   162         15
   163         20
   164          6
   165         18
   166          1
   167          4
   168         11
   169         41
   170          5
   171          0
   175          0
   176          1
   177         14
   178          1
   179         13
   180          1
   181          2
   182          8
   183         38
   184          4
   189          0
   190          1
   191         12
   192          1
   193         11
   194          1
   195          1
   196          6
   197         29
   198          4
   202          0
   203          0
   204          0
   205          9
   206          2
   207          9
   208          1
   209          1
   210          6
   211         26
   212          3
   217          0
   218          0
   219          8
   220          2
   221          8
   222          0
   223          0
   224          3
   225         25
   226          3
   227          0
   232          0
   233          6
   234          2
   235          6
   236          1
   237          0
   238          4
   239         21
   240          4
   241          0
   245          0
   246          1
   247          5
   248          1
   249          5
   250          0
   251          0
   252          3
   253         20
   254          4
   255          0
   259          0
   260          1
   261          5
   262          1
   263          4
   264          1
   265          0
   266          2
   267         16
   268          3
   269          0
   273          0
   274          1
   275          6
   276          3
   277          5
   278          1
   280          2
   281         11
   282          3
   288          1
   289          5
   290          1
   291          5
   292          1
   293          0
   294          1
   295          7
   296          1
   302          1
   303          5
   304          2
   305          6
   306          0
   308          0
   309          4
   310          1
   316          1
   317          6
   318          2
   319          4
   320          0
   322          0
   323          0
   330          1
   331          5
   332          2
   333          4
   334          1
   344          1
   345          5
   346          2
   347          5
   348          1
   349          0
   350          2
   351        301
   352         78
   353         11
   354          0
   358          1
   359          4
   360          2
   361          5
   362          1
   365          0
   366          0
   367          0
   372          0
   373          4
   374          2
   375          4
   376          1
   379          0
   386          0
   387          2
   388          1
   389          3
   390          0
   401          1
   402          1
   403          2
   404          0
   415          0
   417          0
   428          2
   429          1
   430         70
   431         19
   432         66
   433         19
   434          2