##TITLE=Library Entry 37643
##JCAMP-DX=Revision 4.10 
##DATA TYPE=MASS SPECTRUM
##SAMPLE DESCRIPTION=V.Zaikin,Topchiev Inst.Petrochem.Synth.,Moscow
##NAMES=HP
##CAS NAME=3-Chloropropanoic acid 3-methylbutyl ester
##MOLFORM=C8H15ClO2
##CAS REGISTRY NO=62108-70-7
##MP= -300
##BP= -300
##MW= 178
##$RETENTION INDEX=1156
##$CONDENSED SPECTRUM=NO
##NPOINTS= 81
##XYDATA=(XY..XY) 1 
    22          1
    25          2
    26         16
    27        100
    28          9
    29         40
    30          2
    31          5
    35          4
    36         33
    37          2
    38         11
    39         44
    40         10
    41        106
    42        103
    43        170
    44          6
    45          9
    49          5
    50          6
    51          9
    52         15
    53         14
    54         11
    55        447
    56         30
    57         21
    58          2
    61          4
    62          9
    63        205
    64          8
    65         66
    66          2
    67          5
    68          7
    69         69
    70        999
    71        127
    72          7
    73         39
    74          2
    75          1
    78          3
    79         24
    80          1
    82          1
    85         15
    86          2
    87          8
    89          3
    90          3
    91        518
    92         21
    93        157
    94          6
    96          1
    97          5
    99          4
   101         32
   102          2
   106          4
   108         11
   109        132
   110          8
   111         45
   112          2
   115         12
   121         18
   122          2
   123          6
   133          2
   134          3
   135        130
   136         13
   137         44
   138          4
   143          3
   145          1
   163          2