##TITLE=Library Entry 24303
##JCAMP-DX=Revision 4.10 
##DATA TYPE=MASS SPECTRUM
##SAMPLE DESCRIPTION=D.HENNEBERG, MAX-PLANCK INSTITUTE, MULHEIM, WEST GERMAN
Y
##NAMES=HP
##CAS NAME=Decane, 2,6,8-trimethyl-
##MOLFORM=C13H28
##CAS REGISTRY NO=62108-26-3
##MP= -300
##BP= -300
##MW= 184
##$RETENTION INDEX=1104
##$CONDENSED SPECTRUM=NO
##NPOINTS= 40
##XYDATA=(XY..XY) 1 
    39         47
    40         11
    41        217
    42         61
    43        476
    44         15
    50          4
    51          6
    52          6
    53         14
    54          6
    55         98
    56        138
    57        999
    58         42
    59          4
    67         11
    68          8
    69         58
    70         62
    71        316
    72         13
    73          7
    84         13
    85         87
    86          8
    97         10
    98         43
    99         83
   100          7
   112         18
   113         33
   114          6
   126          8
   127         10
   154          4
   155         15
   156          2
   169          0
   184          4