##TITLE=Library Entry 40968
##JCAMP-DX=Revision 4.10 
##DATA TYPE=MASS SPECTRUM
##SAMPLE DESCRIPTION=D.HENNEBERG, MAX-PLANCK INSTITUTE, MULHEIM, WEST GERMAN
Y
##NAMES=HP
##CAS NAME=Pentane, 2-methoxy-2,4,4-trimethyl-
##MOLFORM=C9H20O
##CAS REGISTRY NO=62108-41-2
##MP= -300
##BP= -300
##MW= 144
##$RETENTION INDEX=897
##$CONDENSED SPECTRUM=NO
##NPOINTS= 68
##XYDATA=(XY..XY) 1 
    23          0
    24          0
    25          0
    26          2
    27         33
    28         39
    29         64
    30          3
    31         32
    32         12
    33          5
    34          0
    36          0
    37          1
    38          3
    39         67
    40         11
    41        203
    42         28
    43        115
    44          3
    45         19
    46          0
    47          0
    49          0
    50          2
    51          5
    52          1
    53         16
    54          3
    55        100
    56        100
    57        379
    58         18
    59          3
    63          1
    65          2
    66          0
    67          4
    68          1
    69         16
    70          2
    71          2
    72          7
    73        999
    74         46
    75          2
    77          2
    78          0
    79          2
    80          0
    81          3
    82          0
    83          3
    84          0
    85          0
    87          1
    89          0
    91          0
    95          0
    96          0
    97         36
    98          2
    99          1
   112         10
   113          3
   129         23
   130          2