##TITLE=Library Entry 57250
##JCAMP-DX=Revision 4.10 
##DATA TYPE=MASS SPECTRUM
##SAMPLE DESCRIPTION=Chemical Concepts
##NAMES=HP
##CAS NAME=3-Undecanol, 3-ethyl-
##MOLFORM=C13H28O
##CAS REGISTRY NO=62101-31-9
##MP= -300
##BP= -300
##MW= 200
##$RETENTION INDEX=0
##$CONDENSED SPECTRUM=NO
##NPOINTS= 135
##XYDATA=(XY..XY) 1 
    26          9
    27        116
    28         46
    29        267
    30          6
    31         46
    32          9
    33          0
    36          0
    37          1
    38          2
    39         69
    40         11
    41        252
    42         45
    43        249
    44          9
    45        257
    46          8
    47          1
    48          1
    49          0
    50          4
    51          7
    52          3
    53         29
    54         12
    55        367
    56         55
    57        236
    58         11
    59        159
    60          6
    61          1
    62          0
    63          2
    64          1
    65          8
    66          2
    67         29
    68          8
    69        306
    70         38
    71         73
    72         28
    73         12
    74          1
    75          1
    76          1
    77         10
    78          1
    79          7
    80          1
    81         16
    82          4
    83        166
    84         67
    85         73
    86         19
    87        999
    88         46
    89          3
    90          0
    91          3
    92          1
    93          1
    94          0
    95          6
    96          3
    97        241
    98         18
    99          6
   100          1
   101          7
   102          0
   103          1
   104          0
   105          1
   106          0
   107          1
   108          0
   109          2
   110          1
   111         66
   112          9
   113          5
   114          1
   115          3
   116          0
   117          0
   123          1
   124          1
   125          2
   126          0
   127          1
   128          1
   129          1
   130          1
   131          0
   132          0
   133          0
   137          0
   138          1
   139          1
   140          0
   141          2
   142          0
   143          1
   145          1
   147          0
   149          0
   151          0
   152          2
   153          6
   154          2
   155          0
   156          0
   157          0
   159          0
   165          1
   166          0
   167          0
   169          0
   171        247
   172         29
   173          2
   176          0
   177          0
   178          1
   179          1
   180          0
   181          0
   182          3
   183          1
   185          0