##TITLE=Library Entry 43280
##JCAMP-DX=Revision 4.10 
##DATA TYPE=MASS SPECTRUM
##SAMPLE DESCRIPTION=D.HENNEBERG, MAX-PLANCK INSTITUTE, MULHEIM, WEST GERMAN
Y
##NAMES=HP
##CAS NAME=Ribo-hexos-3-ulose, 2,4,5,6-tetrakis-O-(trimethylsilyl)-, bis(O-m
ethyloxime)
##MOLFORM=C20H48N2O6Si4
##CAS REGISTRY NO=62108-14-9
##MP= -300
##BP= -300
##MW= 524
##$RETENTION INDEX=0
##$CONDENSED SPECTRUM=NO
##NPOINTS= 266
##XYDATA=(XY..XY) 1 
    19          0
    24          1
    25          1
    26          5
    27         24
    28         84
    29         30
    30          9
    31         17
    32         12
    33          3
    34          0
    35          1
    36          1
    38          0
    39          4
    40          0
    41         12
    42          7
    43         13
    44         18
    45         65
    46          5
    47         10
    49          1
    50          0
    51          0
    52          2
    53          1
    54          3
    55          5
    56          2
    57          6
    58         10
    59         47
    60          3
    61          7
    63          0
    64          1
    65          2
    66          3
    68          4
    70          6
    71          3
    72         15
    73        999
    74         81
    75         85
    76          6
    77          4
    79          2
    80          1
    82          2
    84         10
    85          3
    86          6
    87          1
    88          5
    89         71
    90          5
    91          4
    92          2
    93          3
    94          0
    95          2
    96          0
    97          2
    98          5
    99          1
   100          7
   101         13
   102          8
   103         87
   104          8
   105         30
   106          7
   107          4
   108          0
   109          1
   111          1
   112          1
   113          1
   114          8
   115          2
   116          7
   117        139
   118         11
   119          9
   120          1
   121          1
   122          0
   123          2
   125          2
   126          7
   127          3
   128         11
   129         15
   130          7
   131         16
   132          4
   133         54
   134          6
   135          2
   136          1
   137          1
   139          1
   140          3
   141          1
   142          4
   143          6
   144          2
   145          8
   146          3
   147        261
   148         44
   149         21
   150          3
   151          2
   152          0
   153          2
   154         10
   155          2
   156          2
   157          2
   158          5
   159          3
   160         72
   161          9
   162          3
   163         10
   164          1
   165          2
   166          3
   167          1
   168          1
   169          3
   170          2
   172         15
   173          7
   174          4
   175          3
   176          2
   177          1
   178          0
   179          1
   180          0
   181          0
   182          0
   184          2
   185          2
   186          1
   187          1
   188          5
   189         12
   190          5
   191         19
   192          5
   193          2
   194          1
   195          1
   196          1
   197          0
   198          2
   199         58
   200         12
   201         34
   202          7
   203          2
   204         15
   205        296
   206         60
   207         25
   208          2
   209          0
   211          1
   212          0
   214          4
   215          1
   216          2
   217         18
   218          5
   220          1
   221          3
   222          1
   223          0
   224          1
   225          1
   227          0
   228          5
   230        129
   231         25
   232          9
   233          3
   234          2
   236          0
   239          0
   240          0
   241          1
   242          2
   243          2
   244          2
   245          0
   246          3
   247          1
   248          0
   249          0
   252          0
   253          0
   255          2
   256          3
   257          6
   259          2
   261         19
   262          7
   263          1
   264          1
   265          1
   266          0
   267          2
   268          0
   269          2
   272          1
   273          0
   274          1
   275          0
   276          1
   277          2
   278          0
   279          0
   281          0
   283          0
   285          0
   286          1
   287          0
   288          2
   289          2
   290          2
   291          1
   292          0
   294          0
   301          0
   303          0
   304          0
   305          1
   307          5
   308          1
   309          1
   310          0
   313          0
   314          0
   315          1
   316          0
   317          1
   320         21
   321          6
   322          3
   329          1
   334          0
   338          0
   340          0
   343          1
   347          1
   348          1
   350          0
   357          0
   358          1