##TITLE=Library Entry 25670
##JCAMP-DX=Revision 4.10 
##DATA TYPE=MASS SPECTRUM
##SAMPLE DESCRIPTION=Insect Chem. Ecol. Lab., USDA, Beltsville, MD 20705
##NAMES=HP
##CAS NAME=Chloroacetic acid, 3-chloropropyl ester
##MOLFORM=C5H8Cl2O2
##CAS REGISTRY NO=62116-55-6
##MP= -300
##BP= -300
##MW= 170
##$RETENTION INDEX=1130
##$CONDENSED SPECTRUM=NO
##NPOINTS= 113
##XYDATA=(XY..XY) 1 
    41        587
    42        237
    43        217
    44         20
    45         85
    46          1
    47         22
    48         32
    49        378
    50         48
    51        135
    52         13
    53         24
    54          8
    55         76
    56        288
    57        999
    58         48
    59         59
    60          5
    61          1
    62          1
    63          5
    64          0
    65          2
    66          0
    67          2
    68          0
    69          4
    70          1
    71          3
    72          4
    73         40
    74          2
    75          0
    76         39
    77        924
    78         34
    79        311
    80          7
    81          2
    82          1
    83          1
    84          1
    85         15
    86          3
    87          1
    88          1
    89          0
    90          0
    91          2
    92          0
    93          2
    94          4
    95         16
    96          2
    97          7
    98          0
    99         10
   100          1
   101          7
   102          0
   103          0
   105          1
   106          0
   107          4
   108          0
   109          2
   110          1
   111          1
   112          0
   113          0
   114          0
   115          7
   116          0
   117          0
   118          0
   119          0
   120          6
   121        516
   122         26
   123        169
   124          8
   125          1
   126          0
   127          0
   128          0
   129          0
   130          0
   131          0
   132          0
   133          1
   135        119
   136          6
   137         40
   138          2
   139          1
   140          0
   141          1
   142          0
   143          0
   144          0
   145          0
   147          0
   148          0
   169          0
   170          1
   171          0
   172          2
   173          0
   174          1
   175          0
   176          0