##TITLE=Library Entry 68563
##JCAMP-DX=Revision 4.10 
##DATA TYPE=MASS SPECTRUM
##SAMPLE DESCRIPTION=NIST Mass Spectrometry Data Center
##NAMES=HP
##CAS NAME=4-Butoxybenzyl alcohol
##MOLFORM=C11H16O2
##CAS REGISTRY NO=6214-45-5
##MP= -300
##BP= -300
##MW= 180
##$RETENTION INDEX=0
##$CONDENSED SPECTRUM=NO
##NPOINTS= 87
##XYDATA=(XY..XY) 1 
    15          4
    26         10
    27        105
    29        255
    30          7
    31         25
    37          3
    38         17
    39        187
    40         29
    41        338
    42         17
    43         15
    44          1
    49          1
    50         41
    51        113
    52         41
    53         49
    54          6
    55         73
    56         15
    57         87
    58          3
    61          2
    62         13
    63         53
    64         22
    65        111
    66         60
    67        106
    68         18
    69          5
    74          8
    75          8
    76         20
    77        359
    78        241
    79         77
    80          6
    81         10
    82          1
    86          1
    87          1
    89        100
    90         17
    91         19
    92          8
    93         27
    94         41
    95        999
    96         81
    97          5
   103          4
   104          2
   105        263
   106        752
   107        467
   108         43
   109          4
   115          1
   119          4
   120          2
   121         63
   122         20
   123        865
   124        747
   125         57
   126          4
   131          1
   133          5
   135          2
   137         24
   138          2
   147          1
   149          4
   150          1
   151          9
   152          1
   163          8
   164          2
   177          1
   178          3
   179         11
   180        498
   181         59
   182          4