##TITLE=Library Entry 10083
##JCAMP-DX=Revision 4.10 
##DATA TYPE=MASS SPECTRUM
##SAMPLE DESCRIPTION=NIST Mass Spectrometry Data Center
##NAMES=HP
##CAS NAME=1,2-Propanediol, 2-acetate
##MOLFORM=C5H10O3
##CAS REGISTRY NO=6214-01-3
##MP= -300
##BP= -300
##MW= 118
##$RETENTION INDEX=891
##$CONDENSED SPECTRUM=NO
##NPOINTS= 30
##XYDATA=(XY..XY) 1 
    26          2
    27         10
    28         10
    29         25
    30          3
    31         61
    38          2
    39         16
    40          3
    41         29
    42         26
    43        999
    44         31
    45         78
    46          2
    55          2
    57         34
    58         60
    59          8
    60          4
    61         19
    70          3
    72          7
    74         46
    75        161
    76          2
    87        206
    88         57
   100          2
   103          3