##TITLE=Library Entry 68572
##JCAMP-DX=Revision 4.10 
##DATA TYPE=MASS SPECTRUM
##SAMPLE DESCRIPTION=NIST Mass Spectrometry Data Center, 1994
##NAMES=HP
##CAS NAME=p-Ethoxybenzyl alcohol
##MOLFORM=C9H12O2
##CAS REGISTRY NO=6214-44-4
##MP= -300
##BP= -300
##MW= 152
##$RETENTION INDEX=0
##$CONDENSED SPECTRUM=NO
##NPOINTS= 65
##XYDATA=(XY..XY) 1 
    14         11
    15         14
    26         42
    27        173
    28         44
    29        177
    30         10
    31         47
    32          8
    37          9
    38         44
    39        237
    40         48
    41        140
    42         17
    43         26
    47          8
    50         88
    51        187
    52         64
    53         61
    54          6
    55         51
    61         10
    62         30
    63        101
    64         41
    65        180
    66         94
    67        154
    68         24
    69          7
    74         21
    75         24
    77        565
    78        307
    79        139
    80         14
    81         14
    89         68
    90         17
    91         28
    92         15
    93         40
    94         14
    95        999
    96         80
    97          7
   103          7
   105        222
   106        395
   107        594
   108         55
   119         12
   121        110
   123        961
   124        182
   125         13
   135         79
   136         11
   149          8
   151        291
   152        952
   153         89
   154          7