##TITLE=Library Entry 63778
##JCAMP-DX=Revision 4.10 
##DATA TYPE=MASS SPECTRUM
##SAMPLE DESCRIPTION=LAC, NIDDK, NIH, Bethesda, MD 20892
##NAMES=HP
##CAS NAME=N-Carbobenzyloxy-4-hydroxy-l-prolylglycine
##MOLFORM=C15H18N2O6
##CAS REGISTRY NO=62147-26-6
##MP= -300
##BP= -300
##MW= 322
##$RETENTION INDEX=0
##$CONDENSED SPECTRUM=NO
##NPOINTS= 39
##XYDATA=(XY..XY) 1 
    41         46
    42         19
    43         28
    44         50
    45         26
    49         28
    50          6
    51         27
    55         36
    56         60
    57         17
    58         11
    63         20
    65         99
    68         36
    69          7
    74         25
    77         18
    84         47
    85          6
    86         39
    88          3
    89         26
    90          7
    91        999
    92         87
   105          3
   107          7
   130         19
   141         10
   169         20
   176        188
   177         23
   187         17
   220        200
   221         26
   243         14
   304          3
   322          3