##TITLE=Library Entry 18771
##JCAMP-DX=Revision 4.10 
##DATA TYPE=MASS SPECTRUM
##SAMPLE DESCRIPTION=A.A.Kutin, Moscow, Russia
##NAMES=HP
##CAS NAME=Benzothiophene-3-carboxylic acid, 4,5,6,7-tetrahydro-2-(2,5-dioxo
-3-pyrrolin-1-yl)-, ethyl ester
##MOLFORM=C15H15NO4S
##CAS REGISTRY NO=62159-47-1
##MP= -300
##BP= -300
##MW= 305
##$RETENTION INDEX=0
##$CONDENSED SPECTRUM=NO
##NPOINTS= 230
##XYDATA=(XY..XY) 1 
    33          7
    34          4
    35          0
    36          0
    37          6
    38         18
    39        133
    40         33
    41        126
    43        124
    44         26
    45        191
    47         35
    49          2
    50         18
    51         64
    52         61
    53        158
    54        999
    55        123
    57         19
    58         93
    59         53
    60         16
    61         15
    62         12
    63         52
    64         95
    65        119
    66         41
    67         50
    68         14
    69         60
    70         65
    71        103
    72         16
    73         13
    74          8
    75         14
    76         32
    77        122
    78         77
    79        104
    80         45
    82        821
    83         48
    84         35
    85         29
    86         38
    87         19
    88         19
    89         72
    90         43
    91        125
    92         36
    93         22
    94         45
    95         46
    96         56
    97         43
    98         17
    99         22
   100          4
   102         49
   103         22
   104         45
   105         22
   106         35
   107         44
   108         26
   109         31
   110         40
   111         33
   112         16
   113          5
   114          6
   115         43
   116        129
   117         49
   118         33
   119         15
   120         18
   121         63
   122        107
   123         67
   124         31
   125         21
   126          5
   127          5
   128          8
   130         32
   131          5
   132         13
   133         40
   134         75
   135        127
   136         48
   137         22
   138         18
   139         10
   140         25
   141          6
   142         11
   143         15
   144         23
   145         11
   146         25
   147         23
   148         52
   149         60
   150         53
   151         81
   152         21
   153         10
   154          6
   155          1
   156          1
   157          1
   158          5
   159         14
   160         21
   161         44
   162         38
   163         21
   164         21
   165          9
   166         12
   167          9
   168         70
   169         10
   170         28
   171         11
   172         13
   173          8
   174         24
   175         60
   176         51
   177         79
   178         59
   179        101
   180         21
   181          7
   182          2
   183          0
   184          6
   185          2
   186         16
   187          9
   188         19
   189         15
   190          9
   191          6
   192         14
   193         11
   194          7
   195          6
   196          4
   197          5
   198          7
   199          4
   200          4
   201          5
   202         87
   203        547
   204        138
   205         69
   206         24
   207          5
   208          3
   209          0
   210          0
   212          2
   213          0
   214          5
   215          2
   216          5
   217          2
   218          3
   219          7
   220         20
   221         15
   222          6
   223          3
   224          4
   225         42
   226          7
   227          2
   228          1
   229          4
   230         22
   231        531
   232        158
   233         52
   234         11
   235          1
   236          0
   240          5
   241          1
   242          0
   243          0
   244          2
   245          0
   246          0
   248         13
   249         10
   250          2
   251          1
   254          0
   256          6
   258        122
   259        817
   260        210
   261         65
   262         13
   263          3
   264          0
   265          0
   267         21
   268          3
   269          1
   275          0
   276          8
   277          8
   278          1
   279          0
   303          0
   305        280
   306         46
   307         18
   308          2