##TITLE=Library Entry 15750
##JCAMP-DX=Revision 4.10 
##DATA TYPE=MASS SPECTRUM
##SAMPLE DESCRIPTION=R.D. GRIGSBY & E.J. NORMAN, TEXAS A&M UNIVERSITY, TEXAS
, USA
##NAMES=HP
##CAS NAME=L-Alanine, N-(N-acetylglycyl)-, butyl ester
##MOLFORM=C11H20N2O4
##CAS REGISTRY NO=62167-72-0
##MP= -300
##BP= -300
##MW= 244
##$RETENTION INDEX=0
##$CONDENSED SPECTRUM=NO
##NPOINTS= 69
##XYDATA=(XY..XY) 1 
    14          2
    15         26
    18          8
    26          5
    27         53
    28         53
    29        100
    30        360
    31         38
    32          5
    36          4
    38          2
    39         24
    40          4
    41         86
    42         40
    43        193
    44        999
    45         53
    46          2
    53          3
    54          4
    55         21
    56         17
    57         80
    58         14
    59          2
    60          3
    67          2
    69          3
    70         16
    71          4
    72        160
    73        400
    74         21
    75          2
    77          2
    81          2
    83          2
    84          2
    85          8
    86         11
    87          6
    88         60
    89          3
    90          6
    97          2
    99          6
   100        123
   101          8
   102          2
   114          2
   116          7
   127         12
   128          3
   130          2
   143        190
   144         20
   145          3
   146          4
   147          2
   149          7
   155          2
   170          2
   171         12
   172          2
   202          2
   244          4
   245          2