##TITLE=Library Entry 48971
##JCAMP-DX=Revision 4.10 
##DATA TYPE=MASS SPECTRUM
##SAMPLE DESCRIPTION=NIST Mass Spectrometry Data Center
##NAMES=HP
##CAS NAME=Doconexent
##MOLFORM=C22H32O2
##CAS REGISTRY NO=6217-54-5
##MP= -300
##BP= -300
##MW= 328
##$RETENTION INDEX=2511
##$CONDENSED SPECTRUM=NO
##NPOINTS= 245
##XYDATA=(XY..XY) 1 
    15          1
    26          2
    27         44
    28          6
    29         67
    30          3
    31          3
    36          1
    37          1
    38          3
    39        113
    40         18
    41        481
    42         34
    43        108
    44          5
    45         29
    46          1
    47          1
    50          7
    51         35
    52         24
    53        144
    54         64
    55        338
    56         30
    57         54
    58         14
    59         10
    60         43
    61          7
    62          2
    63         11
    64          4
    65        146
    66        120
    67        567
    68         63
    69        103
    70         23
    71         65
    72          4
    73         21
    74         27
    75          8
    77        390
    78        197
    79        999
    80        308
    81        207
    82         54
    83         44
    84         16
    85         22
    86          3
    87          8
    88          4
    89          7
    91        847
    92        336
    93        465
    94        126
    95        161
    96         37
    97         31
    98         10
    99          7
   100          3
   101          7
   102          7
   103         49
   104         75
   105        434
   106        154
   107        137
   108        216
   109         62
   110         18
   111         12
   112          4
   113         12
   114          5
   115         68
   116         33
   117        261
   118         75
   119        335
   120         87
   121         74
   122         43
   123         20
   124          8
   125          5
   126          7
   127         14
   128         34
   129         79
   130         40
   131        173
   132         73
   133        156
   134         53
   135         46
   136         16
   137          9
   138          9
   139          5
   140          4
   141         17
   142          9
   143         45
   144         18
   145         96
   146         34
   147         67
   148         35
   149         17
   150         14
   151         11
   152         71
   153         14
   154          5
   155         11
   156          5
   157         30
   158         11
   159         63
   160         18
   161         32
   162         14
   163         11
   164         11
   165          9
   166         14
   167          7
   168          3
   169         10
   170          3
   171         22
   172          8
   173         33
   174         10
   175         19
   176          8
   177         11
   178         10
   179         10
   180          7
   181          6
   182          2
   183          8
   184          3
   185         15
   186          6
   187         15
   188          7
   189          6
   190          3
   191          7
   192         25
   193          8
   194          3
   195          3
   196          1
   197          5
   198          1
   199         13
   200          4
   201          8
   202          4
   203          5
   204          3
   205          6
   206          7
   207          3
   208          2
   209          2
   210          1
   211          2
   212          1
   213          7
   214          3
   215         12
   216          2
   217          5
   218          3
   219          6
   220          4
   221          3
   222          2
   223          3
   224          2
   225          2
   226          1
   227          3
   228          1
   229          1
   230          1
   231          3
   232          2
   233          3
   234          1
   235          1
   236          2
   237          1
   239          1
   241          5
   242          1
   243          2
   244          1
   245          2
   246          2
   247          2
   248          1
   249          1
   250          1
   253          1
   255          2
   256          1
   257          2
   258          1
   259          5
   260          2
   261          1
   262          1
   263          1
   264          1
   265          1
   269          1
   271          1
   272          1
   273          1
   274          1
   275          1
   276          1
   278          2
   280          2
   281          1
   284          1
   285          2
   286          1
   287          1
   299          3
   300          1
   304          2