##TITLE=Library Entry 26611
##JCAMP-DX=Revision 4.10 
##DATA TYPE=MASS SPECTRUM
##SAMPLE DESCRIPTION=NIST Mass Spectrometry Data Center
##NAMES=HP
##CAS NAME=Phytyl stearate
##MOLFORM=C38H74O2
##CAS REGISTRY NO=62172-54-7
##MP= -300
##BP= -300
##MW= 562
##$RETENTION INDEX=3752
##$CONDENSED SPECTRUM=NO
##NPOINTS= 117
##XYDATA=(XY..XY) 1 
    38         13
    40         21
    41        209
    43        530
    53         43
    55        347
    56         53
    57        999
    58         26
    67        241
    68        598
    69        668
    70        215
    71        435
    72         30
    77         44
    80         76
    81        448
    82        605
    83        312
    85        302
    87         30
    92         32
    94        101
    95        521
    96        268
    97        426
    98        109
    99         65
   100         41
   104         20
   105        266
   109        275
   110        239
   111        288
   112         75
   114         48
   115         29
   120         29
   121         86
   122         59
   123        844
   124        527
   125        201
   130         25
   133        133
   134         43
   137        123
   138        100
   139         85
   142         21
   144         14
   150         25
   151         37
   152         46
   153         21
   158         38
   162         18
   165         69
   169         27
   179         84
   181         20
   192         31
   196         34
   201         20
   205         43
   213         25
   219         24
   222         90
   224         16
   225         60
   237         18
   239         34
   241         44
   248         19
   250         28
   252         27
   254         50
   258         16
   263         57
   266         36
   267         76
   268         64
   274         18
   278        402
   279        114
   280         27
   282         96
   284         59
   287         14
   296         85
   309         22
   311         20
   315         24
   319         11
   320         13
   325         29
   333         30
   341         57
   351         28
   352         13
   353          9
   355         48
   365         15
   379         25
   401         22
   402         16
   404         11
   426         17
   430         38
   432         12
   446          8
   463          7
   476          9
   479         22
   562         18
   563         14