##TITLE=Library Entry 21585
##JCAMP-DX=Revision 4.10 
##DATA TYPE=MASS SPECTRUM
##SAMPLE DESCRIPTION=ASES Database, Dalian Institute, P.R. China
##NAMES=HP
##CAS NAME=5H-1,2,4-Triazolo[4,3-b][1,2,4]triazepine, 6,7,8,9-tetrahydro-6-m
ethyl-
##MOLFORM=C6H11N5
##CAS REGISTRY NO=62170-16-5
##MP= -300
##BP= -300
##MW= 153
##$RETENTION INDEX=0
##$CONDENSED SPECTRUM=NO
##NPOINTS= 20
##XYDATA=(XY..XY) 1 
    40         68
    41        448
    42        410
    43        400
    44        652
    45        181
    55        999
    56        251
    57        470
    70        496
    71        101
    83        207
    84        179
    96         49
    97        300
   110        199
   111         90
   125        159
   138         50
   153        847