##TITLE=Library Entry 62329
##JCAMP-DX=Revision 4.10 
##DATA TYPE=MASS SPECTRUM
##SAMPLE DESCRIPTION=D.HENNEBERG, MAX-PLANCK INSTITUTE, MULHEIM, WEST GERMAN
Y
##NAMES=HP
##CAS NAME=Boranamine, 1-(2,2-dimethyl-1-phenylpropyl)-N,N-diethyl-
##MOLFORM=C15H26BN
##CAS REGISTRY NO=62185-51-7
##MP= -300
##BP= -300
##MW= 231
##$RETENTION INDEX=0
##$CONDENSED SPECTRUM=NO
##NPOINTS= 106
##XYDATA=(XY..XY) 1 
    27          7
    28         30
    29         20
    30         17
    31          0
    32          2
    36          0
    39         11
    40         12
    41         28
    42          6
    43          3
    44          8
    45          0
    46          0
    50          1
    51          8
    52          3
    53          3
    54          3
    55          4
    56         15
    57         48
    58          3
    59          2
    62          0
    63          4
    64          1
    65         60
    66          4
    67          3
    68          5
    69         13
    70          5
    71          1
    73          5
    75          1
    76          2
    77         15
    78          7
    79         19
    80          1
    81          0
    83          0
    84          0
    85          1
    86          1
    87          1
    88          3
    89         15
    90          5
    91        999
    92         70
    93          2
    95          0
    96          2
    97          2
    98          1
   101          0
   102          0
   103          5
   104          4
   105          4
   106         50
   107         26
   108          2
   111          0
   114          2
   115         10
   116         47
   117         28
   118         63
   119          5
   120          0
   122          0
   123          0
   124          5
   125          9
   126          1
   127          0
   128          1
   129          1
   130          1
   131          0
   132          1
   133          0
   137          0
   138          0
   139          1
   140          0
   141          0
   142          0
   143          1
   144          8
   145         96
   146        320
   147         29
   148          1
   167          0
   168          0
   173          1
   174         10
   175         26
   176          2
   202          0
   207          0