##TITLE=Library Entry 42182
##JCAMP-DX=Revision 4.10 
##DATA TYPE=MASS SPECTRUM
##SAMPLE DESCRIPTION=NIST Mass Spectrometry Data Center, 2007
##NAMES=HP
##CAS NAME=Triethylene glycol, 2TMS derivative
##MOLFORM=C12H30O4Si2
##CAS REGISTRY NO=62185-58-4
##MP= -300
##BP= -300
##MW= 294
##$RETENTION INDEX=1489
##$CONDENSED SPECTRUM=NO
##NPOINTS= 99
##XYDATA=(XY..XY) 1 
    14          1
    15          5
    19          1
    26          1
    27          6
    28         13
    29         13
    30          2
    31          7
    39          1
    41          4
    42          4
    43         39
    44         17
    45         79
    46          5
    47         15
    48          1
    49          1
    51          1
    52          2
    53          1
    55          3
    56          1
    57          6
    58         32
    59         78
    60          8
    61         29
    62          2
    63          2
    66         52
    69          1
    70          8
    71          8
    72         29
    73        999
    74         92
    75        132
    76          9
    77         17
    78          1
    79          1
    85          2
    86          2
    87         38
    88         64
    89         24
    90          3
    91          1
    99          3
   101        125
   102         16
   103        267
   104         24
   105         19
   106          1
   115          9
   116        413
   117        680
   118         90
   119         45
   120          3
   121          1
   129          1
   131          6
   132          2
   133         37
   134          5
   135          4
   145         33
   146          5
   147        124
   148         18
   149         10
   150          1
   159          1
   160          4
   161        144
   162         19
   163          7
   164          1
   175          2
   176          1
   177          2
   189          3
   190          1
   191         16
   192          3
   193          1
   204          1
   205          1
   207          1
   235          6
   236          1
   237          1
   251          5
   252          1
   279          3