##TITLE=Library Entry 96321
##JCAMP-DX=Revision 4.10 
##DATA TYPE=MASS SPECTRUM
##SAMPLE DESCRIPTION=V.G.Zaikin, TIPS, Russian Acad. Sci.
##NAMES=HP
##CAS NAME=3-Ethylthiolane
##MOLFORM=C6H12S
##CAS REGISTRY NO=62184-67-2
##MP= -300
##BP= -300
##MW= 116
##$RETENTION INDEX=970
##$CONDENSED SPECTRUM=NO
##NPOINTS= 42
##XYDATA=(XY..XY) 1 
    41        670
    42        240
    43        120
    44        830
    45        400
    46        210
    47        190
    53        150
    54        160
    55        640
    56         90
    57         70
    58         60
    59        210
    60        690
    61        310
    62         50
    67        350
    68        140
    69        510
    70        220
    71         70
    73        100
    74        140
    75         50
    81         70
    82        250
    83        100
    84         25
    85        100
    86         20
    87        540
    88        250
    89         40
   101        610
   102         60
   103         40
   115         60
   116        999
   117         76
   118         40
   119          3