##TITLE=Library Entry 68296
##JCAMP-DX=Revision 4.10 
##DATA TYPE=MASS SPECTRUM
##SAMPLE DESCRIPTION=D.HENNEBERG, MAX-PLANCK INSTITUTE, MULHEIM, WEST GERMAN
Y
##NAMES=HP
##CAS NAME=Cyclopentanecarboxylic acid, 3-methyl-4-methylene-, methyl ester
##MOLFORM=C9H14O2
##CAS REGISTRY NO=62185-62-0
##MP= -300
##BP= -300
##MW= 154
##$RETENTION INDEX=0
##$CONDENSED SPECTRUM=NO
##NPOINTS= 109
##XYDATA=(XY..XY) 1 
    26          6
    27         52
    28         30
    29         42
    30          1
    31          3
    32          1
    33          6
    36          0
    37          0
    38          1
    39         66
    40         20
    41        112
    42         13
    43         36
    44          4
    45         10
    46          0
    47          1
    49          0
    50          2
    51         11
    52         13
    53         87
    54         19
    55        183
    56         10
    57          6
    58          1
    59         49
    60          1
    61         10
    63          1
    64          0
    65         31
    66         16
    67        245
    68         53
    69         19
    70          2
    71          5
    72          1
    73          1
    74          3
    75          2
    76          0
    77        120
    78         25
    79        508
    80         64
    81         39
    82          9
    83          6
    84          1
    85          6
    86          0
    87         17
    88          3
    89          1
    90          1
    91         54
    92          7
    93        124
    94        716
    95        999
    96         75
    97         12
    98          3
    99          2
   100         24
   101          2
   103          0
   104          0
   105          3
   106          0
   107         22
   108          2
   109          5
   110          1
   111         24
   112          4
   113          4
   114          0
   115          0
   118          0
   119          0
   120          0
   121          9
   122        153
   123        122
   124         10
   125         13
   126          3
   127          0
   130          0
   132          0
   135          0
   137          2
   138          0
   139         49
   140          4
   141          0
   149          0
   152          0
   153          1
   154         66
   155          6
   156          1