##TITLE=Library Entry 82085
##JCAMP-DX=Revision 4.10 
##DATA TYPE=MASS SPECTRUM
##SAMPLE DESCRIPTION=D.HENNEBERG, MAX-PLANCK INSTITUTE, MULHEIM, WEST GERMAN
Y
##NAMES=HP
##CAS NAME=Cyclopentanone, 2-benzoyl-5-(trifluoroacetyl)-
##MOLFORM=C14H11F3O3
##CAS REGISTRY NO=62185-60-8
##MP= -300
##BP= -300
##MW= 284
##$RETENTION INDEX=0
##$CONDENSED SPECTRUM=NO
##NPOINTS= 213
##XYDATA=(XY..XY) 1 
    27         14
    28         49
    35          0
    36          5
    37          0
    38          1
    39          7
    40          1
    41         10
    42          2
    43          9
    44          1
    47          0
    49          1
    50          2
    51         32
    55         42
    56          2
    57          2
    58          0
    59          1
    60          0
    62          0
    63          5
    64          3
    65          6
    66          1
    67          2
    68          2
    69         18
    70          1
    71          8
    75          3
    76          9
    77        421
    78         59
    79         13
    80          5
    81         25
    82          8
    83          9
    84          2
    85          2
    86          0
    87          1
    88          1
    89          8
    90          2
    91         22
    92          3
    93          5
    95          2
    96          0
    97          1
    98          1
    99          3
   101         11
   102          9
   103         37
   104         24
   105        999
   106         76
   107         20
   108         14
   109         32
   110          5
   111          4
   112          0
   113          5
   114          6
   115        121
   116         15
   117          7
   118          5
   119          4
   120          2
   121          2
   124          6
   125          1
   126          2
   127         57
   128        140
   129        155
   130         20
   131         37
   132         53
   133         17
   134          2
   135         14
   136          2
   137         93
   138          9
   139         25
   140         15
   141        147
   142         21
   143         27
   144          6
   145         15
   146          4
   147          7
   148          1
   149          1
   150          0
   151          7
   152          2
   153          1
   154          0
   155          0
   156          0
   157          6
   158          7
   159         24
   160          5
   161          4
   162          4
   163          1
   164          1
   165          0
   166          0
   167          3
   168         25
   169        119
   170         15
   171          3
   172          1
   173          1
   174          0
   175          0
   177          2
   178          5
   179         14
   180          5
   181          6
   182          1
   183          1
   184          2
   185         13
   186         23
   187         41
   188          8
   189          6
   190          1
   191          0
   192          0
   193          0
   194          0
   195          3
   196          4
   197        208
   198         29
   199          4
   200          1
   201          0
   202          0
   203          0
   204          1
   205          8
   206         43
   207         23
   208          3
   209          3
   210          1
   211          0
   212          0
   213         30
   214          7
   215        478
   216         68
   217         11
   218          2
   219          0
   221          0
   222          0
   223          0
   224          0
   225          0
   226          0
   227          0
   229          0
   230          0
   235          2
   236          2
   237          7
   238          3
   239          0
   240          0
   241          1
   244          2
   245          3
   246          1
   247          1
   248          0
   249          0
   251          0
   252          0
   253          0
   254          0
   255          2
   256          3
   257          0
   263          4
   264         40
   265         66
   266         12
   267          3
   268          0
   281          0
   282          2
   283         44
   284        850
   285        136
   286         13