##TITLE=Library Entry 66486
##JCAMP-DX=Revision 4.10 
##DATA TYPE=MASS SPECTRUM
##SAMPLE DESCRIPTION=NIST Mass Spectrometry Data Center
##NAMES=HP
##CAS NAME=(1R,3S,4R,5S)-1-Isopropyl-4-methylbicyclo[3.1.0]hexan-3-yl acetat
e-rel-
##MOLFORM=C12H20O2
##CAS REGISTRY NO=62181-91-3
##MP= -300
##BP= -300
##MW= 196
##$RETENTION INDEX=1280
##$CONDENSED SPECTRUM=NO
##NPOINTS= 64
##XYDATA=(XY..XY) 1 
    27         22
    29         27
    39         61
    40         11
    41        143
    42         19
    43        614
    44         21
    45          6
    51         23
    52         16
    53         66
    55        103
    56          9
    57         13
    58          3
    61          8
    64          2
    65         29
    66          9
    67         99
    69         26
    70         11
    71         13
    72          2
    77        126
    78         23
    79        251
    80         66
    81         77
    82          5
    84          5
    87          2
    90          1
    91        145
    92        152
    93        999
    94        159
    95        191
    96         17
    99         17
   100          4
   101          2
   103          6
   105         63
   106         11
   107        200
   108         56
   110         43
   111         44
   112          5
   113          3
   115          3
   119         12
   120          6
   121        792
   122         81
   123          5
   131          3
   132          2
   133          7
   135         26
   136        369
   137         21