##TITLE=Library Entry 7863
##JCAMP-DX=Revision 4.10 
##DATA TYPE=MASS SPECTRUM
##SAMPLE DESCRIPTION=D.HENNEBERG, MAX-PLANCK INSTITUTE, MULHEIM, WEST GERMAN
Y
##NAMES=HP
##CAS NAME=Octane, 3-ethyl-2,7-dimethyl-
##MOLFORM=C12H26
##CAS REGISTRY NO=62183-55-5
##MP= -300
##BP= -300
##MW= 170
##$RETENTION INDEX=1180
##$CONDENSED SPECTRUM=NO
##NPOINTS= 58
##XYDATA=(XY..XY) 1 
    22          0
    23          0
    24          0
    25          1
    26          9
    27        104
    29        135
    30          4
    31          0
    33          0
    35          1
    36          0
    37          4
    38          2
    39         56
    41        290
    42         53
    43        999
    44         21
    50          0
    51          1
    52          0
    53         14
    54          6
    55        111
    56        205
    57        726
    58         30
    59          0
    65          1
    66          0
    67          8
    68         14
    69         89
    70         50
    71        492
    72         26
    73          0
    77          6
    79          0
    81          1
    82          5
    83         20
    84         44
    85        279
    86         19
    97          3
    98         23
    99         10
   110          0
   111         29
   112          3
   113          1
   126         49
   127         37
   128          2
   140          1
   141          3