##TITLE=Library Entry 65835
##JCAMP-DX=Revision 4.10 
##DATA TYPE=MASS SPECTRUM
##SAMPLE DESCRIPTION=NIST Mass Spectrometry Data Center
##NAMES=HP
##CAS NAME=(1R,3R,4R,5S)-1-Isopropyl-4-methylbicyclo[3.1.0]hexan-3-yl acetat
e-rel-
##MOLFORM=C12H20O2
##CAS REGISTRY NO=62181-90-2
##MP= -300
##BP= -300
##MW= 196
##$RETENTION INDEX=1298
##$CONDENSED SPECTRUM=NO
##NPOINTS= 91
##XYDATA=(XY..XY) 1 
    26          1
    27         19
    29         20
    30          1
    31          1
    38          1
    39         49
    40          8
    41        131
    42         13
    43        514
    44         14
    45          5
    50          3
    51         15
    52          7
    53         52
    54         10
    55        103
    56          9
    57         13
    58          9
    59          3
    60          1
    61         10
    62          1
    63          5
    64          1
    65         30
    66         11
    67         84
    68         24
    69         61
    70          9
    71         24
    72          3
    75          1
    76          1
    77        103
    78         20
    79        207
    80         57
    81         80
    82         13
    83         16
    84          9
    85          5
    86          1
    87          1
    89          1
    91        137
    92        298
    93        999
    94        182
    95        121
    96         12
    97         10
    98          2
    99         14
   100          5
   103          6
   104          3
   105         55
   106         12
   107        148
   108         26
   109         15
   110         27
   111         32
   112          4
   113          3
   115          2
   116          1
   117          2
   118          1
   119         13
   120          4
   121        445
   122         52
   123         11
   125          1
   127          1
   135          9
   136        203
   137         23
   138          1
   139          3
   151          1
   153          1
   154          1
   196          1