##TITLE=Library Entry 25342
##JCAMP-DX=Revision 4.10 
##DATA TYPE=MASS SPECTRUM
##SAMPLE DESCRIPTION=D.HENNEBERG, MAX-PLANCK INSTITUTE, MULHEIM, WEST GERMAN
Y
##NAMES=HP
##CAS NAME=Nonane, 5-(1-methylpropyl)-
##MOLFORM=C13H28
##CAS REGISTRY NO=62185-54-0
##MP= -300
##BP= -300
##MW= 184
##$RETENTION INDEX=1066
##$CONDENSED SPECTRUM=NO
##NPOINTS= 61
##XYDATA=(XY..XY) 1 
    24          1
    25          4
    26         12
    27        114
    28         15
    29        268
    30          4
    33          0
    38          1
    39         59
    40         13
    41        405
    42         65
    43        946
    45          2
    49          0
    51          5
    52          3
    53         23
    54         19
    55        228
    56        342
    57        999
    58         33
    59          4
    63          0
    65          1
    66          1
    67         14
    68         16
    69         94
    70        135
    71        959
    72         43
    73          2
    74          0
    75          0
    77          3
    79          4
    81          4
    82         32
    83         94
    84        101
    85        519
    86         28
    92          0
    94          0
    96         19
    97        109
    98         55
    99         12
   104          1
   111          1
   112          2
   113          4
   126        306
   127        104
   128          8
   131          0
   141          2
   155          5