##TITLE=Library Entry 30158
##JCAMP-DX=Revision 4.10 
##DATA TYPE=MASS SPECTRUM
##SAMPLE DESCRIPTION=NIST Mass Spectrometry Data Center, 2007
##NAMES=HP
##CAS NAME=2-(2-Methoxyethoxy)ethanol, TMS derivative
##MOLFORM=C8H20O3Si
##CAS REGISTRY NO=62199-57-9
##MP= -300
##BP= -300
##MW= 192
##$RETENTION INDEX=1096
##$CONDENSED SPECTRUM=NO
##NPOINTS= 86
##XYDATA=(XY..XY) 1 
    14          1
    15         32
    16          1
    17          1
    18          1
    19          1
    26          4
    27         19
    28         26
    29        156
    30          8
    31        125
    32          2
    33          4
    39          3
    40          1
    41         12
    42         11
    43        107
    44         31
    45        286
    46         13
    47         36
    48          2
    49          1
    51          2
    53          3
    54          1
    55          8
    56          3
    57         13
    58        134
    59        999
    60         47
    61         46
    62          3
    63          3
    66          1
    68          1
    69          1
    70          4
    71          9
    72         39
    73        904
    74         90
    75        235
    76         17
    77         20
    78          1
    85          2
    86          2
    87         53
    88         20
    89        371
    90         32
    91         16
    92          1
    99          2
   101        100
   102         21
   103        264
   104         26
   105         11
   106          1
   115          7
   116        331
   117        256
   118         37
   119         34
   120          3
   121          1
   131          1
   132          1
   133         48
   134          5
   135          2
   145         52
   146          6
   147         38
   148          4
   149          7
   150          1
   160          1
   177         66
   178          9
   179          3