##TITLE=Library Entry 24883
##JCAMP-DX=Revision 4.10 
##DATA TYPE=MASS SPECTRUM
##SAMPLE DESCRIPTION=Chemical Concepts
##NAMES=HP
##CAS NAME=Heptane, 5-ethyl-2,2,3-trimethyl-
##MOLFORM=C12H26
##CAS REGISTRY NO=62199-06-8
##MP= -300
##BP= -300
##MW= 170
##$RETENTION INDEX=0
##$CONDENSED SPECTRUM=NO
##NPOINTS= 44
##XYDATA=(XY..XY) 1 
    27         94
    28         27
    29        199
    39         89
    40         17
    41        320
    42         70
    43        375
    44         16
    45          7
    51          8
    52          4
    53         36
    54         11
    55        189
    56        617
    57        999
    58         52
    59          4
    65          7
    66          3
    67         21
    68          6
    69         66
    70         91
    71        255
    72         17
    73         38
    74          4
    77          6
    79          6
    81          6
    82          6
    83         67
    84         33
    85         79
    86          6
    97          5
    99         21
   112        186
   113        103
   114          9
   155          6
   170          4