##TITLE=Library Entry 35019
##JCAMP-DX=Revision 4.10 
##DATA TYPE=MASS SPECTRUM
##SAMPLE DESCRIPTION=D.HENNEBERG, MAX-PLANCK INSTITUTE, MULHEIM, WEST GERMAN
Y
##NAMES=HP
##CAS NAME=Cyclopentane, 1,2-dibutyl-
##MOLFORM=C13H26
##CAS REGISTRY NO=62199-52-4
##MP= -300
##BP= -300
##MW= 182
##$RETENTION INDEX=1402
##$CONDENSED SPECTRUM=NO
##NPOINTS= 81
##XYDATA=(XY..XY) 1 
    24          1
    25          1
    27         85
    28          7
    29        160
    30          4
    32          0
    33          0
    34          0
    35          0
    37          1
    38          5
    39         65
    40         15
    41        389
    42        120
    43        253
    44          5
    46          0
    47          1
    48          1
    49          0
    50          3
    51          5
    52          4
    53         41
    54         65
    55        622
    56        448
    57        376
    58         14
    60          0
    61          0
    62          0
    63          1
    65         11
    66         17
    67        143
    68         55
    69        999
    70        313
    71         78
    72          3
    75          0
    77         13
    78          1
    79         16
    80          5
    81         49
    82        122
    83        574
    84        152
    85         40
    91          2
    93          2
    94          0
    95         20
    96         37
    97        155
    98         81
    99         12
   109          2
   110         14
   111         67
   112         49
   113          3
   122          0
   123          3
   124         80
   125        279
   126         46
   127          2
   138          3
   139         20
   140         18
   141          1
   153          4
   154         20
   155          1
   182         56
   183          6