##TITLE=Library Entry 94386
##JCAMP-DX=Revision 4.10 
##DATA TYPE=MASS SPECTRUM
##SAMPLE DESCRIPTION=D.HENNEBERG, MAX-PLANCK INSTITUTE, MULHEIM, WEST GERMAN
Y
##NAMES=HP
##CAS NAME=Tricyclo[3.2.2.0(2,4)]non-8-ene-3,3,6,6,7,7-hexacarbonitrile
##MOLFORM=C15H6N6
##CAS REGISTRY NO=62199-55-7
##MP= -300
##BP= -300
##MW= 270
##$RETENTION INDEX=0
##$CONDENSED SPECTRUM=NO
##NPOINTS= 119
##XYDATA=(XY..XY) 1 
    28         37
    29          0
    31          3
    32          1
    36         14
    37         45
    38        173
    39        187
    40         17
    41         10
    42          3
    43          2
    46          2
    48         13
    49         19
    50        172
    51        217
    52        109
    53          9
    54          0
    56          1
    58          1
    59          1
    60          3
    61         33
    62         81
    63        116
    64        111
    65         29
    66         18
    67          0
    68          1
    71          4
    72          2
    73          3
    74         27
    75         48
    76        328
    77        187
    78        187
    79          8
    81          1
    84          3
    85          5
    86         10
    87         33
    88        104
    89         72
    90         32
    91         24
    92          2
    95          2
    97          1
    98          1
    99          9
   100         15
   101         10
   102         47
   103         37
   104          3
   108          1
   110          2
   111          2
   112          5
   113         14
   114        126
   115        999
   116        130
   117         16
   124          4
   125          5
   126          3
   127          5
   128        305
   129         30
   130          4
   136          3
   137          2
   138          3
   139          4
   140          6
   141         95
   142        776
   143         69
   144          4
   150          1
   151          4
   152          9
   153          3
   154          6
   155          0
   162          1
   163          3
   164          6
   165          5
   166          1
   167          1
   168          3
   177          2
   178          8
   179          5
   180          3
   188          0
   189          7
   190          7
   191          2
   192          8
   193          1
   215          2
   216         26
   217          9
   218          2
   220          1
   242          1
   243         38
   244          7
   245          2
   269          3
   270          0