##TITLE=Library Entry 35018
##JCAMP-DX=Revision 4.10 
##DATA TYPE=MASS SPECTRUM
##SAMPLE DESCRIPTION=D.HENNEBERG, MAX-PLANCK INSTITUTE, MULHEIM, WEST GERMAN
Y
##NAMES=HP
##CAS NAME=Cyclopentane, 1-pentyl-2-propyl-
##MOLFORM=C13H26
##CAS REGISTRY NO=62199-51-3
##MP= -300
##BP= -300
##MW= 182
##$RETENTION INDEX=0
##$CONDENSED SPECTRUM=NO
##NPOINTS= 80
##XYDATA=(XY..XY) 1 
    24          3
    25          3
    26          6
    27         95
    28          8
    29        169
    30          4
    31          0
    34          0
    37          5
    38          2
    39         86
    40         17
    41        498
    42        148
    43        333
    44          6
    46          0
    51          8
    52          6
    53         47
    54         74
    55        756
    56        456
    57        399
    58         14
    60          1
    61          2
    62          1
    63          2
    65         11
    66         33
    67        176
    68         69
    69        999
    70        373
    71        117
    72          6
    74          0
    75          0
    77         14
    78          3
    79         17
    80          4
    81         68
    82        104
    83        631
    84        211
    85         59
    86          3
    91          1
    93          1
    94          1
    95         25
    96         48
    97        307
    98         90
    99         11
   109          8
   110        104
   111        403
   112         87
   113          6
   123          1
   124          7
   125         48
   126         23
   127          4
   129          0
   137          1
   138         28
   139         78
   140         22
   141          2
   152          1
   153          7
   154         22
   155          1
   182         65
   183          7