##TITLE=Library Entry 66350
##JCAMP-DX=Revision 4.10 
##DATA TYPE=MASS SPECTRUM
##SAMPLE DESCRIPTION=Japan AIST/NIMC Database- Spectrum MS-NW-3124
##NAMES=HP
##CAS NAME=Pyridine, 2-propyl-
##MOLFORM=C8H11N
##CAS REGISTRY NO=622-39-9
##MP= -300
##BP= -300
##MW= 121
##$RETENTION INDEX=977
##$CONDENSED SPECTRUM=NO
##NPOINTS= 56
##XYDATA=(XY..XY) 1 
    15          2
    26          9
    27         38
    28          9
    29          8
    37          5
    38         12
    39         73
    40         10
    41         18
    42          4
    43          1
    46          1
    49          2
    50         22
    51         59
    52         52
    53         23
    54          7
    58          9
    59          2
    61          3
    62          6
    63         17
    64         10
    65         78
    66         48
    67         10
    68          2
    74          1
    75          2
    76          4
    77         17
    78         72
    79         86
    80         24
    81          1
    89          2
    90          2
    91          9
    92         75
    93        999
    94         73
    95          2
   103          1
   104          9
   105          2
   106        271
   107         26
   108          1
   117         11
   118         16
   119          4
   120        123
   121         29
   122          2