##TITLE=Library Entry 94063
##JCAMP-DX=Revision 4.10 
##DATA TYPE=MASS SPECTRUM
##SAMPLE DESCRIPTION=NIST Mass Spectrometry Data Center, 1990.
##NAMES=HP
##CAS NAME=Benzene, 1-butynyl-
##MOLFORM=C10H10
##CAS REGISTRY NO=622-76-4
##MP= -300
##BP= -300
##MW= 130
##$RETENTION INDEX=1131
##$CONDENSED SPECTRUM=NO
##NPOINTS= 64
##XYDATA=(XY..XY) 1 
    15         25
    18          3
    25          2
    26         21
    27         62
    28          6
    37         18
    38         37
    39        129
    40         10
    41          8
    43          4
    44          2
    49         16
    50        122
    51        197
    52         44
    53         14
    55          2
    57         10
    61         36
    62         98
    63        210
    64         99
    65         69
    66          4
    72          2
    73         16
    74         94
    75         79
    76         67
    77         97
    78         29
    79          3
    84          3
    85         16
    86         40
    87         52
    88         36
    89        124
    90         11
    91         16
    97          5
    98         22
    99         10
   100          4
   101         20
   102         89
   103         26
   104          3
   109          3
   110          4
   111          2
   113         35
   115        999
   116         93
   117          4
   126         34
   127        145
   128        294
   129        515
   130        599
   131         57
   132          3