##TITLE=Library Entry 46899
##JCAMP-DX=Revision 4.10 
##DATA TYPE=MASS SPECTRUM
##SAMPLE DESCRIPTION=A.A.Kutin, Moscow, Russia
##NAMES=HP
##CAS NAME=2-Propanol, 1,3-diphenoxy-
##MOLFORM=C15H16O3
##CAS REGISTRY NO=622-04-8
##MP= -300
##BP= -300
##MW= 244
##$RETENTION INDEX=0
##$CONDENSED SPECTRUM=NO
##NPOINTS= 129
##XYDATA=(XY..XY) 1 
    33         18
    34         11
    36          6
    37         15
    38         70
    39        337
    40        165
    41         55
    43        253
    44         62
    45         11
    46          1
    47          1
    48          1
    50        102
    51        338
    52         46
    53         23
    54          7
    55         38
    57        108
    58         12
    60          2
    61          6
    62         26
    63         79
    64         63
    65        283
    66        147
    67         13
    68          4
    69          7
    70          4
    71          2
    74         26
    75         28
    77        999
    78        139
    79        221
    80         18
    81          5
    82          1
    83          1
    84          4
    85          6
    86          5
    87          3
    88          2
    89          8
    90         14
    91        105
    92         22
    94        772
    95        108
    96          7
    97          1
    98          3
    99          4
   100          3
   101          4
   102          5
   103         18
   105        138
   107        644
   108        182
   109         14
   112          2
   113          3
   114          6
   115         16
   116          3
   119        129
   120         29
   121         46
   122         26
   123          4
   125          2
   126          7
   127         13
   128          8
   129          5
   130          5
   131         16
   133        197
   134         18
   135          5
   136         16
   137         14
   138          1
   139          4
   140          6
   141         10
   142          1
   143          1
   148          0
   150        224
   151         68
   152         27
   153         17
   154         20
   155         10
   156          0
   158          2
   165          2
   166          2
   167          1
   168          4
   169          9
   170          7
   171          3
   179          4
   180          4
   181         21
   182         18
   183          4
   186          2
   193          7
   194          1
   198          5
   214          1
   216          2
   228         16
   229          2
   240          4
   241          8
   242         10
   244        328
   245         49
   246          5