##TITLE=Library Entry 109362
##JCAMP-DX=Revision 4.10 
##DATA TYPE=MASS SPECTRUM
##SAMPLE DESCRIPTION=Exported from NIST MS Search
##NAMES=HP
##CAS NAME=Benzene, 1-chloro-4-ethyl-
##MOLFORM=C8H9Cl
##CAS REGISTRY NO=622-98-0
##MP= -300
##BP= -300
##MW= 140
##$RETENTION INDEX=1043
##$CONDENSED SPECTRUM=NO
##NPOINTS= 66
##XYDATA=(XY..XY) 1 
    14          3
    15          7
    26          7
    27         46
    28         21
    29          5
    35          2
    36         14
    37         10
    38         23
    39         58
    40          6
    41          4
    44         10
    45          7
    49         11
    50         83
    51        171
    52          8
    60          2
    61         13
    62         27
    63         75
    64         11
    65         12
    68          4
    69         10
    70          8
    73         31
    74         35
    75         70
    76         15
    77        126
    78         19
    79         41
    84          2
    85          8
    86          6
    87          8
    88          2
    89         91
    90         29
    91          3
    97          3
    98          2
    99         37
   101         26
   102         21
   103         97
   104         15
   105        469
   106         40
   111         13
   112         15
   113          6
   114          4
   125        999
   126         76
   127        322
   128         23
   138          6
   139         34
   140        363
   141         41
   142        117
   143          8