##TITLE=Library Entry 62248
##JCAMP-DX=Revision 4.10 
##DATA TYPE=MASS SPECTRUM
##SAMPLE DESCRIPTION=NIST Mass Spectrometry Data Center, 1994
##NAMES=HP
##CAS NAME=Benzene, (2-chloroethyl)-
##MOLFORM=C8H9Cl
##CAS REGISTRY NO=622-24-2
##MP= -300
##BP= -300
##MW= 140
##$RETENTION INDEX=1079
##$CONDENSED SPECTRUM=NO
##NPOINTS= 55
##XYDATA=(XY..XY) 1 
    13          1
    14          4
    15          9
    26         35
    27         80
    35          8
    36          5
    37         18
    38         36
    39        107
    40          8
    41         11
    43          0
    47          3
    49         79
    50        100
    51        182
    52         37
    53          9
    60          2
    61         13
    62         28
    63         64
    64          2
    65        122
    66          8
    73          8
    74         34
    75         23
    76         22
    77        106
    78         61
    79         27
    80          2
    84          0
    85          2
    86          4
    87          4
    89         30
    91        999
    92         76
    93          2
    97          1
    98          2
    99          1
   101          3
   102         17
   103         57
   104         33
   105         29
   106          3
   140        188
   141         19
   142         58
   143          5