##TITLE=Library Entry 87473
##JCAMP-DX=Revision 4.10 
##DATA TYPE=MASS SPECTRUM
##SAMPLE DESCRIPTION=NIST Mass Spectrometry Data Center, 1990.
##NAMES=HP
##CAS NAME=Phenol, 4-ethoxy-
##MOLFORM=C8H10O2
##CAS REGISTRY NO=622-62-8
##MP= -300
##BP= -300
##MW= 138
##$RETENTION INDEX=1350
##$CONDENSED SPECTRUM=NO
##NPOINTS= 41
##XYDATA=(XY..XY) 1 
    26         29
    27         79
    28         18
    29         44
    37          5
    38         16
    39         67
    40          5
    41          4
    42          8
    43          9
    50         26
    51         42
    52         41
    53        166
    54        108
    55         75
    56          5
    61         10
    62         24
    63         51
    64         23
    65         58
    66         12
    67          6
    69         11
    74          6
    77          6
    79         11
    81        299
    82        176
    83         10
    92          4
    93         11
    95          9
   109        194
   110        999
   111         64
   112          6
   138        333
   139         29