##TITLE=Library Entry 9592
##JCAMP-DX=Revision 4.10 
##DATA TYPE=MASS SPECTRUM
##SAMPLE DESCRIPTION=Japan AIST/NIMC Database- Spectrum MS-NW- 20
##NAMES=HP
##CAS NAME=Acetic acid, cyclohexyl ester
##MOLFORM=C8H14O2
##CAS REGISTRY NO=622-45-7
##MP= -300
##BP= -300
##MW= 142
##$RETENTION INDEX=1043
##$CONDENSED SPECTRUM=NO
##NPOINTS= 63
##XYDATA=(XY..XY) 1 
    14          2
    15         36
    17          2
    18          7
    26          4
    27         55
    28         22
    29         44
    30          1
    31          7
    32          6
    38          2
    39         62
    40          9
    41        133
    42         20
    43        999
    44         40
    45          5
    50          2
    51          6
    52          4
    53         21
    54        191
    55        155
    56         21
    57         89
    58         74
    59         12
    60          2
    61         85
    62          2
    65          5
    66          9
    67        584
    68         34
    69          5
    70          5
    71         36
    72         11
    73          1
    77          5
    78          2
    79         13
    80          5
    81         79
    82        801
    83         96
    84          6
    85          4
    86          1
    94          1
    95          1
    96          4
    97          2
    98          6
    99         44
   100         48
   101          3
   109          1
   127          1
   142          1
   143          3