##TITLE=Library Entry 97442
##JCAMP-DX=Revision 4.10 
##DATA TYPE=MASS SPECTRUM
##SAMPLE DESCRIPTION=NIST Mass Spectrometry Data Center, 1990.
##NAMES=HP
##CAS NAME=Benzene, 1-ethenyl-4-methyl-
##MOLFORM=C9H10
##CAS REGISTRY NO=622-97-9
##MP= -300
##BP= -300
##MW= 118
##$RETENTION INDEX=980
##$CONDENSED SPECTRUM=NO
##NPOINTS= 52
##XYDATA=(XY..XY) 1 
    15          9
    26         22
    27         71
    28         12
    37         18
    38         44
    39        210
    40         27
    41         27
    43          5
    49          9
    50         91
    51        157
    52         44
    53         21
    57         70
    59         21
    60          4
    61         28
    62         73
    63        142
    64         35
    65        138
    66         16
    73          7
    74         32
    75         30
    76         32
    77         85
    78         57
    79          9
    84          3
    85         10
    86         16
    87         17
    88         11
    89         92
    90          3
    91        391
    92         54
    98          5
   101          9
   102         50
   103        117
   104         10
   113          7
   115        385
   116        130
   117        999
   118        773
   119         69
   120          3