##TITLE=Library Entry 85133
##JCAMP-DX=Revision 4.10 
##DATA TYPE=MASS SPECTRUM
##SAMPLE DESCRIPTION=Japan AIST/NIMC Database- Spectrum MS-NW-5418
##NAMES=HP
##CAS NAME=Benzene, 1-ethoxy-4-methyl-
##MOLFORM=C9H12O
##CAS REGISTRY NO=622-60-6
##MP= -300
##BP= -300
##MW= 136
##$RETENTION INDEX=1074
##$CONDENSED SPECTRUM=NO
##NPOINTS= 72
##XYDATA=(XY..XY) 1 
    14          1
    15          4
    26         14
    27         91
    28          1
    29         48
    30          1
    37          3
    38         10
    39         68
    40          8
    41         11
    42          1
    43          8
    44          1
    45          1
    49          2
    50         34
    51         70
    52         44
    53         43
    54          3
    55         10
    60          2
    61          3
    62          9
    63         34
    64         10
    65         62
    66          9
    67          3
    68          3
    69          1
    73          1
    74          6
    75          4
    76          3
    77        159
    78         48
    79        127
    80         83
    81          9
    82          1
    85          1
    86          3
    87          2
    89         20
    90         82
    91         93
    92          9
    93         12
    94          2
    95          1
   103          1
   105          8
   106          7
   107        722
   108        999
   109         82
   110          5
   115          1
   117          1
   119          2
   120          1
   121         13
   122          2
   133          1
   134          3
   135          7
   136        616
   137         65
   138          5