##TITLE=Library Entry 66596
##JCAMP-DX=Revision 4.10 
##DATA TYPE=MASS SPECTRUM
##SAMPLE DESCRIPTION=Japan AIST/NIMC Database- Spectrum MS-NW-1948
##NAMES=HP
##CAS NAME=Tetradecanamide, N-phenyl-
##MOLFORM=C20H33NO
##CAS REGISTRY NO=622-56-0
##MP= -300
##BP= -300
##MW= 303
##$RETENTION INDEX=0
##$CONDENSED SPECTRUM=NO
##NPOINTS= 73
##XYDATA=(XY..XY) 1 
    18          1
    27          9
    28          4
    29         25
    39          9
    40          1
    41         55
    42          9
    43         73
    44          2
    51          3
    52          1
    53          3
    54          3
    55         39
    56          6
    57         47
    58          2
    63          1
    64          1
    65         13
    66         10
    67          7
    68          2
    69         16
    70          2
    71         18
    72          1
    77         20
    78          2
    79          2
    81          4
    82          1
    83          7
    84          3
    85          9
    91          6
    92         27
    93        999
    94        110
    95          9
    96          1
    97          4
    98          2
    99          1
   104          1
   106          5
   107          1
   109          2
   111          2
   119          4
   120         21
   121          2
   123          1
   134          9
   135        188
   136         17
   137          1
   148         16
   149          2
   162          2
   176          2
   190          2
   204          1
   210          2
   211          5
   260          1
   274          1
   288          1
   302          6
   303         61
   304         12
   305          2