##TITLE=Library Entry 59631
##JCAMP-DX=Revision 4.10 
##DATA TYPE=MASS SPECTRUM
##SAMPLE DESCRIPTION=Japan AIST/NIMC Database- Spectrum MS-NW-2091
##NAMES=HP
##CAS NAME=Hydroxylamine, O-(phenylmethyl)-
##MOLFORM=C7H9NO
##CAS REGISTRY NO=622-33-3
##MP= -300
##BP= -300
##MW= 123
##$RETENTION INDEX=0
##$CONDENSED SPECTRUM=NO
##NPOINTS= 44
##XYDATA=(XY..XY) 1 
    16          7
    17          2
    18          5
    26          2
    27          9
    28          7
    29          7
    30          2
    32          6
    39         43
    40          2
    41          9
    49          2
    50         25
    51         55
    52         12
    53          3
    61          2
    62          6
    63         17
    64          5
    65        122
    66          8
    73          1
    74          6
    75          4
    76          4
    77         75
    78         13
    79         13
    80          1
    89         13
    90          8
    91        999
    92         75
    93          6
   103          1
   104          1
   105         32
   106         24
   107          9
   108         12
   109          1
   123          8