##TITLE=Library Entry 60188
##JCAMP-DX=Revision 4.10 
##DATA TYPE=MASS SPECTRUM
##SAMPLE DESCRIPTION=ALPHA Chemicals / NIST MS Data Center.
##NAMES=HP
##CAS NAME=Benzene, (azidomethyl)-
##MOLFORM=C7H7N3
##CAS REGISTRY NO=622-79-7
##MP= -300
##BP= -300
##MW= 133
##$RETENTION INDEX=0
##$CONDENSED SPECTRUM=NO
##NPOINTS= 64
##XYDATA=(XY..XY) 1 
    13          2
    14         13
    15          4
    16          1
    17          2
    18          4
    25          5
    26         35
    27         69
    28        225
    29          4
    32          5
    36          4
    37         44
    38         84
    39        183
    40         11
    41         17
    42          9
    43          8
    44          3
    46          7
    48          5
    49         43
    50        291
    51        476
    52        199
    53         13
    54          2
    60          3
    61         25
    62         47
    63         93
    64         26
    65        140
    66          7
    72          2
    73         21
    74         77
    75         64
    76        115
    77        758
    78        319
    79         24
    80          1
    84          1
    85          4
    86          8
    87          4
    88          1
    89         38
    90          1
    91        999
    92         73
    93          3
    99          3
   100          1
   104        724
   105        240
   106         19
   107          1
   133        272
   134         24
   135          1