##TITLE=Library Entry 109593
##JCAMP-DX=Revision 4.10 
##DATA TYPE=MASS SPECTRUM
##SAMPLE DESCRIPTION=NIST Mass Spectrometry Data Center
##NAMES=HP
##CAS NAME=4-Chlorobenzyl bromide
##MOLFORM=C7H6BrCl
##CAS REGISTRY NO=622-95-7
##MP= -300
##BP= -300
##MW= 204
##$RETENTION INDEX=0
##$CONDENSED SPECTRUM=NO
##NPOINTS= 64
##XYDATA=(XY..XY) 1 
    13          2
    15          2
    17          1
    18          2
    25          2
    26         25
    27         21
    28          6
    35          6
    36          5
    37         33
    38         50
    39         94
    40          8
    43         21
    44         51
    47          5
    48          4
    49         23
    50         81
    51         67
    52          9
    60         11
    61         45
    62         94
    63        190
    64         37
    65         15
    72          8
    73         52
    74         19
    75         27
    76          4
    77          3
    79         27
    80          6
    81         28
    82          4
    84         41
    85         50
    86         21
    87         20
    89        292
    90         79
    91         11
    95          1
    97          8
    99         85
   100          5
   101         25
   102          7
   103          9
   104          4
   123          5
   125        999
   126         92
   127        330
   128         27
   143          2
   204         49
   205          6
   206         65
   207          7
   208         14