##TITLE=Library Entry 66056
##JCAMP-DX=Revision 4.10 
##DATA TYPE=MASS SPECTRUM
##SAMPLE DESCRIPTION=Japan AIST/NIMC Database- Spectrum MS-NW-2392
##NAMES=HP
##CAS NAME=Diphenylthiocarbazide
##MOLFORM=C13H14N4S
##CAS REGISTRY NO=622-03-7
##MP= -300
##BP= -300
##MW= 258
##$RETENTION INDEX=0
##$CONDENSED SPECTRUM=NO
##NPOINTS= 153
##XYDATA=(XY..XY) 1 
    12          1
    13          3
    14          3
    15          5
    24          1
    25          7
    26         29
    27         76
    29          9
    30          3
    31         25
    32          9
    33          9
    34          1
    35          3
    37         18
    38         41
    39        121
    40         29
    41         36
    42         44
    43         18
    44          4
    45          7
    46         27
    47          3
    48          7
    50         54
    51        123
    52         45
    53         16
    54         27
    55          5
    56          6
    57          7
    58         59
    59        228
    60         16
    61         25
    62         36
    63         41
    65        199
    66        252
    67         29
    69          6
    70          2
    71          3
    72          2
    73          3
    74         13
    75         11
    76         18
    77        339
    78        124
    79         17
    80         10
    81          5
    83          7
    85          3
    87          2
    88          3
    89          3
    90          8
    91         46
    92        259
    93        999
    94         88
    95          4
    96          4
    98          1
   100          5
   102          1
   103          4
   104          9
   105        111
   106         53
   107         63
   108         78
   109         22
   111          3
   113          1
   115          2
   116          2
   118         19
   119          5
   120          1
   121          4
   122          1
   123          4
   124          3
   125         14
   126          1
   127          1
   130          4
   131         18
   132          5
   133         12
   134          2
   135         11
   136         36
   137          6
   138          1
   139          2
   141          1
   142          3
   143          1
   147          2
   148          6
   149          3
   150         58
   151         11
   152          3
   153          1
   154          1
   155          1
   157          3
   165          9
   166          5
   167         78
   168         16
   169         19
   170          3
   173          1
   177          1
   179          1
   182          2
   183          1
   184          2
   185          1
   186          1
   189          1
   191          3
   193          1
   194          1
   201          2
   206          1
   207          1
   208          1
   209          3
   210          1
   223          1
   225          1
   226          2
   227          1
   233          2
   234          2
   243          1
   254          2
   256         11
   257          1
   258          6
   259          1
   260          1