##TITLE=Library Entry 81289
##JCAMP-DX=Revision 4.10 
##DATA TYPE=MASS SPECTRUM
##SAMPLE DESCRIPTION=NIST Mass Spectrometry Data Center, 1994
##NAMES=HP
##CAS NAME=p-Tolylacetic acid
##MOLFORM=C9H10O2
##CAS REGISTRY NO=622-47-9
##MP= -300
##BP= -300
##MW= 150
##$RETENTION INDEX=0
##$CONDENSED SPECTRUM=NO
##NPOINTS= 63
##XYDATA=(XY..XY) 1 
    15         11
    16          0
    17          2
    18          0
    26         19
    27         85
    29         12
    31          1
    37          8
    38         25
    39        101
    40          9
    41          9
    42          6
    43          2
    44          1
    45        150
    46          2
    47          0
    50         65
    51        121
    52         39
    53         34
    54          2
    55          2
    60          1
    61          8
    62         28
    63         58
    64         12
    65         34
    66          6
    67          1
    73          4
    74         20
    75         13
    76          1
    77        206
    78         92
    79        146
    80         10
    85          2
    86          4
    87          5
    89         20
    91        102
    92          7
    93          3
    98          2
   103        117
   105        999
   106        109
   107         13
   108          2
   119          2
   131          1
   132          5
   133          0
   147          0
   148          1
   150        351
   151         33
   152          3