##TITLE=Library Entry 60806
##JCAMP-DX=Revision 4.10 
##DATA TYPE=MASS SPECTRUM
##SAMPLE DESCRIPTION=T.A.BLAZER DU PONT, GIBBSTOWN, N.J., USA
##NAMES=HP
##CAS NAME=Benzene, (nitromethyl)-
##MOLFORM=C7H7NO2
##CAS REGISTRY NO=622-42-4
##MP= -300
##BP= -300
##MW= 137
##$RETENTION INDEX=1152
##$CONDENSED SPECTRUM=NO
##NPOINTS= 60
##XYDATA=(XY..XY) 1 
    13          2
    14          4
    15          4
    16          3
    25          3
    26         24
    27         29
    28         20
    29         14
    30         31
    36          4
    37         33
    38         45
    39        120
    40          8
    41         20
    43          5
    44          4
    46          8
    48          3
    49         19
    50        125
    51        150
    52         50
    53          8
    60          3
    61         14
    62         25
    63         60
    64         20
    65        138
    66          8
    73          9
    74         32
    75         36
    76        117
    77        181
    78         36
    79          5
    84          1
    85          4
    86          7
    87          5
    88          5
    89         45
    90         24
    91        999
    92         86
    93          3
    94          2
    99          4
   100          1
   102          7
   103        409
   104         35
   105        185
   106        179
   107         16
   108          3
   122          4