##TITLE=Library Entry 96746
##JCAMP-DX=Revision 4.10 
##DATA TYPE=MASS SPECTRUM
##SAMPLE DESCRIPTION=Japan AIST/NIMC Database- Spectrum MS-NW-7859
##NAMES=HP
##CAS NAME=1,4-Benzenediacetonitrile
##MOLFORM=C10H8N2
##CAS REGISTRY NO=622-75-3
##MP= -300
##BP= -300
##MW= 156
##$RETENTION INDEX=0
##$CONDENSED SPECTRUM=NO
##NPOINTS= 61
##XYDATA=(XY..XY) 1 
    26          2
    27         10
    28          3
    37          4
    38          9
    39         43
    40          6
    41          4
    50         32
    51         55
    52         17
    53          4
    54          1
    61          5
    62         20
    63         57
    64         27
    65         14
    66          3
    73          1
    74         10
    75         27
    76         30
    77         48
    78         15
    79          1
    85          1
    86          3
    87          9
    88         18
    89         92
    90         20
    91          4
    98          1
    99          3
   100          9
   101         32
   102         45
   103         30
   104          6
   112          1
   113          1
   114          9
   115          6
   116        999
   117         95
   118          4
   126          3
   127         15
   128         45
   129         55
   130         20
   131          2
   140          1
   141          2
   153          3
   154          4
   155         26
   156        257
   157         31
   158          1