##TITLE=Library Entry 82430
##JCAMP-DX=Revision 4.10 
##DATA TYPE=MASS SPECTRUM
##SAMPLE DESCRIPTION=RADIAN CORP
##NAMES=HP
##CAS NAME=Benzenamine, N-propyl-
##MOLFORM=C9H13N
##CAS REGISTRY NO=622-80-0
##MP= -300
##BP= -300
##MW= 135
##$RETENTION INDEX=0
##$CONDENSED SPECTRUM=NO
##NPOINTS= 54
##XYDATA=(XY..XY) 1 
    15          4
    26          6
    27         46
    28         10
    29         28
    30          9
    37          3
    38         11
    39         60
    40          9
    41         24
    42          6
    43          4
    50         26
    51         83
    52         25
    53          9
    54          5
    56          1
    59          3
    62          6
    63         20
    64         13
    65         56
    66         21
    67          4
    74          9
    75          8
    76         13
    77        225
    78         48
    79        102
    80          9
    89          3
    90          3
    91         22
    92         18
    93         15
    94          3
   103          3
   104         35
   105         16
   106        999
   107         82
   108          3
   117          9
   118         24
   119          7
   120          2
   130          1
   132          5
   134         10
   135        177
   136         20