##TITLE=Library Entry 60604
##JCAMP-DX=Revision 4.10 
##DATA TYPE=MASS SPECTRUM
##SAMPLE DESCRIPTION=Japan AIST/NIMC Database- Spectrum MS-NW-6069
##NAMES=HP
##CAS NAME=Ethanol, 2-(phenylmethoxy)-
##MOLFORM=C9H12O2
##CAS REGISTRY NO=622-08-2
##MP= -300
##BP= -300
##MW= 152
##$RETENTION INDEX=1264
##$CONDENSED SPECTRUM=NO
##NPOINTS= 70
##XYDATA=(XY..XY) 1 
    14          1
    15          7
    17          1
    18          4
    19          2
    26          3
    27         22
    28         15
    29         19
    30          3
    31         36
    32          2
    33          2
    37          2
    38          7
    39         53
    40          4
    41         14
    42          2
    43         11
    44          6
    45         49
    46          2
    49          1
    50         14
    51         40
    52         11
    53          4
    58          1
    59          2
    61          6
    62          7
    63         23
    64          9
    65        104
    66          6
    73          1
    74          3
    75          6
    76          4
    77         44
    78         12
    79         61
    80          5
    86          1
    87          1
    89         28
    90         18
    91        999
    92        244
    93         15
    94          1
   103          1
   104          5
   105         23
   106         14
   107        233
   108         23
   109          2
   119          1
   121          3
   122          1
   123          1
   133          2
   134          1
   149          1
   151         14
   152        143
   153         14
   154          2