##TITLE=Library Entry 67484
##JCAMP-DX=Revision 4.10 
##DATA TYPE=MASS SPECTRUM
##SAMPLE DESCRIPTION=Japan AIST/NIMC Database- Spectrum MS-NW-3582
##NAMES=HP
##CAS NAME=Benzene, (2-chloroethoxy)-
##MOLFORM=C8H9ClO
##CAS REGISTRY NO=622-86-6
##MP= -300
##BP= -300
##MW= 156
##$RETENTION INDEX=1190
##$CONDENSED SPECTRUM=NO
##NPOINTS= 80
##XYDATA=(XY..XY) 1 
    14          2
    15          2
    18          1
    25          1
    26         16
    27        188
    28          5
    29          4
    31          2
    32          1
    35          1
    36          5
    37          9
    38         33
    39        152
    40         26
    41          3
    42          2
    43          5
    44          1
    45          1
    46          1
    47          1
    49          9
    50         33
    51         94
    52          9
    53          7
    54          1
    55         20
    56          1
    57          1
    60          1
    61          7
    62         13
    63        208
    64         24
    65        161
    66        165
    67          9
    68          3
    73          3
    74          9
    75          8
    76          6
    77        252
    78         20
    79         62
    80          4
    85          1
    91         17
    92          7
    93         21
    94        999
    95         68
    96          4
    99          3
   100          3
   101          1
   102          1
   103          2
   107        284
   108         22
   109          2
   111          2
   112          1
   113          1
   119          3
   120          5
   121         14
   122          2
   128         11
   129          1
   130          4
   141          1
   156        360
   157         32
   158        115
   159         11
   160          1