##TITLE=Library Entry 76528
##JCAMP-DX=Revision 4.10 
##DATA TYPE=MASS SPECTRUM
##SAMPLE DESCRIPTION=E.M.EMERY COLGATE-PALMOLIVE CO., PISCATAWAY, N.J., USA
##NAMES=HP
##CAS NAME=Benzaldehyde, oxime, (Z)-
##MOLFORM=C7H7NO
##CAS REGISTRY NO=622-32-2
##MP= -300
##BP= -300
##MW= 121
##$RETENTION INDEX=0
##$CONDENSED SPECTRUM=NO
##NPOINTS= 47
##XYDATA=(XY..XY) 1 
    27         44
    28         57
    29          7
    30         34
    36         10
    37         59
    38         53
    39        101
    40         19
    44          9
    48          6
    49         29
    50        239
    51        241
    52         86
    53         11
    61         16
    62         22
    63         46
    64         20
    65         21
    66         36
    67          9
    73         15
    74         53
    75         84
    76        296
    77        224
    78        153
    79         10
    88          8
    89         12
    91          6
    92          7
    93          8
    94         37
    99         12
   100          5
   102         23
   103        999
   104        292
   105        210
   106         57
   119          6
   120         17
   121        100
   122          8