##TITLE=Library Entry 61246
##JCAMP-DX=Revision 4.10 
##DATA TYPE=MASS SPECTRUM
##SAMPLE DESCRIPTION=Chemical Concepts
##NAMES=HP
##CAS NAME=Benzene, 1,1'-[1,2-ethanediylbis(oxymethylene)]bis-
##MOLFORM=C16H18O2
##CAS REGISTRY NO=622-22-0
##MP= -300
##BP= -300
##MW= 242
##$RETENTION INDEX=0
##$CONDENSED SPECTRUM=NO
##NPOINTS= 89
##XYDATA=(XY..XY) 1 
    26          0
    27          8
    29         15
    30          2
    31          6
    33          1
    34          1
    37          1
    38          3
    39         44
    40          1
    41         16
    42          0
    43          7
    44          3
    45         73
    46          3
    50         10
    51         36
    52         10
    53          3
    55          1
    56          0
    57          1
    58          3
    59          2
    60          0
    61          2
    62          3
    63         19
    64          7
    65        128
    66          7
    67          0
    69          0
    70          0
    71          0
    72          0
    73          5
    74          2
    75          1
    76          5
    77         46
    78         12
    79         97
    80          6
    81          0
    82          1
    83          0
    86          1
    87          1
    88          1
    89         25
    90         18
    91        999
    92        103
    93          6
    95          0
    99          0
   101          0
   102          1
   103          1
   104          4
   105         24
   106         10
   107        407
   108         36
   109          3
   110          0
   117          2
   118          0
   119          2
   120          1
   121          1
   122          0
   123          1
   124          0
   133          1
   137          0
   149          1
   151        394
   152         43
   153          4
   165          2
   166          0
   167          3
   168          0
   178          0
   242          1