##TITLE=Library Entry 82868
##JCAMP-DX=Revision 4.10 
##DATA TYPE=MASS SPECTRUM
##SAMPLE DESCRIPTION=Japan AIST/NIMC Database- Spectrum MS-NW-4183
##NAMES=HP
##CAS NAME=Urea, (4-methylphenyl)-
##MOLFORM=C8H10N2O
##CAS REGISTRY NO=622-51-5
##MP= -300
##BP= -300
##MW= 150
##$RETENTION INDEX=0
##$CONDENSED SPECTRUM=NO
##NPOINTS= 64
##XYDATA=(XY..XY) 1 
    15          3
    16          9
    17          7
    18         13
    26          8
    27         39
    28         33
    29          8
    30         11
    37          4
    38         10
    39         51
    40          8
    41         13
    42          8
    43         35
    44         55
    45          1
    49          2
    50         21
    51         53
    52         43
    53         38
    54         12
    55          1
    61          2
    62          6
    63         19
    64          9
    65         32
    66          9
    67          6
    68          1
    74          3
    75          4
    76          6
    77        142
    78         54
    79        117
    80         33
    81          5
    89         10
    90         10
    91         34
    92          5
    93          1
    94          1
   102          1
   103          1
   104         30
   105         16
   106        999
   107        992
   108         81
   109          3
   121          1
   132         15
   133         25
   134          5
   148          2
   149          4
   150        423
   151         41
   152          3