##TITLE=Library Entry 67428
##JCAMP-DX=Revision 4.10 
##DATA TYPE=MASS SPECTRUM
##SAMPLE DESCRIPTION=Exported from NIST MS Search
##NAMES=HP
##CAS NAME=Benzene, propoxy-
##MOLFORM=C9H12O
##CAS REGISTRY NO=622-85-5
##MP= -300
##BP= -300
##MW= 136
##$RETENTION INDEX=1078
##$CONDENSED SPECTRUM=NO
##NPOINTS= 68
##XYDATA=(XY..XY) 1 
    15          2
    26          2
    27         38
    28          3
    29          5
    30          1
    31          1
    32          1
    37          2
    38          9
    39         58
    40         14
    41         48
    42          3
    43         41
    44          1
    49          1
    50         13
    51         46
    52          4
    53          3
    54          1
    55         11
    56          1
    57          1
    60          1
    61          1
    62          3
    63         12
    64          5
    65         43
    66         59
    67          4
    68          2
    73          1
    74          4
    75          3
    76          4
    77         72
    78          8
    79          8
    80          1
    89          1
    90          1
    91          5
    92          1
    93          7
    94        999
    95         68
    96          4
   103          1
   105          1
   106          1
   107         19
   108          3
   109          1
   115          1
   116          1
   117          1
   119          1
   120          1
   121          2
   133          1
   134          2
   135          2
   136        250
   137         25
   138          2