##TITLE=Library Entry 31756
##JCAMP-DX=Revision 4.10 
##DATA TYPE=MASS SPECTRUM
##SAMPLE DESCRIPTION=Div. of Experiment Therapeutics WRAIR, WRAMC, Washingto
n DC 20307
##NAMES=HP
##CAS NAME=Thiosulfuric acid, S-[2-(2-hydroxy-1-indanylamino)ethyl]ester
##MOLFORM=C11H15NO4S2
##CAS REGISTRY NO=62209-43-2
##MP= -300
##BP= -300
##MW= 289
##$RETENTION INDEX=0
##$CONDENSED SPECTRUM=NO
##NPOINTS= 131
##XYDATA=(XY..XY) 1 
    41         15
    42         20
    43         18
    44         37
    45         41
    46          9
    47         15
    48        433
    50         44
    51         52
    52         18
    53          9
    54          7
    55         28
    56         11
    57          8
    58         32
    59         29
    60         25
    61         57
    62         15
    63         41
    64        999
    65         57
    66         55
    67          8
    68          2
    69         12
    70          5
    71         10
    72          4
    73          8
    74         11
    75         19
    76         23
    77         98
    78         47
    79         41
    80          6
    81          3
    82          3
    84         11
    85          2
    86         46
    87          8
    88         13
    89         43
    90         26
    91         69
    92         12
    93         27
    94          3
    95         15
    99         13
   100          2
   101         11
   102         26
   103        121
   104         80
   105         91
   106         34
   107          3
   108          6
   109          5
   113          3
   114          6
   115        114
   116        164
   117         61
   118         28
   119         10
   120          4
   121          4
   122          2
   127          5
   128         18
   129         18
   130         69
   131         56
   132         59
   133        408
   134         98
   135         19
   136          7
   140          1
   141          1
   142          5
   143         24
   144         32
   145         12
   146         18
   147         18
   148         42
   149         17
   150         13
   152          1
   154          4
   155          3
   156          7
   157          2
   158          3
   159          4
   160          6
   161         11
   162        244
   163         39
   164          4
   171          3
   172          2
   173          1
   174         20
   175          4
   176         12
   177         11
   178          2
   186          3
   187          1
   188         13
   189         73
   190         17
   191         44
   192          8
   193          2
   203          2
   204          1
   208          5
   209          2
   210          5
   215          2
   219          2
   241          3