##TITLE=Library Entry 85991
##JCAMP-DX=Revision 4.10 
##DATA TYPE=MASS SPECTRUM
##SAMPLE DESCRIPTION=Chemical Concepts
##NAMES=HP
##CAS NAME=1,2-Cyclohexanediol, bis(4-methylbenzenesulfonate) trans-
##MOLFORM=C22H28O6S2
##CAS REGISTRY NO=62208-94-0
##MP= -300
##BP= -300
##MW= 452
##$RETENTION INDEX=0
##$CONDENSED SPECTRUM=NO
##NPOINTS= 232
##XYDATA=(XY..XY) 1 
    26          0
    27         13
    28          3
    29         24
    30          0
    31          3
    34          0
    35          0
    36          0
    37          0
    38          1
    39         47
    40          7
    41        110
    42          7
    43         58
    44          2
    45          3
    47          1
    48          0
    49          0
    50          4
    51         14
    52          6
    53         34
    54         51
    55        127
    56          7
    57         16
    58          1
    59          1
    60          0
    61          0
    62          3
    63         21
    64          8
    65        155
    66         26
    67        264
    68         43
    69         19
    70          2
    71          3
    72          0
    73          1
    74          1
    75          2
    76          2
    77         39
    78         19
    79        176
    80         67
    81        158
    82         19
    83         11
    84          1
    85          1
    86          0
    87          1
    88          1
    89         38
    90         67
    91        866
    92        113
    93        176
    94         41
    95        440
    96         62
    97         24
    98          2
    99          0
   100          0
   101          0
   102          0
   103          0
   104          1
   105          9
   106          4
   107        137
   108        457
   109        999
   110         73
   111          5
   112          0
   113          0
   114          0
   115          1
   116          0
   117          0
   118          0
   119          0
   120          2
   121         17
   122          7
   123          3
   124          3
   125        531
   126         43
   127          4
   128          1
   129          1
   130          0
   131          1
   132          0
   133          0
   134          0
   135          0
   136          0
   137          0
   138          0
   139         22
   140          3
   141          1
   142          0
   143          0
   144          0
   145          0
   146          0
   147          0
   148          0
   149          3
   150          0
   151          0
   152          0
   153          0
   154         29
   155        390
   156         35
   157         32
   158          2
   159          1
   160          0
   161          0
   162          0
   163          0
   164          0
   165          2
   166          1
   167          2
   168          0
   169          0
   170          0
   171          5
   172         17
   173         41
   174          5
   175          2
   176          0
   177          0
   178          0
   179          0
   180          0
   181          1
   182          1
   183          0
   184          0
   185          0
   186          0
   187          0
   188          0
   189          0
   190          0
   191          0
   192          0
   193          0
   194          0
   195          0
   196          0
   197          0
   198          0
   199          1
   200          0
   201          0
   202          0
   203          0
   205          0
   207          0
   208          0
   209          0
   210          0
   211          0
   212          0
   213          0
   214          0
   215          0
   216         71
   217         12
   218          1
   219          0
   220          0
   221          0
   222          0
   223          0
   224          0
   225          0
   226          0
   227          0
   234          0
   236          0
   237          0
   256          0
   260          0
   261          0
   262          1
   263          0
   264          0
   265          0
   266          0
   267          0
   268          0
   270          0
   272          0
   273          0
   275          0
   276          0
   278          0
   279          0
   280        151
   281        194
   282         35
   283         10
   284          1
   285          0
   325          0
   326          0
   327          3
   328          0
   329          0
   452         27
   453          7
   454          3
   455          0