##TITLE=Library Entry 23534
##JCAMP-DX=Revision 4.10 
##DATA TYPE=MASS SPECTRUM
##SAMPLE DESCRIPTION=Div. of Experiment Therapeutics WRAIR, WRAMC, Washingto
n DC 20307
##NAMES=HP
##CAS NAME=S-[1-Phenyl-2-[1,1,3,3-tetramethylbutyl]aminoethyl] thiosulfate
##MOLFORM=C16H27NO3S2
##CAS REGISTRY NO=62209-49-8
##MP= -300
##BP= -300
##MW= 345
##$RETENTION INDEX=0
##$CONDENSED SPECTRUM=NO
##NPOINTS= 116
##XYDATA=(XY..XY) 1 
    41        418
    42         51
    43         66
    44          2
    45        131
    46          6
    47          9
    48         66
    49          8
    50         25
    51         52
    52         15
    53         39
    54          9
    55        338
    56        173
    57        999
    58        228
    59         25
    60          1
    61          3
    62          8
    63         22
    64        163
    65         30
    66         14
    67         18
    68          6
    69         82
    70         33
    71         14
    72          6
    73          3
    74          7
    75          4
    76          5
    77         67
    78         32
    79         19
    81         60
    82          4
    83          4
    84          9
    85          2
    86          4
    87          1
    89         16
    90          9
    91         86
    92          9
    93          6
    94          0
    95          4
    96          4
    97        181
    98         14
    99          1
   102          9
   103         41
   104         51
   105          9
   106          4
   107          1
   108          2
   109          4
   110          2
   111          0
   112        104
   113         17
   114          9
   115          2
   116          1
   117         10
   118         19
   119         13
   120         40
   121         35
   122         10
   123         23
   124          4
   125          2
   126          3
   128          3
   130          3
   131          2
   132          2
   133          0
   134          9
   135         35
   136         24
   137         32
   138          4
   139          1
   140          4
   142        123
   143         12
   144          1
   147          1
   149          2
   151          1
   152          2
   153         12
   154          5
   155          1
   160         17
   161          5
   162          5
   163          1
   164         11
   165          1
   194         31
   195          4
   196          2
   250          3
   251          0
   253          1