##TITLE=Library Entry 31811
##JCAMP-DX=Revision 4.10 
##DATA TYPE=MASS SPECTRUM
##SAMPLE DESCRIPTION=Div. of Experiment Therapeutics WRAIR, WRAMC, Washingto
n DC 20307
##NAMES=HP
##CAS NAME=Thiosulfuric acid (H2S2o3), S-[2-[[2-(diethoxyphosphinyl)ethyl]am
ino]ethyl] ester
##MOLFORM=C8H20NO6PS2
##CAS REGISTRY NO=62209-41-0
##MP= -300
##BP= -300
##MW= 321
##$RETENTION INDEX=0
##$CONDENSED SPECTRUM=NO
##NPOINTS= 188
##XYDATA=(XY..XY) 1 
    41         65
    42        143
    43        225
    44        264
    45        569
    46        220
    47        121
    48        400
    49         13
    50         20
    51          2
    52          2
    53          6
    54         22
    55         36
    56        258
    57        102
    58        199
    59        110
    60         94
    61        131
    62         52
    64        999
    65        104
    66         70
    67          8
    68         29
    69         59
    70        101
    71         70
    72         31
    73         13
    74         18
    75         36
    76         49
    77         14
    78         25
    79         36
    80         79
    81        122
    82         83
    83         46
    84         38
    85         19
    86         34
    87         21
    88         70
    89         66
    90         32
    91        108
    92         77
    93         51
    94         33
    95         13
    96         49
    97        121
    98         41
    99         42
   100          5
   101         23
   102         29
   103         22
   104         20
   105         15
   106         51
   107          8
   108         72
   109        235
   110         32
   111         77
   112          9
   113          5
   114         12
   115          4
   116         28
   117          4
   118         11
   119         15
   120        185
   121         16
   122         34
   123         14
   124         46
   125         88
   126         21
   127         29
   128         12
   129         11
   130          8
   131          4
   132          5
   133          6
   134         43
   135         14
   136         36
   137         87
   138        354
   139         64
   140         10
   141          3
   142          2
   144          6
   145          1
   146          5
   147          2
   148         77
   149          9
   150         18
   151          3
   152         85
   153         11
   154         14
   155          9
   156          7
   157          2
   158         10
   160          8
   162         12
   163          5
   164          8
   165         50
   166        257
   167         20
   168          9
   169          2
   170          2
   171          1
   172          1
   176          5
   178          6
   179          6
   180         72
   181         29
   182         23
   183          5
   184          5
   185          2
   186          4
   188          2
   190          3
   191          5
   192         15
   194        916
   195         70
   196         27
   197          1
   199          5
   206         12
   207        179
   208        203
   209         24
   210         11
   212          7
   218          1
   220          6
   221          1
   222        139
   223         17
   224         10
   226          4
   228          2
   234          4
   235          9
   236         44
   237          8
   238          7
   240         58
   241         11
   242         68
   243          9
   244          3
   250          7
   252          2
   254          4
   256          4
   263          7
   264          4
   265         14
   266          3
   267          2
   270          0
   271          0
   272          0
   273          3
   274         13
   275         15
   276          2
   321          6