##TITLE=Library Entry 32971
##JCAMP-DX=Revision 4.10 
##DATA TYPE=MASS SPECTRUM
##SAMPLE DESCRIPTION=Exported from NIST MS Search
##NAMES=HP
##CAS NAME=Bicyclo[3.2.1]octane
##MOLFORM=C8H14
##CAS REGISTRY NO=6221-55-2
##MP= -300
##BP= -300
##MW= 110
##$RETENTION INDEX=875
##$CONDENSED SPECTRUM=NO
##NPOINTS= 63
##XYDATA=(XY..XY) 1 
    25          1
    26         46
    27        381
    28        161
    29        137
    30          4
    31         15
    32          5
    36          1
    37         10
    38         33
    39        484
    40         81
    41        544
    42         48
    43         17
    44          3
    45          3
    49          2
    50         31
    51         70
    52         38
    53        157
    54        441
    55        153
    56         41
    57          3
    58          1
    61          4
    62          6
    63         17
    64          5
    65         50
    66         78
    67        999
    68        232
    69        106
    70          7
    74          3
    75          4
    76          3
    77         52
    78         18
    79         76
    80         60
    81        682
    82        853
    83         59
    84          3
    91         13
    92          2
    93          6
    94          3
    95        135
    96         11
   105          2
   106          1
   107          2
   108          2
   109         11
   110        388
   111         37
   112          2