##TITLE=Library Entry 86552
##JCAMP-DX=Revision 4.10 
##DATA TYPE=MASS SPECTRUM
##SAMPLE DESCRIPTION=A.A.Kutin, Moscow, Russia
##NAMES=HP
##CAS NAME=1-Methoxyadamantane
##MOLFORM=C11H18O
##CAS REGISTRY NO=6221-74-5
##MP= -300
##BP= -300
##MW= 166
##$RETENTION INDEX=1178
##$CONDENSED SPECTRUM=NO
##NPOINTS= 79
##XYDATA=(XY..XY) 1 
    33          9
    34          8
    35          1
    36         21
    38         12
    39        104
    40         17
    41        145
    42         34
    43         60
    44         59
    45         29
    50          5
    51         18
    52         10
    53         41
    54         12
    55         55
    56         12
    57         35
    58          3
    59          3
    63          5
    64          2
    65         28
    66         13
    67         47
    68         12
    69         22
    70          8
    71         15
    72         15
    73         32
    74          0
    77         74
    78         19
    79         98
    80         17
    81         29
    82         11
    83         11
    84          5
    85          7
    91         54
    92         18
    93         51
    94         77
    95         36
    96         12
    97         16
    98          4
   103          2
   104          5
   105         10
   106          0
   107         18
   109        999
   110         84
   111          9
   112          3
   117          0
   119          1
   121          2
   123         38
   124          5
   125         11
   127          1
   131          0
   134          6
   135         61
   136         10
   139          1
   149          7
   151          1
   152          2
   164          2
   166        233
   167         29
   168          0