##TITLE=Library Entry 58305
##JCAMP-DX=Revision 4.10 
##DATA TYPE=MASS SPECTRUM
##SAMPLE DESCRIPTION=V.G.Zaikin, Petrochem. Synth. Inst., Moscow
##NAMES=HP
##CAS NAME=Butyric acid, tetradecyl ester
##MOLFORM=C18H36O2
##CAS REGISTRY NO=6221-98-3
##MP= -300
##BP= -300
##MW= 284
##$RETENTION INDEX=1985
##$CONDENSED SPECTRUM=NO
##NPOINTS= 76
##XYDATA=(XY..XY) 1 
    26         11
    27        148
    28         49
    29        205
    30          9
    31         11
    36          5
    38          9
    39         76
    40         18
    41        462
    42        166
    43        915
    44         42
    45         13
    51          5
    53         28
    54         71
    55        461
    56        319
    57        459
    58         29
    60         49
    61         13
    66          7
    67         75
    68        127
    69        383
    70        315
    71        899
    72         45
    73         22
    75          4
    79          5
    81         45
    82        143
    83        391
    84        208
    85        125
    86         21
    87         12
    88        112
    89        999
    90         49
    91          5
    95         11
    96         61
    97        278
    98        131
    99         35
   101         12
   102          1
   109          4
   110         29
   111        147
   112         78
   113         15
   115          8
   124         14
   125         55
   126         61
   127          8
   129          6
   138          6
   139         27
   140         29
   144         39
   145          3
   153         11
   154         16
   167          5
   168         68
   169          8
   196         79
   197         16
   241         19