##TITLE=Library Entry 34259
##JCAMP-DX=Revision 4.10 
##DATA TYPE=MASS SPECTRUM
##SAMPLE DESCRIPTION=V.I. COHEN, 38 MODABER AVE., TEHRAN, IRA
##NAMES=HP
##CAS NAME=Diselenide, dicyclopentyl-
##MOLFORM=C10H18Se2
##CAS REGISTRY NO=62212-26-4
##MP= -300
##BP= -300
##MW= 298
##$RETENTION INDEX=0
##$CONDENSED SPECTRUM=NO
##NPOINTS= 29
##XYDATA=(XY..XY) 1 
    39        110
    40         30
    41        460
    42         30
    53         40
    55         40
    65         30
    67        250
    68         70
    69        999
    70         60
    83         50
   147         30
   149         50
   156         30
   158         50
   160         60
   162         40
   224         20
   226         50
   227         30
   228         80
   230         90
   232         30
   294         30
   295         20
   296         50
   298         60
   300         20