##TITLE=Library Entry 58306
##JCAMP-DX=Revision 4.10 
##DATA TYPE=MASS SPECTRUM
##SAMPLE DESCRIPTION=V.G.Zaikin, Petrochem. Synth. Inst., Moscow
##NAMES=HP
##CAS NAME=Butyric acid, hexadecyl ester
##MOLFORM=C20H40O2
##CAS REGISTRY NO=6221-99-4
##MP= -300
##BP= -300
##MW= 312
##$RETENTION INDEX=2165
##$CONDENSED SPECTRUM=NO
##NPOINTS= 76
##XYDATA=(XY..XY) 1 
    26         14
    27        112
    28         39
    29        178
    31          9
    39         68
    40         16
    41        422
    42        129
    43        845
    44         31
    45          6
    51          4
    53         19
    54         69
    55        449
    56        262
    57        461
    58         29
    60         44
    61         13
    66          6
    67         76
    68        111
    69        348
    70        249
    71        763
    72         39
    73         19
    81         39
    82        151
    83        366
    84        178
    85        145
    86         18
    87         13
    88        119
    89        999
    90         48
    91          5
    95         18
    96         69
    97        286
    98        103
    99         35
   101          9
   109          8
   110         24
   111        132
   112         68
   113         15
   124         13
   125         71
   126         51
   127          9
   129          5
   138          9
   139         29
   140         31
   141          7
   144         35
   145          4
   151          4
   152         11
   153         19
   154          4
   167          9
   168         19
   169          3
   182          8
   196         45
   197          9
   224         53
   225         11
   269         12
   270          2