##TITLE=Library Entry 26118
##JCAMP-DX=Revision 4.10 
##DATA TYPE=MASS SPECTRUM
##SAMPLE DESCRIPTION=R. HERZSCHUH, SECT. CHEM., KARL-MARX UNIV., LEIPZIG, GD
R
##NAMES=HP
##CAS NAME=trans-4-tert-butylcycloheptanol
##MOLFORM=C11H22O
##CAS REGISTRY NO=6221-53-0
##MP= -300
##BP= -300
##MW= 170
##$RETENTION INDEX=0
##$CONDENSED SPECTRUM=NO
##NPOINTS= 14
##XYDATA=(XY..XY) 1 
    57        999
    67        400
    81        430
    95        720
    96        290
   109         85
   113        280
   124         14
   141         14
   152         64
   153         22
   155         23
   168          9
   170          2