##TITLE=Library Entry 72284
##JCAMP-DX=Revision 4.10 
##DATA TYPE=MASS SPECTRUM
##SAMPLE DESCRIPTION=Chemical Concepts
##NAMES=HP
##CAS NAME=2-Butenoic acid, 4-[(tetrahydro-2H-pyran-2-yl)oxy]-, methyl ester
, (Z)-
##MOLFORM=C10H16O4
##CAS REGISTRY NO=62222-75-7
##MP= -300
##BP= -300
##MW= 200
##$RETENTION INDEX=0
##$CONDENSED SPECTRUM=NO
##NPOINTS= 78
##XYDATA=(XY..XY) 1 
    25          0
    26         56
    27        253
    28         11
    29        146
    30         14
    31        109
    33          7
    35          0
    36          1
    37          9
    38         23
    39        201
    40         69
    41        397
    42         47
    43        180
    44         13
    45         23
    46          0
    47          1
    48          0
    49          1
    50          7
    51          9
    52          5
    53         37
    54         53
    55        324
    56         87
    57        172
    58         10
    59         57
    60          1
    61          9
    62          2
    63          1
    65          4
    66          3
    67        122
    68         93
    69         55
    70          4
    71         98
    72          7
    73          7
    74          0
    77          0
    78          0
    79          1
    80          0
    81          4
    82          3
    83         76
    84        157
    85        686
    86         42
    87         70
    88          5
    95          1
    97          0
    98         13
    99        999
   100         90
   101         71
   102          4
   110          0
   111          1
   113          3
   114          1
   115          3
   116        184
   117         13
   118          1
   127          2
   142          2
   163          0
   168          0