##TITLE=Library Entry 25726
##JCAMP-DX=Revision 4.10 
##DATA TYPE=MASS SPECTRUM
##SAMPLE DESCRIPTION=V.Zaikin,Topchiev Inst.Petrochem.Synth.,Moscow
##NAMES=HP
##CAS NAME=Dichloroacetic acid, 2-butyl ester
##MOLFORM=C6H10Cl2O2
##CAS REGISTRY NO=62223-12-5
##MP= -300
##BP= -300
##MW= 184
##$RETENTION INDEX=1015
##$CONDENSED SPECTRUM=NO
##NPOINTS= 89
##XYDATA=(XY..XY) 1 
    22          1
    25          3
    26         37
    27        165
    28          6
    29        449
    30          9
    31          8
    35         21
    36        115
    37          6
    38         38
    39        116
    40         15
    41        417
    42         23
    43        120
    44         84
    45         56
    47         24
    48         75
    49         27
    50         53
    51         42
    52         89
    53         21
    54          5
    55         52
    56        118
    57        999
    58         40
    59         58
    60          3
    61          5
    62          1
    63         37
    64          1
    65         14
    67          2
    69          2
    72          1
    73         34
    75          4
    76        120
    77         45
    78         39
    79        164
    80          7
    82          7
    83        549
    84         11
    85        361
    86          4
    87         54
    91          2
    93          2
    94          3
    95          5
    96          2
    97          2
   110          8
   111        112
   112          8
   113         71
   115         10
   121          1
   125          2
   127        142
   128          4
   129         88
   130          2
   131         19
   133          5
   141          6
   143          5
   149          2
   154          5
   155        304
   156         14
   157        194
   158          6
   159         32
   160          1
   161          2
   169         55
   170          1
   171         39
   172          2
   173          4