##TITLE=Library Entry 24724
##JCAMP-DX=Revision 4.10 
##DATA TYPE=MASS SPECTRUM
##SAMPLE DESCRIPTION=NIST Mass Spectrometry Data Center
##NAMES=HP
##CAS NAME=Pentafluoropropionic acid, hexadecyl ester
##MOLFORM=C19H33F5O2
##CAS REGISTRY NO=6222-07-7
##MP= -300
##BP= -300
##MW= 388
##$RETENTION INDEX=1818
##$CONDENSED SPECTRUM=NO
##NPOINTS= 115
##XYDATA=(XY..XY) 1 
    15          1
    26          2
    27         42
    29        130
    30          4
    31          2
    33          2
    37          1
    39         60
    41        532
    42        147
    43        808
    44         31
    47          2
    50          3
    51          4
    52          2
    53         41
    54         95
    55        863
    56        373
    57        999
    58         46
    59          2
    61          1
    65          8
    66         12
    67        125
    68        153
    69        694
    70        345
    71        492
    72         27
    77          5
    78          3
    79         15
    80          6
    81         83
    82        331
    83        705
    84        271
    85        317
    86         21
    87          1
    91          2
    93          4
    94          2
    95         44
    96        161
    97        725
    98        197
    99         80
   100         18
   101          1
   108          1
   109         19
   110         79
   111        443
   112        143
   113         45
   114          3
   117          1
   119        167
   120          3
   122          1
   123          9
   124         48
   125        212
   126         95
   127         28
   128          5
   137          5
   138         30
   139         68
   140         65
   141         18
   142          2
   147         22
   148          1
   149          6
   151          1
   152         16
   153         27
   154         35
   155         12
   156          1
   163          1
   165          3
   166          9
   167         14
   168         20
   169          5
   170          1
   177          2
   180          4
   181          7
   182          8
   183          2
   188          1
   194          3
   195          4
   196         38
   197          6
   202          1
   205          1
   221          1
   222          2
   224         44
   225          8
   226          1
   251          2
   269         18
   270          4
   370          8
   371          2