##TITLE=Library Entry 22264
##JCAMP-DX=Revision 4.10 
##DATA TYPE=MASS SPECTRUM
##SAMPLE DESCRIPTION=Div. of Experiment Therapeutics WRAIR, WRAMC, Washingto
n DC 20307
##NAMES=HP
##CAS NAME=2-[3-Cyclohexylaminopropylamino]ethylthiophosphate
##MOLFORM=C11H25N2O3PS
##CAS REGISTRY NO=62220-14-8
##MP= -300
##BP= -300
##MW= 296
##$RETENTION INDEX=0
##$CONDENSED SPECTRUM=NO
##NPOINTS= 158
##XYDATA=(XY..XY) 1 
    41        629
    42        339
    43        416
    44        989
    45        146
    46         40
    47         60
    48         18
    49         12
    50         30
    51         23
    52         17
    53         76
    54        125
    55        462
    56        999
    57        361
    58        509
    59         99
    60         98
    61        134
    62         13
    63        199
    64         39
    65         23
    66         15
    67         77
    68        147
    69         72
    70        859
    71        104
    72        120
    73         58
    74         11
    75          9
    76         12
    77         31
    78         13
    79         44
    80         31
    81         87
    82        136
    83        154
    84        228
    85         64
    86         28
    87         45
    88        147
    89         14
    90        116
    91         13
    92         11
    93         10
    94         24
    95         12
    96        159
    97         40
    98        496
    99        100
   100         86
   101         33
   102         36
   103         12
   104         68
   105          8
   106          9
   107          4
   108         11
   109         15
   110        103
   111         56
   112        379
   113        116
   114         41
   115         13
   116         28
   117         17
   118         13
   119          5
   120          5
   121          4
   122          7
   123         32
   124        109
   125         18
   126        129
   127         22
   128         15
   129          7
   130         14
   131          5
   132          5
   133          7
   134          5
   135          7
   136         15
   137          7
   138         43
   139         88
   140         35
   141         14
   142          9
   143          5
   144          6
   145          5
   146          3
   147         10
   148          4
   149          7
   150          7
   151          7
   152          4
   153          6
   154          7
   155         13
   156         15
   157         50
   158          9
   159          4
   160          1
   161          4
   162          4
   163          3
   164          7
   165          4
   166         14
   167         11
   168          6
   169         45
   170          9
   171          4
   172          2
   173          4
   174          2
   175          2
   176          2
   178          2
   179          2
   180          3
   181          5
   183        102
   184         13
   185          4
   190          1
   192          1
   193          2
   194          2
   195          3
   196          0
   197          2
   208          1
   209          2
   212          0
   215          2
   216          2
   217         25
   218          3
   296          1