##TITLE=Library Entry 25711
##JCAMP-DX=Revision 4.10 
##DATA TYPE=MASS SPECTRUM
##SAMPLE DESCRIPTION=Japan AIST/NIMC Database- Spectrum MS-NW-3644
##NAMES=HP
##CAS NAME=Cyclohexyl propionate
##MOLFORM=C9H16O2
##CAS REGISTRY NO=6222-35-1
##MP= -300
##BP= -300
##MW= 156
##$RETENTION INDEX=1116
##$CONDENSED SPECTRUM=NO
##NPOINTS= 63
##XYDATA=(XY..XY) 1 
    14          1
    15          9
    17          1
    18          3
    26         14
    27        132
    28         34
    29        404
    30         10
    31          7
    37          1
    38          4
    39         81
    40         12
    41        189
    42         27
    43         27
    44         17
    45          5
    50          4
    51          9
    52          5
    53         25
    54        152
    55        255
    56         31
    57        999
    58         39
    59          3
    63          1
    65          6
    66          8
    67        441
    68         25
    69          4
    70          4
    71          6
    72         49
    73         11
    74         24
    75        225
    76          9
    77          7
    78          2
    79         10
    80          4
    81        102
    82        603
    83        261
    84         18
    85          9
    86          2
    91          1
    97          2
    98          3
    99         37
   100         10
   101          1
   109          3
   113         21
   114          2
   127         18
   128          2