##TITLE=Library Entry 24723
##JCAMP-DX=Revision 4.10 
##DATA TYPE=MASS SPECTRUM
##SAMPLE DESCRIPTION=NIST Mass Spectrometry Data Center
##NAMES=HP
##CAS NAME=Pentafluoropropionic acid, tetradecyl ester
##MOLFORM=C17H29F5O2
##CAS REGISTRY NO=6222-06-6
##MP= -300
##BP= -300
##MW= 360
##$RETENTION INDEX=1630
##$CONDENSED SPECTRUM=NO
##NPOINTS= 114
##XYDATA=(XY..XY) 1 
    15          1
    26          4
    27         62
    28         20
    29        175
    30          5
    33          2
    37          1
    39         91
    40         25
    41        662
    42        177
    43        885
    44         26
    47          3
    50          3
    51          5
    52          3
    53         57
    54        109
    55        996
    56        434
    57        999
    58         45
    59          3
    61          2
    63          1
    65         11
    66         14
    67        163
    68        198
    69        874
    70        470
    71        515
    72         28
    77          8
    78          4
    79         20
    80          7
    81         94
    82        389
    83        834
    84        362
    85        317
    86         21
    87          1
    89          1
    91          3
    93          4
    94          2
    95         42
    96        170
    97        764
    98        244
    99         72
   100         23
   101          1
   103          1
   107          1
   108          1
   109         16
   110         80
   111        433
   112        172
   113         41
   114          3
   117          2
   119        266
   120          6
   122          1
   123          5
   124         43
   125        189
   126        100
   127         26
   128          7
   137          2
   138         23
   139         56
   140         56
   141         15
   142          1
   145          1
   147         36
   148          1
   149         10
   152         10
   153         23
   154         24
   155          6
   156          1
   163          1
   165          4
   166          5
   167         10
   168         78
   169         11
   170          1
   177          4
   188          1
   191          1
   193          1
   194          2
   196         79
   197         12
   198          1
   202          1
   205          2
   223          2
   241         23
   242          4
   243          1
   342          6
   343          1