##TITLE=Library Entry 24127
##JCAMP-DX=Revision 4.10 
##DATA TYPE=MASS SPECTRUM
##SAMPLE DESCRIPTION=NIST Mass Spectrometry Data Center
##NAMES=HP
##CAS NAME=Trifluoroacetoxy hexadecane
##MOLFORM=C18H33F3O2
##CAS REGISTRY NO=6222-03-3
##MP= -300
##BP= -300
##MW= 338
##$RETENTION INDEX=1813
##$CONDENSED SPECTRUM=NO
##NPOINTS= 113
##XYDATA=(XY..XY) 1 
    15          1
    26          3
    27         57
    28         21
    29        176
    30          5
    31          2
    33          2
    37          1
    38          2
    39         71
    40         19
    41        623
    42        168
    43        957
    44         37
    45          4
    47          4
    50          5
    51          6
    52          2
    53         42
    54         97
    55        876
    56        390
    57        999
    58         45
    59          3
    61          2
    65          7
    66         11
    67        115
    68        146
    69        734
    70        340
    71        438
    72         24
    73          1
    77          5
    78          3
    79         13
    80          5
    81         73
    82        293
    83        664
    84        251
    85        255
    86         17
    87          2
    91          2
    93          2
    94          2
    95         38
    96        141
    97        679
    98        174
    99         76
   100          4
   101          1
   107          1
   108          1
   109         15
   110         66
   111        394
   112        120
   113         29
   114          2
   115          2
   122          1
   123          8
   124         38
   125        177
   126         76
   127         19
   128          2
   137          4
   138         25
   139         52
   140         51
   141         12
   142          1
   151          1
   152         18
   153         20
   154         27
   155          8
   156          1
   165          1
   166          7
   167          9
   168         15
   169          3
   170          1
   179          1
   180          4
   181          5
   182          6
   183          1
   194          2
   195          2
   196         29
   197          4
   221          1
   222          3
   223          1
   224         24
   225          5
   251          2
   269         29
   270          6
   271          1
   320          6
   321          1