##TITLE=Library Entry 15324
##JCAMP-DX=Revision 4.10 
##DATA TYPE=MASS SPECTRUM
##SAMPLE DESCRIPTION=Div. of Experiment Therapeutics WRAIR, WRAMC, Washingto
n DC 20307
##NAMES=HP
##CAS NAME=Thiosulfuric acid (H2S2o3), S-[2-[[6-[[(octadecylamino)carbonyl]a
mino]hexyl]amino]ethyl] ester
##MOLFORM=C27H57N3O4S2
##CAS REGISTRY NO=62228-37-9
##MP= -300
##BP= -300
##MW= 551
##$RETENTION INDEX=0
##$CONDENSED SPECTRUM=NO
##NPOINTS= 107
##XYDATA=(XY..XY) 1 
    41        712
    42        191
    43        930
    44        999
    45        284
    46         20
    47          2
    48        242
    50         11
    53         31
    54         56
    55        554
    56        276
    57        418
    58         78
    59        118
    60        117
    61         23
    62          4
    64        462
    65         14
    66         26
    67         56
    68         62
    69        265
    70        116
    71        124
    72         69
    73         44
    74          6
    77          1
    79          8
    80          5
    81         34
    82         48
    83        114
    84         64
    85         99
    86        130
    87         35
    88         12
    90          8
    95         14
    96         31
    97         84
    98        169
    99        541
   100        113
   101         22
   102         11
   109          7
   110         14
   111         26
   112        239
   113        183
   114         57
   115         11
   116          6
   123          3
   124         11
   125         17
   126         93
   127         46
   128         26
   129         20
   130          6
   138          6
   139          1
   140         29
   141         13
   142         27
   143         14
   154         18
   155         43
   156         26
   157         15
   168         12
   169         12
   170         15
   177          4
   182          9
   183          5
   184         14
   196          9
   197          1
   198         13
   210         10
   211          6
   212         13
   224         13
   225          6
   226         11
   238         11
   239          6
   240         11
   252         12
   254          8
   266          9
   268         17
   269         34
   270         56
   271         10
   280         12
   294          8
   295         13
   296          3
   424          9