##TITLE=Library Entry 29704
##JCAMP-DX=Revision 4.10 
##DATA TYPE=MASS SPECTRUM
##SAMPLE DESCRIPTION=Chemical Concepts
##NAMES=HP
##CAS NAME=6-Nitrohexan-2-ol
##MOLFORM=C6H13NO3
##CAS REGISTRY NO=62224-53-7
##MP= -300
##BP= -300
##MW= 147
##$RETENTION INDEX=0
##$CONDENSED SPECTRUM=NO
##NPOINTS= 77
##XYDATA=(XY..XY) 1 
    26          7
    27         66
    29         60
    30         32
    31        175
    33          0
    37          1
    38          5
    39         84
    40         17
    41        239
    42         40
    43        874
    44         26
    45         71
    46         12
    48          1
    50          2
    51          6
    52          2
    53         17
    54          6
    55        141
    56         24
    57         36
    59        999
    60        150
    61          7
    62          3
    63          1
    65          5
    66          1
    67         21
    68          7
    69         23
    70         12
    71         40
    72         22
    73          5
    74          2
    77          2
    78          1
    79          3
    80          2
    81         12
    82          5
    83         64
    84         13
    85        232
    86         15
    87          1
    88          1
    89          3
    91          2
    93          2
    95          3
    96          2
    97          4
    98          5
    99         24
   100          2
   101          6
   102          1
   104          0
   105          1
   107          1
   109          2
   113          1
   114          0
   115          5
   119          1
   120          0
   121          1
   123          1
   130          2
   132         10
   133          2