##TITLE=Library Entry 20184
##JCAMP-DX=Revision 4.10 
##DATA TYPE=MASS SPECTRUM
##SAMPLE DESCRIPTION=NIST Mass Spectrometry Data Center
##NAMES=HP
##CAS NAME=Pentafluoropropionic acid, dodecyl ester
##MOLFORM=C15H25F5O2
##CAS REGISTRY NO=6222-04-4
##MP= -300
##BP= -300
##MW= 332
##$RETENTION INDEX=1442
##$CONDENSED SPECTRUM=NO
##NPOINTS= 101
##XYDATA=(XY..XY) 1 
    15          1
    26          4
    27         76
    28         25
    29        191
    30          6
    33          3
    37          1
    39        109
    40         28
    41        681
    42        190
    43        847
    44         23
    47          3
    50          4
    51          7
    52          4
    53         62
    54        108
    55        999
    56        509
    57        879
    58         38
    59          3
    61          2
    63          1
    65         12
    66         13
    67        155
    68        211
    69        888
    70        539
    71        393
    72         20
    77          8
    78          5
    79         18
    80          6
    81         75
    82        366
    83        759
    84        410
    85        253
    86         16
    87          1
    89          1
    91          3
    93          4
    94          1
    95         25
    96        144
    97        611
    98        258
    99         58
   100         26
   101          1
   109          9
   110         59
   111        349
   112        145
   113         31
   114          2
   117          2
   119        332
   120          7
   121          1
   123          2
   124         22
   125        139
   126         65
   127         13
   128          7
   137          1
   138         10
   139         34
   140        128
   141         14
   142          1
   145          1
   147         48
   148          2
   149         13
   153          1
   163          1
   165          5
   166          3
   168         96
   169         13
   170          1
   177          6
   188          1
   191          1
   195          3
   202          1
   203          1
   205          2
   213         22
   214          3
   243          1
   314          3