##TITLE=Library Entry 9572
##JCAMP-DX=Revision 4.10 
##DATA TYPE=MASS SPECTRUM
##SAMPLE DESCRIPTION=Japan AIST/NIMC Database- Spectrum MS-IW-6137
##NAMES=HP
##CAS NAME=Hexylene glycol diacetate
##MOLFORM=C10H18O4
##CAS REGISTRY NO=6222-17-9
##MP= -300
##BP= -300
##MW= 202
##$RETENTION INDEX=0
##$CONDENSED SPECTRUM=NO
##NPOINTS= 79
##XYDATA=(XY..XY) 1 
    14          2
    15         30
    26          1
    27         18
    28         22
    29         25
    30          1
    31         10
    32          1
    39         23
    40          6
    41        111
    42         90
    43        999
    44         44
    45          9
    51          1
    53         11
    54        578
    55        229
    56         23
    57         33
    58         31
    59          5
    60          5
    61        367
    62          8
    63          1
    65          2
    66          6
    67        504
    68         48
    69         38
    70         36
    71         88
    72         18
    73         97
    74          4
    77          1
    79         10
    80         15
    81        123
    82        869
    83        115
    84         84
    85         21
    86         22
    87         13
    88          2
    91          2
    94         11
    95          5
    96          2
    97         17
    98         11
    99        128
   100         42
   101         29
   102          2
   103         19
   104          1
   109          1
   111          2
   112         76
   113          8
   114         18
   115         42
   116          4
   117          2
   124          3
   127          4
   129          1
   130          2
   142          8
   143          5
   159          7
   162          1
   202         13
   203          1