##TITLE=Library Entry 19949
##JCAMP-DX=Revision 4.10 
##DATA TYPE=MASS SPECTRUM
##SAMPLE DESCRIPTION=NIST Mass Spectrometry Data Center
##NAMES=HP
##CAS NAME=Tetradecyl trifluoroacetate
##MOLFORM=C16H29F3O2
##CAS REGISTRY NO=6222-02-2
##MP= -300
##BP= -300
##MW= 310
##$RETENTION INDEX=1620
##$CONDENSED SPECTRUM=NO
##NPOINTS= 105
##XYDATA=(XY..XY) 1 
    15          1
    26          3
    27         61
    28         13
    29        169
    30          5
    33          2
    37          1
    38          2
    39         89
    40         23
    41        653
    42        173
    43        858
    45          3
    50          2
    51          7
    52          3
    53         57
    54        110
    55        999
    56        444
    57        965
    58         44
    59          4
    61          2
    63          1
    65         11
    66         14
    67        152
    68        190
    69        960
    70        471
    71        445
    72         24
    73          1
    77          7
    78          6
    79         17
    80          7
    81         90
    82        363
    83        825
    84        360
    85        255
    86         17
    87          2
    91          3
    93          3
    94          2
    95         41
    96        157
    97        768
    98        239
    99         92
   100          3
   101          1
   107          1
   108          1
   109         12
   110         74
   111        415
   112        164
   113         29
   114          2
   115          4
   122          1
   123          5
   124         38
   125        172
   126         93
   127         22
   128          1
   137          3
   138         23
   139         48
   140         50
   141         11
   151          1
   152         15
   153         19
   154         20
   155          6
   156          1
   165          1
   166          5
   167          8
   168         66
   169          9
   170          2
   179          1
   180          1
   181          1
   193          3
   194          4
   196         47
   197          7
   198          1
   207          1
   223          2
   241         36
   242          6
   243          1
   292          5
   293          1