##TITLE=Library Entry 34955
##JCAMP-DX=Revision 4.10 
##DATA TYPE=MASS SPECTRUM
##SAMPLE DESCRIPTION=D.HENNEBERG, MAX-PLANCK INSTITUTE, MULHEIM, WEST GERMAN
Y
##NAMES=HP
##CAS NAME=Cyclopropane, 1,2-dimethyl-1-pentyl-
##MOLFORM=C10H20
##CAS REGISTRY NO=62238-04-4
##MP= -300
##BP= -300
##MW= 140
##$RETENTION INDEX=937
##$CONDENSED SPECTRUM=NO
##NPOINTS= 53
##XYDATA=(XY..XY) 1 
    21          0
    24          4
    25          1
    26          7
    27        131
    29        170
    30          3
    31          1
    35          0
    37          4
    38          3
    39        129
    40         24
    41        625
    42        106
    43        183
    44          1
    50          3
    51         11
    52          3
    53         50
    54         21
    55        710
    56        649
    57         66
    63          1
    65         10
    66          5
    67         62
    68         68
    69        999
    70        377
    71         30
    75          0
    77          3
    79          5
    80          0
    81         11
    82          5
    83         93
    84        273
    85         85
    86          4
    95          0
    96         25
    97        101
    98         37
    99          1
   111          2
   112          9
   125          1
   140         38
   141          2