##TITLE=Library Entry 24885
##JCAMP-DX=Revision 4.10 
##DATA TYPE=MASS SPECTRUM
##SAMPLE DESCRIPTION=D.HENNEBERG, MAX-PLANCK INSTITUTE, MULHEIM, WEST GERMAN
Y
##NAMES=HP
##CAS NAME=Decane, 2,2,7-trimethyl-
##MOLFORM=C13H28
##CAS REGISTRY NO=62237-99-4
##MP= -300
##BP= -300
##MW= 184
##$RETENTION INDEX=0
##$CONDENSED SPECTRUM=NO
##NPOINTS= 49
##XYDATA=(XY..XY) 1 
    25          0
    26          2
    27         35
    28         14
    29         79
    30          1
    33          3
    37          0
    38          0
    39         24
    40          3
    41        149
    42         19
    43        223
    51          0
    52          0
    53          6
    54          4
    55         53
    56        479
    57        999
    58         41
    65          0
    67          3
    68          1
    69         21
    70         13
    71        132
    72          6
    77          0
    78          0
    81          0
    82          1
    83          4
    84         12
    85         68
    86          5
    95          0
    97          2
    98          0
    99         21
   100          0
   113          9
   114          0
   126         25
   127         29
   128          1
   169         13
   170          0