##TITLE=Library Entry 84510
##JCAMP-DX=Revision 4.10 
##DATA TYPE=MASS SPECTRUM
##SAMPLE DESCRIPTION=R.D. Bowen, Dep. Chem., Univ. Warwick, Coventry, UK
##NAMES=HP
##CAS NAME=2H-1-Benzopyran-3(4H)-one, 2-phenyl-, oxime
##MOLFORM=C15H13NO2
##CAS REGISTRY NO=62232-16-0
##MP= -300
##BP= -300
##MW= 239
##$RETENTION INDEX=0
##$CONDENSED SPECTRUM=NO
##NPOINTS= 22
##XYDATA=(XY..XY) 1 
    50        190
    51        430
    52        180
    63        300
    77        600
    78        320
    89        570
    90        190
    91        370
   105        260
   106        180
   107        999
   115        440
   116        430
   131        300
   133        190
   145        220
   221        180
   222        960
   223        210
   239        630
   240        120