##TITLE=Library Entry 49060
##JCAMP-DX=Revision 4.10 
##DATA TYPE=MASS SPECTRUM
##SAMPLE DESCRIPTION=D.HENNEBERG, MAX-PLANCK INSTITUTE, MULHEIM, WEST GERMAN
Y
##NAMES=HP
##CAS NAME=Spiro[2.4]heptane, 1,5-dimethyl-6-methylene-
##MOLFORM=C10H16
##CAS REGISTRY NO=62238-24-8
##MP= -300
##BP= -300
##MW= 136
##$RETENTION INDEX=0
##$CONDENSED SPECTRUM=NO
##NPOINTS= 77
##XYDATA=(XY..XY) 1 
    27         53
    28         18
    29         68
    30          1
    31          2
    32          0
    38          1
    39         98
    40         36
    41        167
    42         21
    43         59
    44          4
    45          0
    50          4
    51         27
    52         16
    53        114
    54         15
    55        100
    56          5
    57          2
    58          1
    59          0
    62          0
    63          5
    64          2
    65         65
    66         30
    67        199
    68        157
    69         21
    70          2
    71          0
    76          1
    77        255
    78         52
    79        999
    80        108
    81         61
    82         13
    83          1
    85          0
    90          1
    91        365
    92        107
    93        954
    94        468
    95         70
    96          5
    97          0
   100          2
   102          1
   103         18
   104          7
   105        106
   106         23
   107        369
   108        112
   109          9
   110          0
   111          0
   115          4
   116          1
   117          5
   118          0
   119         14
   120          2
   121        198
   122         19
   123          1
   124          0
   131          0
   134          1
   135          3
   136         41
   137          5