##TITLE=Library Entry 35048
##JCAMP-DX=Revision 4.10 
##DATA TYPE=MASS SPECTRUM
##SAMPLE DESCRIPTION=D.HENNEBERG, MAX-PLANCK INSTITUTE, MULHEIM, WEST GERMAN
Y
##NAMES=HP
##CAS NAME=Cyclohexane, 1-ethyl-1,3-dimethyl-, cis-
##MOLFORM=C10H20
##CAS REGISTRY NO=62238-31-7
##MP= -300
##BP= -300
##MW= 140
##$RETENTION INDEX=0
##$CONDENSED SPECTRUM=NO
##NPOINTS= 60
##XYDATA=(XY..XY) 1 
    24          2
    26          3
    27        100
    28          7
    29        134
    30          2
    33          0
    38          2
    39        108
    40         18
    41        329
    42         38
    43         96
    44          1
    45          0
    47          0
    49          2
    50          2
    51         11
    52          4
    53         44
    54         12
    55        566
    56         53
    57         79
    58          3
    60          1
    61          0
    62          0
    63          2
    64          0
    65         11
    66          5
    67         50
    68         19
    69        999
    70         60
    71          4
    77         42
    78          1
    79          9
    80          2
    81         17
    82         15
    83         54
    84          3
    91          3
    93          1
    94          0
    95         39
    96          4
    97         11
    98          0
   109          1
   110         66
   111        554
   112         42
   113          1
   125         16
   126          0