##TITLE=Library Entry 19843
##JCAMP-DX=Revision 4.10 
##DATA TYPE=MASS SPECTRUM
##SAMPLE DESCRIPTION=D.HENNEBERG, MAX-PLANCK INSTITUTE, MULHEIM, WEST GERMAN
Y
##NAMES=HP
##CAS NAME=Cyclopropane, 1-ethyl-2-pentyl-
##MOLFORM=C10H20
##CAS REGISTRY NO=62238-08-8
##MP= -300
##BP= -300
##MW= 140
##$RETENTION INDEX=955
##$CONDENSED SPECTRUM=NO
##NPOINTS= 61
##XYDATA=(XY..XY) 1 
    20          0
    25          2
    26         12
    27        190
    28         73
    29        255
    30          7
    31          0
    35          2
    36          2
    38          5
    39        173
    40         30
    41        757
    42        452
    43        495
    44          8
    45          0
    49          0
    50          5
    51         12
    52          7
    53         57
    54         84
    55        999
    56        916
    57        198
    58          7
    62          0
    63          2
    65         11
    66          6
    67         78
    68         47
    69        568
    70        446
    71         69
    72          2
    77          5
    78          1
    79          5
    81         72
    82         43
    83        136
    84        158
    85         41
    86          0
    88          0
    91          1
    95          2
    96         18
    97        128
    98         59
    99          3
   110          8
   111         81
   112         41
   113          2
   125          0
   140         56
   141          4