##TITLE=Library Entry 22309
##JCAMP-DX=Revision 4.10 
##DATA TYPE=MASS SPECTRUM
##SAMPLE DESCRIPTION=D.HENNEBERG, MAX-PLANCK INSTITUTE, MULHEIM, WEST GERMAN
Y
##NAMES=HP
##CAS NAME=Cyclopropane, 1,2-dimethyl-3-pentyl-, (1.alpha.,2.alpha.,3.alpha.
)-
##MOLFORM=C10H20
##CAS REGISTRY NO=62238-10-2
##MP= -300
##BP= -300
##MW= 140
##$RETENTION INDEX=1005
##$CONDENSED SPECTRUM=NO
##NPOINTS= 65
##XYDATA=(XY..XY) 1 
    25          3
    26         10
    27        155
    28        161
    29        192
    30          6
    35          1
    37          3
    38          4
    39        129
    40         21
    41        663
    42        170
    43        221
    46          0
    49          1
    50          4
    51         12
    52          6
    53         58
    54         29
    55        889
    56        999
    57        114
    58          4
    62          0
    63          1
    64          0
    65         12
    66          6
    67         68
    68         41
    69        624
    70        618
    71        114
    72          5
    73          0
    77          6
    78          0
    79          6
    81         15
    82         13
    83        136
    84        129
    85         29
    86          0
    88          2
    89          0
    91          0
    93          0
    95          0
    96          5
    97         30
    98         22
    99          1
   101          0
   107          0
   109          0
   110         12
   111         98
   112         22
   113          0
   125          1
   140         44
   141          4