##TITLE=Library Entry 23441
##JCAMP-DX=Revision 4.10 
##DATA TYPE=MASS SPECTRUM
##SAMPLE DESCRIPTION=D.HENNEBERG, MAX-PLANCK INSTITUTE, MULHEIM, WEST GERMAN
Y
##NAMES=HP
##CAS NAME=Butane, 1-butoxy-2-methyl-
##MOLFORM=C9H20O
##CAS REGISTRY NO=62238-03-3
##MP= -300
##BP= -300
##MW= 144
##$RETENTION INDEX=0
##$CONDENSED SPECTRUM=NO
##NPOINTS= 54
##XYDATA=(XY..XY) 1 
    24          0
    25          0
    26          6
    27         65
    28         24
    29        189
    30          6
    31         17
    32          0
    33         11
    34          0
    36          0
    37          2
    38          0
    39         44
    40          7
    41        221
    42         43
    43        213
    44          7
    45         44
    46          1
    47          0
    50          1
    51          1
    52          0
    53          8
    54          3
    55         74
    56        107
    57        999
    58         45
    59         12
    60          0
    65          0
    67          1
    68          0
    69          8
    70        181
    71        191
    72         10
    73          4
    74          0
    75          0
    85         11
    86          0
    87        155
    88          9
    89         26
    90          1
   101         88
   102          0
   115          2
   144          1