##TITLE=Library Entry 24357
##JCAMP-DX=Revision 4.10 
##DATA TYPE=MASS SPECTRUM
##SAMPLE DESCRIPTION=D.HENNEBERG, MAX-PLANCK INSTITUTE, MULHEIM, WEST GERMAN
Y
##NAMES=HP
##CAS NAME=Decane, 2,3,8-trimethyl-
##MOLFORM=C13H28
##CAS REGISTRY NO=62238-14-6
##MP= -300
##BP= -300
##MW= 184
##$RETENTION INDEX=0
##$CONDENSED SPECTRUM=NO
##NPOINTS= 38
##XYDATA=(XY..XY) 1 
    22          2
    26          9
    27         70
    29        173
    37          0
    39         38
    41        277
    42         64
    43        822
    44         11
    46          2
    53         16
    54          5
    55        146
    56         78
    57        999
    58         28
    67          8
    68          0
    69         78
    70        266
    71        726
    72         29
    83         34
    84         28
    85        450
    86         21
    97          5
    98         10
    99         93
   100          2
   110         21
   111        146
   112         18
   113         10
   140         41
   141        115
   142          9