##TITLE=Library Entry 72900
##JCAMP-DX=Revision 4.10 
##DATA TYPE=MASS SPECTRUM
##SAMPLE DESCRIPTION=D.HENNEBERG, MAX-PLANCK INSTITUTE, MULHEIM, WEST GERMAN
Y
##NAMES=HP
##CAS NAME=4,9-Decadien-2-amine, N-butyl-
##MOLFORM=C14H27N
##CAS REGISTRY NO=62238-25-9
##MP= -300
##BP= -300
##MW= 209
##$RETENTION INDEX=0
##$CONDENSED SPECTRUM=NO
##NPOINTS= 76
##XYDATA=(XY..XY) 1 
    26         18
    28         70
    29         38
    30         16
    32          5
    38          1
    39         10
    40          3
    41         52
    42         16
    43          7
    44        374
    45          8
    49          0
    50          2
    51          2
    52          1
    53          5
    54          5
    55         34
    56         21
    57         46
    58         54
    59          2
    63          0
    65          2
    66          1
    67         13
    68          3
    69          6
    70          7
    71          2
    72          3
    77          2
    78          1
    79          6
    80          1
    81         14
    82          3
    83          1
    84          8
    85          0
    91          2
    92          0
    93          2
    94          1
    95          6
    96          3
    97          0
    98         10
    99          1
   100        999
   101         65
   102          2
   107          0
   108          0
   109          0
   110          1
   112          2
   123          0
   124          1
   126          0
   138          1
   139          0
   149          0
   150          1
   152          2
   164          1
   165          0
   166          7
   167          0
   178          0
   192          0
   194          2
   208          1
   210          2