##TITLE=Library Entry 17051
##JCAMP-DX=Revision 4.10 
##DATA TYPE=MASS SPECTRUM
##SAMPLE DESCRIPTION=D.HENNEBERG, MAX-PLANCK INSTITUTE, MULHEIM, WEST GERMAN
Y
##NAMES=HP
##CAS NAME=Pentane, 2-butoxy-
##MOLFORM=C9H20O
##CAS REGISTRY NO=62238-02-2
##MP= -300
##BP= -300
##MW= 144
##$RETENTION INDEX=0
##$CONDENSED SPECTRUM=NO
##NPOINTS= 64
##XYDATA=(XY..XY) 1 
    23          0
    24          0
    25          0
    26          8
    27         95
    28         43
    29        231
    30          6
    31         23
    33          0
    37          2
    38          3
    39         55
    40          8
    41        264
    42         54
    43        241
    44         13
    45        999
    46         22
    47          2
    49          0
    50          1
    51          2
    52          1
    53          9
    54          3
    55        155
    56         37
    57        640
    58         30
    59         27
    60          0
    63          0
    65          0
    67          1
    69          5
    70         25
    71        128
    72         10
    73         94
    74          4
    75          0
    77          0
    78          0
    82          1
    83         28
    84          1
    85          3
    86          0
    87          8
    91          1
    97          0
    99          0
   100          4
   101        286
   102         19
   103          1
   106          0
   110          0
   115          1
   129        106
   130          0
   144         23