##TITLE=Library Entry 24843
##JCAMP-DX=Revision 4.10 
##DATA TYPE=MASS SPECTRUM
##SAMPLE DESCRIPTION=D.HENNEBERG, MAX-PLANCK INSTITUTE, MULHEIM, WEST GERMAN
Y
##NAMES=HP
##CAS NAME=Decane, 2,2,8-trimethyl-
##MOLFORM=C13H28
##CAS REGISTRY NO=62238-01-1
##MP= -300
##BP= -300
##MW= 184
##$RETENTION INDEX=1022
##$CONDENSED SPECTRUM=NO
##NPOINTS= 47
##XYDATA=(XY..XY) 1 
    25          0
    26          1
    27         26
    29         92
    30          4
    33          0
    37          0
    38          0
    39         20
    40          3
    41        151
    42         15
    43        145
    51          7
    53          6
    54          3
    55         49
    56        446
    57        999
    58         38
    59          0
    67          3
    68          1
    69         17
    70         16
    71        119
    72          5
    79          0
    80          0
    83         48
    84          2
    85         57
    86          2
    95          0
    96          2
    97          8
    98          1
    99         21
   100          1
   113         11
   114          0
   126         19
   127         21
   128          1
   168          0
   169         10
   170          1