##TITLE=Library Entry 2847
##JCAMP-DX=Revision 4.10 
##DATA TYPE=MASS SPECTRUM
##SAMPLE DESCRIPTION=D.HENNEBERG, MAX-PLANCK INSTITUTE, MULHEIM, WEST GERMAN
Y
##NAMES=HP
##CAS NAME=Cyclopropane, 1-methyl-2-(3-methylpentyl)-
##MOLFORM=C10H20
##CAS REGISTRY NO=62238-07-7
##MP= -300
##BP= -300
##MW= 140
##$RETENTION INDEX=934
##$CONDENSED SPECTRUM=NO
##NPOINTS= 57
##XYDATA=(XY..XY) 1 
    25          3
    26         15
    27        234
    29        457
    30         10
    31          0
    35          1
    37          7
    38          5
    39        222
    40         36
    41        999
    42        238
    43        533
    44          8
    50          5
    51         16
    52          8
    53         74
    54         53
    55        963
    56        957
    57        891
    58         36
    63          1
    65         12
    66          7
    67         85
    68         37
    69        722
    70        961
    71        213
    72          9
    77          6
    78          1
    79          6
    80          0
    81         18
    82         33
    83        267
    84        102
    85         12
    88          1
    89          0
    91          1
    95          4
    96          2
    97         28
    98         33
    99          1
   110         21
   111        243
   112         31
   125          4
   126          0
   140         10
   141          0