##TITLE=Library Entry 24886
##JCAMP-DX=Revision 4.10 
##DATA TYPE=MASS SPECTRUM
##SAMPLE DESCRIPTION=D.HENNEBERG, MAX-PLANCK INSTITUTE, MULHEIM, WEST GERMAN
Y
##NAMES=HP
##CAS NAME=Decane, 2,2,9-trimethyl-
##MOLFORM=C13H28
##CAS REGISTRY NO=62238-00-0
##MP= -300
##BP= -300
##MW= 184
##$RETENTION INDEX=0
##$CONDENSED SPECTRUM=NO
##NPOINTS= 47
##XYDATA=(XY..XY) 1 
    22          0
    25          0
    26          2
    27         30
    28          7
    29         81
    32          0
    33          0
    39         23
    40          3
    41        159
    42         21
    43        165
    51          0
    53          6
    54          3
    55         46
    56        481
    57        999
    58         41
    67          2
    68          1
    69         23
    70          4
    71        104
    72          5
    77          0
    78          0
    81          0
    82          0
    83          4
    84          3
    85         55
    86          3
    97          0
    98          4
    99         18
   100          0
   111          5
   112          0
   113         11
   114          0
   126         19
   127         16
   128          0
   169         11
   170          0