##TITLE=Library Entry 24880
##JCAMP-DX=Revision 4.10 
##DATA TYPE=MASS SPECTRUM
##SAMPLE DESCRIPTION=D.HENNEBERG, MAX-PLANCK INSTITUTE, MULHEIM, WEST GERMAN
Y
##NAMES=HP
##CAS NAME=Decane, 2,2,5-trimethyl-
##MOLFORM=C13H28
##CAS REGISTRY NO=62237-96-1
##MP= -300
##BP= -300
##MW= 184
##$RETENTION INDEX=0
##$CONDENSED SPECTRUM=NO
##NPOINTS= 54
##XYDATA=(XY..XY) 1 
    22          0
    25          0
    26          2
    27         32
    29         80
    30          1
    34          0
    37          0
    39         18
    40          4
    41        139
    42         17
    43        149
    44          1
    50          0
    51          0
    53          6
    54          2
    55         51
    56        453
    57        999
    58         43
    65          0
    67          2
    68          0
    69         18
    70         18
    71        123
    72          5
    75          0
    79          0
    82          1
    83          2
    84          2
    85         52
    86          2
    88          0
    95          1
    96          2
    97          8
    98          3
    99         17
   100          0
   101          0
   111          0
   112          1
   113         11
   114          0
   126         22
   127         25
   128          1
   169         12
   170          1
   184          0