##TITLE=Library Entry 20026
##JCAMP-DX=Revision 4.10 
##DATA TYPE=MASS SPECTRUM
##SAMPLE DESCRIPTION=D.HENNEBERG, MAX-PLANCK INSTITUTE, MULHEIM, WEST GERMAN
Y
##NAMES=HP
##CAS NAME=Cyclopropaneethanol, 2-iodo-
##MOLFORM=C5H9IO
##CAS REGISTRY NO=62238-23-7
##MP= -300
##BP= -300
##MW= 212
##$RETENTION INDEX=0
##$CONDENSED SPECTRUM=NO
##NPOINTS= 92
##XYDATA=(XY..XY) 1 
    26          9
    27        125
    28         43
    29        163
    30          6
    31        319
    32         15
    36          2
    37          1
    38          6
    39        211
    40         24
    41        302
    42         18
    43        184
    44         12
    45         27
    46          3
    50          5
    51         23
    52         14
    53        143
    54        203
    55        999
    56         52
    57        279
    58         15
    59          3
    61          1
    63          3
    64          1
    65         54
    66         15
    67        951
    68        175
    69         21
    70          7
    71         19
    73          2
    75          3
    77          7
    78          1
    79          4
    81          6
    82          2
    83         13
    84         27
    85        370
    86         22
    87          4
    88          1
    89          2
    90          1
    91          8
    92          1
    93         11
    94          1
    97          1
    98         12
    99         27
   100          2
   101          2
   102          2
   103          1
   107          1
   111          0
   112          2
   113          3
   115          0
   122          5
   124          3
   127          9
   128         11
   129          2
   140          1
   141          6
   142          2
   146          1
   148          0
   153          3
   154         81
   155          6
   157          1
   158          3
   167         18
   168          1
   181          5
   184          3
   194          5
   195         15
   212         21
   213          1