##TITLE=Library Entry 69751
##JCAMP-DX=Revision 4.10 
##DATA TYPE=MASS SPECTRUM
##SAMPLE DESCRIPTION=NIST Mass Spectrometry Data Center
##NAMES=HP
##CAS NAME=1-(Trimethylsilyl)-1-propyne
##MOLFORM=C6H12Si
##CAS REGISTRY NO=6224-91-5
##MP= -300
##BP= -300
##MW= 112
##$RETENTION INDEX=702
##$CONDENSED SPECTRUM=NO
##NPOINTS= 55
##XYDATA=(XY..XY) 1 
    13          1
    14          5
    15         37
    16          1
    18          2
    26          1
    27          7
    28         16
    29         12
    30          4
    37          2
    38          5
    39         20
    40          1
    42         20
    43        178
    44         16
    45         15
    46          1
    49          1
    50          5
    51          5
    53         82
    54         22
    55         75
    56          6
    57          9
    58         14
    65         14
    66         43
    67         96
    68         13
    69        148
    70         14
    71         34
    72          5
    73         13
    76          1
    77          8
    78          1
    79          6
    81         35
    82          7
    83         36
    84          3
    85          2
    93          2
    95         12
    97        999
    98         99
    99         35
   100          1
   112        108
   113         12
   114          4