##TITLE=Library Entry 49466
##JCAMP-DX=Revision 4.10 
##DATA TYPE=MASS SPECTRUM
##SAMPLE DESCRIPTION=D.HENNEBERG, MAX-PLANCK INSTITUTE, MULHEIM, WEST GERMAN
Y
##NAMES=HP
##CAS NAME=Bicyclo[2.2.2]oct-5-ene-2,3-dicarbonitrile
##MOLFORM=C10H10N2
##CAS REGISTRY NO=62249-52-9
##MP= -300
##BP= -300
##MW= 158
##$RETENTION INDEX=0
##$CONDENSED SPECTRUM=NO
##NPOINTS= 74
##XYDATA=(XY..XY) 1 
    26         27
    27         80
    28         23
    29          3
    32          0
    36          0
    37          9
    38         21
    39        108
    40         17
    41         26
    42          1
    43          0
    44          0
    48          0
    49          2
    50         40
    51         77
    52         55
    53         27
    54          7
    55          0
    56          0
    57          0
    61          2
    62          7
    63         24
    64         18
    65         25
    66          9
    67          2
    73          0
    74          5
    75         13
    76         25
    77         80
    78         42
    79        243
    80        999
    81         54
    82          1
    86          0
    87          1
    88          3
    89          6
    90         14
    91          9
    92          2
    93          0
    99          0
   100          1
   101          2
   102         10
   103         40
   104         11
   105          1
   106          0
   114          0
   115          1
   116          6
   117          3
   118          1
   127          0
   128          2
   129         11
   130         17
   131          2
   142          0
   143          0
   149          0
   155          0
   157          1
   158         11
   159          1