##TITLE=Library Entry 24673
##JCAMP-DX=Revision 4.10 
##DATA TYPE=MASS SPECTRUM
##SAMPLE DESCRIPTION=Chemical Concepts
##NAMES=HP
##CAS NAME=3,5-Heptanedione, 4-methyl-1-nitro-
##MOLFORM=C8H13NO4
##CAS REGISTRY NO=62250-63-9
##MP= -300
##BP= -300
##MW= 187
##$RETENTION INDEX=0
##$CONDENSED SPECTRUM=NO
##NPOINTS= 68
##XYDATA=(XY..XY) 1 
    26         18
    27        171
    28         79
    29        374
    30         94
    31          6
    38          3
    39         29
    40          5
    41         43
    42         12
    43         60
    44          7
    45          8
    46          4
    50          3
    51          6
    52          2
    53         18
    54          6
    55        610
    56         57
    57        999
    58         39
    59          4
    63          3
    65         13
    66          6
    67         24
    68          9
    69         15
    70          4
    71          5
    75          3
    77          5
    79          6
    81          4
    82          6
    83        136
    84        312
    85         32
    86         30
    87          2
    91          3
    93         11
    95          9
    97          6
    99          3
   101          6
   102         61
   103          2
   107          5
   110          3
   111        153
   112         54
   113         51
   114          5
   116          3
   123          8
   125         59
   126          6
   131          7
   139         16
   140         78
   141         23
   142          2
   158          8
   187         10