##TITLE=Library Entry 57214
##JCAMP-DX=Revision 4.10 
##DATA TYPE=MASS SPECTRUM
##SAMPLE DESCRIPTION=NIST Mass Spectrometry Data Center, 1994
##NAMES=HP
##CAS NAME=N,N-Dimethylvaleramide
##MOLFORM=C7H15NO
##CAS REGISTRY NO=6225-06-5
##MP= -300
##BP= -300
##MW= 129
##$RETENTION INDEX=0
##$CONDENSED SPECTRUM=NO
##NPOINTS= 55
##XYDATA=(XY..XY) 1 
    15        102
    18         51
    26         24
    27        162
    28        116
    29        215
    30         38
    31          6
    32          0
    37          2
    38          9
    39         89
    40          0
    41        243
    42        209
    43         97
    44        550
    45        800
    46        124
    47          3
    50          5
    51          8
    52          4
    53         17
    54          2
    55        120
    56         68
    57        306
    58         81
    59          8
    67          2
    68          6
    69          6
    70          5
    71          2
    72        593
    73         36
    74          4
    81          1
    82          3
    83          7
    84          5
    85         45
    86          1
    87        999
    88         46
    89          3
    98          7
   100        146
   101         21
   114         43
   115          2
   128          8
   129         38
   130         10