##TITLE=Library Entry 40332
##JCAMP-DX=Revision 4.10 
##DATA TYPE=MASS SPECTRUM
##SAMPLE DESCRIPTION=Humboldt-Universitat zu Berlin, Department of Chemistry
, Analytical Group
##NAMES=HP
##CAS NAME=Imidazol-4,5-dicarboxamide, N,N'-dibutyl-
##MOLFORM=C13H22N4O2
##CAS REGISTRY NO=62254-97-1
##MP= -300
##BP= -300
##MW= 266
##$RETENTION INDEX=0
##$CONDENSED SPECTRUM=NO
##NPOINTS= 168
##XYDATA=(XY..XY) 1 
    12          8
    14          4
    15         25
    16         18
    26         18
    27        176
    28         88
    29        344
    30        288
    31         11
    36          2
    37          2
    38          6
    39         82
    40         77
    41        382
    42         56
    43        133
    44        157
    45         21
    46          6
    50          3
    51          5
    52         10
    53         27
    54         21
    55         93
    56         66
    57        136
    58         14
    59          5
    60         13
    61          5
    63          2
    64          2
    65         19
    66         22
    67        157
    68        294
    69         42
    70         62
    71         48
    72        999
    73         56
    74         17
    75          2
    77          5
    78          3
    79          6
    80         10
    81         15
    82         23
    83         20
    84         14
    85         10
    86          6
    87          5
    90          3
    91          5
    92         18
    93         35
    94        127
    95        248
    96         66
    97         16
    98         10
    99          5
   100          2
   101          3
   102          3
   105          4
   106          6
   107         11
   108         20
   109         19
   110         35
   111         44
   112         30
   113         10
   115          3
   118          5
   119          8
   120        566
   121        178
   122         39
   123        141
   124         60
   125         44
   126          6
   127          5
   128          3
   129         10
   132          3
   133          4
   134          6
   135          9
   136         30
   137         21
   138        259
   139         34
   140         11
   141          3
   143          4
   146          4
   147          2
   148          6
   149         29
   150         70
   151         40
   152         35
   153         25
   154         13
   155          5
   157          4
   162          3
   163          5
   164         14
   165         13
   166         35
   167         54
   168         30
   169          4
   170          2
   171         14
   172          2
   174          2
   175          3
   176          4
   177          5
   178          5
   179          3
   180         12
   181         62
   182         14
   183          3
   185          3
   189          2
   191          2
   192          5
   194        789
   195        169
   196         23
   197          6
   205          2
   206          1
   207          2
   208         14
   209         74
   210         15
   211          8
   221          3
   223        776
   224        296
   225         35
   226          3
   228          1
   229          1
   235          2
   237         44
   238         22
   239          4
   248          8
   249          2
   251          6
   252          1
   266        172
   267         29
   268          3