##TITLE=Library Entry 41016
##JCAMP-DX=Revision 4.10 
##DATA TYPE=MASS SPECTRUM
##SAMPLE DESCRIPTION=NIST Mass Spectrometry Data Center
##NAMES=HP
##CAS NAME=N-Methylvaleramide
##MOLFORM=C6H13NO
##CAS REGISTRY NO=6225-10-1
##MP= -300
##BP= -300
##MW= 115
##$RETENTION INDEX=1105
##$CONDENSED SPECTRUM=NO
##NPOINTS= 49
##XYDATA=(XY..XY) 1 
    12          2
    15         95
    16          1
    17          3
    18          8
    26         21
    27        151
    28         95
    29        200
    30        160
    31        119
    32         40
    37          3
    38          9
    39         94
    40         10
    41        218
    42         55
    43         63
    44         41
    45        159
    46          4
    49          1
    50          3
    51          6
    52          3
    53          9
    54         11
    55        145
    56         48
    57        214
    58        638
    59         25
    60          3
    67          3
    68          5
    69          3
    73        999
    74         42
    83          4
    84          1
    85         53
    86        140
    87         29
    88          2
   100         38
   101          3
   114          3
   115         15