##TITLE=Library Entry 19424
##JCAMP-DX=Revision 4.10 
##DATA TYPE=MASS SPECTRUM
##SAMPLE DESCRIPTION=D.HENNEBERG, MAX-PLANCK INSTITUTE, MULHEIM, WEST GERMAN
Y
##NAMES=HP
##CAS NAME=Nickel, di-.mu.-bromobis[(1,2,3-.eta.)-1,1-dimethyl-2-butenyl]di-
##MOLFORM=C12H22Br2Ni2
##CAS REGISTRY NO=62265-44-5
##MP= -300
##BP= -300
##MW= 440
##$RETENTION INDEX=0
##$CONDENSED SPECTRUM=NO
##NPOINTS= 309
##XYDATA=(XY..XY) 1 
    27        148
    28        132
    29        161
    30          6
    31         33
    32          9
    33          3
    35          1
    36         13
    37          1
    38          5
    39        252
    40         66
    41        859
    42         85
    43        269
    44         20
    45        542
    46         12
    47          2
    49          1
    50          6
    51         19
    52         16
    53        145
    54        201
    55        999
    56         97
    57        119
    58         61
    59         20
    60         83
    61          3
    62          2
    63          4
    64          1
    65         65
    66         64
    67        631
    68        268
    69        341
    70         22
    71         12
    72          2
    73          3
    74          1
    75          1
    76          0
    77         49
    78         32
    79        200
    80        110
    81        120
    82        171
    83        785
    84        103
    85         18
    86         10
    87          2
    88          1
    89          1
    90         45
    91        131
    92         26
    93        117
    94         24
    95        100
    96         21
    97         18
    98        154
    99         27
   100        106
   101         15
   102         27
   103          7
   104         22
   105         78
   106         25
   107         78
   108         40
   109         75
   110         33
   111         10
   112         17
   113         14
   114         32
   115         12
   116         13
   117         52
   118         15
   119         70
   120         31
   121        137
   122         25
   123         36
   124          8
   125         27
   126         28
   127         10
   128         11
   129         12
   130          6
   131         40
   132         11
   133         41
   134         15
   135         30
   136         13
   137         18
   138          7
   139         27
   140        267
   141         51
   142        116
   143         27
   144         19
   145         21
   146         10
   147         52
   148         11
   149         15
   150          2
   151          3
   153          3
   154          1
   155          3
   156          0
   157          6
   158          5
   159         73
   160         18
   161         35
   162          7
   163          7
   164          8
   165          3
   168          1
   169          2
   171          3
   173         10
   174          2
   175         12
   176          3
   177         30
   178          8
   179          2
   181          3
   182          2
   183          9
   184          1
   185          5
   186          1
   187         16
   188          5
   189          6
   190          6
   191          2
   192          2
   193          2
   194          1
   195         13
   197         19
   198          1
   199         12
   200          1
   201          6
   202         33
   203         56
   204         11
   205          5
   206          1
   207          3
   208          2
   209          2
   211          1
   212          2
   213          3
   215          7
   216          5
   217         11
   218          4
   219          2
   220         21
   221          6
   222         34
   223         10
   224         40
   225        323
   226         48
   227          7
   228          9
   229          6
   230          4
   232         26
   233          3
   234         30
   235         21
   236         24
   237         37
   238         25
   239         22
   240         13
   241          8
   242          3
   244          2
   246          1
   247          0
   248          4
   249          4
   250         21
   251         10
   252         29
   253          8
   254         17
   255          3
   256          6
   257          1
   258          1
   260         26
   261          8
   262         38
   263         10
   264         56
   265         18
   266         33
   267         11
   268         14
   269          3
   270          3
   272          3
   273          3
   274         40
   275         14
   276        318
   277         55
   278        478
   279         79
   280        272
   281         48
   282         88
   283         15
   284         24
   285          3
   288          3
   289          2
   290          9
   291          1
   292         13
   293          1
   294          8
   295          1
   296          2
   297          1
   299          2
   302          2
   304          6
   306          8
   308          4
   310          1
   312          1
   314          1
   316          7
   317          0
   318          9
   319          1
   320          6
   321          1
   322          4
   324         21
   325          3
   326          0
   332          1
   334          1
   344          0
   346          1
   358          2
   359          1
   360         48
   361          7
   362         92
   363         15
   364         50
   365          9
   366         16
   367          2
   368          5
   369          0
   370          1
   396          5
   397          0
   398         12
   399          1
   400          7
   401          0
   402          3
   403          1
   404          1
   416          0
   440         32
   441          4
   442         90
   443         14
   444         94
   445         14
   446         41
   447          8
   448         14
   449          2
   450          3