##TITLE=Library Entry 301
##JCAMP-DX=Revision 4.10 
##DATA TYPE=MASS SPECTRUM
##SAMPLE DESCRIPTION=D.HENNEBERG, MAX-PLANCK INSTITUTE, MULHEIM, WEST GERMAN
Y
##NAMES=HP
##CAS NAME=Iron, carbonyl[(2,3,4,5-.eta.)-diethyl 2,4-hexadienedioate][(1,2,
3,4-.eta.)-2-methyl-1,3-butadiene]-
##MOLFORM=C16H22FeO5
##CAS REGISTRY NO=62265-43-4
##MP= -300
##BP= -300
##MW= 350
##$RETENTION INDEX=0
##$CONDENSED SPECTRUM=NO
##NPOINTS= 168
##XYDATA=(XY..XY) 1 
    27        181
    28        999
    29        147
    30         11
    31        135
    32         24
    37          4
    38         14
    39        231
    40        128
    41        206
    42         71
    43         36
    44         70
    45         71
    46         21
    49          2
    50         22
    51         60
    52         93
    53        270
    54         14
    55         19
    56         40
    57          8
    62          1
    63         13
    64          5
    65         61
    66         33
    67        378
    68        330
    69         52
    70          7
    71         26
    72          2
    73         20
    74          1
    75          2
    76          4
    77          4
    78          3
    79         63
    80        176
    81         83
    82         35
    83         20
    84          5
    91          4
    92          4
    93          3
    94          2
    95          9
    96         15
    97        417
    98         36
    99         14
   100         29
   101         68
   102          4
   103          5
   104          1
   105          3
   106          4
   107         28
   108        133
   109         89
   110        263
   111         22
   112          2
   115          5
   117          9
   120          3
   121         13
   122          5
   123         79
   124         73
   125        242
   126         35
   127         11
   128          6
   129          1
   130         10
   131          2
   133          3
   134         13
   135         30
   136         48
   137         60
   138        144
   139         14
   140          1
   141         21
   142         11
   144          3
   145          3
   147          3
   148          3
   149         11
   150          8
   151         13
   152        101
   153        184
   154        237
   155         26
   156          4
   162          7
   163          4
   164        107
   165         58
   166         14
   167          8
   168          3
   169         22
   170          6
   171          2
   176          1
   177          1
   178          9
   179          7
   180        108
   181         62
   182        678
   183         69
   184          8
   194          3
   195          4
   197          4
   198         27
   199          4
   200          2
   205          2
   206         23
   207         13
   208        351
   209        209
   210         58
   211         11
   223          2
   224         11
   225         19
   226        144
   227         22
   228          2
   236          2
   239         12
   240          1
   249          2
   250          2
   252         43
   253         21
   254        608
   255         77
   256         14
   275          3
   276          9
   277         45
   278          8
   293          8
   305         14
   306          3
   320         12
   321          4
   322        197
   323         39
   324          5
   350         24
   351          5