##TITLE=Library Entry 70936
##JCAMP-DX=Revision 4.10 
##DATA TYPE=MASS SPECTRUM
##SAMPLE DESCRIPTION=A.A.Kutin, Moscow, Russia
##NAMES=HP
##CAS NAME=Methylenecyclopropanecarboxylic acid
##MOLFORM=C5H6O2
##CAS REGISTRY NO=62266-36-8
##MP= -300
##BP= -300
##MW= 98
##$RETENTION INDEX=0
##$CONDENSED SPECTRUM=NO
##NPOINTS= 30
##XYDATA=(XY..XY) 1 
    33          5
    37         18
    38         43
    39        125
    40         66
    41        101
    42        299
    43         64
    44         21
    45         26
    50         55
    51        187
    52        153
    53        407
    55        165
    56         13
    57          3
    67         53
    68          3
    69        123
    70        151
    79         10
    81        274
    82         23
    83          1
    95          2
    97        295
    98        999
    99         35
   100          3