##TITLE=Library Entry 320
##JCAMP-DX=Revision 4.10 
##DATA TYPE=MASS SPECTRUM
##SAMPLE DESCRIPTION=D.HENNEBERG, MAX-PLANCK INSTITUTE, MULHEIM, WEST GERMAN
Y
##NAMES=HP
##CAS NAME=Iron, [1,4-bis(ethoxycarbonyl)-1,4-butanediyl]tetracarbonyl-, (OC
-6-22)-
##MOLFORM=C14H16FeO8
##CAS REGISTRY NO=62265-45-6
##MP= -300
##BP= -300
##MW= 368
##$RETENTION INDEX=0
##$CONDENSED SPECTRUM=NO
##NPOINTS= 240
##XYDATA=(XY..XY) 1 
    26         42
    27        181
    28        999
    29        120
    30          7
    31         62
    32          3
    36          0
    37          0
    38          1
    39          7
    40          2
    41         19
    42          6
    43         40
    44         21
    45         69
    46          7
    47          0
    49          0
    50          1
    51          1
    52          1
    53         19
    54         28
    55        566
    56         61
    57         13
    58         20
    59          4
    60          1
    61          0
    62          0
    65          1
    66          1
    67          1
    68          1
    69          2
    70          0
    71         12
    72          5
    73         34
    74          2
    75          0
    76          0
    77          0
    78          0
    79          0
    80          2
    81         13
    82         23
    83         20
    84         23
    85         24
    86          1
    87          0
    88          0
    89          0
    91          0
    92          0
    93          0
    94          0
    95          0
    96          1
    97          4
    98          8
    99         34
   100        101
   101         95
   102         10
   103          5
   104          0
   105          1
   106          0
   107          1
   108          6
   109         15
   110         23
   111         13
   112         17
   113         26
   114          3
   115          4
   116          0
   117          6
   118          0
   119          0
   120          0
   121          4
   122          3
   123          1
   124          0
   125          5
   126          7
   127         64
   128         57
   129         16
   130          1
   131          2
   132          1
   133          0
   134          0
   135          2
   136          5
   137         24
   138         62
   139         76
   140        140
   141         13
   142          5
   143          8
   144         10
   145         90
   146          6
   147          1
   148          1
   149          3
   150          0
   151          0
   152          2
   153          9
   154         24
   155         34
   156        100
   157         81
   158          6
   159          1
   160          0
   161          0
   162          0
   163          0
   164          2
   165          6
   166          7
   167          3
   168          4
   169          2
   170          3
   171         22
   172         29
   173          7
   174          1
   175          1
   176          0
   177          0
   178          0
   179          0
   180          3
   181         11
   182         60
   183         66
   184        244
   185         24
   186          4
   187          1
   189          0
   191          0
   192          0
   193          0
   194          0
   195          0
   196          0
   197          3
   198          8
   199         49
   200        136
   201         52
   202          6
   203          3
   204          1
   205          1
   206          0
   207          1
   208          1
   209          6
   210         15
   211         44
   212         25
   213          3
   214          1
   215          0
   218          0
   219          0
   222          0
   223          0
   225         35
   226          7
   227        144
   228         93
   229         10
   230          1
   231          0
   237          2
   238          1
   239         24
   240          5
   241          1
   242          4
   243          0
   244          0
   245          0
   252          0
   253          0
   254         46
   255          8
   256        725
   257         94
   258         13
   259          1
   264          1
   265          0
   266         19
   267         10
   268          1
   269          0
   270          0
   271          0
   281          0
   282          4
   283          0
   284         80
   285          9
   286          1
   293          1
   295         80
   296          2
   297          0
   309          0
   310          2
   311          0
   312         38
   313          4
   314          1
   321          4
   322          0
   323         72
   324         12
   325          2
   340          0
   355          0