##TITLE=Library Entry 15169
##JCAMP-DX=Revision 4.10 
##DATA TYPE=MASS SPECTRUM
##SAMPLE DESCRIPTION=NIST Mass Spectrometry Data Center, 1994
##NAMES=HP
##CAS NAME=Cyclopropanecarboxamide
##MOLFORM=C4H7NO
##CAS REGISTRY NO=6228-73-5
##MP= -300
##BP= -300
##MW= 85
##$RETENTION INDEX=0
##$CONDENSED SPECTRUM=NO
##NPOINTS= 44
##XYDATA=(XY..XY) 1 
    12          9
    13         14
    14         59
    15         66
    16         94
    17         21
    18         11
    25         23
    26        119
    27        202
    28        265
    29         41
    30         44
    32         22
    36         12
    37        114
    38        199
    39        900
    40        165
    41        725
    42        409
    43         76
    44        999
    45         21
    46          5
    50          7
    51         13
    52         25
    53         24
    54         50
    55         51
    56         45
    57          5
    59          9
    64          4
    65          3
    66          9
    67         11
    68         80
    69        250
    70         19
    84        611
    85         79
    86          3