##TITLE=Library Entry 65809
##JCAMP-DX=Revision 4.10 
##DATA TYPE=MASS SPECTRUM
##SAMPLE DESCRIPTION=Exported from NIST MS Search
##NAMES=HP
##CAS NAME=Acetic acid, 2,2'-selenobis-
##MOLFORM=C4H6O4Se
##CAS REGISTRY NO=6228-62-2
##MP= -300
##BP= -300
##MW= 198
##$RETENTION INDEX=0
##$CONDENSED SPECTRUM=NO
##NPOINTS= 136
##XYDATA=(XY..XY) 1 
    12         11
    13         31
    14        189
    15         54
    16          6
    17         11
    18         13
    19          3
    25          9
    26         14
    27         68
    28         34
    29        318
    30         15
    31        545
    32          8
    39         11
    40          9
    41         90
    42        840
    43        321
    44         31
    45        522
    46         19
    47         15
    50          1
    51          2
    53          6
    55         30
    56          2
    57          2
    59         15
    60        306
    61         18
    66          2
    69          8
    73          8
    74          3
    75          2
    76         26
    77         34
    78         76
    79         34
    80        161
    81         64
    82         42
    83         28
    84          3
    85          2
    87         11
    88         20
    89        156
    90        261
    91        532
    92        454
    93        999
    94        727
    95        622
    96        142
    97        120
    98          3
    99         15
   100          2
   101          3
   102          6
   103         17
   104         26
   105         63
   106         48
   107        163
   108        102
   109        263
   110         30
   111        284
   112          9
   113         45
   116          3
   117          8
   118         11
   119         22
   120         20
   121         76
   122         54
   123        153
   124          8
   125        275
   126          6
   127         43
   130          3
   131          3
   132         13
   133          2
   134         29
   135         20
   136         40
   137         13
   138         67
   139         20
   140         14
   141          5
   146          6
   147          3
   148          8
   149         20
   150         31
   151         40
   152         44
   153         72
   154         38
   155         17
   156          9
   158         10
   159          9
   160         20
   161          2
   162         36
   163          3
   164         11
   166          3
   174          2
   176         25
   177         27
   178         60
   179         17
   180        134
   181         28
   182         22
   183          6
   192          5
   194         31
   195         27
   196         86
   197          6
   198        172
   199         13
   200         31