##TITLE=Library Entry 30077
##JCAMP-DX=Revision 4.10 
##DATA TYPE=MASS SPECTRUM
##SAMPLE DESCRIPTION=NIST Mass Spectrometry Data Center, 1990.
##NAMES=HP
##CAS NAME=3-Hexanol, 5-methyl-
##MOLFORM=C7H16O
##CAS REGISTRY NO=623-55-2
##MP= -300
##BP= -300
##MW= 116
##$RETENTION INDEX=838
##$CONDENSED SPECTRUM=NO
##NPOINTS= 44
##XYDATA=(XY..XY) 1 
    14          9
    15         35
    16          9
    17          9
    18         22
    19          8
    26         31
    27        291
    28        105
    29        257
    30          8
    31        293
    32         19
    39        205
    40         50
    41        586
    42         72
    43        569
    44        100
    45        316
    46         10
    50         14
    51         19
    52          8
    53         42
    54         22
    55        167
    56        131
    57        253
    58        121
    59        999
    60         31
    67         22
    69        809
    70         76
    71         31
    72         12
    83         31
    85         34
    86         35
    87        308
    88         18
    98         43
    99         10