##TITLE=Library Entry 76180
##JCAMP-DX=Revision 4.10 
##DATA TYPE=MASS SPECTRUM
##SAMPLE DESCRIPTION=Japan AIST/NIMC Database- Spectrum MS-NW-6832
##NAMES=HP
##CAS NAME=Benzonitrile, 4-bromo-
##MOLFORM=C7H4BrN
##CAS REGISTRY NO=623-00-7
##MP= -300
##BP= -300
##MW= 181
##$RETENTION INDEX=0
##$CONDENSED SPECTRUM=NO
##NPOINTS= 82
##XYDATA=(XY..XY) 1 
    12          1
    24          1
    25          4
    26         10
    27         23
    28          9
    29          1
    31          7
    36          8
    37         43
    38         43
    39         19
    40          1
    43          2
    45          4
    46          1
    48          8
    49         36
    50        193
    51        159
    52         28
    53          1
    55          1
    57          1
    60          7
    61         16
    62         21
    63         13
    64          9
    65          1
    72          5
    73         25
    74         81
    75        233
    76        118
    77          9
    78          5
    79          9
    80          5
    81          8
    82          4
    84          2
    85          4
    86          4
    87          4
    88          2
    90         31
    91         31
    92          3
    93          1
    98          4
    99         29
   100         27
   101         21
   102        999
   103         82
   104          4
   105          1
   106          4
   107          1
   116          2
   117          4
   118          2
   119          3
   128          2
   129          2
   130          2
   131          2
   132          1
   137          2
   142          1
   153          2
   154          1
   155          3
   156          1
   157          1
   180          2
   181        898
   182         73
   183        862
   184         69
   185          3