##TITLE=Library Entry 58898
##JCAMP-DX=Revision 4.10 
##DATA TYPE=MASS SPECTRUM
##SAMPLE DESCRIPTION=Japan AIST/NIMC Database- Spectrum MS-NW-5479
##NAMES=HP
##CAS NAME=Propanoic acid, 3-chloro-, ethyl ester
##MOLFORM=C5H9ClO2
##CAS REGISTRY NO=623-71-2
##MP= -300
##BP= -300
##MW= 136
##$RETENTION INDEX=901
##$CONDENSED SPECTRUM=NO
##NPOINTS= 84
##XYDATA=(XY..XY) 1 
    13          3
    14         13
    15         39
    16          3
    24          1
    25          9
    26        101
    27        664
    28        439
    29        942
    30         22
    31         36
    32          3
    35          5
    36         17
    37          3
    38          6
    39          5
    40          3
    41         44
    42         31
    43         65
    44         15
    45        347
    46         10
    47          5
    48          3
    49         23
    50          1
    51          8
    53          5
    54          4
    55        111
    56         25
    57          8
    58          6
    59          3
    60          4
    61         21
    62         49
    63        728
    64         45
    65        235
    66         10
    71          4
    72          4
    73        379
    74         14
    75          3
    77          1
    81          1
    82          2
    83          9
    84          1
    85          1
    87          3
    89          7
    90         12
    91        999
    92         37
    93        319
    94         11
    95          1
    99          3
   100          2
   101        369
   102         21
   103          3
   107          3
   108        231
   109        526
   110         92
   111        166
   112          8
   113          1
   118          2
   121         27
   122          2
   123          9
   135          1
   136         20
   137          3
   138          6
   139          1