##TITLE=Library Entry 10749
##JCAMP-DX=Revision 4.10 
##DATA TYPE=MASS SPECTRUM
##SAMPLE DESCRIPTION=NIST Mass Spectrometry Data Center
##NAMES=HP
##CAS NAME=Acetic acid, (acetyloxy)-, ethyl ester
##MOLFORM=C6H10O4
##CAS REGISTRY NO=623-86-9
##MP= -300
##BP= -300
##MW= 146
##$RETENTION INDEX=0
##$CONDENSED SPECTRUM=NO
##NPOINTS= 46
##XYDATA=(XY..XY) 1 
    14          4
    15         18
    16          1
    19          1
    26          6
    27         37
    28         11
    29        119
    30         10
    31         30
    32          1
    41          6
    42         78
    43        999
    44         29
    45         20
    46          1
    47          1
    49          1
    57          5
    58         16
    59         22
    60          2
    61          4
    70          1
    71          1
    73        137
    74        127
    75         18
    76          7
    77          1
    86          4
    87         15
    88          2
    89          1
    91          1
   101        142
   102          8
   103          4
   104         18
   105          1
   116         25
   117          1
   119         24
   120          1
   146          3