##TITLE=Library Entry 3863
##JCAMP-DX=Revision 4.10 
##DATA TYPE=MASS SPECTRUM
##SAMPLE DESCRIPTION=Exported from NIST MS Search
##NAMES=HP
##CAS NAME=2-Pentenal, 2-methyl-
##MOLFORM=C6H10O
##CAS REGISTRY NO=623-36-9
##MP= -300
##BP= -300
##MW= 98
##$RETENTION INDEX=837
##$CONDENSED SPECTRUM=NO
##NPOINTS= 64
##XYDATA=(XY..XY) 1 
    15         13
    25          1
    26         23
    27        247
    28         46
    29        272
    30          6
    31         21
    32          3
    35          2
    36         17
    37         16
    38         37
    39        306
    40         40
    41        999
    42        109
    43        179
    44         10
    45         21
    49          5
    50         28
    51         40
    52         16
    53         39
    54         32
    55        275
    56         64
    57         31
    58         31
    59          3
    60          2
    61          7
    62         12
    63         15
    64          2
    65         26
    66          7
    67         61
    68         11
    69        470
    70         46
    71         32
    72          2
    73          8
    74         29
    75          1
    77         14
    78          2
    79         66
    80          9
    81         10
    82          4
    83        196
    84         13
    85          6
    86          1
    87          4
    95          4
    96          2
    97         86
    98        763
    99         62
   100          5