##TITLE=Library Entry 58646
##JCAMP-DX=Revision 4.10 
##DATA TYPE=MASS SPECTRUM
##SAMPLE DESCRIPTION=Exported from NIST MS Search
##NAMES=HP
##CAS NAME=Carbonodithioic acid, S,S-diethyl ester
##MOLFORM=C5H10OS2
##CAS REGISTRY NO=623-80-3
##MP= -300
##BP= -300
##MW= 150
##$RETENTION INDEX=0
##$CONDENSED SPECTRUM=NO
##NPOINTS= 28
##XYDATA=(XY..XY) 1 
    43          5
    44         44
    45        101
    46        101
    47        235
    48          5
    49         11
    58         56
    59        101
    60         78
    61        241
    62        174
    63         28
    64         28
    66         56
    75        123
    76         56
    89        999
    90         44
    91         56
    93         39
    94         78
   122        348
   123         22
   124         22
   150        634
   151         50
   152         73