##TITLE=Library Entry 21367
##JCAMP-DX=Revision 4.10 
##DATA TYPE=MASS SPECTRUM
##SAMPLE DESCRIPTION=NIST Mass Spectrometry Data Center, 1994
##NAMES=HP
##CAS NAME=(R)-(+)-3-Methyladipic acid
##MOLFORM=C7H12O4
##CAS REGISTRY NO=623-82-5
##MP= -300
##BP= -300
##MW= 160
##$RETENTION INDEX=0
##$CONDENSED SPECTRUM=NO
##NPOINTS= 70
##XYDATA=(XY..XY) 1 
    14         11
    15         50
    16          6
    17          0
    18          8
    19         11
    26         48
    27        422
    28        194
    29        309
    30         18
    31        117
    32         23
    37         11
    39        424
    40         69
    41        601
    42        295
    43        496
    44         11
    45        680
    46         18
    47         10
    50         22
    51         42
    53        118
    55        999
    56        154
    57        155
    58         70
    59        531
    60        415
    61         18
    63          8
    65         15
    66          7
    67         51
    68        205
    69        371
    70         49
    71        108
    72         80
    73        279
    74         49
    77          9
    81         39
    82        151
    83        704
    84         39
    85         64
    86         69
    87        125
    88         25
    96        165
    97         58
    98         19
    99         96
   100        170
   101        542
   102         30
   109         10
   114        837
   115         62
   116          9
   124         26
   125         38
   127         21
   133         10
   142         20
   143         17