##TITLE=Library Entry 910
##JCAMP-DX=Revision 4.10 
##DATA TYPE=MASS SPECTRUM
##SAMPLE DESCRIPTION=Japan AIST/NIMC Database- Spectrum MS-NW-5811
##NAMES=HP
##CAS NAME=Carbamic acid, ethyl-, ethyl ester
##MOLFORM=C5H11NO2
##CAS REGISTRY NO=623-78-9
##MP= -300
##BP= -300
##MW= 117
##$RETENTION INDEX=0
##$CONDENSED SPECTRUM=NO
##NPOINTS= 61
##XYDATA=(XY..XY) 1 
    12          1
    13          2
    14          9
    15         57
    16          3
    17          1
    18          3
    25          3
    26         30
    27        227
    28        107
    29        806
    30        999
    31         78
    32          2
    38          2
    39          4
    40         11
    41         17
    42         50
    43         43
    44        296
    45        115
    46         25
    47          6
    50          1
    51          1
    54          1
    55          3
    56         62
    57          3
    58         84
    59          5
    60          1
    61          6
    62         23
    66          1
    70          9
    71         34
    72        358
    73         31
    74        108
    75          4
    84          1
    86          4
    87          2
    88        279
    89        105
    90         12
    91          1
   100          2
   101          1
   102        410
   103         21
   104          3
   105          1
   115          1
   116          8
   117        105
   118          9
   119          1