##TITLE=Library Entry 16692
##JCAMP-DX=Revision 4.10 
##DATA TYPE=MASS SPECTRUM
##SAMPLE DESCRIPTION=Japan AIST/NIMC Database- Spectrum MS-IW-2906
##NAMES=HP
##CAS NAME=Carbonic acid, ethyl-, methyl ester
##MOLFORM=C4H8O3
##CAS REGISTRY NO=623-53-0
##MP= -300
##BP= -300
##MW= 104
##$RETENTION INDEX=0
##$CONDENSED SPECTRUM=NO
##NPOINTS= 46
##XYDATA=(XY..XY) 1 
    13          1
    14          9
    15        192
    16          5
    18          1
    25          2
    26         33
    27        218
    28        163
    29        788
    30         37
    31        586
    32         17
    33         73
    34          1
    39          1
    40          1
    41         15
    42          9
    43         58
    44         27
    45        999
    46         42
    47         18
    55          1
    56          2
    57          2
    58          3
    59        306
    60         22
    61         14
    62          9
    63         85
    64          1
    65          1
    73          4
    74          2
    75         10
    76         16
    77        399
    78          9
    79          3
    89          5
   103          1
   104          3
   105          1