##TITLE=Library Entry 1029
##JCAMP-DX=Revision 4.10 
##DATA TYPE=MASS SPECTRUM
##SAMPLE DESCRIPTION=Japan AIST/NIMC Database- Spectrum MS-NW- 205
##NAMES=HP
##CAS NAME=Urea, N,N'-diethyl-
##MOLFORM=C5H12N2O
##CAS REGISTRY NO=623-76-7
##MP= -300
##BP= -300
##MW= 116
##$RETENTION INDEX=0
##$CONDENSED SPECTRUM=NO
##NPOINTS= 43
##XYDATA=(XY..XY) 1 
    14          3
    15         29
    16          1
    17          1
    18          9
    26          9
    27        103
    28         85
    29        186
    30        999
    31         12
    38          1
    39          2
    40         10
    41         17
    42         63
    43         39
    44        517
    45         39
    46         22
    50          5
    55          1
    56         12
    57          1
    58          9
    59          1
    60         21
    61          1
    70          2
    71          4
    72         63
    73         39
    74          2
    85          1
    86          1
    87          3
    88         15
   101         35
   102          2
   115          1
   116        457
   117         67
   118          4