##TITLE=Library Entry 637
##JCAMP-DX=Revision 4.10 
##DATA TYPE=MASS SPECTRUM
##SAMPLE DESCRIPTION=Japan AIST/NIMC Database- Spectrum MS-NW-2895
##NAMES=HP
##CAS NAME=Ethane, 1,2-dichloro-1-ethoxy-
##MOLFORM=C4H8Cl2O
##CAS REGISTRY NO=623-46-1
##MP= -300
##BP= -300
##MW= 142
##$RETENTION INDEX=865
##$CONDENSED SPECTRUM=NO
##NPOINTS= 86
##XYDATA=(XY..XY) 1 
    12          2
    13          7
    14         32
    15         88
    16          2
    17          2
    18          7
    19          1
    24          1
    25          5
    26         70
    27        366
    28         54
    29        999
    30         20
    31        113
    32          6
    35         17
    36        153
    37          6
    38         50
    39          8
    40          1
    41         26
    42        138
    43        189
    44         50
    45        118
    46          5
    47         51
    48         18
    49         69
    50         40
    51         22
    52         10
    53          1
    55          1
    57          7
    58          5
    59         27
    60          5
    61         65
    62          9
    63         26
    64          3
    65         99
    66          3
    67         32
    69          3
    70          2
    71          4
    72         10
    73          2
    75         28
    76          9
    77          9
    78        706
    79        337
    80        229
    81        104
    82          3
    88          1
    89          3
    91          4
    92          2
    93        396
    94         14
    95        123
    96          5
    97         33
    98          2
    99         22
   101          3
   103         38
   104          2
   105          3
   106        240
   107        201
   108         83
   109         60
   110          3
   113          1
   120          2
   127          1
   129          1
   141          1