##TITLE=Library Entry 10098
##JCAMP-DX=Revision 4.10 
##DATA TYPE=MASS SPECTRUM
##SAMPLE DESCRIPTION=NIST Mass Spectrometry Data Center
##NAMES=HP
##CAS NAME=1,2-Propanediol, diacetate
##MOLFORM=C7H12O4
##CAS REGISTRY NO=623-84-7
##MP= -300
##BP= -300
##MW= 160
##$RETENTION INDEX=1019
##$CONDENSED SPECTRUM=NO
##NPOINTS= 45
##XYDATA=(XY..XY) 1 
    14         10
    15         68
    19          1
    25          2
    26          4
    27         22
    28         15
    29         29
    30          3
    31         12
    38          3
    39         18
    40          7
    41         24
    42         50
    43        999
    44         25
    45         20
    55          1
    56          1
    57          7
    58         24
    59          5
    60          1
    61         10
    70          1
    72         15
    73         27
    74         12
    75          3
    76          1
    85          1
    86         43
    87        123
    88         10
    89          1
    92          1
   100         54
   101          7
   103         16
   116         69
   117         23
   118          4
   130          2
   145          1