##TITLE=Library Entry 17274
##JCAMP-DX=Revision 4.10 
##DATA TYPE=MASS SPECTRUM
##SAMPLE DESCRIPTION=Exported from NIST MS Search
##NAMES=HP
##CAS NAME=2-Propanol, 1,3-dimethoxy-
##MOLFORM=C5H12O3
##CAS REGISTRY NO=623-69-8
##MP= -300
##BP= -300
##MW= 120
##$RETENTION INDEX=0
##$CONDENSED SPECTRUM=NO
##NPOINTS= 73
##XYDATA=(XY..XY) 1 
    14          5
    15         95
    16          3
    17         19
    18         79
    19          6
    26          3
    27         22
    28         32
    29         93
    30          8
    31         76
    32          8
    33         33
    36          6
    38          3
    39          9
    40          2
    41         20
    42         16
    43        268
    44         66
    45        999
    46         34
    47         27
    48          1
    49          2
    51          1
    53          1
    54          1
    55          5
    56          5
    57         24
    58         25
    59         36
    60         23
    61         11
    62          4
    63          2
    64          2
    68          1
    69          1
    70          5
    71        141
    72         44
    73         11
    74         65
    75        406
    76         18
    77         22
    78          1
    79         13
    81          5
    85          2
    86          2
    87         10
    88         73
    89         14
    90          2
    91          3
    93          1
    99          2
   100          1
   101         17
   102         60
   103         11
   104          1
   105          1
   115          2
   116          2
   117         19
   118          3
   119          3