##TITLE=Library Entry 50579
##JCAMP-DX=Revision 4.10 
##DATA TYPE=MASS SPECTRUM
##SAMPLE DESCRIPTION=Exported from NIST MS Search
##NAMES=HP
##CAS NAME=2-Furanmethanol, propanoate
##MOLFORM=C8H10O3
##CAS REGISTRY NO=623-19-8
##MP= -300
##BP= -300
##MW= 154
##$RETENTION INDEX=1096
##$CONDENSED SPECTRUM=NO
##NPOINTS= 73
##XYDATA=(XY..XY) 1 
    14          6
    15         10
    17          6
    18         24
    25          4
    26         34
    27        191
    28        113
    29        304
    30         18
    31         15
    32          9
    36          3
    37          8
    38         20
    39         68
    40          8
    41         45
    42         37
    43         19
    44         22
    45         54
    46          7
    47          4
    49          3
    50         24
    51         51
    52        264
    53        235
    54         16
    55         34
    56         17
    57        382
    58         15
    59          5
    63          3
    66          3
    67          5
    68          8
    69         31
    70         27
    71          5
    73         47
    74         75
    75         22
    77          2
    79          9
    80        176
    81        999
    82         59
    83         14
    84          5
    85          4
    87          3
    94          3
    95         30
    96         12
    97         97
    98        544
    99         32
   100          4
   107          2
   109          2
   110          3
   111          3
   113          4
   126          2
   127          2
   140          3
   142          3
   154        386
   155         35
   156          4