##TITLE=Library Entry 5514
##JCAMP-DX=Revision 4.10 
##DATA TYPE=MASS SPECTRUM
##SAMPLE DESCRIPTION=Exported from NIST MS Search
##NAMES=HP
##CAS NAME=Carbonic acid, dipropyl ester
##MOLFORM=C7H14O3
##CAS REGISTRY NO=623-96-1
##MP= -300
##BP= -300
##MW= 146
##$RETENTION INDEX=0
##$CONDENSED SPECTRUM=NO
##NPOINTS= 67
##XYDATA=(XY..XY) 1 
    12          2
    13          2
    14         12
    15         57
    16          3
    17          1
    18          2
    19          2
    24          1
    25          2
    26         34
    27        356
    28         72
    29        165
    30         47
    31         83
    32          2
    33          1
    36          1
    37          4
    38         10
    39        100
    40         20
    41        289
    42        151
    43        999
    44         42
    45         37
    46          1
    47          1
    52          1
    53          1
    54          1
    55          8
    56          8
    57         27
    58         16
    59        178
    60          7
    61          1
    63        321
    64          4
    65          2
    69          1
    70          1
    71          1
    72          1
    73          5
    74          1
    75          1
    76          2
    77          1
    84          1
    87          1
    88          1
    89          4
    90          1
    91          1
   103          1
   104         49
   105         35
   106          2
   107          1
   118          1
   119          1
   131          1
   146          1