##TITLE=Library Entry 82936
##JCAMP-DX=Revision 4.10 
##DATA TYPE=MASS SPECTRUM
##SAMPLE DESCRIPTION=Japan AIST/NIMC Database- Spectrum MS-NW-9412
##NAMES=HP
##CAS NAME=Benzenemethanol, 4-amino-
##MOLFORM=C7H9NO
##CAS REGISTRY NO=623-04-1
##MP= -300
##BP= -300
##MW= 123
##$RETENTION INDEX=0
##$CONDENSED SPECTRUM=NO
##NPOINTS= 70
##XYDATA=(XY..XY) 1 
    26         12
    27         58
    28        233
    29         47
    30         34
    31         56
    32         35
    36          2
    37         18
    38         47
    39        210
    40         45
    41        121
    42         37
    43         15
    44         15
    45          8
    46         15
    47          5
    49          8
    50         66
    51        153
    52        148
    53         66
    54         42
    55         12
    56          5
    57         12
    58          2
    60          8
    61         28
    62         34
    63         72
    64         34
    65        210
    66        107
    67         83
    68          9
    69          2
    73          2
    74         15
    75         15
    76         23
    77        539
    78        216
    79        148
    80         42
    81          5
    83          2
    85          2
    87          2
    89         12
    90          5
    91         18
    92         91
    93        145
    94        694
    95         75
    96          5
   102          2
   104         64
   105        129
   106        999
   107        183
   108          9
   120         58
   121         18
   122        569
   123        814
   124         66