##TITLE=Library Entry 27811
##JCAMP-DX=Revision 4.10 
##DATA TYPE=MASS SPECTRUM
##SAMPLE DESCRIPTION=RADIAN CORP
##NAMES=HP
##CAS NAME=1,2-Propanediol, 3-(dimethylamino)-
##MOLFORM=C5H13NO2
##CAS REGISTRY NO=623-57-4
##MP= -300
##BP= -300
##MW= 119
##$RETENTION INDEX=0
##$CONDENSED SPECTRUM=NO
##NPOINTS= 33
##XYDATA=(XY..XY) 1 
    14          6
    15         25
    16          6
    18         10
    27         15
    28         45
    29         60
    30         99
    31         50
    39          3
    40         14
    41         26
    42        190
    43         78
    44        150
    45         41
    46          3
    55          9
    56         31
    57         48
    58        999
    59         46
    70         19
    71          7
    72         22
    73         33
    77          2
    84          8
    86          9
    87          6
    88         90
    89          2
   119          8