##TITLE=Library Entry 777
##JCAMP-DX=Revision 4.10 
##DATA TYPE=MASS SPECTRUM
##SAMPLE DESCRIPTION=Exported from NIST MS Search
##NAMES=HP
##CAS NAME=Carbonodithioic acid, O,S-diethyl ester
##MOLFORM=C5H10OS2
##CAS REGISTRY NO=623-79-0
##MP= -300
##BP= -300
##MW= 150
##$RETENTION INDEX=0
##$CONDENSED SPECTRUM=NO
##NPOINTS= 33
##XYDATA=(XY..XY) 1 
    26         56
    27        275
    28        320
    29        999
    30         33
    32         11
    33          5
    34         39
    35         50
    58         11
    59         28
    60         44
    61        134
    62        146
    63          5
    64         11
    75         84
    76        112
    77         95
    78         44
    79         22
    89         95
    93         16
    94         44
   105         39
   106         67
   107         11
   122        118
   123         11
   124         16
   150        533
   151         39
   152         56