##TITLE=Library Entry 1444
##JCAMP-DX=Revision 4.10 
##DATA TYPE=MASS SPECTRUM
##SAMPLE DESCRIPTION=NIST Mass Spectrometry Data Center, 1998.
##NAMES=HP
##CAS NAME=Acetic acid, hydroxy-, ethyl ester
##MOLFORM=C4H8O3
##CAS REGISTRY NO=623-50-7
##MP= -300
##BP= -300
##MW= 104
##$RETENTION INDEX=1436
##$CONDENSED SPECTRUM=NO
##NPOINTS= 41
##XYDATA=(XY..XY) 1 
    13          1
    14          4
    15          9
    16          1
    17          1
    25          2
    26         27
    27        187
    28         46
    29        554
    30         47
    31        999
    32         37
    33          7
    39          1
    40          1
    41          9
    42         82
    43         57
    44         16
    45        254
    46         11
    47         14
    49          4
    56          3
    57          2
    58         14
    59         83
    60          5
    61        187
    62          4
    63          1
    73          7
    74          5
    75         15
    76         42
    77          9
    86          1
    89          2
   104          7
   105          2