##TITLE=Library Entry 35585
##JCAMP-DX=Revision 4.10 
##DATA TYPE=MASS SPECTRUM
##SAMPLE DESCRIPTION=NIST Mass Spectrometry Data Center, 1990.
##NAMES=HP
##CAS NAME=5-Nonanol
##MOLFORM=C9H20O
##CAS REGISTRY NO=623-93-8
##MP= -300
##BP= -300
##MW= 144
##$RETENTION INDEX=1474
##$CONDENSED SPECTRUM=NO
##NPOINTS= 37
##XYDATA=(XY..XY) 1 
    15         11
    27        145
    28         40
    29        195
    30          9
    31         52
    39         96
    41        408
    42         49
    43        140
    44         67
    45         79
    51          6
    53         23
    54         21
    55        143
    56         61
    57        138
    58         38
    59          7
    65          4
    67         25
    69        999
    70         87
    71         13
    81          3
    82          5
    83         17
    84         14
    85         14
    86         53
    87        460
    88         26
    97         15
    98          5
   126         41
   127          4