##TITLE=Library Entry 5604
##JCAMP-DX=Revision 4.10 
##DATA TYPE=MASS SPECTRUM
##SAMPLE DESCRIPTION=Japan AIST/NIMC Database- Spectrum MS-NW-2993
##NAMES=HP
##CAS NAME=1-Acetyl-3-methylurea
##MOLFORM=C4H8N2O2
##CAS REGISTRY NO=623-59-6
##MP= -300
##BP= -300
##MW= 116
##$RETENTION INDEX=0
##$CONDENSED SPECTRUM=NO
##NPOINTS= 49
##XYDATA=(XY..XY) 1 
    12          4
    13          6
    14         28
    15        249
    16          9
    17          2
    25          2
    26          6
    27         48
    28        227
    29         40
    30        909
    31        214
    32          9
    38          9
    39         10
    40         24
    41         43
    42        128
    43        999
    44        255
    45         13
    46          2
    53          1
    54          5
    55         15
    56         71
    57        263
    58        394
    59        257
    60        104
    61          3
    69          1
    70         38
    71          1
    72          2
    73         30
    74         78
    75         11
    85          8
    86          6
    87          5
    88          9
    98          2
    99          1
   101         17
   116        345
   117         17
   118          2