##TITLE=Library Entry 77785
##JCAMP-DX=Revision 4.10 
##DATA TYPE=MASS SPECTRUM
##SAMPLE DESCRIPTION=Japan AIST/NIMC Database- Spectrum MS-NW-1841
##NAMES=HP
##CAS NAME=Benzene, 1,4-bis(bromomethyl)-
##MOLFORM=C8H8Br2
##CAS REGISTRY NO=623-24-5
##MP= -300
##BP= -300
##MW= 262
##$RETENTION INDEX=0
##$CONDENSED SPECTRUM=NO
##NPOINTS= 72
##XYDATA=(XY..XY) 1 
    15          1
    25          1
    26         15
    27         40
    36          1
    37         12
    38         38
    39        108
    40          8
    41          5
    44          1
    49         11
    50        126
    51        293
    52        108
    53         17
    54          2
    60          1
    61         11
    62         37
    63         85
    64         16
    65         23
    66          3
    73          6
    74         39
    75         35
    76         44
    77        190
    78        154
    79         14
    80          7
    81         14
    82          8
    85          3
    86          5
    87          8
    88          2
    89         17
    90          4
    91         20
    92         18
    93          2
    95          2
    97          1
    98          5
    99          2
   101          6
   102         56
   103        166
   104        999
   105         93
   106          4
   117          1
   119          1
   139          4
   141          2
   169          1
   171          1
   182         25
   183        461
   184         63
   185        466
   186         41
   187          2
   261          9
   262         19
   263         17
   264         37
   265         10
   266         18
   267          1