##TITLE=Library Entry 50573
##JCAMP-DX=Revision 4.10 
##DATA TYPE=MASS SPECTRUM
##SAMPLE DESCRIPTION=Japan AIST/NIMC Database- Spectrum MS-NW- 538
##NAMES=HP
##CAS NAME=2-Furanmethanol, acetate
##MOLFORM=C7H8O3
##CAS REGISTRY NO=623-17-6
##MP= -300
##BP= -300
##MW= 140
##$RETENTION INDEX=995
##$CONDENSED SPECTRUM=NO
##NPOINTS= 63
##XYDATA=(XY..XY) 1 
    12          1
    13          5
    14         25
    15         85
    16          2
    17          5
    18         25
    25          2
    26         24
    27        163
    28         33
    29         56
    30          2
    31          5
    32          3
    36          1
    37         15
    38         33
    39        108
    40         10
    41         78
    42         66
    43        588
    44         16
    45         22
    49          5
    50         36
    51         75
    52        420
    53        336
    54         15
    55         17
    56          2
    57          1
    60         15
    61         18
    62          1
    65          1
    66          2
    67          3
    68          9
    69         52
    70         36
    71          7
    73          2
    79         11
    80        217
    81        999
    82         56
    83          6
    84          2
    87          1
    91          2
    94          1
    95         29
    96          8
    97        121
    98        662
    99         38
   100          3
   140        427
   141         33
   142          4