##TITLE=Library Entry 20291
##JCAMP-DX=Revision 4.10 
##DATA TYPE=MASS SPECTRUM
##SAMPLE DESCRIPTION=COMPAGNIE FRANCAISE DE RAFFINAGE, FRANCE.
##NAMES=HP
##CAS NAME=Butane, 1,4-dichloro-2-methyl-
##MOLFORM=C5H10Cl2
##CAS REGISTRY NO=623-34-7
##MP= -300
##BP= -300
##MW= 140
##$RETENTION INDEX=910
##$CONDENSED SPECTRUM=NO
##NPOINTS= 74
##XYDATA=(XY..XY) 1 
    25          1
    26         33
    27        273
    28         53
    29        279
    30          6
    31          2
    35          9
    36         60
    37         13
    38         38
    39        213
    40         36
    41        421
    42        179
    43         30
    47          3
    48          4
    49         92
    50         19
    51         59
    52          8
    53        125
    54         20
    55        999
    56         50
    57          4
    60          2
    61         18
    62         22
    63        135
    64          9
    65         47
    66          4
    67         36
    68        103
    69        607
    70         36
    71          2
    73          6
    75         37
    76         64
    77         92
    78         23
    79         26
    83          4
    85          3
    87          4
    88          1
    89         54
    90         61
    91        421
    92         37
    93        132
    94          6
    96          1
    97          7
    98          1
   103         22
   104        208
   105         19
   106         67
   107          4
   109          1
   110          1
   111          1
   112          1
   123          3
   125          3
   127          1
   138          2
   139          6
   140          1
   141          4