##TITLE=Library Entry 17863
##JCAMP-DX=Revision 4.10 
##DATA TYPE=MASS SPECTRUM
##SAMPLE DESCRIPTION=MINISTRY OF TECH. E.R.D.E., WALTHAM ABBEY, UK
##NAMES=HP
##CAS NAME=1,2,3-Propanetriol, 1,3-dinitrate
##MOLFORM=C3H6N2O7
##CAS REGISTRY NO=623-87-0
##MP= -300
##BP= -300
##MW= 182
##$RETENTION INDEX=0
##$CONDENSED SPECTRUM=NO
##NPOINTS= 32
##XYDATA=(XY..XY) 1 
    12          3
    13          4
    14          8
    15         32
    16          6
    17         21
    18         74
    19          7
    20          3
    25          2
    26         19
    27         51
    28        133
    29        214
    30        508
    31        279
    32         82
    39         18
    41         22
    42         29
    43        279
    44         63
    45         64
    46        999
    47          5
    55         17
    57         16
    58         64
    60         63
    61         30
    73         29
    76         72