##TITLE=Library Entry 24623
##JCAMP-DX=Revision 4.10 
##DATA TYPE=MASS SPECTRUM
##SAMPLE DESCRIPTION=S. GRIFF, 5 OAKWOOD TERRACE, ROCKAWAY, N.J., USA
##NAMES=HP
##CAS NAME=Carbonic acid, bis(1-methylpropyl) ester
##MOLFORM=C9H18O3
##CAS REGISTRY NO=623-63-2
##MP= -300
##BP= -300
##MW= 174
##$RETENTION INDEX=0
##$CONDENSED SPECTRUM=NO
##NPOINTS= 22
##XYDATA=(XY..XY) 1 
    27         10
    28         60
    29        380
    31         20
    39         80
    41        420
    42         40
    43        130
    44         50
    45        540
    55         70
    56        280
    57        999
    58         50
    59        210
    63         30
    73         60
    83         50
   101         30
   115         10
   118         80
   119         40