##TITLE=Library Entry 80206
##JCAMP-DX=Revision 4.10 
##DATA TYPE=MASS SPECTRUM
##SAMPLE DESCRIPTION=TNO Volatile Compounds in Food - Chemical Concepts
##NAMES=HP
##CAS NAME=Benzene, (1-ethoxyethenyl)-
##MOLFORM=C10H12O
##CAS REGISTRY NO=6230-62-2
##MP= -300
##BP= -300
##MW= 148
##$RETENTION INDEX=1166
##$CONDENSED SPECTRUM=NO
##NPOINTS= 80
##XYDATA=(XY..XY) 1 
    20          2
    24          0
    25         20
    26         22
    27        132
    28          3
    29        119
    30         10
    31         20
    32          2
    33          4
    36          8
    37         36
    38         41
    39        106
    40         57
    41         40
    42         57
    43         98
    44         19
    45          4
    47          1
    48          2
    49         20
    50        154
    51        351
    52         60
    53         55
    55          4
    57          9
    59         19
    60          5
    61          9
    62         14
    63         58
    64         10
    65         94
    66          5
    67          1
    70          3
    73          5
    74         25
    75         47
    76         57
    77        529
    78        607
    79         46
    80          3
    83          1
    85          3
    86          0
    87          4
    89         17
    90         12
    91        238
    92         34
    95          0
    98          2
   101          4
   102         45
   103        184
   104        396
   105        999
   106         78
   107          4
   112          1
   115          2
   117          2
   118          1
   119         11
   120        290
   121         25
   128          9
   129          5
   133         33
   134          5
   145          2
   147        173
   148        358
   149         36