##TITLE=Library Entry 6966
##JCAMP-DX=Revision 4.10 
##DATA TYPE=MASS SPECTRUM
##SAMPLE DESCRIPTION=Div. of Experiment Therapeutics WRAIR, WRAMC, Washingto
n DC 20307
##NAMES=HP
##CAS NAME=3-Acetoxy-4-cyano-2,5-dimethylpyridine
##MOLFORM=C10H10N2O2
##CAS REGISTRY NO=62312-44-1
##MP= -300
##BP= -300
##MW= 190
##$RETENTION INDEX=0
##$CONDENSED SPECTRUM=NO
##NPOINTS= 82
##XYDATA=(XY..XY) 1 
    41        142
    42        444
    43        999
    44         26
    45         23
    47          3
    48          1
    49         33
    50        180
    51        409
    52        484
    53        147
    54         62
    55         60
    56          6
    57          3
    58          1
    59          1
    60          7
    61         14
    62         31
    63        133
    64         83
    65        100
    66        120
    67         47
    68         14
    69          3
    70          0
    71          2
    73          2
    74          9
    75         33
    76         56
    77         35
    78        149
    79         85
    80         14
    81          4
    82          2
    83          0
    84          0
    85          0
    86          2
    87          2
    88          3
    89          2
    90          5
    91          7
    92         23
    93         87
    94          8
    96          1
    99          1
   101          1
   102          2
   103          4
   104          5
   105         29
   106         11
   107          4
   108          2
   111          0
   119        342
   120         78
   121         12
   122          2
   123          0
   124          0
   129          2
   130          1
   131          0
   133          2
   135          3
   139          0
   148        308
   149         34
   150          1
   151          0
   189          1
   190         10
   191          0