##TITLE=Library Entry 48208
##JCAMP-DX=Revision 4.10 
##DATA TYPE=MASS SPECTRUM
##SAMPLE DESCRIPTION=D.HENNEBERG, MAX-PLANCK INSTITUTE, MULHEIM, WEST GERMAN
Y
##NAMES=HP
##CAS NAME=Titanium, di-.mu.-bromobis(.eta.8-1,3,5,7-cyclooctatetraene)di-
##MOLFORM=C16H16Br2Ti2
##CAS REGISTRY NO=62319-91-9
##MP= -300
##BP= -300
##MW= 462
##$RETENTION INDEX=0
##$CONDENSED SPECTRUM=NO
##NPOINTS= 225
##XYDATA=(XY..XY) 1 
    27         91
    28         22
    29         18
    30          7
    31          3
    36          4
    37         36
    38         56
    39        240
    40         17
    41         56
    42         15
    43         41
    44         36
    45          5
    46          8
    47          6
    48         72
    49         32
    50        198
    51        313
    52        193
    53         31
    54         10
    55         23
    56         10
    57         37
    61         14
    62         40
    63         90
    64         15
    65         54
    66         10
    67         32
    68          5
    69         10
    70          8
    71         10
    72         10
    73         50
    74         78
    75         51
    76         82
    77        394
    78        999
    79        151
    80         26
    81         15
    82         14
    83          8
    84          4
    85         13
    86         11
    87          6
    89         26
    90          8
    91        160
    92         68
    93         26
    94          6
    95          8
    96          6
    97         16
    98         35
    99         14
   100          5
   101         12
   102         98
   103        496
   104        842
   105        220
   106         42
   107         31
   108          8
   109          4
   110          5
   111          6
   112          6
   113         30
   114          6
   115         26
   116         13
   117         44
   118         16
   119         11
   120          6
   121          7
   122          7
   123         10
   124         30
   125         22
   126         37
   127        211
   128         34
   129        182
   130         17
   131         27
   132         10
   133         10
   134          4
   135          4
   136          2
   137          3
   138          1
   139          3
   140          1
   141         14
   142          8
   143         18
   144         10
   145         10
   146          4
   147          3
   148          8
   149         11
   150         70
   151         21
   152         77
   153         20
   154         26
   155         13
   156          6
   157          6
   158          3
   159          5
   160          2
   161          5
   162          1
   163          3
   164          3
   165         10
   166          6
   167         14
   168          6
   169         11
   170          5
   171          6
   172          3
   173          2
   174          1
   175          2
   176          4
   177         11
   178         12
   179         14
   180          7
   181         13
   182         13
   183          7
   184         10
   185          7
   186          4
   187         14
   188          2
   189          6
   190          5
   191          5
   192         21
   193          7
   194         20
   195          6
   196          2
   197          4
   198          1
   199          3
   200          3
   201          3
   202          5
   203         25
   204         24
   205        170
   206         54
   207        163
   208         46
   209         23
   210         20
   211         13
   212         11
   213          8
   214          3
   215          1
   216          2
   217          2
   227         10
   228          6
   229        104
   230         70
   231        588
   232        150
   233        548
   234         90
   235         45
   236          6
   279          3
   280          5
   281          5
   282          5
   283          3
   284         10
   285          3
   286         16
   287          3
   288          8
   308          3
   309          1
   310         10
   311          3
   312         16
   313          6
   314          7
   315          4
   316          5
   317          2
   318          5
   319          1
   320          3
   360          3
   361          4
   362         17
   363         11
   364         30
   365         12
   366         17
   367          5
   368          2