##TITLE=Library Entry 15286
##JCAMP-DX=Revision 4.10 
##DATA TYPE=MASS SPECTRUM
##SAMPLE DESCRIPTION=A.A.Kutin, Moscow, Russia
##NAMES=HP
##CAS NAME=Propenoic acid, 2-cyano-3-dimethylaminomethylenamino-, ethyl este
r
##MOLFORM=C9H13N3O2
##CAS REGISTRY NO=62322-00-3
##MP= -300
##BP= -300
##MW= 195
##$RETENTION INDEX=0
##$CONDENSED SPECTRUM=NO
##NPOINTS= 122
##XYDATA=(XY..XY) 1 
    33         31
    34          2
    38         16
    39         20
    40         75
    41         69
    42        976
    43          5
    44        999
    45          1
    46         11
    47          0
    48          0
    49          0
    50          5
    51        106
    52        107
    53         45
    54         23
    55         21
    56         32
    57        115
    58         12
    59          4
    60          1
    61          3
    62          0
    63          1
    64          3
    65          7
    66         10
    67         20
    68         33
    69         25
    70         15
    71         15
    72         84
    73          7
    74         11
    76          9
    77         16
    78         21
    79         48
    80         58
    81         87
    82         34
    83        118
    84          7
    85          1
    86          0
    87          0
    89          0
    91          3
    92          3
    93         10
    94         13
    95         42
    96         44
    97         24
    98         17
    99         12
   100          1
   101          0
   102          0
   103          0
   104          1
   105          4
   106         14
   107         33
   108         19
   109         10
   110          1
   111          3
   112          2
   113          0
   114          0
   115          0
   116          0
   117          0
   119          2
   120         14
   121         26
   122        128
   123        149
   124         15
   125          7
   126          2
   127          4
   128          1
   129          0
   132          0
   133          1
   134          8
   135          1
   136          1
   137          1
   138          2
   139          7
   140          1
   141          1
   142          0
   145          0
   146          0
   148         43
   149         21
   150        179
   151         18
   152          4
   153          1
   154          0
   163          0
   166         67
   167         10
   168          1
   169          0
   176          0
   180          2
   181          0
   191          0
   195        157
   196         15
   197          1