##TITLE=Library Entry 9154
##JCAMP-DX=Revision 4.10 
##DATA TYPE=MASS SPECTRUM
##SAMPLE DESCRIPTION=D.HENNEBERG, MAX-PLANCK INSTITUTE, MULHEIM, WEST GERMAN
Y
##NAMES=HP
##CAS NAME=Ethanone, 1-[2-(1-hydroxy-1-methylethyl)cyclopropyl]-
##MOLFORM=C8H14O2
##CAS REGISTRY NO=62337-92-2
##MP= -300
##BP= -300
##MW= 142
##$RETENTION INDEX=0
##$CONDENSED SPECTRUM=NO
##NPOINTS= 80
##XYDATA=(XY..XY) 1 
    26         11
    27         22
    28         47
    29         26
    30          0
    31         31
    32          0
    33          0
    34          0
    37          0
    38          1
    39         22
    40          7
    41         59
    42          7
    43        999
    44         25
    45         12
    46          0
    49          0
    50          1
    51          1
    52          1
    53         15
    54          8
    55         89
    56          6
    57        106
    58         23
    59        101
    60          3
    61          0
    65          5
    66          3
    67         26
    68          7
    69         77
    70          4
    71        102
    72        272
    73         11
    74          0
    77          3
    78          0
    79         10
    80          2
    81         26
    82         11
    83         30
    84         72
    85        180
    86         10
    87          1
    91          2
    92          0
    93          1
    94          2
    95          1
    96          0
    97          2
    98          0
    99         13
   100          4
   105          0
   106          0
   107          2
   108          0
   109        110
   110          8
   111          4
   112          0
   114          0
   123          1
   124          5
   125          5
   126          0
   127         51
   128          3
   129          0
   142          0