##TITLE=Library Entry 2912
##JCAMP-DX=Revision 4.10 
##DATA TYPE=MASS SPECTRUM
##SAMPLE DESCRIPTION=D.HENNEBERG, MAX-PLANCK INSTITUTE, MULHEIM, WEST GERMAN
Y
##NAMES=HP
##CAS NAME=1-Cyclodecanecarboxylic acid, 1-methyl-, methyl ester
##MOLFORM=C13H24O2
##CAS REGISTRY NO=62338-20-9
##MP= -300
##BP= -300
##MW= 212
##$RETENTION INDEX=0
##$CONDENSED SPECTRUM=NO
##NPOINTS= 121
##XYDATA=(XY..XY) 1 
    26         21
    27        359
    28        124
    29        468
    30         16
    31         23
    38         13
    39        423
    40         83
    41        999
    42        174
    43        281
    44         11
    45         50
    50          8
    51         29
    52         19
    53        167
    54         92
    55        891
    56        153
    57        157
    58         11
    59        212
    60         10
    61          6
    63          5
    64          2
    65         28
    66         18
    67        192
    68        101
    69        532
    70         57
    71        134
    72         11
    73         60
    74         18
    75          5
    77         27
    78          6
    79         39
    80         12
    81        151
    82         66
    83        562
    84         50
    85         50
    86          5
    87         56
    88        354
    89         18
    90          2
    91         13
    92          2
    93         13
    94          8
    95        134
    96         50
    97        589
    98         98
    99         18
   100          5
   101        662
   102         50
   103          5
   105          3
   107          5
   108          5
   109         49
   110         58
   111        166
   112         43
   113         45
   114         65
   115         29
   116          6
   119          1
   121          2
   122         12
   123         18
   124         25
   125         30
   126          6
   127         67
   128         17
   129          9
   130         16
   131          1
   133          2
   135          2
   136          3
   137         35
   138         18
   139          5
   141         13
   142         10
   143         10
   144          9
   147          1
   149          2
   151         34
   152         52
   153        263
   154         32
   155         20
   156          3
   157         25
   158          2
   162          3
   165          3
   169         11
   170          2
   171          2
   180         59
   181         10
   183          4
   197         39
   198          5
   212         34
   213          8