##TITLE=Library Entry 36797
##JCAMP-DX=Revision 4.10 
##DATA TYPE=MASS SPECTRUM
##SAMPLE DESCRIPTION=NO AUTHOR
##NAMES=HP
##CAS NAME=Ergosta-4,22-dien-3.beta.-ol
##MOLFORM=C28H46O
##CAS REGISTRY NO=62332-14-3
##MP= -300
##BP= -300
##MW= 398
##$RETENTION INDEX=0
##$CONDENSED SPECTRUM=NO
##NPOINTS= 122
##XYDATA=(XY..XY) 1 
    41        224
    43        285
    55        743
    57        238
    67        390
    68         67
    69        999
    70         95
    71         86
    77         81
    79        300
    80         67
    81        676
    82        152
    83        395
    91        333
    92         76
    93        405
    94        119
    95        581
    96        119
    97        143
   105        443
   106        157
   107        452
   109        424
   110         71
   111         57
   117        110
   118         57
   119        257
   120        105
   121        295
   122        114
   123        248
   124        133
   125        333
   129         57
   131        195
   132         67
   133        305
   134        105
   135        243
   136         57
   137        110
   143         95
   145        314
   146        129
   147        410
   148         95
   149        190
   157        100
   158         62
   159        333
   160        110
   161        262
   162         76
   163        124
   171         76
   173        171
   174         76
   175        148
   176         95
   177         76
   185         86
   187        114
   188         62
   189         86
   199        119
   200         71
   201        210
   202        124
   203        200
   211         52
   213        176
   214         67
   215        148
   217         52
   227         95
   228         71
   229        233
   230        262
   231        143
   232         57
   241         57
   243         57
   245         86
   246         57
   253        152
   254         86
   255        748
   256        186
   257        110
   258         62
   267         62
   269         76
   270         67
   271        371
   272        171
   273        233
   274         57
   282         95
   283         86
   285         86
   298         76
   299         71
   300        162
   301         67
   327         76
   328        186
   329         52
   337        114
   340        110
   355         67
   365         81
   380        405
   381        133
   382         52
   383         81
   396        105
   398        700
   399        210