##TITLE=Library Entry 33107
##JCAMP-DX=Revision 4.10 
##DATA TYPE=MASS SPECTRUM
##SAMPLE DESCRIPTION=D.HENNEBERG, MAX-PLANCK INSTITUTE, MULHEIM, WEST GERMAN
Y
##NAMES=HP
##CAS NAME=Cyclohexane, decylidene-
##MOLFORM=C16H30
##CAS REGISTRY NO=62338-40-3
##MP= -300
##BP= -300
##MW= 222
##$RETENTION INDEX=0
##$CONDENSED SPECTRUM=NO
##NPOINTS= 136
##XYDATA=(XY..XY) 1 
    23          0
    25          0
    26          0
    27         70
    28         18
    29        140
    31          0
    32          6
    36          1
    37          2
    38          0
    39         81
    40         17
    41        416
    42         34
    43        141
    46          0
    47          4
    48          2
    49          1
    51         11
    52          4
    53         50
    54         62
    55        390
    56         20
    57         43
    58          7
    60          4
    61          0
    63          1
    64          1
    65         16
    66         18
    67        999
    68         73
    69         83
    70         29
    71          3
    72          3
    73          1
    75          2
    76          2
    77          6
    78         21
    79         77
    80         18
    81        125
    82        252
    83        168
    84         13
    85         11
    86          0
    90          0
    91          4
    93         44
    94          0
    95         35
    96        430
    97        130
    98         12
   100          0
   101          1
   102          3
   103         11
   106          3
   107         28
   108         49
   109        836
   110        165
   111         32
   112         10
   113          2
   114          1
   116          0
   118          0
   121          3
   122          8
   123         31
   124         47
   125          4
   126         16
   128          2
   133          1
   136          0
   137         19
   138         33
   139          3
   140          9
   141          5
   144          0
   147         14
   149          6
   151         12
   152         26
   153          5
   154          0
   155          0
   157          2
   159          1
   160          0
   164          5
   165         10
   166          3
   168          3
   169          3
   170          1
   171          0
   176          0
   178          0
   179          2
   180          5
   183          1
   186          0
   187          0
   189          2
   192          0
   194         13
   195          0
   196          1
   197          1
   198          0
   199          1
   202          1
   204          0
   210          1
   211          0
   213          0
   214          1
   215          0
   216          3
   217          0
   218          0
   220          1
   222        130
   223         18