##TITLE=Library Entry 20303
##JCAMP-DX=Revision 4.10 
##DATA TYPE=MASS SPECTRUM
##SAMPLE DESCRIPTION=D.HENNEBERG, MAX-PLANCK INSTITUTE, MULHEIM, WEST GERMAN
Y
##NAMES=HP
##CAS NAME=3-Hexene, 3-ethyl-2,5-dimethyl-
##MOLFORM=C10H20
##CAS REGISTRY NO=62338-08-3
##MP= -300
##BP= -300
##MW= 140
##$RETENTION INDEX=925
##$CONDENSED SPECTRUM=NO
##NPOINTS= 75
##XYDATA=(XY..XY) 1 
    27         98
    29         88
    30          3
    31          1
    35          0
    37          0
    38          0
    39         88
    40         11
    41        368
    42         19
    43        140
    45          0
    46          0
    47          0
    50         28
    51         15
    52          8
    53         48
    54         10
    55        999
    56         70
    57         48
    58          1
    59          0
    62          0
    63          2
    64          0
    65         17
    66          5
    67         57
    68          9
    69        910
    70         54
    71          9
    72          0
    73          0
    74          0
    77         19
    78          2
    79         25
    80          3
    81         50
    82         15
    83        124
    84        169
    85         12
    86          0
    91          9
    92          0
    93          5
    94          1
    95         17
    96         85
    97        771
    98         59
    99          2
   103          0
   105          1
   106          0
   107          0
   108          0
   109          5
   110          2
   111         57
   112          5
   113          0
   123          1
   124          0
   125          8
   126          0
   138          0
   139          0
   140        125
   141         12