##TITLE=Library Entry 23092
##JCAMP-DX=Revision 4.10 
##DATA TYPE=MASS SPECTRUM
##SAMPLE DESCRIPTION=D.HENNEBERG, MAX-PLANCK INSTITUTE, MULHEIM, WEST GERMAN
Y
##NAMES=HP
##CAS NAME=6-Hepten-3-one, 5-hydroxy-4,6-dimethyl-
##MOLFORM=C9H16O2
##CAS REGISTRY NO=62338-59-4
##MP= -300
##BP= -300
##MW= 156
##$RETENTION INDEX=0
##$CONDENSED SPECTRUM=NO
##NPOINTS= 84
##XYDATA=(XY..XY) 1 
    24          2
    25         10
    26         58
    27        234
    28        288
    29        946
    30         24
    31         17
    32          4
    33          0
    34          0
    36          7
    37         34
    38         53
    39        329
    40         53
    41        452
    42         96
    43         33
    44          2
    45          1
    47          1
    48          0
    49          3
    50          9
    51          6
    52          3
    53         23
    54          2
    55         27
    56         55
    57        999
    58         36
    59          3
    60          0
    62          1
    64          0
    65          1
    66          1
    67          7
    68          5
    69         36
    70        267
    71         13
    72          0
    74          0
    76          1
    80          0
    81          5
    82          0
    84          1
    85          3
    86        143
    87          9
    88          0
    90          0
    91          0
    92          1
    93          0
    94          0
    95          0
    96          1
    97          1
    98          1
    99          3
   100          0
   103          1
   105          4
   109          1
   110          1
   112          1
   121          1
   122          0
   123          2
   127          0
   128          0
   131          1
   134          1
   136          0
   138          0
   139          3
   143          0
   151          0
   159          0