##TITLE=Library Entry 77513
##JCAMP-DX=Revision 4.10 
##DATA TYPE=MASS SPECTRUM
##SAMPLE DESCRIPTION=D.HENNEBERG, MAX-PLANCK INSTITUTE, MULHEIM, WEST GERMAN
Y
##NAMES=HP
##CAS NAME=Benzene, (4-methyl-1-decenyl)-
##MOLFORM=C17H26
##CAS REGISTRY NO=62337-88-6
##MP= -300
##BP= -300
##MW= 230
##$RETENTION INDEX=0
##$CONDENSED SPECTRUM=NO
##NPOINTS= 159
##XYDATA=(XY..XY) 1 
    26          2
    27         14
    28         20
    29         66
    30          1
    31          0
    32          2
    35          0
    36          4
    38          1
    39         11
    40          1
    41        131
    42         16
    43        304
    44         10
    45          1
    46          0
    48          0
    50          1
    51          4
    52          1
    53          3
    54          1
    55         60
    56         28
    57        362
    58         16
    59          1
    60          0
    62          0
    63          1
    65          7
    66          1
    67          8
    68          5
    69         39
    70         17
    71        252
    72         14
    73          0
    75          0
    76          1
    77         13
    78         13
    79          4
    80          1
    81          8
    82          4
    83         33
    84          8
    85          4
    86          1
    87          1
    88          0
    89          2
    90          0
    91        137
    92         14
    93          1
    94          0
    95          5
    96          1
    97         10
    98          2
    99          1
   100          0
   101          1
   102          4
   103         15
   104        999
   105        113
   106          8
   107          0
   109          1
   110          1
   111          2
   112         11
   113          3
   114          1
   115        141
   116         51
   117        891
   118        421
   119         36
   120          2
   121          0
   122          0
   123          0
   124          0
   125          0
   126          0
   127          4
   128         15
   129         34
   130         12
   131         15
   132          4
   133          1
   134          0
   136          0
   137          0
   138          1
   139          1
   140          0
   141          2
   142          3
   143         19
   144         10
   145         19
   146          3
   147          4
   148          0
   149          1
   152          0
   153          0
   154          0
   155          2
   156          1
   157          3
   158          1
   159          1
   160          1
   161          0
   165          0
   171          0
   173          0
   174          0
   175          0
   178          0
   181          0
   187          0
   188          0
   189          0
   191          1
   193          1
   195          0
   197          0
   198          1
   199          1
   200          0
   201          0
   202          0
   203          0
   204          0
   205          1
   206          0
   207          3
   208          0
   209          0
   215          0
   217          0
   219          1
   226          0
   228          1
   229          0
   230        195
   231         33
   232          3