##TITLE=Library Entry 37319
##JCAMP-DX=Revision 4.10 
##DATA TYPE=MASS SPECTRUM
##SAMPLE DESCRIPTION=D.HENNEBERG, MAX-PLANCK INSTITUTE, MULHEIM, WEST GERMAN
Y
##NAMES=HP
##CAS NAME=4-Decene, 8-methyl-, (E)-
##MOLFORM=C11H22
##CAS REGISTRY NO=62338-50-5
##MP= -300
##BP= -300
##MW= 154
##$RETENTION INDEX=1082
##$CONDENSED SPECTRUM=NO
##NPOINTS= 71
##XYDATA=(XY..XY) 1 
    24          2
    25          3
    26          9
    27        241
    28         32
    29        451
    30         11
    31          1
    33          2
    35          3
    38          7
    39        195
    40         21
    41        692
    42        208
    43        525
    44         13
    49          1
    50          2
    51         14
    52          7
    53         64
    54         99
    55        972
    56        353
    57        328
    58          8
    59          1
    62          1
    63          1
    64          0
    65         12
    66          7
    67         72
    68         23
    69        476
    70        999
    71        254
    72         11
    75          1
    77         14
    78          1
    79         18
    80          0
    81         29
    82         23
    83        280
    84         70
    85         12
    86          0
    93          0
    95          7
    96          4
    97         38
    98         27
    99          3
   100          1
   105          0
   106          1
   109          1
   111          1
   112          3
   113          0
   123          0
   124         10
   125         60
   126          9
   127          0
   139          0
   154         66
   155          9