##TITLE=Library Entry 20107
##JCAMP-DX=Revision 4.10 
##DATA TYPE=MASS SPECTRUM
##SAMPLE DESCRIPTION=D.HENNEBERG, MAX-PLANCK INSTITUTE, MULHEIM, WEST GERMAN
Y
##NAMES=HP
##CAS NAME=4-Decene, 3-methyl-, (E)-
##MOLFORM=C11H22
##CAS REGISTRY NO=62338-47-0
##MP= -300
##BP= -300
##MW= 154
##$RETENTION INDEX=0
##$CONDENSED SPECTRUM=NO
##NPOINTS= 69
##XYDATA=(XY..XY) 1 
    24          1
    25          2
    26          9
    27        170
    28         41
    29        280
    30          5
    31          0
    32          2
    33          1
    38          3
    39        123
    40         19
    41        439
    42         68
    43        126
    44          0
    45          2
    46          0
    49          0
    50          2
    51         10
    52          5
    53         58
    54         23
    55        999
    56        174
    57        173
    58          8
    59          0
    63          3
    64          0
    65         12
    66          7
    67         80
    68         37
    69        692
    70        436
    71         93
    72          3
    73          1
    75          0
    77         11
    78          0
    79         16
    80          1
    81         30
    82         19
    83        422
    84         65
    85          6
    91          2
    93          0
    94          1
    95          6
    96          4
    97         37
    98         20
    99          1
   105          0
   109          1
   111          2
   112          2
   124          5
   125         52
   126          5
   140          0
   154         60
   155          5