##TITLE=Library Entry 8048
##JCAMP-DX=Revision 4.10 
##DATA TYPE=MASS SPECTRUM
##SAMPLE DESCRIPTION=D.HENNEBERG, MAX-PLANCK INSTITUTE, MULHEIM, WEST GERMAN
Y
##NAMES=HP
##CAS NAME=2-Hexanone, 4-hydroxy-3-propyl-
##MOLFORM=C9H18O2
##CAS REGISTRY NO=62338-17-4
##MP= -300
##BP= -300
##MW= 158
##$RETENTION INDEX=0
##$CONDENSED SPECTRUM=NO
##NPOINTS= 92
##XYDATA=(XY..XY) 1 
    24          1
    25          8
    26         59
    27        254
    28        411
    29        472
    30         28
    31         25
    32         25
    34          0
    35          0
    36          5
    37          7
    38         10
    39         64
    40        105
    41        143
    42         44
    43        999
    44         31
    45          7
    49          0
    50          3
    51          4
    52          2
    53         11
    54          3
    55         45
    56         16
    57        183
    58        642
    59         37
    60          2
    61          1
    63          1
    65          1
    67          5
    68          1
    69         10
    70          5
    71         83
    72         11
    73          1
    74          0
    76          0
    77          1
    78          0
    79          1
    80          0
    81          2
    82          2
    83          6
    84          2
    85         56
    86          2
    87          1
    88          0
    90          0
    91          0
    93          0
    95          1
    96          0
    97          4
    98          4
    99          0
   100         90
   101          6
   102          0
   107          0
   108          0
   109          0
   110          0
   111          6
   112          1
   115          1
   116          1
   117          0
   118          0
   119          1
   125          4
   126          0
   129          2
   131          0
   133          0
   136          0
   137          0
   138          0
   140          5
   141          0
   145          0
   149          0
   154          0