##TITLE=Library Entry 22388
##JCAMP-DX=Revision 4.10 
##DATA TYPE=MASS SPECTRUM
##SAMPLE DESCRIPTION=D.HENNEBERG, MAX-PLANCK INSTITUTE, MULHEIM, WEST GERMAN
Y
##NAMES=HP
##CAS NAME=Cyclobutane, 1,1-dimethyl-2-octyl-
##MOLFORM=C14H28
##CAS REGISTRY NO=62338-30-1
##MP= -300
##BP= -300
##MW= 196
##$RETENTION INDEX=0
##$CONDENSED SPECTRUM=NO
##NPOINTS= 105
##XYDATA=(XY..XY) 1 
    25          3
    26         21
    27        112
    28        245
    29        146
    30          7
    31          4
    32         21
    34          2
    35          3
    36         37
    37          5
    38         13
    39         77
    40         21
    41        359
    42         74
    43        191
    44         73
    45          5
    48          2
    50          4
    51         11
    52          5
    53         29
    54         27
    55        244
    56        999
    57        438
    58         21
    60          2
    63          3
    64          4
    65          7
    66          6
    67         44
    68         33
    69        242
    70        116
    71         39
    72          3
    73          7
    75          2
    77          9
    78         12
    79         12
    80          4
    81         26
    82         29
    83         80
    84         50
    85         25
    89          2
    91         12
    92          4
    93          5
    94          3
    95         15
    96         18
    97         52
    98         24
    99          5
   103          2
   104          2
   105          7
   106          2
   107          3
   108          2
   109          6
   110          8
   111         30
   112         21
   113          4
   115          3
   117          3
   119          3
   120          2
   121          2
   123          3
   124          2
   125         12
   126          6
   127          2
   128          2
   129          3
   131          2
   133          2
   135          2
   138          3
   139          3
   140         25
   141          4
   145          2
   147          2
   152          2
   153          6
   154          3
   155          2
   165          3
   167          2
   168         31
   169          7
   181          3
   191          2
   196          9