##TITLE=Library Entry 3787
##JCAMP-DX=Revision 4.10 
##DATA TYPE=MASS SPECTRUM
##SAMPLE DESCRIPTION=D.HENNEBERG, MAX-PLANCK INSTITUTE, MULHEIM, WEST GERMAN
Y
##NAMES=HP
##CAS NAME=Cyclohexane, 1-methyl-2,4-bis(1-methylethenyl)-, (1.alpha.,2.beta
.,4.beta.)-
##MOLFORM=C13H22
##CAS REGISTRY NO=62337-95-5
##MP= -300
##BP= -300
##MW= 178
##$RETENTION INDEX=0
##$CONDENSED SPECTRUM=NO
##NPOINTS= 112
##XYDATA=(XY..XY) 1 
    27        329
    28        232
    29        342
    30         11
    31          2
    32         15
    36          4
    37          9
    38         15
    39        479
    40        119
    41        999
    42         73
    43        247
    45          1
    46          7
    48         20
    49          8
    50         31
    51         80
    52         43
    53        369
    54         77
    55        637
    56         45
    57         53
    58          6
    59         10
    61          4
    62          5
    63         23
    64         12
    65        116
    66         65
    67        676
    68        535
    69        353
    70         25
    71          7
    73          2
    74          4
    75          5
    76          2
    77        227
    78         64
    79        489
    80        142
    81        666
    82        195
    83         92
    84         11
    85          4
    89          8
    90          2
    91        232
    92        125
    93        907
    94        315
    95        444
    96        193
    97         42
    98          4
    99          0
   101          3
   103         10
   104         14
   105         86
   106         28
   107        665
   108        352
   109        188
   110         56
   111          4
   113          2
   114          2
   115         15
   116          8
   117          6
   118          2
   119         28
   120         17
   121        390
   122        210
   123        155
   124         21
   125          3
   126          2
   128          6
   129          2
   130          2
   131          4
   133          7
   134         12
   135        391
   136        159
   137         29
   138          3
   147          2
   148          2
   149        112
   150        415
   151         42
   152          4
   160          2
   162          2
   163        152
   164         23
   165          1
   172          2
   177          1
   178         57
   179          8