##TITLE=Library Entry 50265
##JCAMP-DX=Revision 4.10 
##DATA TYPE=MASS SPECTRUM
##SAMPLE DESCRIPTION=D.HENNEBERG, MAX-PLANCK INSTITUTE, MULHEIM, WEST GERMAN
Y
##NAMES=HP
##CAS NAME=Cyclopropane, 1-chloro-2-ethenyl-1-methyl-
##MOLFORM=C6H9Cl
##CAS REGISTRY NO=62337-93-3
##MP= -300
##BP= -300
##MW= 116
##$RETENTION INDEX=0
##$CONDENSED SPECTRUM=NO
##NPOINTS= 88
##XYDATA=(XY..XY) 1 
    26         15
    27        155
    28        226
    29         35
    30          0
    31          8
    34          0
    35          0
    36          3
    37          2
    38         11
    39        261
    40         39
    41        271
    42         22
    43         21
    44          3
    45          9
    46          0
    47          0
    49          7
    50         10
    51         45
    52         31
    53        305
    54         30
    55         67
    56         13
    57          7
    58          1
    59          3
    60          0
    61          8
    62          7
    63         23
    64          3
    65        157
    66         41
    67         23
    68          1
    69         10
    70          5
    71          3
    72          1
    73          6
    74          1
    75         19
    76         11
    77         87
    78         17
    79        386
    80         48
    81        999
    82         70
    83          4
    84          5
    85          5
    86          0
    87          3
    88          7
    89         14
    90          9
    91          7
    92          2
    93          0
    95          1
    96          0
    97          1
    98          0
    99          1
   100          1
   101         16
   102          1
   103         10
   104          1
   105          2
   106          0
   107          1
   108          0
   109          0
   110          0
   111          2
   114          0
   115          2
   116         43
   117          6
   118         15
   119          1