##TITLE=Library Entry 62067
##JCAMP-DX=Revision 4.10 
##DATA TYPE=MASS SPECTRUM
##SAMPLE DESCRIPTION=D.HENNEBERG, MAX-PLANCK INSTITUTE, MULHEIM, WEST GERMAN
Y
##NAMES=HP
##CAS NAME=Benzeneacetic acid, .alpha.-ethyl-.alpha.-methyl-, methyl ester
##MOLFORM=C12H16O2
##CAS REGISTRY NO=62338-21-0
##MP= -300
##BP= -300
##MW= 192
##$RETENTION INDEX=0
##$CONDENSED SPECTRUM=NO
##NPOINTS= 100
##XYDATA=(XY..XY) 1 
    26         14
    27        121
    28         27
    29        127
    30         10
    31         10
    32          2
    33          1
    37          3
    38         10
    39        103
    40          9
    41         35
    42          4
    43         59
    44          4
    45          7
    49          2
    50         49
    51        123
    52         32
    53         35
    54          5
    55        188
    56         11
    57          9
    58          4
    59         53
    60          2
    61          3
    62         14
    63         43
    64         11
    65         47
    66          5
    67          2
    69          2
    70          2
    71          1
    73          5
    74         15
    75         17
    76         19
    77        152
    78         72
    79         34
    80          2
    81          1
    83          2
    85          1
    86          2
    87          5
    88          5
    89         18
    90          9
    91        999
    92         80
    93          5
    98          2
    99          1
   101          5
   102         26
   103        173
   104         51
   105        197
   106         17
   107          1
   113          2
   114          2
   115         72
   116         26
   117         79
   118         32
   119          5
   120          1
   121         17
   122          2
   127          4
   128          8
   129          6
   130          2
   131         26
   132         28
   133        923
   134        104
   135         81
   136          8
   147          1
   148          1
   149          2
   156          5
   158          4
   160          1
   161          2
   162          1
   163         17
   164          5
   192        135
   193         18
   194          2