##TITLE=Library Entry 3902
##JCAMP-DX=Revision 4.10 
##DATA TYPE=MASS SPECTRUM
##SAMPLE DESCRIPTION=D.HENNEBERG, MAX-PLANCK INSTITUTE, MULHEIM, WEST GERMAN
Y
##NAMES=HP
##CAS NAME=Cyclohexane, 1,1,2-trimethyl-3,5-bis(1-methylethenyl)-, (2.alpha.
,3.alpha.,5.beta.)-
##MOLFORM=C15H26
##CAS REGISTRY NO=62337-96-6
##MP= -300
##BP= -300
##MW= 206
##$RETENTION INDEX=0
##$CONDENSED SPECTRUM=NO
##NPOINTS= 97
##XYDATA=(XY..XY) 1 
    26        115
    27        257
    28        195
    29        279
    30         10
    36          4
    37          9
    38         21
    39        314
    40         95
    41        999
    42        102
    43        326
    44         18
    49          8
    50         21
    51         47
    52         28
    53        265
    54         48
    55        598
    56         48
    57        169
    58         17
    61          6
    63         14
    65         96
    66         46
    67        519
    68        153
    69        464
    70        233
    71         49
    73          6
    75          5
    77        186
    78         44
    79        311
    80        352
    81        461
    82        168
    83        289
    84        105
    85         17
    89          7
    90          4
    91        229
    92         62
    93        542
    94        308
    95        482
    96        201
    97         42
    98          7
   103         29
   104          8
   105         98
   106         41
   107        687
   108        306
   109        465
   110         68
   111         18
   115          9
   116          5
   117         12
   119         31
   120         20
   121        505
   122        186
   123        180
   124         37
   125         12
   128          4
   131          4
   133         14
   134          5
   135        189
   136         90
   137         95
   138         26
   143          6
   147          5
   148          5
   149        164
   150        154
   151         58
   163        292
   164        216
   165         18
   177         71
   178         21
   179          7
   191        120
   192         12
   206        104
   207         17