##TITLE=Library Entry 69288
##JCAMP-DX=Revision 4.10 
##DATA TYPE=MASS SPECTRUM
##SAMPLE DESCRIPTION=D.HENNEBERG, MAX-PLANCK INSTITUTE, MULHEIM, WEST GERMAN
Y
##NAMES=HP
##CAS NAME=Cyclohexene, 1-decyl-
##MOLFORM=C16H30
##CAS REGISTRY NO=62338-41-4
##MP= -300
##BP= -300
##MW= 222
##$RETENTION INDEX=0
##$CONDENSED SPECTRUM=NO
##NPOINTS= 141
##XYDATA=(XY..XY) 1 
    25          1
    26          3
    27         59
    28         22
    29        106
    30          2
    31          0
    32          2
    35          0
    37          0
    38          0
    39         53
    40         10
    41        275
    42         27
    43        128
    44          1
    46          0
    47          1
    48          1
    49          0
    50          1
    51          6
    52          6
    53         64
    54         73
    55        223
    56         28
    57         48
    58          2
    59          0
    60          0
    61          0
    62          0
    63          2
    65         23
    66         36
    67        431
    68        156
    69         66
    70         15
    71         15
    72          1
    73          1
    75          1
    77         40
    78         12
    79        109
    80         56
    81        964
    82        291
    83         69
    84          9
    85          9
    86          0
    89          7
    90          0
    91         27
    92         11
    93         39
    94         22
    95        234
    96        999
    97        277
    98         21
    99          0
   100          0
   102          4
   103          1
   104          1
   105          0
   106          1
   107          7
   108         14
   109         96
   110         28
   111          7
   112          2
   113          0
   114          0
   115          0
   116          0
   117          0
   118          0
   119          0
   120          0
   121          2
   122          1
   123         16
   124         14
   125          3
   126          9
   127          1
   128          0
   131          2
   132          0
   133          0
   134          0
   135          1
   136          0
   137          9
   138         18
   139          2
   140          3
   141          1
   144          2
   147          0
   150          1
   151          7
   152         12
   153          1
   155          1
   159          2
   163          1
   165          2
   166          3
   167          0
   169          3
   170          0
   178          0
   179          2
   180          3
   181          0
   183          1
   189          0
   193          7
   194         13
   195          2
   197          1
   200          0
   201          0
   202          0
   203          0
   207          0
   218         10
   219          0
   220          0
   221          1
   222        114
   223         19
   224          2