##TITLE=Library Entry 7141
##JCAMP-DX=Revision 4.10 
##DATA TYPE=MASS SPECTRUM
##SAMPLE DESCRIPTION=D.HENNEBERG, MAX-PLANCK INSTITUTE, MULHEIM, WEST GERMAN
Y
##NAMES=HP
##CAS NAME=4-Decene, 7-methyl-, (E)-
##MOLFORM=C11H22
##CAS REGISTRY NO=62338-48-1
##MP= -300
##BP= -300
##MW= 154
##$RETENTION INDEX=0
##$CONDENSED SPECTRUM=NO
##NPOINTS= 72
##XYDATA=(XY..XY) 1 
    25          1
    26          9
    27        163
    28         17
    29        202
    30          3
    33          0
    36          2
    38          4
    39        114
    40         18
    41        396
    42        122
    43        999
    44         10
    45          1
    47          1
    49          0
    50          2
    51          7
    52          4
    53         43
    54         48
    55        444
    56        321
    57         37
    58          1
    61          1
    62          0
    63          1
    64          1
    65          5
    66          1
    67         61
    68         18
    69        220
    70        288
    71        241
    72         16
    73          0
    77          9
    78          1
    79          8
    80          3
    81         14
    82         19
    83         52
    84        250
    85         47
    86          1
    91          3
    92          0
    93          0
    94          0
    95          3
    96          1
    97         24
    98          5
    99          0
   104          0
   105          1
   107          1
   110          5
   111         32
   112         10
   113          0
   121          0
   125          0
   126          3
   127          0
   154         43
   155          6