##TITLE=Library Entry 33788
##JCAMP-DX=Revision 4.10 
##DATA TYPE=MASS SPECTRUM
##SAMPLE DESCRIPTION=D.HENNEBERG, MAX-PLANCK INSTITUTE, MULHEIM, WEST GERMAN
Y
##NAMES=HP
##CAS NAME=2,6-Cyclooctadiene-1-carboxylic acid, 4,5-dimethyl-, methyl ester
##MOLFORM=C12H18O2
##CAS REGISTRY NO=62338-04-9
##MP= -300
##BP= -300
##MW= 194
##$RETENTION INDEX=0
##$CONDENSED SPECTRUM=NO
##NPOINTS= 140
##XYDATA=(XY..XY) 1 
    23          0
    25          1
    26          6
    27         80
    28        112
    29         51
    30          4
    31         16
    32          8
    33          1
    34          0
    35          0
    36          0
    37          2
    38          7
    39        135
    40         38
    41        185
    42         21
    43         25
    44          9
    45         13
    46          5
    49          0
    50          8
    51         38
    52         19
    53         92
    54          9
    55        106
    56          6
    57          7
    58          6
    59         70
    60          9
    61          2
    62          3
    63         14
    64          7
    65         55
    66         93
    67        407
    68        999
    69         64
    70          2
    71         13
    72          5
    73          2
    74          6
    75          4
    76          2
    77         76
    78         21
    79         70
    80         15
    81         29
    82         10
    83          8
    84          2
    85         14
    86          0
    87          6
    88          9
    89          5
    90          2
    91         94
    92         29
    93        156
    94         28
    95        156
    96         14
    97          5
    98          8
    99          1
   100          1
   101          1
   102          3
   103         10
   104          5
   105         48
   106         12
   107         37
   108         27
   109          6
   110          1
   111        237
   112         17
   113          3
   114          1
   115         12
   116          3
   117         11
   118          4
   119         37
   120         16
   121         13
   122          1
   123          1
   124          0
   125         20
   126         78
   127        496
   128         43
   129         11
   130          2
   131          6
   132          2
   133         11
   134         53
   135        127
   136         13
   137          6
   138          5
   139          3
   140          0
   141          1
   142          0
   143          0
   144          3
   145          4
   146          2
   147         13
   148          1
   149          0
   150          0
   151         11
   152         13
   153          5
   160          0
   161          1
   162         18
   163         30
   164          3
   165          3
   166          1
   179         12
   180          1
   193          0
   194         22
   195          3