##TITLE=Library Entry 68013
##JCAMP-DX=Revision 4.10 
##DATA TYPE=MASS SPECTRUM
##SAMPLE DESCRIPTION=MPI,45610-G1449,24-NOV-67 (ID=2, PURITY=2)
##NAMES=HP
##CAS NAME=Bicyclo[3.1.0]hexane, 6-chloro-6-methyl-
##MOLFORM=C7H11Cl
##CAS REGISTRY NO=62338-01-6
##MP= -300
##BP= -300
##MW= 130
##$RETENTION INDEX=0
##$CONDENSED SPECTRUM=NO
##NPOINTS= 99
##XYDATA=(XY..XY) 1 
    26         18
    27        167
    28         23
    29         78
    30          0
    31          6
    32          0
    35          0
    36          3
    37          0
    38          3
    39        177
    40         40
    41        257
    42         32
    43         57
    44          1
    45         30
    46          4
    47          0
    48          1
    49          5
    50          6
    51         47
    52         22
    53        373
    54         52
    55        172
    56         34
    57         56
    58          2
    59          3
    60          0
    61          3
    62          4
    63         18
    64          4
    65         79
    66         58
    67        752
    68         74
    69         43
    70         14
    71         13
    72          1
    73         16
    74          2
    75         12
    76          7
    77        129
    78         25
    79        236
    80         36
    81         21
    82          3
    83          9
    84          8
    85          7
    86          5
    87          3
    88         15
    89        458
    90         52
    91        186
    92         19
    93         64
    94         86
    95        999
    96         73
    97          4
    98          1
    99          1
   100          1
   101          6
   102         53
   103         25
   104         21
   105         11
   106          1
   107          0
   109          1
   110          1
   111         13
   112          1
   113          0
   115          8
   116          0
   117          5
   118          0
   119          1
   123          0
   124          0
   127          0
   128          0
   129          2
   130         97
   131          7
   132         33
   133          3