##TITLE=Library Entry 37352
##JCAMP-DX=Revision 4.10 
##DATA TYPE=MASS SPECTRUM
##SAMPLE DESCRIPTION=D.HENNEBERG, MAX-PLANCK INSTITUTE, MULHEIM, WEST GERMAN
Y
##NAMES=HP
##CAS NAME=Cyclobutane, 3-hexyl-1,1,2-trimethyl-
##MOLFORM=C13H26
##CAS REGISTRY NO=62338-52-7
##MP= -300
##BP= -300
##MW= 182
##$RETENTION INDEX=0
##$CONDENSED SPECTRUM=NO
##NPOINTS= 87
##XYDATA=(XY..XY) 1 
    26          5
    27        122
    28         20
    29        213
    30          5
    31          0
    34          0
    36          0
    37          2
    38          2
    39        112
    40         19
    41        458
    42        256
    43        337
    44          6
    45          0
    46          0
    47          0
    48          0
    49          0
    50          3
    51          7
    52          4
    53         53
    54         49
    55        804
    56        626
    57        350
    58         15
    62          4
    63          1
    64          0
    65          8
    66          6
    67         57
    68         53
    69        362
    70        999
    71        127
    72          5
    73          1
    74          0
    75          2
    77          8
    78          1
    79         11
    80          2
    81         25
    82         87
    83        234
    84        277
    85         38
    86          2
    91          2
    92          0
    93          1
    94          0
    95         10
    96         44
    97        296
    98        130
    99          9
   100          0
   105          0
   107          0
   109          1
   110          1
   111         14
   113          0
   115          0
   119          0
   123          0
   124         76
   125         28
   126        439
   127         43
   128          2
   139          0
   140          0
   141          0
   153          1
   154          0
   167          1
   168          0
   182         81
   183          0