##TITLE=Library Entry 38431
##JCAMP-DX=Revision 4.10 
##DATA TYPE=MASS SPECTRUM
##SAMPLE DESCRIPTION=D.HENNEBERG, MAX-PLANCK INSTITUTE, MULHEIM, WEST GERMAN
Y
##NAMES=HP
##CAS NAME=Decane, 3,3,5-trimethyl-
##MOLFORM=C13H28
##CAS REGISTRY NO=62338-13-0
##MP= -300
##BP= -300
##MW= 184
##$RETENTION INDEX=0
##$CONDENSED SPECTRUM=NO
##NPOINTS= 45
##XYDATA=(XY..XY) 1 
    25          1
    26         13
    27         59
    29        120
    34          0
    35          0
    37          2
    38          0
    39         30
    41        178
    42         39
    43        699
    45          0
    51          0
    52          0
    53         13
    54          4
    55        126
    56         48
    57        598
    58         21
    63          0
    65          1
    67          4
    68          3
    69         36
    70        407
    71        999
    72         53
    83          9
    84          0
    85        232
    86         13
    98         13
    99         96
   100          5
   101          2
   112          7
   113         32
   114          0
   127          1
   154         18
   155         95
   156          8
   169          4