##TITLE=Library Entry 32872
##JCAMP-DX=Revision 4.10 
##DATA TYPE=MASS SPECTRUM
##SAMPLE DESCRIPTION=D.HENNEBERG, MAX-PLANCK INSTITUTE, MULHEIM, WEST GERMAN
Y
##NAMES=HP
##CAS NAME=1,3-Hexadiene, 3-ethyl-2,5-dimethyl-
##MOLFORM=C10H18
##CAS REGISTRY NO=62338-07-2
##MP= -300
##BP= -300
##MW= 138
##$RETENTION INDEX=0
##$CONDENSED SPECTRUM=NO
##NPOINTS= 97
##XYDATA=(XY..XY) 1 
    26         14
    27        234
    29        175
    30          3
    31          1
    37          1
    38          7
    39        285
    40         41
    41        537
    42         33
    43        389
    45          2
    46          1
    49          1
    50         17
    51         63
    52         35
    53        176
    54         35
    55        486
    56         31
    57        111
    58          7
    59          4
    60          0
    61          1
    62          5
    63         18
    64          5
    65         84
    66         22
    67        999
    68         65
    69        173
    70         31
    71          2
    72          0
    73          1
    74          2
    75          3
    76          1
    77        124
    78         23
    79        213
    80         27
    81        843
    82        177
    83         57
    84          7
    85          2
    87          1
    89          3
    90          0
    91        107
    92         15
    93        102
    94         43
    95        255
    96         32
    97         17
    98          0
    99          0
   100          1
   101          2
   102          0
   103          4
   104          1
   105         24
   106          4
   107         53
   108         27
   109        805
   110         76
   111          4
   112          0
   114          0
   115          0
   116          0
   117          0
   118          0
   119          2
   120          0
   121         14
   122          4
   123        712
   124         72
   125          3
   126          1
   128          0
   130          0
   131          0
   133          0
   135          0
   137         33
   138        562
   139         60