##TITLE=Library Entry 83623
##JCAMP-DX=Revision 4.10 
##DATA TYPE=MASS SPECTRUM
##SAMPLE DESCRIPTION=D.HENNEBERG, MAX-PLANCK INSTITUTE, MULHEIM, WEST GERMAN
Y
##NAMES=HP
##CAS NAME=Benzenemethanol, .alpha.-(2,2-dimethylpropyl)-
##MOLFORM=C12H18O
##CAS REGISTRY NO=62338-03-8
##MP= -300
##BP= -300
##MW= 178
##$RETENTION INDEX=0
##$CONDENSED SPECTRUM=NO
##NPOINTS= 86
##XYDATA=(XY..XY) 1 
    26          8
    27         30
    28         22
    29         49
    30          1
    31          1
    32          1
    36          0
    37          0
    38          2
    39         37
    40          4
    41         69
    42          4
    43         32
    44          1
    45          0
    49          0
    50         10
    51         39
    52         11
    53         12
    54          1
    55         11
    56         10
    57         59
    58          3
    59         14
    60          0
    62          1
    63          5
    64          2
    65          8
    66          1
    67          1
    69          1
    70          1
    71          4
    74          1
    75          3
    76          4
    77        125
    78         33
    79        295
    80         19
    81          1
    85          0
    89          2
    90          1
    91         20
    92          2
    93          0
    99          2
   101          0
   102          2
   103         16
   104         26
   105         44
   106          8
   107        999
   108         70
   109          4
   115          4
   116          1
   117          4
   118          0
   119          0
   120          4
   121          2
   122          0
   127          1
   128          3
   129          3
   130          1
   131          1
   143          0
   145         12
   146          1
   147          0
   149          0
   160          2
   161          1
   162          0
   176          0
   178         41
   179          5