##TITLE=Library Entry 69118
##JCAMP-DX=Revision 4.10 
##DATA TYPE=MASS SPECTRUM
##SAMPLE DESCRIPTION=NIST Mass Spectrometry Data Center, 2010
##NAMES=HP
##CAS NAME=Isoxazole-5-carbonyl chloride
##MOLFORM=C4H2ClNO2
##CAS REGISTRY NO=62348-13-4
##MP= -300
##BP= -300
##MW= 131
##$RETENTION INDEX=918
##$CONDENSED SPECTRUM=NO
##NPOINTS= 59
##XYDATA=(XY..XY) 1 
    14          1
    24          3
    25         11
    26          9
    27          8
    28         35
    29          8
    30          8
    34          2
    35         17
    36         12
    37         32
    38         58
    39         56
    40        290
    41        114
    42          5
    43          1
    44          1
    47          8
    48          6
    49          5
    50          9
    51          6
    52          4
    53         22
    54          1
    56          1
    59          1
    60          1
    62          1
    63         68
    64          1
    65         25
    66          1
    67         17
    68         71
    69          9
    71          1
    72          2
    73          5
    74          1
    75          6
    76          6
    77          1
    78          2
    84          1
    85          1
    96        999
    97         45
    98          5
   103        119
   104          4
   105         38
   106          1
   131        100
   132          5
   133         33
   134          2