##TITLE=Library Entry 22213
##JCAMP-DX=Revision 4.10 
##DATA TYPE=MASS SPECTRUM
##SAMPLE DESCRIPTION=A.A.Kutin, Moscow, Russia
##NAMES=HP
##CAS NAME=N2-Isopropyl-5-methyl-1,3,4-thiadiazol-2-amine
##MOLFORM=C6H11N3S
##CAS REGISTRY NO=62347-23-3
##MP= -300
##BP= -300
##MW= 157
##$RETENTION INDEX=0
##$CONDENSED SPECTRUM=NO
##NPOINTS= 70
##XYDATA=(XY..XY) 1 
    33         42
    34         30
    36         13
    37         17
    38         58
    39        322
    40        463
    41        840
    42        833
    43        917
    44        268
    45        103
    46         66
    47         61
    48         12
    50         22
    51         14
    52         20
    53         25
    54         33
    55         83
    56        999
    57        427
    58        437
    59        752
    60        185
    61         47
    62          7
    64          9
    67         26
    69        139
    70         28
    71         36
    72         85
    73        142
    74        883
    75         58
    76         68
    77         10
    81         11
    82         39
    83        116
    84         37
    85          6
    86         17
    89          4
    91          3
    95          3
    96          3
    97         11
    99        539
   100         52
   101        425
   102         23
   103         17
   104         24
   105          3
   113          3
   115        856
   116        373
   117         61
   118         16
   142        690
   143         51
   144         34
   149          7
   155          3
   157        432
   158         31
   159         20