##TITLE=Library Entry 58566
##JCAMP-DX=Revision 4.10 
##DATA TYPE=MASS SPECTRUM
##SAMPLE DESCRIPTION=NIST Mass Spectrometry Data Center, 1994
##NAMES=HP
##CAS NAME=Benzene, 1-bromo-3-chloro-2-methyl-
##MOLFORM=C7H6BrCl
##CAS REGISTRY NO=62356-27-8
##MP= -300
##BP= -300
##MW= 204
##$RETENTION INDEX=0
##$CONDENSED SPECTRUM=NO
##NPOINTS= 82
##XYDATA=(XY..XY) 1 
    14          5
    15         16
    18          5
    25         11
    26         49
    27         55
    35         14
    36         25
    37        108
    38        150
    39        274
    40         23
    41          6
    42          6
    43        119
    44        240
    47         14
    48         11
    49         83
    50        189
    51        152
    52         18
    60         36
    61        177
    62        372
    63        654
    64         96
    65         25
    72         25
    73        129
    74        104
    75         98
    76          8
    77          7
    78          7
    79         33
    80         19
    81         40
    82         18
    83         14
    84         97
    85        122
    86        103
    87        116
    88          7
    89        999
    90        229
    91         18
    93          5
    96          9
    97         50
    98         11
    99        121
   100         10
   101         35
   102         13
   103         15
   104         10
   116          5
   117         13
   118          5
   119         12
   123         38
   124        138
   125        913
   126        113
   127        283
   128         26
   129          3
   141         10
   143         13
   168         26
   169        206
   170         35
   171        191
   172         15
   204        383
   205         67
   206        459
   207         39
   208        114
   209         11