##TITLE=Library Entry 70039
##JCAMP-DX=Revision 4.10 
##DATA TYPE=MASS SPECTRUM
##SAMPLE DESCRIPTION=D.HENNEBERG, MAX-PLANCK INSTITUTE, MULHEIM, WEST GERMAN
Y
##NAMES=HP
##CAS NAME=Cyclohexane, 1,2-dimethyl-3-pentyl-4-propyl-
##MOLFORM=C16H32
##CAS REGISTRY NO=62376-17-4
##MP= -300
##BP= -300
##MW= 224
##$RETENTION INDEX=0
##$CONDENSED SPECTRUM=NO
##NPOINTS= 86
##XYDATA=(XY..XY) 1 
    26         14
    27         97
    28          0
    29        200
    30          4
    31          7
    32          0
    35          0
    36          0
    37          5
    38          2
    39         69
    40         14
    41        512
    42         69
    43        331
    44          2
    45          2
    46          0
    47          0
    49          0
    50          0
    51          5
    52          2
    53         48
    54         34
    55        803
    56        191
    57        538
    58         26
    59          0
    63          0
    65         12
    66          5
    67        101
    68         55
    69        815
    70        183
    71        345
    72         19
    77         14
    78          3
    79         20
    80          6
    81        105
    82         44
    83        797
    84        154
    85        114
    86          7
    91          7
    93          4
    94          3
    95         87
    96         37
    97        999
    98         95
    99         23
   100          0
   105          0
   107          0
   108          0
   109         68
   110         29
   111        328
   112         46
   113          5
   123          6
   124          4
   126         13
   127          0
   137          3
   138          9
   139         27
   140         12
   151          1
   152         94
   153        307
   154         51
   155          5
   167          0
   180          6
   181         38
   182          5
   224         21
   225          2