##TITLE=Library Entry 66366
##JCAMP-DX=Revision 4.10 
##DATA TYPE=MASS SPECTRUM
##SAMPLE DESCRIPTION=D.HENNEBERG, MAX-PLANCK INSTITUTE, MULHEIM, WEST GERMAN
Y
##NAMES=HP
##CAS NAME=Bicyclo[2.2.2]oct-2-ene, 1,2,3,6-tetramethyl-
##MOLFORM=C12H20
##CAS REGISTRY NO=62376-14-1
##MP= -300
##BP= -300
##MW= 164
##$RETENTION INDEX=0
##$CONDENSED SPECTRUM=NO
##NPOINTS= 120
##XYDATA=(XY..XY) 1 
    24          1
    25          1
    26          7
    27        268
    28         57
    29        232
    30          3
    31          4
    33          2
    34          2
    35          3
    36          7
    38          7
    39        250
    40         45
    41        512
    42         31
    43        153
    44         21
    45          2
    47          3
    48          2
    49          1
    50         14
    51         58
    52         33
    53        148
    54         23
    55        299
    56         31
    57         35
    58         13
    59          4
    60          1
    61          3
    63         21
    64         14
    65        112
    66         23
    67        199
    68         38
    69         92
    70         12
    71         40
    72          4
    73          4
    74          3
    75         11
    77        215
    78         54
    79        187
    80         95
    81        184
    82        160
    83        331
    84         24
    85          5
    86          2
    88          4
    89         17
    90         11
    91        341
    92        102
    93        999
    94        198
    95        231
    96        284
    97         32
    98          4
   100          1
   102          4
   103         25
   104         14
   105         97
   106        142
   107        758
   108        441
   109        302
   110         45
   111         19
   112          3
   113          2
   114          1
   115         13
   116          6
   117         12
   118          4
   119         86
   120         25
   121        262
   122         80
   123         24
   124          7
   125          0
   127          1
   128          2
   129          3
   131          3
   132          2
   133         12
   134         31
   135        391
   136         59
   137         11
   138          5
   139          0
   140          0
   141          0
   145          0
   147          8
   148          3
   149         98
   150         12
   151          5
   152          0
   162          4
   163          2
   164        251
   165         29
   166         11