##TITLE=Library Entry 37392
##JCAMP-DX=Revision 4.10 
##DATA TYPE=MASS SPECTRUM
##SAMPLE DESCRIPTION=NIST Mass Spectrometry Data Center
##NAMES=HP
##CAS NAME=3-Amino-1-azabicyclo[2.2.2]octane
##MOLFORM=C7H14N2
##CAS REGISTRY NO=6238-14-8
##MP= -300
##BP= -300
##MW= 126
##$RETENTION INDEX=0
##$CONDENSED SPECTRUM=NO
##NPOINTS= 71
##XYDATA=(XY..XY) 1 
    15         40
    17          1
    18          8
    26         12
    27         94
    28        114
    29         66
    30        125
    31          2
    37          2
    38          8
    39         94
    40         23
    41        188
    42        454
    43        321
    44         76
    45          3
    48          1
    49          2
    50          7
    51         17
    52         16
    53         44
    54         76
    55        114
    56        870
    57         72
    58        344
    59         13
    62          1
    63          2
    64          1
    65         10
    66          7
    67         35
    68         95
    69        260
    70        999
    71        170
    72         10
    77          7
    78          3
    79         11
    80         48
    81         47
    82        116
    83         53
    84         52
    85          8
    91          1
    92          1
    93          6
    94         27
    95          8
    96        274
    97         73
    98         19
    99          2
   106          1
   107          2
   108         44
   109         16
   110         16
   111         12
   123          2
   124          2
   125         16
   126        328
   127         30
   128          1