##TITLE=Library Entry 46823
##JCAMP-DX=Revision 4.10 
##DATA TYPE=MASS SPECTRUM
##SAMPLE DESCRIPTION=V.G.Zaikin, TIPS, Russian Acad. Sci., Moscow
##NAMES=HP
##CAS NAME=1-Dimethyl(pentafluorophenyl)silyloxybutane
##MOLFORM=C12H15F5OSi
##CAS REGISTRY NO=62394-61-0
##MP= -300
##BP= -300
##MW= 298
##$RETENTION INDEX=1230
##$CONDENSED SPECTRUM=NO
##NPOINTS= 152
##XYDATA=(XY..XY) 1 
    30         27
    31         51
    32         23
    36         21
    37         12
    38         19
    39        146
    40         14
    41        385
    42         49
    43        129
    44         30
    45         92
    47        272
    48         16
    49        153
    50         21
    51         76
    52          8
    53         35
    54          7
    55        214
    56         97
    57        437
    58         38
    59         38
    60          8
    61         42
    62         25
    63         79
    64          6
    65         49
    67         10
    68          8
    69         36
    70          8
    71         17
    72          4
    73         15
    74         24
    75        369
    76         51
    77        999
    78        121
    79        715
    80         77
    81        311
    82         19
    83         42
    84          6
    85         42
    86          6
    87         19
    88         10
    89         53
    90          8
    91         60
    92         28
    93        103
    94         15
    95         58
    96          6
    98         21
    99         88
   100          6
   101         60
   102         16
   103          8
   104          8
   105         40
   106          8
   107         67
   108          6
   109         16
   110         35
   111         40
   112         10
   113         60
   114         17
   115         49
   116          8
   117         37
   118         12
   119         62
   120          7
   121          7
   123         20
   124         14
   125        355
   126         38
   127         32
   129         83
   130        343
   131         79
   132         30
   133         12
   134          5
   135         40
   136          6
   137         14
   138         10
   139         21
   140         10
   141         83
   142         12
   143         42
   144         12
   145        130
   146         14
   147         10
   148          7
   149          6
   157         12
   158         14
   159        105
   160         10
   161         47
   162          8
   163         38
   164          7
   165         10
   168          8
   185         12
   191          9
   203          5
   204          3
   205          9
   207         25
   208          7
   209          7
   211         23
   212          7
   224         20
   225        252
   226         52
   227         35
   239         23
   240          9
   241         45
   242          5
   253         13
   255        279
   257         48
   258         17
   282         34
   283        460
   284         96
   285         22
   286          4
   297          4
   298          2
   299          0