##TITLE=Library Entry 47845
##JCAMP-DX=Revision 4.10 
##DATA TYPE=MASS SPECTRUM
##SAMPLE DESCRIPTION=V.G.Zaikin, TIPS, Russian Acad. Sci., Moscow
##NAMES=HP
##CAS NAME=2-Dimethyl(pentafluorophenyl)silyloxybutane
##MOLFORM=C12H15F5OSi
##CAS REGISTRY NO=62394-62-1
##MP= -300
##BP= -300
##MW= 298
##$RETENTION INDEX=1235
##$CONDENSED SPECTRUM=NO
##NPOINTS= 129
##XYDATA=(XY..XY) 1 
    30          9
    31         65
    39        102
    40         12
    41        120
    42         16
    43        148
    44         60
    45         76
    47        241
    48         21
    49        172
    50         25
    51         85
    52         12
    53         23
    55         33
    56         35
    57         79
    58         12
    59         21
    60          7
    61         23
    62         21
    63         46
    64          7
    65         55
    66          5
    67          7
    68          9
    69         31
    70          7
    71         16
    72          2
    73          7
    74         30
    75        543
    76         78
    77        999
    78         88
    79        378
    80         51
    81        270
    82         20
    83         37
    84          5
    85         25
    86         11
    87         12
    88          7
    89          9
    90          5
    91        134
    92         59
    93         44
    94         12
    95         70
    96          7
    97          5
    98         16
    99         78
   101         44
   102         10
   103         18
   104         12
   105         48
   110         14
   111         30
   112          7
   113         16
   114         16
   115         14
   117         90
   118         43
   119         59
   120         15
   123         14
   124         12
   125        436
   126         27
   127         14
   129         69
   130         10
   131         16
   132         10
   133         14
   134         39
   135         16
   136         14
   137         11
   138         14
   139         11
   140         14
   141         55
   143         33
   144          7
   145         38
   146         10
   148         10
   157         10
   158          8
   159        114
   160         12
   161         35
   163         16
   164          8
   165         14
   189         10
   203          6
   205          7
   207         21
   224         12
   225        202
   226         37
   227         50
   228          7
   229          5
   239         14
   267         27
   268         18
   269        824
   270        152
   271         69
   283         99
   284         16
   285          7
   297          9
   298          2
   299          0