##TITLE=Library Entry 48571
##JCAMP-DX=Revision 4.10 
##DATA TYPE=MASS SPECTRUM
##SAMPLE DESCRIPTION=A.A.Kutin, Moscow, Russia
##NAMES=HP
##CAS NAME=Pyridinium, dinitromethylide-
##MOLFORM=C6H5N3O4
##CAS REGISTRY NO=62399-57-9
##MP= -300
##BP= -300
##MW= 183
##$RETENTION INDEX=0
##$CONDENSED SPECTRUM=NO
##NPOINTS= 63
##XYDATA=(XY..XY) 1 
    33         24
    36          6
    37         19
    38         41
    39        115
    40         90
    41         33
    42         20
    44        454
    46         43
    48          2
    49         11
    50        110
    51        174
    52        465
    53         54
    54          7
    55         16
    56         10
    57         31
    58          1
    60         10
    61          2
    62          2
    63         34
    64         64
    65         14
    66          7
    67          6
    68          9
    69         14
    70         11
    71         24
    72          2
    73          1
    75         10
    76          5
    77         10
    78        104
    79        999
    80         60
    81         24
    82         11
    83          9
    84          3
    85         11
    91         20
    92          3
    95          4
    96          4
    97          6
    98          2
   105          4
   107          1
   112          6
   113          1
   121         87
   122         10
   136          1
   149          2
   171          4
   183         82
   184          5