##TITLE=Library Entry 17729
##JCAMP-DX=Revision 4.10 
##DATA TYPE=MASS SPECTRUM
##SAMPLE DESCRIPTION=Japan AIST/NIMC Database- Spectrum MS-IW-1193
##NAMES=HP
##CAS NAME=Ethanol, 2-iodo-
##MOLFORM=C2H5IO
##CAS REGISTRY NO=624-76-0
##MP= -300
##BP= -300
##MW= 172
##$RETENTION INDEX=0
##$CONDENSED SPECTRUM=NO
##NPOINTS= 46
##XYDATA=(XY..XY) 1 
    13          1
    14         10
    15         57
    16          2
    17          2
    18          8
    19          1
    25          2
    26         17
    27        203
    28         35
    29         92
    30          5
    31        156
    32          3
    41          4
    42         37
    43        166
    44         84
    45        999
    46         34
    47          3
    63          2
    64          1
    73          3
    80          1
    82          1
    89          3
   127        169
   128         67
   129          9
   139         10
   140         11
   141         63
   142         60
   143          2
   144          4
   152          2
   153          5
   154          4
   155         28
   170          2
   171         13
   172        532
   173         11
   174          1