##TITLE=Library Entry 63746
##JCAMP-DX=Revision 4.10 
##DATA TYPE=MASS SPECTRUM
##SAMPLE DESCRIPTION=NIST Mass Spectrometry Data Center, 1990.
##NAMES=HP
##CAS NAME=Benzene, 1-iodo-4-methyl-
##MOLFORM=C7H7I
##CAS REGISTRY NO=624-31-7
##MP= -300
##BP= -300
##MW= 218
##$RETENTION INDEX=1155
##$CONDENSED SPECTRUM=NO
##NPOINTS= 52
##XYDATA=(XY..XY) 1 
    14          2
    15          5
    25          1
    26         11
    27         23
    28          1
    37         29
    38         59
    39        203
    40         17
    41         34
    42          1
    43          5
    44          2
    48          2
    49         16
    50        123
    51         86
    52         23
    53          6
    60          5
    61         40
    62         98
    63        210
    64         72
    65        507
    66         25
    73         10
    74         35
    75         20
    76         13
    77          2
    84          4
    85         15
    86         25
    87         16
    88          2
    89        169
    90        118
    91        999
    92         75
    93          2
   109         11
   127         96
   128          8
   152          2
   164          1
   165          3
   214          1
   218        974
   219         72
   220          3