##TITLE=Library Entry 25102
##JCAMP-DX=Revision 4.10 
##DATA TYPE=MASS SPECTRUM
##SAMPLE DESCRIPTION=P.F.DIAMOND SHELL RESEARCH LIMITED THORNTON RESEARCH CE
NTRE
##NAMES=HP
##CAS NAME=1-Butanol, 3,3-dimethyl-
##MOLFORM=C6H14O
##CAS REGISTRY NO=624-95-3
##MP= -300
##BP= -300
##MW= 102
##$RETENTION INDEX=796
##$CONDENSED SPECTRUM=NO
##NPOINTS= 26
##XYDATA=(XY..XY) 1 
    26         13
    27         86
    29        225
    30         13
    31        102
    36         22
    38         16
    39        100
    40         22
    41        555
    42         44
    43        225
    44         36
    45        122
    53         33
    55         77
    56        400
    57        999
    58         52
    59         19
    67         22
    69        666
    70         80
    71         50
    85         41
    87         52