##TITLE=Library Entry 52175
##JCAMP-DX=Revision 4.10 
##DATA TYPE=MASS SPECTRUM
##SAMPLE DESCRIPTION=Chemical Concepts
##NAMES=HP
##CAS NAME=Hexane, 1,2-dibromo-
##MOLFORM=C6H12Br2
##CAS REGISTRY NO=624-20-4
##MP= -300
##BP= -300
##MW= 242
##$RETENTION INDEX=1129
##$CONDENSED SPECTRUM=NO
##NPOINTS= 95
##XYDATA=(XY..XY) 1 
    26         18
    27        180
    28         28
    29        124
    30          3
    37          5
    38         17
    39        172
    40         30
    41        441
    42         70
    43        297
    44         11
    49          2
    50         13
    51         23
    52         10
    53         86
    54         26
    55        586
    56         59
    57         66
    58          3
    61          1
    62          2
    63          5
    64          1
    65         10
    66          4
    67         41
    68          4
    69         23
    70          2
    71          1
    73          2
    74          2
    75          1
    76          1
    77          5
    78          2
    79          8
    80          7
    81         28
    82         10
    83        999
    84         75
    85          4
    87          2
    91          1
    92          1
    93         16
    94          1
    95         13
    96          1
   104          1
   105         14
   106          7
   107         39
   108          7
   109         28
   110          1
   111          1
   117          1
   119         14
   120          8
   121         64
   122         10
   123         51
   124          2
   133         10
   134          1
   135         14
   136          1
   137          4
   161          3
   162          2
   163        313
   164         22
   165        294
   166         20
   167          4
   185          3
   186          1
   187          5
   188          1
   189          2
   199          1
   201          2
   203          1
   218          1
   242          2
   243          0
   244          4
   245          0
   246          2