##TITLE=Library Entry 15645
##JCAMP-DX=Revision 4.10 
##DATA TYPE=MASS SPECTRUM
##SAMPLE DESCRIPTION=AIR PRODUCTS & CHEMICALS, INC BOX 538, ALLENTOWN, PA 18
105, D M PAREES
##NAMES=HP
##CAS NAME=Ethanamine, N-methyl-
##MOLFORM=C3H9N
##CAS REGISTRY NO=624-78-2
##MP= -300
##BP= -300
##MW= 59
##$RETENTION INDEX=482
##$CONDENSED SPECTRUM=NO
##NPOINTS= 14
##XYDATA=(XY..XY) 1 
    27         85
    29         75
    30        225
    40         18
    41         40
    42        135
    43         78
    44        999
    45         32
    56         70
    57         35
    58        265
    59        420
    60         15