##TITLE=Library Entry 34280
##JCAMP-DX=Revision 4.10 
##DATA TYPE=MASS SPECTRUM
##SAMPLE DESCRIPTION=Chemical Concepts
##NAMES=HP
##CAS NAME=2,6-Octadien-1-ol, 3,7-dimethyl-
##MOLFORM=C10H18O
##CAS REGISTRY NO=624-15-7
##MP= -300
##BP= -300
##MW= 154
##$RETENTION INDEX=1260
##$CONDENSED SPECTRUM=NO
##NPOINTS= 80
##XYDATA=(XY..XY) 1 
    26          3
    27         68
    28          0
    29         73
    30          2
    31         23
    37          1
    38          5
    39        118
    40         24
    41        516
    42         30
    43         35
    44          5
    45          4
    50          6
    51         19
    52          8
    53         73
    54         11
    55         63
    56         16
    57         34
    58          2
    59         21
    62          1
    63          5
    64          1
    65         15
    66          9
    67         71
    68        203
    69        999
    70         74
    71         56
    72          6
    73          0
    74          0
    75          1
    77         17
    78          4
    79         20
    80         32
    81         38
    82         10
    83         30
    84         57
    85         18
    86          4
    91         14
    92         15
    93         80
    94         14
    95         15
    96         25
    97         14
    98          7
    99          0
   103          0
   105          5
   106          1
   107         13
   108          4
   109         10
   110          7
   111         49
   112          6
   119          2
   120          0
   121         34
   122          4
   123         93
   124          8
   136         33
   137          3
   139         12
   140          1
   141          1
   154         34
   155          3