##TITLE=Library Entry 40433
##JCAMP-DX=Revision 4.10 
##DATA TYPE=MASS SPECTRUM
##SAMPLE DESCRIPTION=V.G. Zaikin, R.S.Borisov, TIPS RAS, Moscow, Russia
##NAMES=HP
##CAS NAME=Decanedioic acid, bis(2-ethoxyethyl) ester
##MOLFORM=C18H34O6
##CAS REGISTRY NO=624-10-2
##MP= -300
##BP= -300
##MW= 346
##$RETENTION INDEX=2270
##$CONDENSED SPECTRUM=NO
##NPOINTS= 110
##XYDATA=(XY..XY) 1 
    26          6
    27         41
    29        115
    30          5
    31        154
    39         12
    41         86
    42         47
    43        120
    44        157
    45        336
    46          7
    53          6
    54         13
    55        129
    56         21
    57          8
    58          5
    59        281
    60          8
    61          3
    67         26
    68         11
    69         84
    70         14
    71          6
    72        999
    73        335
    74         16
    79         17
    80          9
    81         30
    82          6
    83         32
    84         55
    85          5
    86         53
    87          9
    88         31
    89         37
    91          5
    93         21
    94          8
    95         35
    96         11
    97         45
    98         99
    99        111
   100         11
   101          2
   103          2
   107         10
   109          4
   110          6
   111         21
   112         14
   113         18
   115          3
   119          4
   120          3
   121         46
   122          5
   123          5
   124         10
   125         21
   127         10
   132         87
   133          6
   137          5
   138         35
   139         34
   140         26
   141         29
   145         28
   146          2
   148          5
   149          3
   155         21
   156          2
   159         12
   165          2
   166         39
   167         40
   168          4
   169         70
   170          6
   173         12
   174          2
   183         12
   184         24
   202          1
   211        203
   212         29
   213        208
   214         28
   215         73
   216          8
   227          2
   228          3
   229        102
   230         39
   231          4
   256          7
   257        487
   258         78
   259          9
   273          3
   300          3
   301         71
   302         13