##TITLE=Library Entry 2955
##JCAMP-DX=Revision 4.10 
##DATA TYPE=MASS SPECTRUM
##SAMPLE DESCRIPTION=Exported from NIST MS Search
##NAMES=HP
##CAS NAME=2-Butene, (E)-
##MOLFORM=C4H8
##CAS REGISTRY NO=624-64-6
##MP= -300
##BP= -300
##MW= 56
##$RETENTION INDEX=407
##$CONDENSED SPECTRUM=NO
##NPOINTS= 33
##XYDATA=(XY..XY) 1 
     1         16
     2          2
    12          2
    13          2
    14          8
    15         38
    16          1
    24          1
    25          9
    26        113
    27        351
    28        324
    29        198
    30          7
    36          1
    37         23
    38         42
    39        359
    40         64
    41        999
    42         34
    43          1
    48          2
    49         15
    50         62
    51         60
    52         20
    53         81
    54         36
    55        220
    56        478
    57         21
    58          1