##TITLE=Library Entry 40566
##JCAMP-DX=Revision 4.10 
##DATA TYPE=MASS SPECTRUM
##SAMPLE DESCRIPTION=Japan AIST/NIMC Database- Spectrum MS-NW-4983
##NAMES=HP
##CAS NAME=5-Methyl-2-hexanone oxime
##MOLFORM=C7H15NO
##CAS REGISTRY NO=624-44-2
##MP= -300
##BP= -300
##MW= 129
##$RETENTION INDEX=0
##$CONDENSED SPECTRUM=NO
##NPOINTS= 86
##XYDATA=(XY..XY) 1 
    14          4
    15         55
    16          1
    17          3
    18         10
    25          1
    26         12
    27        112
    28         59
    29        118
    30         23
    31         20
    32          3
    33         19
    34          1
    37          2
    38          8
    39         91
    40         28
    41        250
    42        411
    43        167
    44         15
    45          9
    46         13
    48          1
    49          1
    50          5
    51          8
    52          6
    53         24
    54         34
    55        196
    56         73
    57        238
    58         43
    59          7
    60         15
    63          1
    64          1
    65          3
    66          3
    67         11
    68         37
    69         25
    70        136
    71         17
    72         18
    73        999
    74         41
    75          3
    77          4
    78          1
    79          8
    80          7
    81         45
    82         17
    83         15
    84         10
    85          2
    86        241
    87         29
    88          2
    91          1
    93          2
    94          6
    95         10
    96         36
    97         55
    98         24
    99          3
   100         12
   101          1
   106          1
   107          2
   108          3
   109          2
   110          7
   111          6
   112         13
   113          5
   114         59
   115          5
   127          1
   128          4
   129          2