##TITLE=Library Entry 29696
##JCAMP-DX=Revision 4.10 
##DATA TYPE=MASS SPECTRUM
##SAMPLE DESCRIPTION=NIST Mass Spectrometry Data Center, 1990.
##NAMES=HP
##CAS NAME=4-Pentene-2-ol, 2-methyl
##MOLFORM=C6H12O
##CAS REGISTRY NO=624-97-5
##MP= -300
##BP= -300
##MW= 100
##$RETENTION INDEX=0
##$CONDENSED SPECTRUM=NO
##NPOINTS= 20
##XYDATA=(XY..XY) 1 
    14         22
    15         50
    27         65
    28         81
    29         52
    31        191
    32         27
    38         30
    39        198
    40         38
    41        203
    43        529
    44         21
    53         20
    55         58
    59        999
    60         34
    67         43
    83         18
    85         56