##TITLE=Library Entry 34316
##JCAMP-DX=Revision 4.10 
##DATA TYPE=MASS SPECTRUM
##SAMPLE DESCRIPTION=NIST Mass Spectrometry Data Center, 1990.
##NAMES=HP
##CAS NAME=Butane, 1,3-dichloro-3-methyl-
##MOLFORM=C5H10Cl2
##CAS REGISTRY NO=624-96-4
##MP= -300
##BP= -300
##MW= 140
##$RETENTION INDEX=0
##$CONDENSED SPECTRUM=NO
##NPOINTS= 55
##XYDATA=(XY..XY) 1 
    14         13
    15         30
    18          7
    25          6
    26         45
    27        295
    28         63
    29        104
    31          9
    32         12
    35         13
    36         24
    37         26
    38         54
    39        341
    40         83
    41        787
    42         57
    43        127
    44          9
    47          4
    48          7
    49         80
    50         46
    51         82
    52          4
    53        267
    54         23
    55        145
    56         13
    61         31
    62         22
    63        120
    64         11
    65         51
    66          7
    67         60
    68          7
    69        999
    70         56
    73          7
    75         23
    76         86
    77        608
    78         44
    79        198
    89        159
    90          9
    91         59
   104         51
   105        242
   106         32
   107         84
   125         16
   127         12