##TITLE=Library Entry 23133
##JCAMP-DX=Revision 4.10 
##DATA TYPE=MASS SPECTRUM
##SAMPLE DESCRIPTION=Japan AIST/NIMC Database- Spectrum MS-NW-1426
##NAMES=HP
##CAS NAME=Alpha-monopropionin
##MOLFORM=C6H12O4
##CAS REGISTRY NO=624-47-5
##MP= -300
##BP= -300
##MW= 148
##$RETENTION INDEX=0
##$CONDENSED SPECTRUM=NO
##NPOINTS= 53
##XYDATA=(XY..XY) 1 
    14          4
    15         68
    16          1
    17          3
    18         13
    25          1
    26         11
    27         69
    28         30
    29        339
    30          9
    31         99
    32          3
    33          2
    39          4
    40          2
    41          3
    42         15
    43        135
    44        102
    45         25
    46          1
    47          1
    53          1
    55         12
    56         33
    57        999
    58         35
    59          8
    60         13
    61        145
    62          6
    63          1
    71          5
    73          7
    74         21
    75         80
    76          3
    87          9
    88         72
    89          5
   100         17
   101          2
   103          1
   114          2
   115          1
   117        127
   118          8
   119          1
   129          3
   130          4
   131          8
   133          1