##TITLE=Library Entry 90048
##JCAMP-DX=Revision 4.10 
##DATA TYPE=MASS SPECTRUM
##SAMPLE DESCRIPTION=Japan AIST/NIMC Database- Spectrum MS-NW- 60
##NAMES=HP
##CAS NAME=2-Butenedioic acid (Z)-, dimethyl ester
##MOLFORM=C6H8O4
##CAS REGISTRY NO=624-48-6
##MP= -300
##BP= -300
##MW= 144
##$RETENTION INDEX=1019
##$CONDENSED SPECTRUM=NO
##NPOINTS= 50
##XYDATA=(XY..XY) 1 
    14          3
    15        103
    17          2
    18          7
    25          4
    26         53
    27         15
    28         10
    29         25
    30          6
    31          8
    32          1
    38          1
    39         11
    41          9
    42          6
    43          9
    44          2
    45          4
    53         30
    54         49
    55         22
    56          2
    57          4
    58          2
    59        177
    60          5
    61          2
    68          1
    69          2
    70          3
    71          1
    73          2
    75          6
    81          4
    82         20
    83          4
    85         95
    86          7
    87          1
    97          1
    99          7
   113        999
   114         79
   115          9
   117          3
   129          1
   141          1
   142          1
   144          7