##TITLE=Library Entry 17869
##JCAMP-DX=Revision 4.10 
##DATA TYPE=MASS SPECTRUM
##SAMPLE DESCRIPTION=MINISTRY OF TECH., E.R.D.E., WALTHAM ABBEY, UK
##NAMES=HP
##CAS NAME=1,2,3-Propanetriol, 1-nitrate
##MOLFORM=C3H7NO5
##CAS REGISTRY NO=624-43-1
##MP= -300
##BP= -300
##MW= 137
##$RETENTION INDEX=0
##$CONDENSED SPECTRUM=NO
##NPOINTS= 39
##XYDATA=(XY..XY) 1 
    12          4
    13          5
    14          9
    15         40
    16          7
    17         19
    18         76
    19          8
    24          2
    25          3
    26         12
    27         32
    28         69
    29        143
    30        162
    31         38
    32          5
    39          7
    40          5
    41         11
    42         20
    43         19
    44         32
    45         22
    46        999
    47          6
    55          5
    56          4
    57         21
    58          4
    59          2
    60          4
    61         16
    64          2
    71          8
    73          4
    76        160
    77          2
    90         12