##TITLE=Library Entry 21075
##JCAMP-DX=Revision 4.10 
##DATA TYPE=MASS SPECTRUM
##SAMPLE DESCRIPTION=Exported from NIST MS Search
##NAMES=HP
##CAS NAME=Cyclohexane, 1,4-dimethyl-, cis-
##MOLFORM=C8H16
##CAS REGISTRY NO=624-29-3
##MP= -300
##BP= -300
##MW= 112
##$RETENTION INDEX=810
##$CONDENSED SPECTRUM=NO
##NPOINTS= 66
##XYDATA=(XY..XY) 1 
    13          1
    14          1
    15         34
    16          1
    26         10
    27        212
    28         62
    29        192
    30          5
    37          2
    38          5
    39        192
    40         39
    41        440
    42        173
    43        100
    44          3
    45          1
    46          2
    47          1
    50          3
    51         15
    52          9
    53         62
    54         42
    55        999
    56        259
    57         75
    58          3
    62          1
    63          2
    64          1
    65          9
    66          6
    67         43
    68         22
    69        154
    70        120
    71         15
    72          1
    75          1
    77          9
    78          2
    79          8
    80          2
    81         20
    82         23
    83        103
    84         73
    85          6
    89          1
    91          3
    92          1
    93          1
    94          1
    95          6
    96         89
    97        864
    98         65
    99          2
   109          1
   110          1
   111          8
   112        309
   113         27
   114          1