##TITLE=Library Entry 23055
##JCAMP-DX=Revision 4.10 
##DATA TYPE=MASS SPECTRUM
##SAMPLE DESCRIPTION=R.I. ZALEWSKI, INST. COMMOD. SCI., AKAD. EKON., POZNAN,
 POLAND
##NAMES=HP
##CAS NAME=Propanoic acid, pentyl ester
##MOLFORM=C8H16O2
##CAS REGISTRY NO=624-54-4
##MP= -300
##BP= -300
##MW= 144
##$RETENTION INDEX=969
##$CONDENSED SPECTRUM=NO
##NPOINTS= 27
##XYDATA=(XY..XY) 1 
    27        530
    28        190
    29        750
    30         30
    31         40
    39         20
    40         30
    41        280
    42        150
    43        330
    44         20
    45         30
    55        320
    57        999
    59          5
    69         60
    70        470
    71         80
    73         10
    74         10
    75        120
    85         30
    87         70
    88         10
   115         20
   129          2
   144          5