##TITLE=Library Entry 8662
##JCAMP-DX=Revision 4.10 
##DATA TYPE=MASS SPECTRUM
##SAMPLE DESCRIPTION=Japan AIST/NIMC Database- Spectrum MS-NW-9411
##NAMES=HP
##CAS NAME=1-Butanol, 2-methyl-, acetate
##MOLFORM=C7H14O2
##CAS REGISTRY NO=624-41-9
##MP= -300
##BP= -300
##MW= 130
##$RETENTION INDEX=880
##$CONDENSED SPECTRUM=NO
##NPOINTS= 44
##XYDATA=(XY..XY) 1 
    14          2
    15         28
    18          1
    26          3
    27         42
    28         12
    29         81
    30          2
    31         10
    38          1
    39         34
    40          5
    41        101
    42         79
    43        999
    44         24
    45         21
    50          1
    51          2
    53          6
    54          3
    55        163
    56         37
    57         61
    58          5
    59          2
    60          1
    61         32
    62          1
    67          1
    69         13
    70        342
    71         28
    72         52
    73        156
    74         53
    75          7
    85         10
    86          1
    87          6
   100          1
   101          9
   130          1
   131          1