##TITLE=Library Entry 8905
##JCAMP-DX=Revision 4.10 
##DATA TYPE=MASS SPECTRUM
##SAMPLE DESCRIPTION=NIST Mass Spectrometry Data Center, 1990.
##NAMES=HP
##CAS NAME=4-Decanone
##MOLFORM=C10H20O
##CAS REGISTRY NO=624-16-8
##MP= -300
##BP= -300
##MW= 156
##$RETENTION INDEX=1137
##$CONDENSED SPECTRUM=NO
##NPOINTS= 30
##XYDATA=(XY..XY) 1 
    15         14
    27        237
    28         95
    29        154
    39        122
    41        365
    42        108
    43        999
    44         35
    45         12
    53         22
    55        102
    56         29
    57        133
    58        413
    59         15
    67         12
    68         14
    69         24
    71        477
    72         26
    85        179
    86        280
    87         53
    95         27
    99         69
   100         12
   113        354
   114         41
   156         16