##TITLE=Library Entry 12433
##JCAMP-DX=Revision 4.10 
##DATA TYPE=MASS SPECTRUM
##SAMPLE DESCRIPTION=V.G.Zaikin, Petrochem. Synth. Inst., Moscow
##NAMES=HP
##CAS NAME=Propyl octanoate
##MOLFORM=C11H22O2
##CAS REGISTRY NO=624-13-5
##MP= -300
##BP= -300
##MW= 186
##$RETENTION INDEX=1290
##$CONDENSED SPECTRUM=NO
##NPOINTS= 72
##XYDATA=(XY..XY) 1 
    26         29
    27        301
    28         96
    29        273
    30         18
    31         41
    38         28
    39        261
    40         69
    41        749
    42        441
    43        999
    44         39
    45         61
    50          5
    51         11
    52          6
    53         51
    54         41
    55        548
    56        130
    57        773
    58         58
    59        109
    60        773
    61        862
    62         25
    67         41
    68         20
    69        141
    70         61
    71         41
    72         15
    73        461
    74         58
    75         21
    79         10
    81         20
    82         41
    83        132
    84         95
    85         51
    86          8
    87        147
    88         19
    89         69
    95          4
    96          6
    97         61
    98         51
    99          8
   101        133
   102        325
   103         54
   104          3
   109         29
   111          8
   115        149
   116          9
   125         25
   127        867
   128         85
   129         31
   143         35
   144         59
   145        889
   146         79
   147         10
   157         16
   158          2
   186         16
   187          2