##TITLE=Library Entry 905
##JCAMP-DX=Revision 4.10 
##DATA TYPE=MASS SPECTRUM
##SAMPLE DESCRIPTION=A.E.WILLIAMS ICI DYESTUFFS DIVISION, BLACKLEY, MANCHEST
ER, UK
##NAMES=HP
##CAS NAME=Methyl nitrite
##MOLFORM=CH3NO2
##CAS REGISTRY NO=624-91-9
##MP= -300
##BP= -300
##MW= 61
##$RETENTION INDEX=268
##$CONDENSED SPECTRUM=NO
##NPOINTS= 12
##XYDATA=(XY..XY) 1 
    14         16
    15         60
    18          7
    28        112
    29        300
    30        999
    31        112
    32         52
    44          7
    46         15
    60         26
    61         48