##TITLE=Library Entry 2015
##JCAMP-DX=Revision 4.10 
##DATA TYPE=MASS SPECTRUM
##SAMPLE DESCRIPTION=NIST Mass Spectrometry Data Center
##NAMES=HP
##CAS NAME=Iodoacetonitrile
##MOLFORM=C2H2IN
##CAS REGISTRY NO=624-75-9
##MP= -300
##BP= -300
##MW= 167
##$RETENTION INDEX=0
##$CONDENSED SPECTRUM=NO
##NPOINTS= 22
##XYDATA=(XY..XY) 1 
    12         43
    13         54
    14         30
    15          3
    24          8
    25         12
    26         33
    27         10
    38         71
    39         68
    40        999
    41         24
    64          6
   127        535
   128         20
   139         41
   140          8
   141          6
   152          2
   165          6
   167        571
   168         14