##TITLE=Library Entry 18447
##JCAMP-DX=Revision 4.10 
##DATA TYPE=MASS SPECTRUM
##SAMPLE DESCRIPTION=A.Pleshkova, Nesmeyanov Inst.Org.Elem.Cpds, Moscow
##NAMES=HP
##CAS NAME=2-Propynal
##MOLFORM=C3H2O
##CAS REGISTRY NO=624-67-9
##MP= -300
##BP= -300
##MW= 54
##$RETENTION INDEX=0
##$CONDENSED SPECTRUM=NO
##NPOINTS= 16
##XYDATA=(XY..XY) 1 
    24         40
    25        170
    26        420
    27         11
    28        290
    29        140
    30          3
    36         70
    37         90
    38         40
    39         40
    52         90
    53        999
    54        560
    55         19
    56          1