##TITLE=Library Entry 23930
##JCAMP-DX=Revision 4.10 
##DATA TYPE=MASS SPECTRUM
##SAMPLE DESCRIPTION=Exported from NIST MS Search
##NAMES=HP
##CAS NAME=3-Heptanone, 6-methyl-
##MOLFORM=C8H16O
##CAS REGISTRY NO=624-42-0
##MP= -300
##BP= -300
##MW= 128
##$RETENTION INDEX=941
##$CONDENSED SPECTRUM=NO
##NPOINTS= 89
##XYDATA=(XY..XY) 1 
    12          1
    13          2
    14         11
    15         49
    16          2
    17          2
    18          6
    19          1
    25          2
    26         70
    27        555
    28        169
    29        753
    30         18
    31         12
    32          2
    33          1
    34          1
    36          1
    37          6
    38         16
    39        183
    40         29
    41        285
    42         76
    43        902
    44         32
    45          6
    48          1
    49          1
    50          9
    51         16
    52          6
    53         37
    54         13
    55        125
    56         65
    57        999
    58         44
    59          8
    61          1
    62          1
    63          2
    64          1
    65          3
    66         11
    67         13
    68          3
    69         13
    70          7
    71        219
    72        562
    73         70
    74          4
    75          1
    77          3
    78          1
    79          3
    81        285
    82         20
    83          5
    84          2
    85         51
    86         12
    87          1
    91          1
    93          1
    94          1
    95          2
    96          1
    97          3
    98          2
    99        231
   100         16
   101          1
   105          1
   106          1
   107          1
   109          3
   110          1
   111          1
   112          1
   113          5
   114          1
   126          1
   127          2
   128        117
   129         13
   130          1