##TITLE=Library Entry 29944
##JCAMP-DX=Revision 4.10 
##DATA TYPE=MASS SPECTRUM
##SAMPLE DESCRIPTION=Japan AIST/NIMC Database- Spectrum MS-NW-3545
##NAMES=HP
##CAS NAME=3-Nonanol
##MOLFORM=C9H20O
##CAS REGISTRY NO=624-51-1
##MP= -300
##BP= -300
##MW= 144
##$RETENTION INDEX=1095
##$CONDENSED SPECTRUM=NO
##NPOINTS= 64
##XYDATA=(XY..XY) 1 
    15          6
    17          1
    18          3
    26          5
    27         85
    28         11
    29        127
    30          7
    31        161
    32          2
    38          2
    39         46
    40          9
    41        216
    42         50
    43        211
    44         24
    45         31
    50          2
    51          3
    52          1
    53         12
    54          9
    55        677
    56         80
    57         99
    58         94
    59        999
    60         34
    61          3
    65          2
    66          1
    67         11
    68         11
    69        136
    70         51
    71         20
    72         18
    73          9
    77          1
    79          2
    81          9
    82          6
    83         21
    84         18
    85         13
    86          3
    87         24
    88          1
    95          4
    96          8
    97        410
    98         39
    99          2
   109          1
   111          1
   113          9
   114          7
   115        181
   116         15
   126         22
   127          4
   129          2
   143          8