##TITLE=Library Entry 10652
##JCAMP-DX=Revision 4.10 
##DATA TYPE=MASS SPECTRUM
##SAMPLE DESCRIPTION=Japan AIST/NIMC Database- Spectrum MS-NW-4264
##NAMES=HP
##CAS NAME=Pentanoic acid, 4-oxo-, methyl ester
##MOLFORM=C6H10O3
##CAS REGISTRY NO=624-45-3
##MP= -300
##BP= -300
##MW= 130
##$RETENTION INDEX=982
##$CONDENSED SPECTRUM=NO
##NPOINTS= 56
##XYDATA=(XY..XY) 1 
    13          1
    14          9
    15        151
    16          2
    18          2
    25          1
    26         17
    27         69
    28         56
    29         22
    30          2
    31         12
    32          4
    33          2
    37          2
    38          3
    39         13
    40          2
    41         20
    42         46
    43        999
    44         23
    45         20
    50          2
    51          2
    52          1
    53          5
    54          2
    55        160
    56         44
    57        104
    58          8
    59        112
    60          7
    61          1
    69          2
    70          5
    71         63
    72          3
    75          9
    81          6
    83          2
    87         52
    88        108
    89          8
    97          1
    98         61
    99        234
   100         15
   101          1
   102          1
   115        186
   116         10
   117          1
   130         21
   131          2