##TITLE=Library Entry 90
##JCAMP-DX=Revision 4.10 
##DATA TYPE=MASS SPECTRUM
##SAMPLE DESCRIPTION=NIST Mass Spectrometry Data Center
##NAMES=HP
##CAS NAME=Ethane, 1-chloro-2-iodo-
##MOLFORM=C2H4ClI
##CAS REGISTRY NO=624-70-4
##MP= -300
##BP= -300
##MW= 190
##$RETENTION INDEX=0
##$CONDENSED SPECTRUM=NO
##NPOINTS= 44
##XYDATA=(XY..XY) 1 
    12          5
    13          8
    14         13
    15          2
    24          6
    25         26
    26        172
    27        999
    28         29
    29          2
    35         12
    36          7
    37          4
    38          1
    47          3
    48          3
    49         10
    50          2
    51          2
    60          6
    61         26
    63        747
    64         25
    65        230
    66          5
    95          1
   127        170
   128         34
   129          4
   139          6
   140          5
   141         25
   142          1
   151          1
   152          4
   153          7
   155         66
   156          1
   162          6
   164          2
   190        242
   191          7
   192         77
   193          2