##TITLE=Library Entry 34931
##JCAMP-DX=Revision 4.10 
##DATA TYPE=MASS SPECTRUM
##SAMPLE DESCRIPTION=NIST Mass Spectrometry Data Center, 1990.
##NAMES=HP
##CAS NAME=9-Heptadecanol
##MOLFORM=C17H36O
##CAS REGISTRY NO=624-08-8
##MP= -300
##BP= -300
##MW= 256
##$RETENTION INDEX=0
##$CONDENSED SPECTRUM=NO
##NPOINTS= 77
##XYDATA=(XY..XY) 1 
    14         18
    16         11
    18          5
    27         88
    28         17
    29        212
    30          6
    31          9
    39        105
    41        666
    42        129
    43        569
    44         48
    45         10
    51          7
    53         81
    54        198
    55        802
    56        322
    57        534
    58         50
    59         12
    65         23
    66         26
    67        219
    68        124
    69        999
    70        317
    71        195
    72         14
    77         19
    78          4
    79         42
    80         14
    81        104
    82        141
    83        653
    84        168
    85         86
    86          7
    91          7
    93          4
    94          5
    95         48
    96         80
    97        321
    98         88
    99         20
   100          5
   109         12
   110         32
   111        135
   112         48
   113         12
   114          4
   123          6
   124         21
   125         76
   126         26
   127          8
   138          9
   139         14
   140         16
   141         26
   142          8
   143        138
   144         15
   152          4
   153          6
   154          8
   157          4
   167          3
   168          4
   169          4
   210          6
   238         65
   239         13