##TITLE=Library Entry 44638
##JCAMP-DX=Revision 4.10 
##DATA TYPE=MASS SPECTRUM
##SAMPLE DESCRIPTION=NIST Mass Spectrometry Data Center, 1998.
##NAMES=HP
##CAS NAME=Methyl valerate
##MOLFORM=C6H12O2
##CAS REGISTRY NO=624-24-8
##MP= -300
##BP= -300
##MW= 116
##$RETENTION INDEX=823
##$CONDENSED SPECTRUM=NO
##NPOINTS= 57
##XYDATA=(XY..XY) 1 
    14          2
    15         35
    16          1
    25          1
    26         19
    27        122
    28         43
    29        187
    30          9
    31         23
    33          4
    37          4
    38         11
    39        127
    40         16
    41        306
    42         84
    43        333
    44         24
    45         38
    46          1
    49          2
    50         11
    51         13
    52          5
    53         24
    54          9
    55        203
    56         89
    57        429
    58         21
    59        265
    60         10
    61          4
    67          2
    68          1
    69          6
    71          1
    72          1
    73         18
    74        999
    75         37
    76          5
    81          1
    82          1
    83          9
    84          5
    85        376
    86         22
    87        344
    88         31
    89          3
   101         24
   102          1
   115          3
   116          4
   117          4