##TITLE=Library Entry 70160
##JCAMP-DX=Revision 4.10 
##DATA TYPE=MASS SPECTRUM
##SAMPLE DESCRIPTION=Japan AIST/NIMC Database- Spectrum MS-NW-4499
##NAMES=HP
##CAS NAME=Cyclohexanecarboxylic acid, 4-pentyl-, 4-cyanophenyl ester, trans
-
##MOLFORM=C19H25NO2
##CAS REGISTRY NO=62439-35-4
##MP= -300
##BP= -300
##MW= 299
##$RETENTION INDEX=0
##$CONDENSED SPECTRUM=NO
##NPOINTS= 107
##XYDATA=(XY..XY) 1 
    15          1
    17          2
    18          7
    26          2
    27         66
    28         11
    29        121
    30          2
    32          1
    37          6
    38          6
    39         79
    40         13
    41        315
    42         23
    43        194
    44          6
    50          5
    51         10
    52          6
    53         52
    54         91
    55        488
    56         32
    57        179
    58          8
    61          2
    62          4
    63         16
    64         21
    65         14
    66         10
    67        208
    68         44
    69        399
    70         25
    71        224
    72         12
    74          1
    75          6
    76          4
    77         15
    78          4
    79         36
    80         12
    81        221
    82         55
    83        874
    84         59
    85         50
    86          3
    88          1
    89          1
    90         36
    91         16
    92          4
    93          9
    94          3
    95         84
    96         34
    97        999
    98         75
    99          3
   102         20
   103          3
   104          1
   105          2
   106          1
   107          9
   108          1
   109         28
   110          9
   111        254
   112         23
   113          1
   116          1
   118         13
   119         36
   120         19
   121          3
   123          5
   124          3
   125          1
   129          3
   130          1
   132          2
   137          5
   138          6
   139          2
   146          2
   149          2
   150          1
   151          9
   152          4
   153        600
   154         76
   155          4
   163          2
   165          1
   167          2
   179          4
   180          5
   181        614
   182         84
   183          6
   299          3
   300          1