##TITLE=Library Entry 53231
##JCAMP-DX=Revision 4.10 
##DATA TYPE=MASS SPECTRUM
##SAMPLE DESCRIPTION=Japan AIST/NIMC Database- Spectrum MS-NW-4498
##NAMES=HP
##CAS NAME=Cyclohexanecarboxylic acid, 4-butyl-, 4-cyanophenyl ester, trans-
##MOLFORM=C18H23NO2
##CAS REGISTRY NO=62439-34-3
##MP= -300
##BP= -300
##MW= 285
##$RETENTION INDEX=0
##$CONDENSED SPECTRUM=NO
##NPOINTS= 90
##XYDATA=(XY..XY) 1 
    15          1
    17          2
    18          6
    26          2
    27         46
    28          9
    29         74
    30          1
    37          4
    38          4
    39         53
    40          9
    41        205
    42         14
    43         86
    44          3
    50          4
    51          7
    52          4
    53         33
    54         59
    55        332
    56         21
    57        215
    58          9
    62          3
    63         11
    64         14
    65          9
    66          6
    67        118
    68         25
    69        334
    70         19
    71         58
    72          3
    75          4
    76          3
    77          9
    78          3
    79         22
    80          7
    81        136
    82         31
    83        999
    84         66
    85          5
    90         23
    91          9
    92          3
    93          6
    94          1
    95         38
    96         22
    97        351
    98         26
    99          1
   102         15
   103          2
   105          1
   106          1
   107          3
   109         11
   110          7
   111          2
   116          2
   118          9
   119         26
   120         15
   121          1
   123          5
   124          4
   125          1
   130          1
   132          1
   135          2
   137          9
   138          3
   139        541
   140         61
   141          3
   146          1
   149          2
   165          3
   166          3
   167        536
   168         66
   169          5
   285          5
   286          1