##TITLE=Library Entry 51693
##JCAMP-DX=Revision 4.10 
##DATA TYPE=MASS SPECTRUM
##SAMPLE DESCRIPTION=V.G.Zaikin, TIPS RAS, Moscow, Russia
##NAMES=HP
##CAS NAME=Hexanoic acid, cyclohexyl ester
##MOLFORM=C12H22O2
##CAS REGISTRY NO=6243-10-3
##MP= -300
##BP= -300
##MW= 198
##$RETENTION INDEX=1405
##$CONDENSED SPECTRUM=NO
##NPOINTS= 71
##XYDATA=(XY..XY) 1 
    25          4
    26         65
    27        412
    28        109
    29        385
    30          9
    31         16
    38         22
    39        317
    40         67
    41        685
    42        281
    43        742
    44         85
    45         51
    50         19
    51         45
    52         19
    53         92
    54        271
    55        688
    56        131
    57         85
    58         21
    59         16
    60        309
    61         69
    63          3
    65         18
    66         18
    67        588
    68         48
    69         65
    70         49
    71        354
    72         28
    73        131
    74         21
    75          9
    77         19
    78          9
    79         38
    80         15
    81        115
    82        999
    83        512
    84         42
    85          7
    86          2
    87         55
    88          6
    89         19
    91          3
    93          3
    94          3
    96          3
    97         11
    98         31
    99        768
   100         55
   101         12
   113          2
   114         27
   115         12
   116        161
   117        897
   118         62
   119          2
   127         18
   142         18
   155         12