##TITLE=Library Entry 84298
##JCAMP-DX=Revision 4.10 
##DATA TYPE=MASS SPECTRUM
##SAMPLE DESCRIPTION=G.S. KING, CHEM. PATHOL. DEP., QUEEN CHARLOTTE'S HOSP.,
 LONDON
##NAMES=HP
##CAS NAME=Phenylpropionic acid pentafluorobenzyl ester
##MOLFORM=C16H11F5O2
##CAS REGISTRY NO=62434-95-1
##MP= -300
##BP= -300
##MW= 330
##$RETENTION INDEX=0
##$CONDENSED SPECTRUM=NO
##NPOINTS= 39
##XYDATA=(XY..XY) 1 
    42         12
    43         32
    44         24
    50         12
    51         52
    52         12
    53         12
    55         24
    63         12
    65         44
    75         12
    77        112
    78         44
    79        144
    80         12
    81         12
    89         12
    91        232
    92         32
    93         12
    99         12
   102         12
   103         72
   104        104
   105        172
   106         24
   107        999
   108         72
   117         12
   131         12
   133         12
   149        444
   150         44
   155         12
   161         24
   181        244
   182         24
   195         12
   330         24