##TITLE=Library Entry 24853
##JCAMP-DX=Revision 4.10 
##DATA TYPE=MASS SPECTRUM
##SAMPLE DESCRIPTION=D.HENNEBERG, MAX-PLANCK INSTITUTE, MULHEIM, WEST GERMAN
Y
##NAMES=HP
##CAS NAME=Aluminum, di-.mu.-chlorodichlorobis(2-isocyano-2-methylpropane)di
-
##MOLFORM=C10H18Al2Cl4N2
##CAS REGISTRY NO=62431-10-1
##MP= -300
##BP= -300
##MW= 360
##$RETENTION INDEX=0
##$CONDENSED SPECTRUM=NO
##NPOINTS= 247
##XYDATA=(XY..XY) 1 
    26          7
    27         14
    28         30
    29        103
    30         14
    31          5
    32          3
    35          1
    36         28
    37          0
    38          9
    39         15
    40          5
    41        170
    42         19
    43         19
    44          7
    45          6
    46          0
    49          0
    50          4
    51          7
    52         17
    53          3
    54         12
    55         16
    56        237
    57        999
    58         55
    59          2
    60          0
    62          0
    63          1
    64          0
    65          1
    66          1
    67          2
    68          4
    69         12
    70         27
    71          6
    72          1
    73          1
    75          0
    76          0
    77          2
    78          3
    79         26
    80          1
    81          3
    82          3
    83          4
    84         11
    85          6
    86          2
    87          0
    88          0
    89          8
    90         13
    91          4
    92          4
    93          1
    94          3
    95          2
    96          1
    97          8
    98          1
    99          2
   100          0
   101          0
   103          0
   104          1
   105          2
   106          0
   107          0
   108          0
   109          1
   110          1
   111          2
   112          6
   113          2
   114          0
   115          0
   116          1
   117          2
   118          2
   119          1
   120          0
   121          0
   122          0
   123          1
   124         13
   125          0
   126         10
   127          0
   128          2
   129          0
   130          1
   131          4
   132          2
   133          1
   134          0
   136          0
   137          1
   138          0
   139          1
   140          0
   141          3
   142          0
   143          0
   144          1
   145          0
   146          6
   147          0
   148          2
   149         12
   150          1
   151          6
   152          1
   153          8
   154          0
   155          3
   156          0
   157          1
   158          1
   159          3
   160          0
   161          1
   163          0
   165          0
   166          3
   167          0
   168          2
   169          0
   170          1
   171          0
   173          0
   174          1
   175          0
   176          1
   177          0
   178          0
   179          2
   180          1
   181          0
   182          1
   183          0
   184          0
   185          0
   186          3
   187          1
   188          3
   189          1
   190          1
   191          0
   199          2
   200          0
   201          1
   202          0
   205          0
   206          0
   207          0
   208          0
   209          0
   210          0
   211          0
   213          1
   214          0
   215         10
   216          1
   217          3
   218          0
   219          2
   220          5
   221          1
   222         39
   223          2
   224         44
   225          1
   226         20
   227          0
   228          4
   229          0
   230          9
   232          3
   233          0
   234          1
   235          4
   236          1
   237          3
   238          0
   239          0
   243          6
   244          0
   245          5
   246          0
   247          2
   248          0
   249          2
   250          2
   251          2
   252          1
   253          0
   254          0
   255          0
   256          0
   262          1
   263          0
   264          0
   265          0
   266          0
   267          0
   268          0
   269          1
   270          2
   271          2
   272          2
   273          1
   274          0
   275          0
   278        103
   279          5
   280        132
   281          9
   282         58
   283          4
   284         12
   285          0
   286          0
   305          3
   307          5
   308          0
   309          2
   311          0
   327         20
   328          2
   329         20
   330          2
   331          6
   332          0
   333          0
   347          2
   348          0
   349          3
   350          0
   351          2
   353          0