##TITLE=Library Entry 11566
##JCAMP-DX=Revision 4.10 
##DATA TYPE=MASS SPECTRUM
##SAMPLE DESCRIPTION=Leung Pu, NIH, Bethesda, Maryland, U.S.
##NAMES=HP
##CAS NAME=p-Undecyloxybenzoic acid methyl ester
##MOLFORM=C19H30O3
##CAS REGISTRY NO=62443-11-2
##MP= -300
##BP= -300
##MW= 306
##$RETENTION INDEX=0
##$CONDENSED SPECTRUM=NO
##NPOINTS= 123
##XYDATA=(XY..XY) 1 
    41        633
    43        999
    44         30
    45          6
    47         21
    48         10
    52          3
    53         49
    54          0
    55        587
    56        225
    57        628
    58         12
    59         36
    60          5
    61          2
    62          3
    63         24
    64         13
    65        111
    66         13
    67         52
    68         30
    69        288
    70        171
    71        226
    72         10
    73          3
    74          5
    75         14
    76         24
    77         40
    78         21
    79         21
    80          3
    81         34
    82         35
    83        125
    84        150
    85        123
    86         45
    88          9
    89          1
    91         28
    92         28
    93         53
    94         19
    95         30
    96         19
    97        102
    98         42
    99         18
   100          0
   101          1
   103         23
   104         11
   105         11
   106          9
   107         16
   108          2
   109         16
   110         12
   111         62
   112         22
   113          6
   115          2
   116          0
   117          1
   118          0
   119         11
   120         27
   121        668
   122         44
   123         17
   124         12
   125         26
   126         23
   127          2
   129          2
   131          2
   132          1
   133          7
   135         25
   136          2
   138         95
   139         33
   140          2
   143          0
   145          0
   147          7
   149          7
   150          0
   151         45
   152        617
   153        340
   154         49
   155          5
   161          2
   162          0
   163          4
   164          1
   165         15
   166          1
   167          0
   175          1
   177          0
   178          0
   179          2
   180          0
   185          0
   189          1
   193          1
   194          0
   203          0
   205          0
   207          0
   221          0
   246          0
   305          1
   306        216
   307         52
   308          8
   309          0