##TITLE=Library Entry 5122
##JCAMP-DX=Revision 4.10 
##DATA TYPE=MASS SPECTRUM
##SAMPLE DESCRIPTION=Exported from NIST MS Search
##NAMES=HP
##CAS NAME=1,3-Dioxolan-2-one, 4,5-bis(methylene)-
##MOLFORM=C5H4O3
##CAS REGISTRY NO=62458-20-2
##MP= -300
##BP= -300
##MW= 112
##$RETENTION INDEX=0
##$CONDENSED SPECTRUM=NO
##NPOINTS= 6
##XYDATA=(XY..XY) 1 
    28         60
    39        140
    40         70
    42        999
    68        330
   112        990