##TITLE=Library Entry 41127
##JCAMP-DX=Revision 4.10 
##DATA TYPE=MASS SPECTRUM
##SAMPLE DESCRIPTION=Japan AIST/NIMC Database- Spectrum MS-NW-6963
##NAMES=HP
##CAS NAME=d-Glucoheptose
##MOLFORM=C7H14O7
##CAS REGISTRY NO=62475-58-5
##MP= -300
##BP= -300
##MW= 210
##$RETENTION INDEX=0
##$CONDENSED SPECTRUM=NO
##NPOINTS= 128
##XYDATA=(XY..XY) 1 
    12          2
    13          3
    14         11
    15         76
    16          2
    17         20
    18         94
    19         11
    25          2
    26         16
    27         76
    28         49
    29        203
    30         36
    31        310
    32         31
    33          6
    37          1
    38          4
    39         33
    40          9
    41         64
    42        118
    43        310
    44        108
    45        130
    46          6
    47         31
    49          8
    50          1
    51          3
    52          2
    53         10
    54         14
    55         69
    56        149
    57        150
    58         20
    59         17
    60        379
    61        316
    62         13
    63          2
    65          1
    66          1
    67          3
    68         11
    69         75
    70         12
    71        262
    72         84
    73        999
    74        188
    75         13
    76          2
    77          9
    78          1
    79          1
    80          1
    81          9
    82          7
    83         12
    84          9
    85         76
    86         37
    87         19
    88          4
    89         26
    90         25
    91         41
    92          3
    93          1
    95          3
    96          5
    97         30
    98         11
    99         16
   100          4
   101         44
   102         45
   103         60
   104          6
   105          1
   107          1
   109          2
   110          4
   111          4
   112          1
   113          8
   114          8
   115         35
   116          8
   117          3
   119          9
   120          2
   121          1
   125         10
   126          4
   127          5
   128          3
   129          1
   130         13
   131         62
   132         10
   133         45
   134          3
   139          1
   140          3
   143         38
   144          6
   145          4
   146          3
   149          9
   150          2
   156          1
   157          2
   161         14
   162          1
   163         15
   164          2
   165          8
   166          6
   167          1
   174          2
   175          1
   178          1
   179          5
   193          1