##TITLE=Library Entry 48664
##JCAMP-DX=Revision 4.10 
##DATA TYPE=MASS SPECTRUM
##SAMPLE DESCRIPTION=NIST Mass Spectrometry Data Center
##NAMES=HP
##CAS NAME=(11Z,14Z,17Z)-Methyl icosa-11,14,17-trienoate
##MOLFORM=C21H36O2
##CAS REGISTRY NO=62472-96-2
##MP= -300
##BP= -300
##MW= 320
##$RETENTION INDEX=2305
##$CONDENSED SPECTRUM=NO
##NPOINTS= 105
##XYDATA=(XY..XY) 1 
    27         21
    28        100
    35          7
    38          6
    39        103
    40         45
    41        395
    44         22
    45         18
    50         15
    51         37
    54         72
    59         67
    60         50
    64         17
    65         53
    66         56
    67        556
    68         57
    70         19
    71         70
    72         24
    77        251
    78         69
    79        999
    80        409
    81        272
    82        139
    89         12
    91        212
    92         58
    93        394
    94        280
    95        321
    96         48
   101         34
   105        100
   106         37
   107        187
   108        408
   109        153
   113         19
   115         72
   116         15
   117         23
   118         13
   119         39
   121        134
   122         59
   125         34
   127         16
   129         14
   133         35
   134         15
   135        217
   136         24
   139         15
   143         54
   145         16
   148         25
   149         89
   150         22
   155         28
   156         18
   159         16
   160          9
   161         18
   162          6
   163         28
   164         12
   165          7
   167          9
   169          8
   170          9
   175          6
   177         15
   178          9
   181         10
   185         35
   190          7
   191         19
   192         10
   195          6
   199         10
   200          9
   203         12
   206         14
   207         19
   213         12
   221         15
   222         26
   223          5
   233         11
   241         13
   256          8
   257          9
   264         29
   265          7
   278         12
   279         13
   289         20
   290          5
   291          9
   320         12
   321         10