##TITLE=Library Entry 39922
##JCAMP-DX=Revision 4.10 
##DATA TYPE=MASS SPECTRUM
##SAMPLE DESCRIPTION=ASES Database, Dalian Institute, P.R. China
##NAMES=HP
##CAS NAME=3-Vinyl-1,2-dithiacyclohex-5-ene
##MOLFORM=C6H8S2
##CAS REGISTRY NO=62488-53-3
##MP= -300
##BP= -300
##MW= 144
##$RETENTION INDEX=1192
##$CONDENSED SPECTRUM=NO
##NPOINTS= 26
##XYDATA=(XY..XY) 1 
    38         24
    39        185
    41         24
    45        349
    46         50
    47         24
    58         25
    59         24
    65         25
    69         75
    71        839
    72        999
    73        137
    77         50
    79        111
    80         49
    84         36
    85         24
    97        200
    98         24
   103        137
   110         49
   111        476
   144        536
   145         24
   146         24