##TITLE=Library Entry 88401
##JCAMP-DX=Revision 4.10 
##DATA TYPE=MASS SPECTRUM
##SAMPLE DESCRIPTION=NIST Mass Spectrometry Data Center
##NAMES=HP
##CAS NAME=3-Vinyl-1,2-dithiacyclohex-4-ene
##MOLFORM=C6H8S2
##CAS REGISTRY NO=62488-52-2
##MP= -300
##BP= -300
##MW= 144
##$RETENTION INDEX=1198
##$CONDENSED SPECTRUM=NO
##NPOINTS= 101
##XYDATA=(XY..XY) 1 
    25          1
    26         11
    27         70
    28         11
    29          3
    32          9
    33          5
    34          3
    36          2
    37         19
    38         42
    39        258
    40         19
    41         56
    42          3
    44          8
    45        371
    46         27
    47         32
    48          2
    49         10
    50         73
    51        122
    52         49
    53         94
    54         31
    55          6
    56          3
    57         43
    58        128
    59         83
    60         19
    61         16
    62         20
    63         32
    64         77
    65        105
    66         87
    67        148
    68         15
    69         99
    70         24
    71        569
    72        452
    73         72
    74         36
    75          8
    76          6
    77        458
    78        112
    79        357
    80         49
    81         13
    82         13
    83          9
    84         76
    85        144
    86         12
    87          7
    88          2
    89          1
    90         18
    91          2
    92          4
    93          4
    94          1
    95          5
    96          3
    97        581
    98         45
    99         42
   100          3
   101          3
   102          2
   103        598
   104         28
   105         54
   106          2
   107          3
   108          3
   109         36
   110         71
   111        999
   112         79
   113         48
   114          3
   115          3
   116         11
   117          9
   118          2
   127          1
   129         12
   130          1
   131          1
   141          1
   143          5
   144        533
   145         43
   146         47
   147          4
   148          1