##TITLE=Library Entry 50731
##JCAMP-DX=Revision 4.10 
##DATA TYPE=MASS SPECTRUM
##SAMPLE DESCRIPTION=Exported from NIST MS Search
##NAMES=HP
##CAS NAME=Bicyclo[2.2.1]heptane, 1,3,3-trimethyl-
##MOLFORM=C10H18
##CAS REGISTRY NO=6248-88-0
##MP= -300
##BP= -300
##MW= 138
##$RETENTION INDEX=0
##$CONDENSED SPECTRUM=NO
##NPOINTS= 23
##XYDATA=(XY..XY) 1 
    41        490
    43        210
    53        150
    55        360
    67        620
    68        120
    69        140
    70        100
    77         70
    79        110
    80        220
    81        999
    82        560
    83        310
    91         35
    93         20
    94         25
    95        410
    96        120
   109        220
   110         30
   123        750
   138         35