##TITLE=Library Entry 79260
##JCAMP-DX=Revision 4.10 
##DATA TYPE=MASS SPECTRUM
##SAMPLE DESCRIPTION=A.A.Kutin, Moscow, Russia
##NAMES=HP
##CAS NAME=Benzoic acid, (2,2,2-trichloro-1-methylethyl) ester
##MOLFORM=C10H9Cl3O2
##CAS REGISTRY NO=62486-24-2
##MP= -300
##BP= -300
##MW= 266
##$RETENTION INDEX=0
##$CONDENSED SPECTRUM=NO
##NPOINTS= 124
##XYDATA=(XY..XY) 1 
    35          1
    36          1
    37          3
    38          6
    39         24
    40          1
    41          0
    42          0
    43          7
    44          0
    45          0
    47          3
    48          1
    49         11
    50         34
    51        112
    52          6
    53          1
    54          0
    56          0
    60          1
    61          2
    62          2
    63          5
    64          1
    65          3
    66          0
    72          1
    73          9
    74         13
    75         43
    76         31
    77        332
    78         28
    79          5
    80          0
    82          5
    83         13
    84          3
    85          9
    86          0
    87          1
    89          0
    90          0
    91          1
    92          0
    93          0
    94          1
    95          0
    96          0
    97          0
    98          0
    99          0
   101          0
   105        999
   106        117
   107          7
   109         49
   110         14
   111         33
   112         10
   113          5
   114          1
   115          1
   117         10
   119         10
   121          5
   122        119
   123         31
   124          2
   125          0
   126          0
   127          0
   128          0
   129          0
   130          0
   131          0
   132          0
   133          0
   134          0
   135          0
   139          0
   141          0
   144          5
   145          4
   146          4
   147          3
   148          2
   149         52
   150          5
   151          1
   152          0
   153          0
   154          0
   155          0
   159          0
   177          0
   178          0
   181          0
   185          0
   186          0
   187          0
   188          0
   195          4
   196          0
   197          1
   198          0
   199          0
   222          0
   230         14
   231         35
   232         13
   233         22
   234          4
   235          3
   236          0
   266         40
   267          5
   268         39
   269          5
   270         13
   271          1
   272          1
   273          0