##TITLE=Library Entry 10857
##JCAMP-DX=Revision 4.10 
##DATA TYPE=MASS SPECTRUM
##SAMPLE DESCRIPTION=Japan AIST/NIMC Database- Spectrum MS-IW-2868
##NAMES=HP
##CAS NAME=S-Ethyl ethanethioate
##MOLFORM=C4H8OS
##CAS REGISTRY NO=625-60-5
##MP= -300
##BP= -300
##MW= 104
##$RETENTION INDEX=755
##$CONDENSED SPECTRUM=NO
##NPOINTS= 63
##XYDATA=(XY..XY) 1 
    12          1
    13          4
    14         13
    15         67
    16          7
    17          2
    18          3
    25          3
    26         21
    27        113
    28         47
    29        155
    30          4
    31          8
    32          5
    33          6
    34         19
    35         40
    36          1
    37          2
    39          1
    40          3
    41         14
    42         72
    43        999
    44         50
    45        351
    46         41
    47        107
    48          5
    49          5
    55          2
    56          2
    57         16
    58         35
    59         46
    60        266
    61         90
    62        135
    63          8
    64          6
    66         21
    68          2
    69          1
    70          1
    71          2
    75          2
    76         17
    77          1
    78          1
    79          2
    85          1
    89          8
    91          1
    92          1
    93          1
    94         16
    95          1
    96          1
   104        454
   105         24
   106         21
   107          1