##TITLE=Library Entry 16775
##JCAMP-DX=Revision 4.10 
##DATA TYPE=MASS SPECTRUM
##SAMPLE DESCRIPTION=Japan AIST/NIMC Database- Spectrum MS-NW- 799
##NAMES=HP
##CAS NAME=2,4-Pentanediol
##MOLFORM=C5H12O2
##CAS REGISTRY NO=625-69-4
##MP= -300
##BP= -300
##MW= 104
##$RETENTION INDEX=877
##$CONDENSED SPECTRUM=NO
##NPOINTS= 42
##XYDATA=(XY..XY) 1 
    14          1
    15         19
    17          1
    18         11
    19         15
    26          4
    27         61
    28         10
    29         33
    31         29
    37          7
    38          7
    39         50
    40         22
    41        137
    42        463
    43        214
    44         36
    45        999
    46         21
    47         10
    50          1
    51          2
    53          7
    58         14
    59         13
    60          4
    61          7
    62          1
    63         45
    65          1
    67          9
    68          5
    69          6
    71        186
    72          6
    73          1
    85          1
    86         29
    87          1
    89         38
    90          1