##TITLE=Library Entry 17927
##JCAMP-DX=Revision 4.10 
##DATA TYPE=MASS SPECTRUM
##SAMPLE DESCRIPTION=Japan AIST/NIMC Database- Spectrum MS-IW-1349
##NAMES=HP
##CAS NAME=Nitric acid, ethyl ester
##MOLFORM=C2H5NO3
##CAS REGISTRY NO=625-58-1
##MP= -300
##BP= -300
##MW= 91
##$RETENTION INDEX=632
##$CONDENSED SPECTRUM=NO
##NPOINTS= 33
##XYDATA=(XY..XY) 1 
    13          1
    14          7
    15         39
    16          2
    17          4
    18          1
    19          2
    25          1
    26          8
    27         61
    28         45
    29        207
    30        126
    31         23
    32          3
    41          2
    42          7
    43         88
    44         22
    45         17
    46        999
    47          6
    48          5
    60          3
    61          1
    62          3
    64          1
    70          1
    76        351
    77          6
    78          2
    90         10
    92          2