##TITLE=Library Entry 997
##JCAMP-DX=Revision 4.10 
##DATA TYPE=MASS SPECTRUM
##SAMPLE DESCRIPTION=Japan AIST/NIMC Database- Spectrum MS-NW-4378
##NAMES=HP
##CAS NAME=Acetamide, N-ethyl-
##MOLFORM=C4H9NO
##CAS REGISTRY NO=625-50-3
##MP= -300
##BP= -300
##MW= 87
##$RETENTION INDEX=877
##$CONDENSED SPECTRUM=NO
##NPOINTS= 41
##XYDATA=(XY..XY) 1 
    12          1
    13          3
    14         20
    15        114
    16          2
    18          2
    25          1
    26         14
    27         66
    28         78
    29        139
    30        999
    31         15
    32          3
    36          1
    37          1
    38          3
    39          5
    40         12
    41         25
    42         79
    43        506
    44        309
    45         18
    46          4
    51          1
    52          2
    54          3
    55          1
    56          2
    58          1
    59         30
    60         10
    68          1
    69          1
    72        104
    73          5
    86          3
    87        468
    88         25
    89          2