##TITLE=Library Entry 29699
##JCAMP-DX=Revision 4.10 
##DATA TYPE=MASS SPECTRUM
##SAMPLE DESCRIPTION=CONTINENTAL OIL COMPANY, PONCA CITY, OKLAHOMA, USA
##NAMES=HP
##CAS NAME=2-Heptanol, 2-methyl-
##MOLFORM=C8H18O
##CAS REGISTRY NO=625-25-2
##MP= -300
##BP= -300
##MW= 130
##$RETENTION INDEX=885
##$CONDENSED SPECTRUM=NO
##NPOINTS= 72
##XYDATA=(XY..XY) 1 
    12          0
    13          1
    14          4
    15         39
    16          1
    17          2
    18          7
    19          0
    25          0
    26          8
    27        107
    28         26
    29        106
    30          3
    31         77
    32          2
    33          0
    36          0
    37          1
    38          4
    39         67
    40         12
    41        147
    42         23
    43        182
    44          6
    45         72
    46          1
    47          0
    48          0
    49          2
    50          2
    51          4
    52          2
    53         11
    54          3
    55        124
    56         61
    57         48
    58         52
    59        999
    60         34
    61          2
    62          0
    63          1
    65          1
    66          0
    67          3
    68          2
    69         39
    70          7
    71         30
    72          2
    73          6
    77          1
    79          0
    81          1
    82          2
    83          4
    84          3
    85          1
    87          0
    95          0
    97          6
    98          0
   101          0
   112          4
   113          1
   115         83
   116          6
   117          0
   130          0