##TITLE=Library Entry 2220
##JCAMP-DX=Revision 4.10 
##DATA TYPE=MASS SPECTRUM
##SAMPLE DESCRIPTION=Japan AIST/NIMC Database- Spectrum MS-NW-4945
##NAMES=HP
##CAS NAME=3-Butenoic acid
##MOLFORM=C4H6O2
##CAS REGISTRY NO=625-38-7
##MP= -300
##BP= -300
##MW= 86
##$RETENTION INDEX=1627
##$CONDENSED SPECTRUM=NO
##NPOINTS= 62
##XYDATA=(XY..XY) 1 
    12          5
    13          7
    14         19
    15         50
    16          3
    17          5
    18         16
    19          2
    24          3
    25         11
    26         54
    27        195
    28         30
    29         42
    30         14
    31         22
    32          1
    33          1
    36         26
    37         68
    38        114
    39        711
    40        222
    41        999
    42        404
    43        143
    44         75
    45        257
    46          6
    47          4
    48          1
    49          4
    50          4
    51          2
    52          2
    53         11
    54          3
    55         13
    56          2
    57         63
    58        298
    59         13
    60         58
    61          2
    62          1
    63         20
    64          1
    65          8
    66          3
    67          6
    68        119
    69        121
    70          6
    71         36
    72          1
    81          1
    82          2
    84          2
    85         32
    86        435
    87         80
    88          6