##TITLE=Library Entry 16657
##JCAMP-DX=Revision 4.10 
##DATA TYPE=MASS SPECTRUM
##SAMPLE DESCRIPTION=Japan AIST/NIMC Database- Spectrum MS-IW-1255
##NAMES=HP
##CAS NAME=Ethanol, 2-nitro-
##MOLFORM=C2H5NO3
##CAS REGISTRY NO=625-48-9
##MP= -300
##BP= -300
##MW= 91
##$RETENTION INDEX=658
##$CONDENSED SPECTRUM=NO
##NPOINTS= 45
##XYDATA=(XY..XY) 1 
    12          1
    13          3
    14         14
    15         76
    16          6
    17          3
    18         10
    19          2
    25          2
    26         25
    27        454
    28        148
    29        206
    30        212
    31        259
    32         10
    38          2
    39          9
    40          7
    41         42
    42         40
    43        281
    44        243
    45        999
    46         72
    47          4
    48          4
    51          1
    55          4
    56          1
    57         13
    58         10
    59         43
    60          4
    61         99
    62         16
    63          1
    68          1
    69          1
    73         23
    74         14
    75         14
    76          1
    89          1
    92          9