##TITLE=Library Entry 20743
##JCAMP-DX=Revision 4.10 
##DATA TYPE=MASS SPECTRUM
##SAMPLE DESCRIPTION=A.STEFANI ZURICH TECHNICAL COLLEGE, ZURICH, SWITZERLAND
##NAMES=HP
##CAS NAME=2-Pentene, 2,4-dimethyl-
##MOLFORM=C7H14
##CAS REGISTRY NO=625-65-0
##MP= -300
##BP= -300
##MW= 98
##$RETENTION INDEX=641
##$CONDENSED SPECTRUM=NO
##NPOINTS= 33
##XYDATA=(XY..XY) 1 
    15         10
    26          5
    27        130
    28         20
    29        105
    38         10
    39        170
    40         30
    41        390
    42         25
    43        210
    44         10
    50         10
    51         25
    52         10
    53         50
    54         15
    55        999
    56         85
    57         20
    65         20
    67         70
    69         35
    70          8
    77         10
    79         15
    81         15
    82         15
    83        925
    84         55
    97          5
    98        250
    99         20