##TITLE=Library Entry 3735
##JCAMP-DX=Revision 4.10 
##DATA TYPE=MASS SPECTRUM
##SAMPLE DESCRIPTION=Japan AIST/NIMC Database- Spectrum MS-NW-5008
##NAMES=HP
##CAS NAME=trans-Crotonamide
##MOLFORM=C4H7NO
##CAS REGISTRY NO=625-37-6
##MP= -300
##BP= -300
##MW= 85
##$RETENTION INDEX=0
##$CONDENSED SPECTRUM=NO
##NPOINTS= 54
##XYDATA=(XY..XY) 1 
    12          2
    13          2
    14          6
    15         26
    16         15
    17          7
    18          3
    24          2
    25          9
    26         39
    27        101
    28         68
    29          9
    30          9
    31          2
    32          9
    33          2
    35          2
    36         23
    37         82
    38        128
    39        525
    40        163
    41        999
    42         68
    43         13
    44        324
    45         13
    46          2
    48          1
    49          4
    50          7
    51         14
    52         40
    53         15
    54          6
    55          2
    56         11
    57          2
    59          1
    62          6
    63         14
    64         35
    65         14
    66         67
    67        199
    68         97
    69        602
    70         37
    71          2
    84          8
    85        763
    86         40
    87          2