##TITLE=Library Entry 17123
##JCAMP-DX=Revision 4.10 
##DATA TYPE=MASS SPECTRUM
##SAMPLE DESCRIPTION=Japan AIST/NIMC Database- Spectrum MS-IW-2800
##NAMES=HP
##CAS NAME=Acetic acid, methoxy-
##MOLFORM=C3H6O3
##CAS REGISTRY NO=625-45-6
##MP= -300
##BP= -300
##MW= 90
##$RETENTION INDEX=0
##$CONDENSED SPECTRUM=NO
##NPOINTS= 27
##XYDATA=(XY..XY) 1 
    13          2
    14          9
    15         90
    16          1
    27          1
    28         40
    29        199
    30         13
    31         93
    32          2
    33          5
    41          5
    42         49
    43         12
    44         13
    45        999
    46         35
    47          3
    55          1
    56          1
    58          1
    59         12
    60        317
    61         10
    62          1
    72          1
    74          2