##TITLE=Library Entry 37201
##JCAMP-DX=Revision 4.10 
##DATA TYPE=MASS SPECTRUM
##SAMPLE DESCRIPTION=CONTINENTAL OIL CO., PONCA CITY, OKLAHOMA, USA
##NAMES=HP
##CAS NAME=Pentane, 2-chloro-
##MOLFORM=C5H11Cl
##CAS REGISTRY NO=625-29-6
##MP= -300
##BP= -300
##MW= 106
##$RETENTION INDEX=708
##$CONDENSED SPECTRUM=NO
##NPOINTS= 57
##XYDATA=(XY..XY) 1 
    13         13
    14         29
    15        164
    16          6
    25         12
    26        107
    27        743
    28        100
    29        316
    30         12
    31         14
    35         12
    36         16
    37         34
    38         63
    39        402
    40         26
    41        657
    42        716
    43        997
    44         18
    48          8
    49         35
    50         27
    51         42
    52         15
    53         55
    54         26
    55        808
    56         43
    57         23
    58          1
    60          7
    61         21
    62         40
    63        122
    64         18
    65         43
    66          8
    67         12
    68          8
    69         35
    70        999
    71        176
    72         14
    73         10
    74          1
    75         14
    76         15
    77         35
    78         10
    79         16
    80          3
    89          8
    91         13
    93          5
   106          1