##TITLE=Library Entry 69381
##JCAMP-DX=Revision 4.10 
##DATA TYPE=MASS SPECTRUM
##SAMPLE DESCRIPTION=Japan AIST/NIMC Database- Spectrum MS-IW-3414
##NAMES=HP
##CAS NAME=Furan, 2,5-dimethyl-
##MOLFORM=C6H8O
##CAS REGISTRY NO=625-86-5
##MP= -300
##BP= -300
##MW= 96
##$RETENTION INDEX=707
##$CONDENSED SPECTRUM=NO
##NPOINTS= 51
##XYDATA=(XY..XY) 1 
    14          4
    15         30
    25          1
    26         18
    27         81
    28          4
    29          4
    31          3
    36          1
    37          9
    38         15
    39         55
    40         10
    41         57
    42         22
    43        554
    44         13
    45          2
    47          6
    48          4
    49         10
    50         72
    51        101
    52         55
    53        437
    54         30
    55         13
    56          1
    60          1
    61          4
    62          6
    63          7
    64          1
    65         24
    66          9
    67         72
    68          8
    69          4
    74          2
    77         13
    78          3
    79         30
    80         14
    81        364
    82         19
    83          1
    94         25
    95        855
    96        999
    97         70
    98          4