##TITLE=Library Entry 33985
##JCAMP-DX=Revision 4.10 
##DATA TYPE=MASS SPECTRUM
##SAMPLE DESCRIPTION=GAZ DE FRANCE, DELORME, PARIS, FRANCE
##NAMES=HP
##CAS NAME=Pentane, 2,4-dichloro-
##MOLFORM=C5H10Cl2
##CAS REGISTRY NO=625-67-2
##MP= -300
##BP= -300
##MW= 140
##$RETENTION INDEX=878
##$CONDENSED SPECTRUM=NO
##NPOINTS= 57
##XYDATA=(XY..XY) 1 
    25          2
    26         25
    27        220
    28         60
    29         37
    30          1
    31          4
    32         15
    33          2
    34          1
    35          9
    36         18
    37         12
    38         25
    39        137
    40         30
    41        354
    42        138
    43         43
    44          4
    45          5
    47          1
    48          1
    49         19
    50         10
    51         23
    52          5
    53         89
    54          7
    55         28
    56          2
    60          3
    61         15
    62         18
    63        151
    64          9
    65         50
    66          4
    67         18
    68         37
    69        999
    70         56
    71          2
    73          3
    75         11
    76         18
    77         36
    78          7
    79         10
    89         85
    90          4
    91         28
   103          2
   104         28
   105          5
   106          9
   107          2