##TITLE=Library Entry 5732
##JCAMP-DX=Revision 4.10 
##DATA TYPE=MASS SPECTRUM
##SAMPLE DESCRIPTION=Japan AIST/NIMC Database- Spectrum MS-NW-2699
##NAMES=HP
##CAS NAME=Butanenitrile, 3-methyl-
##MOLFORM=C5H9N
##CAS REGISTRY NO=625-28-5
##MP= -300
##BP= -300
##MW= 83
##$RETENTION INDEX=731
##$CONDENSED SPECTRUM=NO
##NPOINTS= 36
##XYDATA=(XY..XY) 1 
    13          1
    14          3
    15         15
    18          3
    25          1
    26         12
    27        159
    28         12
    29         25
    36          1
    37         13
    38         22
    39        118
    40         30
    41        503
    42         36
    43        999
    44         33
    49          2
    50          6
    51          8
    52         15
    53          8
    54         23
    55         46
    56          4
    57          1
    62          1
    63          2
    64          8
    65          2
    66         12
    67         16
    68         68
    69          3
    82         14