##TITLE=Library Entry 8313
##JCAMP-DX=Revision 4.10 
##DATA TYPE=MASS SPECTRUM
##SAMPLE DESCRIPTION=Japan AIST/NIMC Database- Spectrum MS-NW-3309
##NAMES=HP
##CAS NAME=Diisopropyl sulfide
##MOLFORM=C6H14S
##CAS REGISTRY NO=625-80-9
##MP= -300
##BP= -300
##MW= 118
##$RETENTION INDEX=788
##$CONDENSED SPECTRUM=NO
##NPOINTS= 54
##XYDATA=(XY..XY) 1 
    14          1
    15         13
    18          2
    26          7
    27        145
    28          9
    29          6
    32          5
    33          2
    34          2
    35         10
    37          5
    38         11
    39        115
    40         15
    41        332
    42        120
    43        999
    44         33
    45         43
    46          7
    47         54
    48          3
    49          9
    55          3
    56          1
    57          5
    58         23
    59         88
    60         72
    61        892
    62         29
    63         40
    64          1
    69          2
    71          4
    73          2
    74         29
    75        113
    76        227
    77         41
    78         12
    79          2
    89          2
   103        513
   104         33
   105         22
   106          1
   108          1
   117          2
   118        415
   119         30
   120         20
   121          1