##TITLE=Library Entry 29707
##JCAMP-DX=Revision 4.10 
##DATA TYPE=MASS SPECTRUM
##SAMPLE DESCRIPTION=CHEMICAL SAMPLES COMPANY
##NAMES=HP
##CAS NAME=2-Pentanol, 2,4-dimethyl-
##MOLFORM=C7H16O
##CAS REGISTRY NO=625-06-9
##MP= -300
##BP= -300
##MW= 116
##$RETENTION INDEX=776
##$CONDENSED SPECTRUM=NO
##NPOINTS= 73
##XYDATA=(XY..XY) 1 
    12          0
    13          2
    14          6
    15         77
    16          3
    17          2
    18          8
    19          2
    25          0
    26          7
    27        104
    28         22
    29         69
    30          2
    31         90
    32          2
    33          0
    37          2
    38          7
    39         94
    40         16
    41        179
    42         21
    43        260
    44          8
    45         59
    46          1
    47          0
    48          0
    49          1
    50          3
    51          6
    52          2
    53         10
    54          2
    55         51
    56         61
    57        111
    58         32
    59        999
    60         33
    61          2
    62          0
    63          1
    64          0
    65          2
    66          1
    67          5
    68          1
    69          5
    70          4
    71          6
    72          0
    73          1
    74          0
    77          0
    78          0
    79          0
    81          1
    82          0
    83         52
    84          3
    85          5
    86          0
    87          0
    97          0
    98          5
    99          1
   101         70
   102          4
   103          0
   115          0
   116          0