##TITLE=Library Entry 15910
##JCAMP-DX=Revision 4.10 
##DATA TYPE=MASS SPECTRUM
##SAMPLE DESCRIPTION=Japan AIST/NIMC Database- Spectrum MS-NW-3920
##NAMES=HP
##CAS NAME=1-Propanamine, N,2-dimethyl-
##MOLFORM=C5H13N
##CAS REGISTRY NO=625-43-4
##MP= -300
##BP= -300
##MW= 87
##$RETENTION INDEX=635
##$CONDENSED SPECTRUM=NO
##NPOINTS= 39
##XYDATA=(XY..XY) 1 
    15         14
    26          2
    27         23
    28         29
    29         16
    30         36
    31          2
    32          1
    37          1
    38          3
    39         26
    40          4
    41         40
    42         42
    43         22
    44        999
    45         26
    50          1
    51          1
    52          1
    53          2
    54          3
    55         16
    56         16
    57         17
    58          3
    67          1
    68          9
    69         10
    70         17
    71         10
    72         24
    73          1
    82          1
    83          4
    84          5
    86         10
    87         69
    88          4