##TITLE=Library Entry 31532
##JCAMP-DX=Revision 4.10 
##DATA TYPE=MASS SPECTRUM
##SAMPLE DESCRIPTION=MINISTRY OF TECH. E.R.D.E., WALTHAM ABBEY, UK
##NAMES=HP
##CAS NAME=Ethane, 1-chloro-2-nitro-
##MOLFORM=C2H4ClNO2
##CAS REGISTRY NO=625-47-8
##MP= -300
##BP= -300
##MW= 109
##$RETENTION INDEX=0
##$CONDENSED SPECTRUM=NO
##NPOINTS= 34
##XYDATA=(XY..XY) 1 
    14         13
    15         38
    26         48
    27        381
    28         89
    29         83
    30        191
    31         22
    36         23
    38         10
    39         12
    41         23
    42         22
    43         28
    44         48
    45         95
    46        419
    47         20
    48         17
    49         54
    51         22
    55         20
    57         17
    60         13
    61         53
    62         92
    63        999
    64         47
    65        318
    71         11
    74         10
    93          5
    95          2
   109          1