##TITLE=Library Entry 27925
##JCAMP-DX=Revision 4.10 
##DATA TYPE=MASS SPECTRUM
##SAMPLE DESCRIPTION=Exported from NIST MS Search
##NAMES=HP
##CAS NAME=2-Pentanone, 4-amino-4-methyl-
##MOLFORM=C6H13NO
##CAS REGISTRY NO=625-04-7
##MP= -300
##BP= -300
##MW= 115
##$RETENTION INDEX=0
##$CONDENSED SPECTRUM=NO
##NPOINTS= 81
##XYDATA=(XY..XY) 1 
    24          1
    25          2
    26         15
    27         55
    28         35
    29         36
    30         58
    31          5
    33          1
    34          1
    35          4
    36          2
    37          5
    38          8
    39         50
    40         15
    41         87
    42        156
    43        340
    44         18
    45          4
    46          1
    47          5
    48          3
    49         25
    50          4
    51         11
    52          5
    53          6
    54          7
    55         20
    56         15
    57         36
    58        999
    59         42
    60          2
    61          1
    62          1
    63          1
    64          1
    65          1
    66          1
    67          2
    68          2
    69          2
    70          5
    71          2
    72          4
    73          1
    74          1
    75          1
    76          1
    77          1
    78          1
    79          1
    80          1
    81          2
    82          2
    83         10
    84         18
    85          2
    86         11
    87          1
    88          2
    89          1
    90          1
    91          1
    92          1
    93          1
    94          1
    95          1
    96          1
    97          1
    98          4
    99          2
   100         93
   101          6
   102          1
   114          1
   115          1
   116          1