##TITLE=Library Entry 34134
##JCAMP-DX=Revision 4.10 
##DATA TYPE=MASS SPECTRUM
##SAMPLE DESCRIPTION=SHELL RESEARCH LIMITED THORNTON RESEARCH CENTRE
##NAMES=HP
##CAS NAME=3-Penten-2-one
##MOLFORM=C5H8O
##CAS REGISTRY NO=625-33-2
##MP= -300
##BP= -300
##MW= 84
##$RETENTION INDEX=733
##$CONDENSED SPECTRUM=NO
##NPOINTS= 15
##XYDATA=(XY..XY) 1 
    27         42
    29         34
    37         32
    38         59
    39        233
    40         34
    41        620
    42         80
    43        427
    44         32
    55         42
    69        999
    70         78
    84        304
    85         49