##TITLE=Library Entry 1025
##JCAMP-DX=Revision 4.10 
##DATA TYPE=MASS SPECTRUM
##SAMPLE DESCRIPTION=RADIAN CORP
##NAMES=HP
##CAS NAME=Urea, ethyl-
##MOLFORM=C3H8N2O
##CAS REGISTRY NO=625-52-5
##MP= -300
##BP= -300
##MW= 88
##$RETENTION INDEX=0
##$CONDENSED SPECTRUM=NO
##NPOINTS= 32
##XYDATA=(XY..XY) 1 
    14          6
    15         31
    16         15
    17         39
    18         64
    26         41
    27        141
    28        349
    29        193
    30        999
    31         35
    32          9
    38          4
    39         16
    40         67
    41         74
    42        232
    43        326
    44        949
    45        100
    51          8
    56        100
    60         40
    71         41
    72          5
    73        701
    74          9
    77          6
    84          4
    86          3
    88        583
    89         13