##TITLE=Library Entry 7296
##JCAMP-DX=Revision 4.10 
##DATA TYPE=MASS SPECTRUM
##SAMPLE DESCRIPTION=W. UTILIZATION R & D DIV., U.S. DEPT. OF AGRIC., ALBANY
, CAL.
##NAMES=HP
##CAS NAME=2-Butanol, 2-methyl-, acetate
##MOLFORM=C7H14O2
##CAS REGISTRY NO=625-16-1
##MP= -300
##BP= -300
##MW= 130
##$RETENTION INDEX=759
##$CONDENSED SPECTRUM=NO
##NPOINTS= 29
##XYDATA=(XY..XY) 1 
    18         27
    27         57
    29         82
    31         22
    39         68
    40          8
    41        102
    42         93
    43        999
    44          9
    45         25
    51          6
    53         27
    54         11
    55        290
    56          7
    57          6
    58          6
    59        206
    60         13
    61          8
    69          5
    70        282
    71        188
    72         18
    73        230
    74         10
   101        133
   115         47