##TITLE=Library Entry 30362
##JCAMP-DX=Revision 4.10 
##DATA TYPE=MASS SPECTRUM
##SAMPLE DESCRIPTION=Japan AIST/NIMC Database- Spectrum MS-NW-3387
##NAMES=HP
##CAS NAME=2-Hexanol, 2-methyl-
##MOLFORM=C7H16O
##CAS REGISTRY NO=625-23-0
##MP= -300
##BP= -300
##MW= 116
##$RETENTION INDEX=786
##$CONDENSED SPECTRUM=NO
##NPOINTS= 49
##XYDATA=(XY..XY) 1 
    15         13
    18          3
    26          6
    27         53
    28          9
    29         50
    30          1
    31         63
    32          2
    37          1
    38          3
    39         47
    40          8
    41        125
    42          8
    43         99
    44          4
    45        104
    46          3
    49          1
    50          3
    51          5
    52          2
    53          9
    54          2
    55         72
    56         56
    57         61
    58         25
    59        999
    60         34
    61          2
    65          2
    67          3
    68          2
    69         35
    70          7
    71          9
    72          1
    73          3
    79          1
    81          1
    83         37
    84          3
    98          7
    99          2
   101        206
   102         12
   103          1