##TITLE=Library Entry 11057
##JCAMP-DX=Revision 4.10 
##DATA TYPE=MASS SPECTRUM
##SAMPLE DESCRIPTION=B. Derendyaev, Novosibirsk Institute of Organic Chemist
ry
##NAMES=HP
##CAS NAME=1,3a-Ethano(1H)inden-4-ol, octahydro-2,2,4,7a-tetramethyl-
##MOLFORM=C15H26O
##CAS REGISTRY NO=62511-51-7
##MP= -300
##BP= -300
##MW= 222
##$RETENTION INDEX=1648
##$CONDENSED SPECTRUM=NO
##NPOINTS= 103
##XYDATA=(XY..XY) 1 
    40          8
    41        386
    42         49
    43        999
    44         14
    45         23
    47         75
    48         26
    49         20
    50          6
    51         11
    53         93
    54          9
    55        242
    56         22
    57         60
    58         45
    59         28
    65         35
    66         12
    67        209
    68         33
    69        438
    70         35
    71        153
    72          5
    77        116
    78         22
    79        206
    80         45
    81        392
    82        191
    83        469
    84        139
    85        287
    86          5
    87         28
    91        162
    92         29
    93        253
    94         81
    95        379
    96        172
    97        117
    98         26
   103         32
   105        169
   106         55
   107        249
   108        305
   109        928
   110        107
   111         56
   112          5
   113        177
   114          7
   115         11
   116          9
   117         16
   118          7
   119        104
   120         46
   121        242
   122         87
   123        104
   124         31
   125         91
   126         12
   131         11
   133        141
   134         44
   135        245
   136        104
   137        228
   138         49
   139         15
   140         10
   145         17
   147        105
   148         76
   149        207
   150         33
   151         83
   152         24
   153         72
   161        425
   162         63
   163          9
   164        404
   165         70
   166         27
   175         43
   176         21
   177          6
   179        130
   180         25
   189        250
   190         27
   204        212
   205         28
   207        126
   222        421
   223         60