##TITLE=Library Entry 17893
##JCAMP-DX=Revision 4.10 
##DATA TYPE=MASS SPECTRUM
##SAMPLE DESCRIPTION=Chemical Concepts
##NAMES=HP
##CAS NAME=Methyl hydrogen disulfide
##MOLFORM=CH4S2
##CAS REGISTRY NO=6251-26-9
##MP= -300
##BP= -300
##MW= 80
##$RETENTION INDEX=686
##$CONDENSED SPECTRUM=NO
##NPOINTS= 13
##XYDATA=(XY..XY) 1 
    34        160
    41        179
    42        368
    43        206
    44        463
    45        747
    46        999
    47        492
    48        471
    49        101
    78        119
    79        153
    80        108