##TITLE=Library Entry 3972
##JCAMP-DX=Revision 4.10 
##DATA TYPE=MASS SPECTRUM
##SAMPLE DESCRIPTION=Exported from NIST MS Search
##NAMES=HP
##CAS NAME=Thiepane, 1-oxide
##MOLFORM=C6H12OS
##CAS REGISTRY NO=6251-34-9
##MP= -300
##BP= -300
##MW= 132
##$RETENTION INDEX=0
##$CONDENSED SPECTRUM=NO
##NPOINTS= 74
##XYDATA=(XY..XY) 1 
    25         10
    26         70
    27        480
    28        200
    29        230
    30         10
    31         20
    32         30
    33         10
    34         20
    35         10
    37         10
    38         40
    39        550
    40         80
    41        999
    42        170
    43         80
    44         40
    45        180
    46         80
    47        110
    48         50
    49         20
    50         50
    51         50
    52         20
    53        110
    54        120
    55        700
    56         60
    57         20
    58         30
    59         70
    60         50
    61        110
    62         20
    63        380
    64         30
    65         30
    66         10
    67        230
    68         40
    69        100
    70         40
    71         20
    72         10
    73         50
    74         10
    75         10
    76         60
    77         50
    78         10
    79         30
    81        110
    82         50
    83         40
    84         10
    85         20
    86         10
    87        120
    88         20
    89         20
    90         20
   101         20
   103         10
   104         10
   115        710
   116         80
   117         30
   118         10
   119         10
   132         80
   133         10