##TITLE=Library Entry 65601
##JCAMP-DX=Revision 4.10 
##DATA TYPE=MASS SPECTRUM
##SAMPLE DESCRIPTION=Asinex Ltd, Moscow, Russia
##NAMES=HP
##CAS NAME=3-Methyl-2-oxo-2,3-dihydro-benzooxazole-6-sulfonamide
##MOLFORM=C8H8N2O4S
##CAS REGISTRY NO=62522-62-7
##MP= -300
##BP= -300
##MW= 228
##$RETENTION INDEX=0
##$CONDENSED SPECTRUM=NO
##NPOINTS= 136
##XYDATA=(XY..XY) 1 
    33         17
    34          5
    35          1
    36         11
    37         45
    38         94
    39        257
    40         88
    41         62
    42        127
    43         27
    44         51
    45         40
    46         70
    47         14
    48         62
    49         32
    50        278
    51        297
    52         91
    53         71
    54         21
    55         11
    56         13
    57         12
    58          6
    59          3
    60         10
    61         50
    62        141
    63        361
    64        168
    65        306
    66        107
    67         20
    68         11
    69         30
    70          8
    71          4
    72          1
    73         10
    74         40
    75         74
    76        148
    77        171
    78         56
    79        118
    80         77
    81         17
    82         38
    83         12
    84          7
    85          4
    86          2
    87          6
    88         14
    89          9
    90         53
    91        142
    92        999
    93        130
    94         14
    95         28
    96          6
    97          8
    98          2
    99          2
   100          1
   102          7
   103         14
   104         56
   105         16
   106         12
   107         10
   108         18
   109         22
   110          3
   111          3
   112          0
   113          0
   117          1
   118          6
   119         19
   120         54
   121         27
   122          6
   123          2
   124          3
   125          2
   132          0
   133          2
   134          5
   135         12
   136         20
   137         10
   138          1
   139          3
   140          0
   145          5
   148        835
   149         81
   150          9
   151          1
   152          1
   153          0
   155          1
   156          4
   164        495
   165        119
   166         12
   167          1
   168          3
   169          0
   176          1
   177          2
   180          3
   181          1
   182          2
   183          2
   193          2
   194          0
   196         27
   197          2
   198          3
   199          3
   200          0
   208          2
   210         14
   212        408
   213         38
   214         20
   215          1
   228        979
   229         97
   230         49
   231          4