##TITLE=Library Entry 11823
##JCAMP-DX=Revision 4.10 
##DATA TYPE=MASS SPECTRUM
##SAMPLE DESCRIPTION=A.A.Kutin, Moscow, Russia
##NAMES=HP
##CAS NAME=Oxazole-5-carboxamide, 4-methyl-N-acetyl-
##MOLFORM=C7H8N2O3
##CAS REGISTRY NO=62539-93-9
##MP= -300
##BP= -300
##MW= 168
##$RETENTION INDEX=0
##$CONDENSED SPECTRUM=NO
##NPOINTS= 55
##XYDATA=(XY..XY) 1 
    34          0
    37          3
    38         11
    39         16
    40         60
    41         29
    42        203
    43        999
    44         89
    45          7
    51          9
    52         30
    53         61
    54        190
    55        317
    56         57
    57          3
    58          4
    59          2
    60          5
    66          1
    67          5
    68          6
    69         29
    70         57
    71        158
    72          5
    77          2
    79          1
    80         14
    82        330
    83         43
    84          5
    85          2
    86          0
    96          5
    97         19
    98         17
    99         69
   100          5
   108          5
   109         55
   110        149
   111         10
   112          2
   125          5
   126        482
   127         31
   128          2
   140        137
   141         11
   142          0
   168        174
   169         13
   170          1