##TITLE=Library Entry 57786
##JCAMP-DX=Revision 4.10 
##DATA TYPE=MASS SPECTRUM
##SAMPLE DESCRIPTION=LAC, NIDDK, NIH, Bethesda, MD 20892
##NAMES=HP
##CAS NAME=Aspartylglycine ethyl ester
##MOLFORM=C8H14N2O5
##CAS REGISTRY NO=62541-02-0
##MP= -300
##BP= -300
##MW= 218
##$RETENTION INDEX=0
##$CONDENSED SPECTRUM=NO
##NPOINTS= 60
##XYDATA=(XY..XY) 1 
    42         66
    43        122
    44         29
    45         14
    46         42
    47          1
    49          7
    51          3
    54          0
    55         15
    56         20
    57         11
    58          4
    59          1
    60         12
    61          1
    67          0
    68          2
    69         11
    70        306
    71         15
    72          0
    73          1
    74         15
    78          2
    82          1
    83          3
    84         14
    85         22
    86          9
    87         22
    88        999
    89         40
    90          5
    91          3
    97          3
    98          3
    99          4
   100          3
   102          6
   103          3
   104          5
   110          5
   111          3
   113          7
   117          0
   124          0
   125          3
   127         14
   129          1
   145         35
   146          1
   158          3
   159          4
   172          0
   173         23
   174          1
   184          2
   218          4
   219          0