##TITLE=Library Entry 27061
##JCAMP-DX=Revision 4.10 
##DATA TYPE=MASS SPECTRUM
##SAMPLE DESCRIPTION=Chemical Concepts
##NAMES=HP
##CAS NAME=9-Thiabicyclo[3.3.1]non-6-en-2-amine, N-methyl-, 9-oxide, (endo,s
yn)-
##MOLFORM=C9H15NOS
##CAS REGISTRY NO=62545-61-3
##MP= -300
##BP= -300
##MW= 185
##$RETENTION INDEX=0
##$CONDENSED SPECTRUM=NO
##NPOINTS= 145
##XYDATA=(XY..XY) 1 
    26          7
    27         73
    28          5
    29         35
    30         62
    31          4
    33          1
    34          1
    35          2
    36          3
    37          3
    38         12
    39        127
    40         21
    41        155
    42        209
    43         36
    44         85
    45         41
    46          5
    47          8
    48          6
    49          3
    50         21
    51         63
    52         29
    53         73
    54         34
    55         61
    56        171
    57        999
    58         80
    59         21
    60         13
    61          6
    62          7
    63         30
    64          7
    65         67
    66         33
    67         89
    68         87
    69         39
    70        469
    71         75
    72          8
    73         21
    74          8
    75          9
    76         12
    77        141
    78        146
    79        153
    80         41
    81         47
    82         60
    83         84
    84         18
    85         16
    86         17
    87         17
    88         13
    89         11
    90          5
    91        126
    92         23
    93         33
    94         79
    95         59
    96         66
    97         49
    98         11
    99         11
   100          9
   101          4
   102          7
   103         28
   104         19
   105         87
   106         59
   107         39
   108        104
   109         60
   110         47
   111         47
   112         11
   113         19
   114          7
   115          5
   116          3
   117          6
   118          6
   119          8
   120         20
   121         19
   122         91
   123         19
   124         40
   126         50
   127         12
   128          7
   129          4
   130          3
   131          6
   132          8
   133          6
   134         43
   135         25
   136        155
   137        170
   138         21
   139          9
   140          6
   141          8
   142          3
   143          3
   145          2
   147          3
   148          2
   149         12
   150          4
   151          3
   152         27
   154          5
   155          5
   156          4
   157          4
   158          2
   159          5
   160          2
   161          2
   162          3
   163          3
   164          4
   165          5
   166          6
   167         24
   168        607
   169         34
   170          6
   183          4
   184          4
   185        198
   186         23
   187         14