##TITLE=Library Entry 66949
##JCAMP-DX=Revision 4.10 
##DATA TYPE=MASS SPECTRUM
##SAMPLE DESCRIPTION=Chemical Concepts
##NAMES=HP
##CAS NAME=2,5-Methanothiopyrano[3,2-b]pyrrol-8-one, octahydro-1-methyl-
##MOLFORM=C9H13NOS
##CAS REGISTRY NO=62545-40-8
##MP= -300
##BP= -300
##MW= 183
##$RETENTION INDEX=0
##$CONDENSED SPECTRUM=NO
##NPOINTS= 127
##XYDATA=(XY..XY) 1 
    26         16
    27        109
    28         37
    29         25
    30         22
    31          4
    33          5
    34          9
    35          2
    37          3
    38         14
    39        124
    40         25
    41        133
    42        557
    43         34
    44         31
    45        112
    46          8
    47         25
    48          3
    49          2
    50         15
    51         26
    52         20
    53         74
    54         62
    55         95
    56         39
    57        180
    58         24
    59         31
    60         21
    61         10
    62          4
    63         10
    64          6
    65         54
    66         20
    67        108
    68         53
    69         11
    70         47
    71         28
    72          8
    73         15
    74          5
    75          6
    76          7
    77         29
    78         15
    79         31
    80         76
    81        134
    82        378
    83         99
    84         14
    85         24
    86         13
    87          7
    88          4
    89          3
    90          2
    91         26
    92          8
    93         21
    94        999
    95        550
    96        154
    97         60
    98         21
    99         79
   100         17
   101          5
   102          2
   103          2
   104          5
   105          4
   106          9
   107         12
   108        234
   109         24
   110         12
   111          7
   112          7
   113         15
   114          9
   115          2
   116          3
   117          3
   118          3
   119          3
   120         12
   121         12
   122        120
   123         15
   124          5
   125          4
   126         10
   127          9
   128          4
   129          2
   130          2
   132          2
   133          3
   134          3
   135          3
   136          3
   137          2
   138          3
   140          8
   141          4
   148          4
   149          2
   150          2
   152          2
   154          9
   155        454
   156         59
   157         27
   158          2
   166          3
   168          2
   170          2
   181          2
   183          9
   184          1