##TITLE=Library Entry 69373
##JCAMP-DX=Revision 4.10 
##DATA TYPE=MASS SPECTRUM
##SAMPLE DESCRIPTION=Chemical Concepts
##NAMES=HP
##CAS NAME=2-Thia-7-azatricyclo[4.4.0.0(3,8)]decan-5-ol, 7-methyl-, acetate
 (ester), stereoisomer
##MOLFORM=C11H17NO2S
##CAS REGISTRY NO=62545-78-2
##MP= -300
##BP= -300
##MW= 227
##$RETENTION INDEX=0
##$CONDENSED SPECTRUM=NO
##NPOINTS= 167
##XYDATA=(XY..XY) 1 
    27          8
    29          6
    30          8
    31          1
    35          2
    36          5
    37          0
    38          4
    39         25
    40          4
    41         44
    42        166
    43        121
    44         26
    45         24
    46          1
    47          7
    49          1
    50          5
    51         12
    52          5
    53         28
    54         14
    55         40
    56         22
    57        115
    58         14
    59         10
    60          4
    61          3
    62          1
    63          5
    64          2
    65         19
    66         13
    67         40
    68         53
    69         28
    70         50
    71         16
    72          6
    73         18
    74          4
    75          5
    76          4
    77         19
    78          9
    79         24
    80         26
    81         61
    82         77
    83         25
    84         19
    85         20
    86          9
    87         20
    88          6
    89          7
    90          3
    91         18
    92         10
    93         34
    94        225
    95        155
    96        999
    97        105
    98         63
    99         18
   100         16
   101         12
   102          2
   103          4
   104          8
   105          5
   106         13
   107         27
   108         71
   109         22
   110         35
   111         17
   112         30
   113         30
   114          5
   115         12
   116          2
   117         45
   118          3
   119         37
   120         27
   121         16
   122         13
   123         10
   124         21
   125         10
   126         34
   127         12
   128         15
   129          8
   130          1
   131          2
   132          9
   133          1
   134         28
   135         10
   136          4
   137          9
   138          4
   139          3
   140          4
   141         55
   142          5
   143          3
   145          1
   146          2
   147          2
   148          1
   151          3
   152         14
   153          8
   154         31
   155          5
   156          7
   157          2
   158          2
   159          4
   160          1
   161          3
   162          0
   163          2
   164          0
   165          1
   166          5
   167         15
   168         27
   169          4
   170          9
   171          2
   173          1
   174          1
   176          0
   177          3
   178         13
   179          2
   180          6
   181          2
   182          3
   184         77
   185         99
   186         17
   187          9
   188          0
   189          1
   190          2
   194         12
   195          1
   197          1
   198          1
   203          0
   205          6
   206          0
   212          1
   213          3
   226         13
   227        198
   228         35
   229         19
   230          3