##TITLE=Library Entry 12948
##JCAMP-DX=Revision 4.10 
##DATA TYPE=MASS SPECTRUM
##SAMPLE DESCRIPTION=G.C. MARTIN, DEP. POMOL., CALIF. UNIV., DAVIS, CALIF.,
 USA
##NAMES=HP
##CAS NAME=(+)-1-Abscisyl-.beta.-d-glucopyranoside tetraacetate
##MOLFORM=C29H38O13
##CAS REGISTRY NO=62561-89-1
##MP= -300
##BP= -300
##MW= 594
##$RETENTION INDEX=0
##$CONDENSED SPECTRUM=NO
##NPOINTS= 340
##XYDATA=(XY..XY) 1 
    29        111
    30         18
    31         27
    33          1
    36          4
    37          6
    38         11
    39         83
    40         27
    41        153
    42        195
    43        999
    44        375
    45        206
    46         10
    47          7
    48          7
    49          2
    50         11
    51         20
    52         18
    53         34
    54         28
    55        151
    56         70
    57         73
    58         10
    59         13
    60        176
    61         32
    62          6
    63         10
    64         29
    65         41
    66         30
    67         58
    68         56
    69        162
    70         57
    71         66
    72          7
    73         96
    74          8
    75          7
    76          2
    77         29
    78         18
    79         32
    80         25
    81        120
    82         50
    83         96
    84         23
    85         78
    86         38
    87         14
    88          4
    89         15
    90          4
    91         56
    92          9
    93         28
    94        328
    95         92
    96         75
    97        179
    98        250
    99         60
   100         13
   101         18
   102         58
   103        111
   104         25
   105         48
   106         17
   107         34
   108         15
   109        359
   110         61
   111         58
   112         31
   113         42
   114         34
   115        272
   116         36
   117         17
   118          5
   119         20
   120          9
   121         26
   122         21
   123         38
   124         45
   125         31
   126         52
   127        106
   128         22
   129         12
   130          4
   131         26
   132          8
   133         18
   134         29
   135         40
   136         17
   137         44
   138         15
   139         68
   140         72
   141         27
   142         11
   143         24
   144         33
   145        112
   146         21
   147         27
   148         10
   149         36
   150         18
   151         39
   152         32
   153         18
   154         16
   155         30
   156         13
   157        168
   158         45
   159         25
   160          8
   161         21
   162         39
   163         49
   164         24
   165         18
   166         13
   167         24
   168         22
   169        548
   170         51
   171         18
   172          6
   173         12
   174         10
   175         14
   176          6
   177         11
   178         13
   179         15
   180         11
   181          6
   182         10
   183          9
   184          3
   185          8
   186         11
   187         25
   188          6
   189         11
   190        138
   191         34
   192         10
   193          5
   194          9
   195          7
   196          4
   197          9
   198          3
   199         18
   200         49
   201         12
   202          5
   203         10
   204          7
   205         23
   206          8
   207         10
   208         15
   209          8
   210          5
   211         22
   212          6
   213          7
   214          2
   215         11
   216          4
   217          8
   218          7
   219         18
   220          5
   221          7
   222         21
   223          5
   224          3
   225          3
   226          3
   227          1
   228          7
   229         30
   230          6
   231          9
   232          2
   233          4
   234          3
   235          5
   236          2
   238          2
   239          3
   240          1
   241          1
   242         30
   243          8
   244          2
   245         14
   246         16
   247         44
   248          9
   249          4
   250          1
   251          4
   252          3
   253          3
   254          1
   255          2
   256          2
   257          1
   259          8
   260          3
   262          4
   263          4
   264          3
   265          2
   266          4
   267          2
   268          2
   270          1
   271         15
   272          3
   273          4
   274          1
   275          2
   277          1
   278          1
   280          1
   282          1
   283          2
   284          1
   285          1
   287          3
   288          4
   289         10
   290          2
   291          1
   293          2
   294          2
   297          2
   298          2
   302          2
   305          2
   306          1
   307          3
   309          3
   310          1
   311          5
   312          2
   314          2
   316          1
   317          4
   319          3
   323          1
   324          2
   326          1
   328          2
   329          1
   330          3
   331        173
   332         28
   333          6
   334          1
   335          2
   336          1
   337          1
   339          2
   340          2
   343          1
   344          1
   345          2
   347          2
   348          1
   349          1
   350          2
   352          1
   353          3
   357          1
   361          1
   365          2
   366          2
   367          2
   368          3
   369          2
   370          2
   374          1
   375          3
   376          1
   381          3
   382          2
   383          1
   384          1
   390          1
   395          2
   396          1
   402          1
   404          1
   411          1
   412          2
   413          1
   417          1
   418          1
   426          2
   429          3
   432          2
   442          2
   443          1
   447          2
   460          2
   461          1
   464          1
   478          6
   479          2
   486          1
   487          1
   502          2
   503          1
   518          1
   534          5
   535          2
   537          1
   538          8
   539          3
   550          1
   580          1