##TITLE=Library Entry 2418
##JCAMP-DX=Revision 4.10 
##DATA TYPE=MASS SPECTRUM
##SAMPLE DESCRIPTION=NIST Mass Spectrometry Data Center, 1990.
##NAMES=HP
##CAS NAME=2,5-Furandione, 3-(2-decenyl)dihydro-
##MOLFORM=C14H22O3
##CAS REGISTRY NO=62568-81-4
##MP= -300
##BP= -300
##MW= 238
##$RETENTION INDEX=0
##$CONDENSED SPECTRUM=NO
##NPOINTS= 112
##XYDATA=(XY..XY) 1 
    14          7
    15         11
    18         31
    27        408
    28        145
    29        412
    30         13
    32          1
    39        372
    40        103
    41        999
    42        172
    43        708
    44         40
    45         14
    50         13
    51         48
    52         45
    53        230
    54        451
    55        664
    56        226
    57        135
    60         11
    65         84
    66         93
    67        473
    68        280
    69        260
    70        100
    71         94
    72         32
    73         14
    77        128
    78         45
    79        369
    80        131
    81        401
    82        193
    83        355
    84         74
    85         36
    86         20
    91         68
    92         25
    93        106
    94        131
    95        296
    96        183
    97        166
    98         54
    99        133
   100        178
   101         18
   105         27
   106         17
   107         89
   108        109
   109        142
   110        185
   111         81
   112         25
   113         19
   114         10
   117         38
   119         39
   120         15
   121         84
   122         45
   123        128
   124         56
   125         22
   126         17
   127         23
   128        128
   129         14
   130         10
   131         34
   133         13
   135         48
   136         53
   137         86
   138         44
   139         27
   140         42
   141        160
   142         40
   145         16
   149         55
   150         31
   151         28
   152         12
   153         21
   154         66
   155         32
   163         44
   164         45
   165         21
   166         12
   167        196
   168         29
   175         31
   177         31
   178         25
   181         17
   191         20
   192         16
   193         22
   195          9
   220         15
   238         57
   239         13