##TITLE=Library Entry 68403
##JCAMP-DX=Revision 4.10 
##DATA TYPE=MASS SPECTRUM
##SAMPLE DESCRIPTION=Chemical Concepts
##NAMES=HP
##CAS NAME=Tricyclo[2.2.1.0(2,6)]heptan-3-ol, 4,5,5-trimethyl-
##MOLFORM=C10H16O
##CAS REGISTRY NO=62560-53-6
##MP= -300
##BP= -300
##MW= 152
##$RETENTION INDEX=1149
##$CONDENSED SPECTRUM=NO
##NPOINTS= 76
##XYDATA=(XY..XY) 1 
    26         14
    27         55
    29         28
    31          9
    37         10
    38         14
    39        114
    40         25
    41        151
    42         26
    43        280
    44         38
    45         19
    50         32
    51         83
    52         59
    53         88
    54         24
    55        134
    56         17
    57         39
    58         18
    60         20
    61          6
    62         12
    63         34
    64         19
    65        108
    66         55
    67        137
    68         34
    69         36
    71         24
    72          8
    73         14
    74          9
    75         10
    76         17
    77         97
    78         30
    79         90
    80         48
    81        121
    82         34
    83         38
    84         19
    85         53
    86          8
    87         11
    90         30
    91         66
    92         45
    93         42
    94         43
    95        999
    96        141
    97         51
    98         35
    99         12
   103         17
   104         16
   106          9
   107        161
   108        797
   109        144
   110         39
   123         13
   124         62
   132          9
   133         12
   134         19
   135         29
   136         29
   152        218
   153         37
   154          9