##TITLE=Library Entry 40702
##JCAMP-DX=Revision 4.10 
##DATA TYPE=MASS SPECTRUM
##SAMPLE DESCRIPTION=Chemical Concepts
##NAMES=HP
##CAS NAME=2-(3-Bromopropyl)-[1,3]dioxolane
##MOLFORM=C6H11BrO2
##CAS REGISTRY NO=62563-07-9
##MP= -300
##BP= -300
##MW= 194
##$RETENTION INDEX=0
##$CONDENSED SPECTRUM=NO
##NPOINTS= 112
##XYDATA=(XY..XY) 1 
    25          1
    26         25
    27        186
    28         80
    29        130
    30         10
    31         54
    33          1
    34          0
    35          1
    36          7
    37          4
    38         12
    39         92
    40         16
    41        141
    42         61
    43         84
    44         53
    45        424
    46         11
    47          2
    49          1
    50          5
    51          8
    52          4
    53         21
    54          7
    55         56
    56          6
    57         25
    58         13
    59          2
    60          3
    61          1
    62          1
    63          1
    64          1
    65          1
    66          0
    67          2
    68          2
    69         11
    70          7
    71         29
    72          2
    73        999
    74         64
    75          9
    76          0
    77          1
    78          3
    79          3
    80          3
    81          3
    82          2
    83          2
    84          1
    85         52
    86         10
    87          3
    88         10
    89          1
    90          0
    91          6
    92          4
    93         11
    94          2
    95         10
    96          1
    97          1
    98          0
    99          2
   100          0
   101          1
   104          0
   105          2
   106          7
   107          9
   108          6
   109          6
   111          1
   112          0
   113          2
   115          1
   119          1
   120          0
   121         10
   122          1
   123          9
   124          1
   125          0
   126          0
   133          1
   135          1
   136          1
   137          1
   138          1
   149          8
   150          1
   151          8
   152          1
   164          2
   165          0
   166          3
   167          0
   168          2
   169          0
   193         17
   194          1
   195         17
   196          1