##TITLE=Library Entry 62385
##JCAMP-DX=Revision 4.10 
##DATA TYPE=MASS SPECTRUM
##SAMPLE DESCRIPTION=NIST Mass Spectrometry Data Center, 1994
##NAMES=HP
##CAS NAME=(R)-(-)-2-Benzylamino-1-butanol
##MOLFORM=C11H17NO
##CAS REGISTRY NO=6257-49-4
##MP= -300
##BP= -300
##MW= 179
##$RETENTION INDEX=0
##$CONDENSED SPECTRUM=NO
##NPOINTS= 31
##XYDATA=(XY..XY) 1 
    29         14
    30         25
    31         31
    43         12
    44          4
    50         10
    51         34
    52         10
    55          6
    56         10
    58         16
    63         18
    64          9
    65        103
    66         10
    70         11
    74         13
    76          5
    77         18
    78          9
    79         14
    89         21
    91        999
    92         84
   104          7
   105          7
   106         16
   146         12
   148        336
   149         43
   150         20