##TITLE=Library Entry 72669
##JCAMP-DX=Revision 4.10 
##DATA TYPE=MASS SPECTRUM
##SAMPLE DESCRIPTION=A.Pleshkova, Nesmeyanov Inst.Org.Elem.Cpds, Moscow
##NAMES=HP
##CAS NAME=2,3,5,6-Tetrafluoronitrobenzene
##MOLFORM=C6HF4NO2
##CAS REGISTRY NO=6257-03-0
##MP= -300
##BP= -300
##MW= 195
##$RETENTION INDEX=0
##$CONDENSED SPECTRUM=NO
##NPOINTS= 41
##XYDATA=(XY..XY) 1 
    46        100
    47          5
    51         26
    55         19
    56         23
    61         41
    62          4
    69        186
    70          2
    74         42
    75        185
    76          7
    80        138
    81         30
    85         57
    86         44
    87         32
    93        118
    94          7
    98         47
    99        999
   100         62
   101          4
   117         76
   118         28
   130         58
   131         23
   137        286
   138         10
   148         23
   149        454
   150         66
   151          4
   165        337
   166         25
   175          3
   179        100
   180          8
   195        810
   196         46
   197          4