##TITLE=Library Entry 69783
##JCAMP-DX=Revision 4.10 
##DATA TYPE=MASS SPECTRUM
##SAMPLE DESCRIPTION=G.A.M.S., PARIS, FRANCE.
##NAMES=HP
##CAS NAME=2-Thiophenemethanethiol
##MOLFORM=C5H6S2
##CAS REGISTRY NO=6258-63-5
##MP= -300
##BP= -300
##MW= 130
##$RETENTION INDEX=1105
##$CONDENSED SPECTRUM=NO
##NPOINTS= 84
##XYDATA=(XY..XY) 1 
    25          1
    26          7
    27         22
    28          4
    30          0
    31          1
    32         17
    33         15
    34         22
    35          1
    36          2
    37         11
    38         22
    39         61
    40          3
    41         10
    42          2
    43         10
    44         14
    45        285
    46         13
    47         28
    48          3
    49          6
    50         18
    51         25
    52          9
    53        101
    54          6
    55         11
    56          5
    57         23
    58         34
    59          8
    60          9
    61          9
    62         10
    63         19
    64          6
    65         17
    66          6
    67          5
    68          7
    69         62
    70         21
    71         21
    72          2
    73          1
    74          0
    75          0
    76         31
    77          4
    78          6
    79          1
    80          2
    81         21
    82         14
    83          5
    84         10
    85         32
    86          2
    87          2
    88          1
    89          1
    90          0
    91          2
    92          2
    93          8
    94          1
    95         15
    96         10
    97        999
    98         80
    99         47
   100          4
   101          1
   102          0
   103          1
   127         15
   128         11
   129          7
   130        152
   131         12
   132         14