##TITLE=Library Entry 79084
##JCAMP-DX=Revision 4.10 
##DATA TYPE=MASS SPECTRUM
##SAMPLE DESCRIPTION=Humboldt-Universitat zu Berlin, Department of Chemistry
, Analytical Group
##NAMES=HP
##CAS NAME=Anisoylchlorid-4-tolylhydrazon
##MOLFORM=C15H15ClN2O
##CAS REGISTRY NO=62583-05-5
##MP= -300
##BP= -300
##MW= 274
##$RETENTION INDEX=0
##$CONDENSED SPECTRUM=NO
##NPOINTS= 178
##XYDATA=(XY..XY) 1 
    12          1
    13          1
    14          4
    15         36
    16          5
    17         13
    18         33
    26          5
    27         32
    28         31
    29         15
    30          3
    31          3
    32          2
    35          2
    36          4
    37          5
    38         15
    39         74
    40          8
    41         21
    42          4
    43          9
    44         11
    45          2
    46          0
    49          1
    50         30
    51         83
    52         53
    53         41
    54          8
    55          6
    56          1
    57          6
    58          1
    60          2
    61          3
    62         15
    63         69
    64         50
    65         80
    66         11
    67          4
    68          0
    69          2
    70          3
    71          2
    73          5
    74          7
    75         31
    76         30
    77        270
    78        209
    79        181
    80         15
    81          1
    82          1
    83          1
    84          2
    85          4
    86          1
    87          4
    88          4
    89         20
    90         97
    91         64
    92         20
    93          2
    94          1
    95          1
    96          1
    97          2
    98          2
    99          4
   100          1
   101          2
   102         24
   103         60
   104        178
   105        999
   106        218
   107         24
   108          2
   109          0
   110          1
   111          7
   112          3
   113          6
   114          1
   115          3
   116          1
   117          4
   118         16
   119         25
   120          3
   121          1
   123          1
   124          2
   125          4
   126          1
   127          2
   128          1
   129          1
   130          1
   131          1
   132          4
   133        128
   134         61
   135          9
   136          2
   137         16
   138          6
   139          4
   140          1
   141          2
   142          1
   148          0
   149          0
   151          1
   152          6
   153          1
   154          3
   155          2
   156          1
   157          0
   164          0
   165          4
   166          2
   167          2
   168          2
   169          0
   170          0
   173          0
   178          0
   179          2
   180          1
   181          1
   182          1
   185          1
   192          1
   193          1
   194          2
   195          9
   196          2
   197          1
   198          1
   205          1
   206          1
   207          2
   208          1
   209          2
   210          2
   211          1
   212          0
   219          0
   221          0
   222          2
   223         16
   224          3
   225          0
   229          0
   230          0
   237         12
   238         96
   239         17
   240          2
   241          0
   243          0
   256          0
   259          0
   260          0
   272          1
   274        153
   275         32
   276         61
   277          9
   278          1