##TITLE=Library Entry 109657
##JCAMP-DX=Revision 4.10 
##DATA TYPE=MASS SPECTRUM
##SAMPLE DESCRIPTION=Japan AIST/NIMC Database- Spectrum MS-NW-3382
##NAMES=HP
##CAS NAME=4-Chlorobenzyl mercaptan
##MOLFORM=C7H7ClS
##CAS REGISTRY NO=6258-66-8
##MP= -300
##BP= -300
##MW= 158
##$RETENTION INDEX=0
##$CONDENSED SPECTRUM=NO
##NPOINTS= 85
##XYDATA=(XY..XY) 1 
    26          2
    27          4
    32          1
    33          5
    34          2
    35          1
    36          3
    37          6
    38          9
    39         31
    40          3
    41          1
    43          3
    44          2
    45         88
    46          3
    47          7
    49          4
    50         20
    51         24
    52          3
    58          1
    59          1
    60         16
    61         25
    62         21
    63         60
    64         11
    65          9
    69          8
    70          1
    71          2
    72          2
    73         18
    74          8
    75         20
    76          4
    77         21
    78          5
    79          4
    80          1
    81          1
    82          1
    84          2
    85          6
    86          6
    87          5
    88          2
    89        131
    90         44
    91         18
    92          1
    93          3
    94          1
    95          3
    96          1
    97          3
    99         44
   100          2
   101         14
   102          1
   111          7
   112          5
   113          3
   114          1
   119          1
   120          3
   121         12
   122          6
   123          8
   124          3
   125        999
   126         81
   127        321
   128         25
   129          1
   142          1
   155         12
   156          2
   157         10
   158        200
   159         19
   160         73
   161          6
   162          3