##TITLE=Library Entry 54868
##JCAMP-DX=Revision 4.10 
##DATA TYPE=MASS SPECTRUM
##SAMPLE DESCRIPTION=NIST Mass Spectrometry Data Center
##NAMES=HP
##CAS NAME=5-Henicosyldihydrofuran-2(3H)-one
##MOLFORM=C25H48O2
##CAS REGISTRY NO=625835-46-3
##MP= -300
##BP= -300
##MW= 380
##$RETENTION INDEX=3060
##$CONDENSED SPECTRUM=NO
##NPOINTS= 71
##XYDATA=(XY..XY) 1 
    27         32
    29        151
    41        335
    42        100
    43        651
    54         98
    55        754
    56        274
    57        682
    58         33
    67        160
    69        410
    70        239
    71        352
    72         32
    73         91
    79         88
    81        150
    82        238
    83        612
    84        231
    85        999
    86         48
    95        145
    96        217
    97        568
    98        220
   100        217
   101        110
   109        207
   110        141
   111        315
   112         88
   113         64
   114        158
   115         51
   119         73
   123        130
   124        110
   125        175
   126         60
   127         79
   128        111
   134        124
   137        142
   138         65
   139         96
   140         30
   141         73
   152         46
   153         49
   166         30
   179         31
   183         22
   195         32
   222         26
   249         25
   250         22
   278         41
   305         19
   307         15
   318        109
   319         44
   320         53
   321         21
   344        145
   345         49
   362        235
   363         71
   364         14
   380         27