##TITLE=Library Entry 31833
##JCAMP-DX=Revision 4.10 
##DATA TYPE=MASS SPECTRUM
##SAMPLE DESCRIPTION=A.A.Kutin, Moscow, Russia
##NAMES=HP
##CAS NAME=Naphthalene-2-ol, 1-(2-methylphenyliminomethyl)-
##MOLFORM=C18H15NO
##CAS REGISTRY NO=62581-60-6
##MP= -300
##BP= -300
##MW= 261
##$RETENTION INDEX=0
##$CONDENSED SPECTRUM=NO
##NPOINTS= 195
##XYDATA=(XY..XY) 1 
    33         14
    34          2
    37         38
    38        152
    39        876
    41        277
    43         41
    44         49
    45         17
    47          1
    48          3
    50        345
    51        547
    52        217
    53        116
    54         19
    55         32
    57         24
    58         21
    62        242
    63        492
    65        999
    67          8
    68          2
    69          7
    71         23
    72          3
    74        142
    75        193
    76        137
    77        355
    78        109
    79         30
    80          9
    82          7
    83          3
    84          3
    85         15
    86         49
    87         85
    88        101
    89        289
    90        112
    91        459
    92         51
    93         52
    95         12
    96         10
    97          3
    98         19
    99         22
   100         21
   101         62
   102         53
   103         16
   104         24
   105          7
   106         16
   107         16
   109         23
   110          6
   111          8
   112         11
   113         84
   114        172
   115        391
   116         75
   117        126
   118        141
   119         11
   121         11
   122          4
   123          8
   124          3
   125         17
   126         65
   127         92
   128         48
   130         63
   132          2
   133          0
   134          0
   135          0
   136          0
   137          2
   138          4
   139         17
   140         49
   141         47
   142         15
   143         29
   144         41
   145          4
   146          0
   147          0
   148          0
   149          1
   150          5
   151          7
   152         23
   153          9
   154          8
   155          3
   156          1
   157          1
   158          1
   159          0
   161          0
   162          0
   163          2
   164          5
   165          5
   166          2
   167          2
   168          7
   169         26
   170         31
   171          4
   172          0
   173          0
   174          0
   175          0
   176          2
   177          2
   178          2
   179          1
   180          1
   182          2
   183          1
   184          0
   185          0
   186          0
   187          1
   188          1
   189          6
   190          3
   191          2
   192          0
   193          0
   194          0
   196          0
   197          0
   199          0
   200          1
   201          2
   202          5
   203          3
   204          4
   205          2
   206          0
   207          0
   208          0
   211          0
   212          0
   213          1
   214          1
   215          7
   216          6
   217          7
   218          6
   219          1
   220          0
   221          0
   225          0
   226          0
   227          1
   228          2
   229          1
   230          3
   231          2
   232          5
   233          1
   234          1
   235          0
   238          0
   239          0
   240          0
   241          2
   242          3
   244         16
   245          3
   246          3
   247          0
   250          0
   253          0
   254          0
   255          0
   256          0
   257          2
   258          3
   260         48
   261         37
   262          7
   263          0
   264          0