##TITLE=Library Entry 10073
##JCAMP-DX=Revision 4.10 
##DATA TYPE=MASS SPECTRUM
##SAMPLE DESCRIPTION=NIST Mass Spectrometry Data Center
##NAMES=HP
##CAS NAME=2-Pentanol, acetate
##MOLFORM=C7H14O2
##CAS REGISTRY NO=626-38-0
##MP= -300
##BP= -300
##MW= 130
##$RETENTION INDEX=849
##$CONDENSED SPECTRUM=NO
##NPOINTS= 54
##XYDATA=(XY..XY) 1 
    14          7
    15         60
    16          2
    18          3
    19          1
    26         10
    27         97
    28         21
    29         76
    30          2
    31          6
    32          1
    37          2
    38          7
    39         79
    40         14
    41         98
    42         99
    43        999
    44         31
    45         44
    46          1
    50          2
    51          4
    52          2
    53         10
    54          4
    55        125
    56          6
    57          3
    58         12
    59          4
    60          1
    61         32
    62          1
    63          1
    65          2
    67          3
    68          1
    69          9
    70        171
    71         46
    72          3
    73          2
    86         24
    87        285
    88         13
    89          1
   101          1
   102         19
   103          2
   115         33
   116          2
   130          1