##TITLE=Library Entry 16691
##JCAMP-DX=Revision 4.10 
##DATA TYPE=MASS SPECTRUM
##SAMPLE DESCRIPTION=Exported from NIST MS Search
##NAMES=HP
##CAS NAME=Ethanol, 2-methoxy-, carbonate (2:1)
##MOLFORM=C7H14O5
##CAS REGISTRY NO=626-84-6
##MP= -300
##BP= -300
##MW= 178
##$RETENTION INDEX=0
##$CONDENSED SPECTRUM=NO
##NPOINTS= 65
##XYDATA=(XY..XY) 1 
    12          4
    13          7
    14         31
    15        257
    16         13
    19         16
    24          1
    25          5
    26         33
    27         94
    28        119
    29        403
    30         42
    31        333
    32         40
    33         10
    35          2
    36          5
    37          2
    38          2
    39          2
    40          2
    41         10
    42         36
    43        147
    44         71
    45        999
    46         42
    47         54
    48          3
    49          4
    50          1
    51          2
    55          2
    56          4
    57         16
    58        183
    59         81
    60          9
    61          2
    62          6
    63          6
    64          2
    65          2
    71          1
    72          1
    73          6
    74          3
    75          3
    76         38
    77          5
    78          1
    79          1
    85          1
    86          2
    87          2
    88         28
    89          4
    90          1
    94          1
   103          2
   104          1
   114          1
   121          2
   147          4