##TITLE=Library Entry 57042
##JCAMP-DX=Revision 4.10 
##DATA TYPE=MASS SPECTRUM
##SAMPLE DESCRIPTION=P. VAINIOTALO, DEPT. CHEM., UNIV. JOENSUU, JOENSUU, FIN
LAND
##NAMES=HP
##CAS NAME=1,3-Dioxane, 2-methyl-
##MOLFORM=C5H10O2
##CAS REGISTRY NO=626-68-6
##MP= -300
##BP= -300
##MW= 102
##$RETENTION INDEX=1044
##$CONDENSED SPECTRUM=NO
##NPOINTS= 36
##XYDATA=(XY..XY) 1 
    15         44
    19         16
    26         26
    27        102
    28          9
    29        146
    30         12
    31        312
    35          5
    36         19
    38          7
    39         17
    41        133
    43        807
    44        176
    45        272
    46          7
    47         16
    49         11
    55          8
    57         69
    58         12
    59        218
    60          9
    61          6
    72         52
    73         89
    74          3
    84         76
    86         52
    87        999
    88         51
    89          6
   101        268
   102         17
   103          3