##TITLE=Library Entry 22706
##JCAMP-DX=Revision 4.10 
##DATA TYPE=MASS SPECTRUM
##SAMPLE DESCRIPTION=Japan AIST/NIMC Database- Spectrum MS-NW- 908
##NAMES=HP
##CAS NAME=Hexanoic acid, butyl ester
##MOLFORM=C10H20O2
##CAS REGISTRY NO=626-82-4
##MP= -300
##BP= -300
##MW= 172
##$RETENTION INDEX=1189
##$CONDENSED SPECTRUM=NO
##NPOINTS= 75
##XYDATA=(XY..XY) 1 
    15          8
    17          1
    18          8
    19          1
    26         11
    27        196
    28         73
    29        394
    30          9
    31         20
    32          2
    38          4
    39        103
    40         18
    41        449
    42         79
    43        602
    44         19
    45         27
    47          1
    50          2
    51          4
    52          1
    53         14
    54          9
    55        171
    56        999
    57        309
    58         12
    59          9
    60        287
    61         90
    62          3
    65          1
    67          3
    68          4
    69         43
    70         32
    71        290
    72         16
    73        186
    74         24
    75         24
    76          1
    80          3
    81          8
    82          1
    83         14
    84          1
    85          3
    86          9
    87        100
    88         11
    89         51
    90          2
    97         12
    98          9
    99        781
   100         52
   101         28
   102          2
   103          1
   113          2
   114          1
   115          5
   116         65
   117        568
   118         38
   119          3
   129         15
   130          2
   131          2
   143          6
   144          2
   172          1