##TITLE=Library Entry 21996
##JCAMP-DX=Revision 4.10 
##DATA TYPE=MASS SPECTRUM
##SAMPLE DESCRIPTION=Japan AIST/NIMC Database- Spectrum MS-NW-5625
##NAMES=HP
##CAS NAME=1-Pentanol, 4-methyl-
##MOLFORM=C6H14O
##CAS REGISTRY NO=626-89-1
##MP= -300
##BP= -300
##MW= 102
##$RETENTION INDEX=846
##$CONDENSED SPECTRUM=NO
##NPOINTS= 53
##XYDATA=(XY..XY) 1 
    14          1
    15         10
    17          1
    18          7
    19          4
    26          8
    27        134
    28         25
    29        128
    30          6
    31        170
    32          2
    33          2
    37          2
    38          7
    39         93
    40         20
    41        547
    42        469
    43        540
    44         19
    45         39
    46          2
    50          4
    51          6
    52          2
    53         18
    54          6
    55        118
    56        999
    57        107
    58          8
    59         19
    60         21
    61          3
    63          1
    65          2
    67         12
    68          5
    69        451
    70         35
    71         16
    72          2
    73          1
    74          1
    81          1
    82          1
    83         17
    84         29
    85          4
    87          1
    99          1
   101          1