##TITLE=Library Entry 77776
##JCAMP-DX=Revision 4.10 
##DATA TYPE=MASS SPECTRUM
##SAMPLE DESCRIPTION=Japan AIST/NIMC Database- Spectrum MS-NW-1775
##NAMES=HP
##CAS NAME=Benzene, 1,3-bis(bromomethyl)-
##MOLFORM=C8H8Br2
##CAS REGISTRY NO=626-15-3
##MP= -300
##BP= -300
##MW= 262
##$RETENTION INDEX=1556
##$CONDENSED SPECTRUM=NO
##NPOINTS= 78
##XYDATA=(XY..XY) 1 
    14          1
    26          9
    27         30
    28          3
    36          2
    37         14
    38         43
    39        124
    40          8
    41          6
    42          1
    43          2
    44          7
    49          9
    50         99
    51        264
    52        153
    53         16
    54          2
    55          1
    56          1
    60          2
    61         17
    62         45
    63        105
    64         20
    65         27
    66          2
    73          6
    74         37
    75         32
    76         41
    77        202
    78        194
    79         16
    80         11
    81         16
    82         12
    85          3
    86          5
    87          9
    88          2
    89         19
    90          5
    91         19
    92         17
    93          2
    95          2
    97          1
    98          6
    99          3
   101          7
   102         61
   103        221
   104        999
   105        104
   106          6
   107          1
   117          2
   119          1
   139          5
   141          2
   160          1
   169          2
   171          2
   182         16
   183        859
   184         92
   185        843
   186         74
   187          3
   261          9
   262         46
   263         23
   264         84
   265         16
   266         41
   267          3