##TITLE=Library Entry 16007
##JCAMP-DX=Revision 4.10 
##DATA TYPE=MASS SPECTRUM
##SAMPLE DESCRIPTION=Japan AIST/NIMC Database- Spectrum MS-NW-3266
##NAMES=HP
##CAS NAME=Piperidine, 3-methyl-
##MOLFORM=C6H13N
##CAS REGISTRY NO=626-56-2
##MP= -300
##BP= -300
##MW= 99
##$RETENTION INDEX=823
##$CONDENSED SPECTRUM=NO
##NPOINTS= 64
##XYDATA=(XY..XY) 1 
    15         30
    25          1
    26         16
    27        112
    28        202
    29        183
    30        465
    31          8
    32          4
    33          2
    34          2
    36          1
    37          9
    38         22
    39        171
    40         40
    41        241
    42        321
    43        238
    44        999
    45         28
    46          5
    47          1
    48          1
    49          2
    50         10
    51         18
    52         12
    53         35
    54         32
    55        103
    56        408
    57        489
    58         42
    59          1
    61          3
    62          6
    63         10
    64          5
    65         35
    66         51
    67         36
    68         35
    69         50
    70        242
    71         97
    72          7
    75          1
    77          2
    78          6
    79          6
    80         12
    81         18
    82         31
    83          9
    84        474
    85         29
    86          1
    96          9
    97          6
    98        563
    99        567
   100         41
   101          2