##TITLE=Library Entry 73147
##JCAMP-DX=Revision 4.10 
##DATA TYPE=MASS SPECTRUM
##SAMPLE DESCRIPTION=Japan AIST/NIMC Database- Spectrum MS-NW-2262
##NAMES=HP
##CAS NAME=3-Methylglutaric acid
##MOLFORM=C6H10O4
##CAS REGISTRY NO=626-51-7
##MP= -300
##BP= -300
##MW= 146
##$RETENTION INDEX=0
##$CONDENSED SPECTRUM=NO
##NPOINTS= 79
##XYDATA=(XY..XY) 1 
    13          2
    14         15
    15         39
    16          3
    17         31
    18        138
    19          3
    25          1
    26         23
    27        242
    28         55
    29        173
    30          5
    31         65
    32          4
    36          4
    37         13
    38         33
    39        285
    40         55
    41        633
    42        487
    43        486
    44         21
    45        311
    46          8
    47          5
    49          4
    50         13
    51         13
    52          6
    53         34
    54         56
    55        171
    56        208
    57        110
    58         94
    59        128
    60        558
    61         18
    62          3
    63          2
    66          2
    67          4
    68         27
    69        842
    70         37
    71         44
    72        413
    73         20
    74          2
    78          1
    81          7
    82         70
    83         29
    84         49
    85         94
    86         21
    87        606
    88         25
    89          9
    95          9
    97          2
    98          2
    99         21
   100        999
   101         69
   102         13
   103          1
   109          2
   110          2
   111          1
   113         49
   114          3
   127          9
   128        192
   129         47
   130          4
   131          1