##TITLE=Library Entry 10653
##JCAMP-DX=Revision 4.10 
##DATA TYPE=MASS SPECTRUM
##SAMPLE DESCRIPTION=TNO Volatile Compounds in Food - Chemical Concepts
##NAMES=HP
##CAS NAME=Hexanoic acid, propyl ester
##MOLFORM=C9H18O2
##CAS REGISTRY NO=626-77-7
##MP= -300
##BP= -300
##MW= 158
##$RETENTION INDEX=1094
##$CONDENSED SPECTRUM=NO
##NPOINTS= 47
##XYDATA=(XY..XY) 1 
    26         25
    27        275
    28         45
    29        146
    30          6
    31         39
    38          8
    39        131
    40         19
    41        334
    42        299
    43        999
    44         31
    45         30
    51          5
    53         10
    54          7
    55        137
    56         30
    57         27
    58          8
    59         56
    60        362
    61        450
    62          8
    68         10
    69         54
    70         37
    71        232
    72         14
    73        221
    74         24
    75         19
    83         11
    87         94
    89         41
    97         20
    98          9
    99        850
   100         46
   101          6
   102        102
   115         23
   116         23
   117        711
   118         33
   129         12