##TITLE=Library Entry 33263
##JCAMP-DX=Revision 4.10 
##DATA TYPE=MASS SPECTRUM
##SAMPLE DESCRIPTION=Chemical Concepts
##NAMES=HP
##CAS NAME=2(1H)-Pyridinone, 6-hydroxy-
##MOLFORM=C5H5NO2
##CAS REGISTRY NO=626-06-2
##MP= -300
##BP= -300
##MW= 111
##$RETENTION INDEX=0
##$CONDENSED SPECTRUM=NO
##NPOINTS= 47
##XYDATA=(XY..XY) 1 
    36          6
    37         44
    38         79
    39        319
    40        322
    41         19
    42        173
    43         41
    44         21
    45          2
    47          0
    48         14
    49          2
    50          3
    52         11
    53          7
    54         18
    55         23
    56          2
    57          1
    60          4
    63          0
    64          4
    65          7
    66         10
    67          1
    68        999
    69         42
    70         20
    71          3
    73          4
    75          2
    78          2
    79          0
    80          3
    82          6
    83         36
    84          4
    91          2
    93          9
    94          0
    95          3
    96          2
    99          0
   109          1
   111        215
   112         14