##TITLE=Library Entry 49161
##JCAMP-DX=Revision 4.10 
##DATA TYPE=MASS SPECTRUM
##SAMPLE DESCRIPTION=Japan AIST/NIMC Database- Spectrum MS-NW-7416
##NAMES=HP
##CAS NAME=1,3-Benzenedimethanol
##MOLFORM=C8H10O2
##CAS REGISTRY NO=626-18-6
##MP= -300
##BP= -300
##MW= 138
##$RETENTION INDEX=0
##$CONDENSED SPECTRUM=NO
##NPOINTS= 100
##XYDATA=(XY..XY) 1 
    15          1
    18          2
    26          6
    27         44
    28         19
    29         54
    30          4
    31        126
    32          4
    37          9
    38         23
    39        116
    40         14
    41         36
    42          4
    43         14
    44          3
    45          8
    46          3
    47         16
    49          7
    50         69
    51        157
    52         47
    53         61
    54          6
    55         22
    56          2
    57          3
    58          1
    59          6
    60         22
    61         11
    62         31
    63         81
    64         17
    65        109
    66         17
    67         10
    68         23
    69          3
    70          2
    71          2
    72          1
    73          6
    74         27
    75         21
    76         20
    77        506
    78         92
    79        999
    80         69
    81         18
    82          2
    83          3
    84          2
    85          4
    86          8
    87          6
    88          2
    89        127
    90         44
    91        732
    92        510
    93         44
    94          7
    95          7
    96          1
    97          2
    98          1
    99          1
   101          2
   102          6
   103         18
   104          7
   105         33
   106          8
   107        763
   108         75
   109         10
   110          3
   111          1
   115          1
   116          1
   117          2
   118          5
   119        124
   120        207
   121         83
   122          9
   123          1
   133          5
   134          4
   135         23
   136         15
   137         79
   138        637
   139         56
   140          5
   141          1