##TITLE=Library Entry 39325
##JCAMP-DX=Revision 4.10 
##DATA TYPE=MASS SPECTRUM
##SAMPLE DESCRIPTION=RADIAN CORP
##NAMES=HP
##CAS NAME=Butanedioic acid, hydroxy-, diethyl ester, (.+/-.)-
##MOLFORM=C8H14O5
##CAS REGISTRY NO=626-11-9
##MP= -300
##BP= -300
##MW= 190
##$RETENTION INDEX=1244
##$CONDENSED SPECTRUM=NO
##NPOINTS= 49
##XYDATA=(XY..XY) 1 
    14         15
    15         82
    16          2
    18          3
    19         67
    26         61
    27        389
    28         44
    29        819
    30         21
    31         71
    39          2
    41         15
    42         83
    43        572
    44        226
    45        153
    46          4
    47        123
    55         13
    56          8
    57          3
    58          7
    59          2
    60         47
    61         16
    62          1
    69         16
    70          6
    71        999
    72         82
    73         21
    74          9
    75        201
    76         12
    85          2
    87         14
    88         62
    89        429
    90         31
   102          1
   115          7
   116         31
   117        830
   118         70
   119          5
   144         17
   145         75
   191          7