##TITLE=Library Entry 31232
##JCAMP-DX=Revision 4.10 
##DATA TYPE=MASS SPECTRUM
##SAMPLE DESCRIPTION=Japan AIST/NIMC Database- Spectrum MS-NW-5841
##NAMES=HP
##CAS NAME=Butane, 2,2'-thiobis-
##MOLFORM=C8H18S
##CAS REGISTRY NO=626-26-6
##MP= -300
##BP= -300
##MW= 146
##$RETENTION INDEX=983
##$CONDENSED SPECTRUM=NO
##NPOINTS= 72
##XYDATA=(XY..XY) 1 
    15          5
    18          4
    26          8
    27        106
    28         14
    29        298
    30          7
    32          4
    33          1
    34          2
    35         13
    37          2
    38          3
    39         72
    40          8
    41        335
    42         15
    43          8
    44          4
    45         33
    46          5
    47         43
    48          1
    49          3
    50          3
    51          5
    52          2
    53         17
    54          5
    55        119
    56        235
    57        621
    58         29
    59         51
    60         83
    61        999
    62         34
    63         45
    64          1
    67          1
    69          2
    70          2
    71          4
    72          1
    73          8
    74          5
    75        128
    76          7
    77          8
    83          5
    85          1
    87          2
    88          9
    89         46
    90         40
    91         48
    92          5
    93          3
   101          2
   103          4
   106          1
   117        553
   118         47
   119         28
   120          2
   131         35
   132          5
   133          2
   146        327
   147         30
   148         18
   149          2