##TITLE=Library Entry 90185
##JCAMP-DX=Revision 4.10 
##DATA TYPE=MASS SPECTRUM
##SAMPLE DESCRIPTION=NIST Mass Spectrometry Data Center, 1998.
##NAMES=HP
##CAS NAME=Pyridine, 3-chloro-
##MOLFORM=C5H4ClN
##CAS REGISTRY NO=626-60-8
##MP= -300
##BP= -300
##MW= 113
##$RETENTION INDEX=885
##$CONDENSED SPECTRUM=NO
##NPOINTS= 53
##XYDATA=(XY..XY) 1 
    24          1
    25          6
    26         20
    27         11
    28         22
    35          7
    36          9
    37         38
    38         40
    39         21
    40          6
    41          1
    43          5
    44          2
    47         11
    48         16
    49        106
    50        373
    51        527
    52         75
    53          7
    56          2
    57          1
    59          3
    60         68
    61         12
    62         32
    63          6
    64          4
    71          2
    72          4
    73         17
    74          9
    75         46
    76         69
    77         54
    78        719
    79         43
    80          1
    83          2
    84         20
    85         46
    86         99
    87         26
    88         31
    89          4
   109          1
   110          1
   112         19
   113        999
   114         68
   115        328
   116         20