##TITLE=Library Entry 57583
##JCAMP-DX=Revision 4.10 
##DATA TYPE=MASS SPECTRUM
##SAMPLE DESCRIPTION=Japan AIST/NIMC Database- Spectrum MS-IW-1261
##NAMES=HP
##CAS NAME=Acetic acid, nitro-, ethyl ester
##MOLFORM=C4H7NO4
##CAS REGISTRY NO=626-35-7
##MP= -300
##BP= -300
##MW= 133
##$RETENTION INDEX=0
##$CONDENSED SPECTRUM=NO
##NPOINTS= 57
##XYDATA=(XY..XY) 1 
    13          2
    14         18
    15         30
    16          3
    17          2
    18          7
    25          1
    26         26
    27        206
    28        167
    29        584
    30        201
    31        117
    32          3
    39          2
    40          1
    41         45
    42        381
    43        209
    44        110
    45        270
    46         74
    47          1
    48          1
    54         16
    55          1
    56          1
    57          5
    58          3
    59        435
    60         24
    61         32
    62          6
    69          5
    70          3
    71          8
    72          9
    73          4
    74        145
    75          4
    76          3
    77          1
    84          8
    85          1
    86          3
    87        435
    88        999
    89         40
    90          7
    98          1
   100          1
   105          1
   106         33
   107          1
   117          1
   118         14
   134          9