##TITLE=Library Entry 2308
##JCAMP-DX=Revision 4.10 
##DATA TYPE=MASS SPECTRUM
##SAMPLE DESCRIPTION=GAZ DE FRANCE, DELORME, PARIS, FRANCE
##NAMES=HP
##CAS NAME=Pentane, 1,4-dichloro-
##MOLFORM=C5H10Cl2
##CAS REGISTRY NO=626-92-6
##MP= -300
##BP= -300
##MW= 140
##$RETENTION INDEX=959
##$CONDENSED SPECTRUM=NO
##NPOINTS= 51
##XYDATA=(XY..XY) 1 
    25          5
    26         87
    27        614
    28        310
    29        220
    30          9
    35         17
    36         47
    37         34
    38         74
    39        445
    40        112
    41        999
    42        862
    43        387
    44         42
    47          5
    48          7
    49        119
    50         30
    51         81
    52         13
    53        178
    54         32
    55         61
    56         91
    57         19
    58         10
    60          7
    61         30
    62         75
    63        327
    64         29
    65        119
    66         10
    67         60
    68        513
    69        665
    70         44
    73          9
    75         57
    76        284
    77         59
    78         94
    79         14
    89         74
    91         28
   104        193
   105         63
   106         63
   107         22