##TITLE=Library Entry 90992
##JCAMP-DX=Revision 4.10 
##DATA TYPE=MASS SPECTRUM
##SAMPLE DESCRIPTION=Japan AIST/NIMC Database- Spectrum MS-IW-6037
##NAMES=HP
##CAS NAME=Hexanedioic acid, 2-methyl-
##MOLFORM=C7H12O4
##CAS REGISTRY NO=626-70-0
##MP= -300
##BP= -300
##MW= 160
##$RETENTION INDEX=0
##$CONDENSED SPECTRUM=NO
##NPOINTS= 96
##XYDATA=(XY..XY) 1 
    14          1
    15          6
    16          1
    17         28
    18        150
    19          3
    26          9
    27        120
    28         94
    29        106
    30         19
    31         25
    32          9
    34          1
    37          2
    38          6
    39        108
    40         21
    41        386
    42        136
    43        193
    44         20
    45        256
    46          9
    47          6
    48          6
    49          4
    50          3
    51          8
    52          3
    53         34
    54         18
    55        557
    56        351
    57        171
    58         15
    59         38
    60        226
    61          8
    62          2
    63          2
    65          6
    66          3
    67         30
    68        174
    69        634
    70         59
    71         42
    72         11
    73        470
    74        857
    75         30
    76          4
    77          3
    79          8
    80          8
    81         14
    82         41
    83        145
    84          9
    85         22
    86         56
    87        224
    88         13
    89          1
    94          4
    95         13
    96        121
    97        191
    98         29
    99         68
   100        238
   101        256
   102         14
   103          1
   109          4
   110          3
   111          5
   112          5
   113         12
   114        999
   115        102
   116         29
   117          2
   122          8
   123          3
   124         69
   125          7
   126          1
   127          5
   140          7
   141          3
   142        108
   143         39
   144          4
   161          4