##TITLE=Library Entry 16785
##JCAMP-DX=Revision 4.10 
##DATA TYPE=MASS SPECTRUM
##SAMPLE DESCRIPTION=Japan AIST/NIMC Database- Spectrum MS-NW-6456
##NAMES=HP
##CAS NAME=1,4-Pentanediol
##MOLFORM=C5H12O2
##CAS REGISTRY NO=626-95-9
##MP= -300
##BP= -300
##MW= 104
##$RETENTION INDEX=0
##$CONDENSED SPECTRUM=NO
##NPOINTS= 61
##XYDATA=(XY..XY) 1 
    13          1
    14          6
    15         42
    16          2
    17          9
    18         46
    19         51
    25          1
    26         15
    27        167
    28         37
    29         95
    30          7
    31        169
    32          2
    33          1
    37          4
    38          9
    39         74
    40         39
    41        363
    42        788
    43        326
    44        151
    45        999
    46         24
    47          8
    49          2
    50          3
    51          5
    52          2
    53         33
    54          7
    55         45
    56        132
    57         56
    58        119
    59         13
    60         20
    61          8
    62         10
    63          3
    65          3
    66          2
    67         21
    68         17
    69         23
    70          3
    71        677
    72         32
    73          3
    74          2
    75          2
    83          1
    84          3
    85         27
    86          9
    87          1
    89         21
    90          1
   103          1