##TITLE=Library Entry 34577
##JCAMP-DX=Revision 4.10 
##DATA TYPE=MASS SPECTRUM
##SAMPLE DESCRIPTION=Japan AIST/NIMC Database- Spectrum MS-NW-1055
##NAMES=HP
##CAS NAME=Pentane, 1,4-dibromo-
##MOLFORM=C5H10Br2
##CAS REGISTRY NO=626-87-9
##MP= -300
##BP= -300
##MW= 228
##$RETENTION INDEX=1113
##$CONDENSED SPECTRUM=NO
##NPOINTS= 60
##XYDATA=(XY..XY) 1 
    14          2
    15          8
    25          1
    26         17
    27        167
    28          7
    29         61
    30          1
    36          2
    37          5
    38         14
    39        127
    40         23
    41        620
    42         80
    43        117
    44          4
    49          1
    50          5
    51          9
    52          3
    53         39
    54          6
    55         50
    56          3
    61          1
    62          2
    63          2
    65          4
    66          2
    67         23
    68         10
    69        999
    70         57
    71          2
    79          5
    80          7
    81          6
    82          8
    91          3
    93          8
    95          8
   105          2
   106          5
   107         63
   108          6
   109         59
   110          1
   119          4
   120          3
   121          9
   122          3
   123          7
   133          1
   135          2
   148          9
   149        308
   150         24
   151        292
   152         16