##TITLE=Library Entry 16032
##JCAMP-DX=Revision 4.10 
##DATA TYPE=MASS SPECTRUM
##SAMPLE DESCRIPTION=Japan AIST/NIMC Database- Spectrum MS-NW-5040
##NAMES=HP
##CAS NAME=Ethyl allophanate
##MOLFORM=C4H8N2O3
##CAS REGISTRY NO=626-36-8
##MP= -300
##BP= -300
##MW= 132
##$RETENTION INDEX=0
##$CONDENSED SPECTRUM=NO
##NPOINTS= 59
##XYDATA=(XY..XY) 1 
    12          3
    13          3
    14         10
    15         41
    16         47
    17        209
    18        127
    25          2
    26         36
    27        188
    28         96
    29        446
    30         46
    31        241
    32          7
    36          3
    38          1
    40          1
    41          5
    42         62
    43        296
    44        999
    45        431
    46         73
    47          3
    54          1
    56          1
    59          4
    60        182
    61        154
    62        444
    63          8
    64          2
    69          1
    70         42
    71          7
    72          1
    73          1
    74         96
    75          3
    83          2
    85          1
    86         21
    87        150
    88        181
    89        141
    90          7
    91          1
   103          3
   104         11
   105        822
   106         26
   107          6
   116          6
   117         24
   118          1
   132        161
   133         12
   134          1