##TITLE=Library Entry 9813
##JCAMP-DX=Revision 4.10 
##DATA TYPE=MASS SPECTRUM
##SAMPLE DESCRIPTION=Japan AIST/NIMC Database- Spectrum MS-NW-3296
##NAMES=HP
##CAS NAME=Pentane, 1-bromo-4-methyl-
##MOLFORM=C6H13Br
##CAS REGISTRY NO=626-88-0
##MP= -300
##BP= -300
##MW= 164
##$RETENTION INDEX=950
##$CONDENSED SPECTRUM=NO
##NPOINTS= 64
##XYDATA=(XY..XY) 1 
    14          1
    15          9
    26          8
    27        133
    28          4
    29         74
    30          2
    37          3
    38         10
    39        110
    40         22
    41        440
    42        423
    43        999
    44         33
    50          5
    51          7
    52          3
    53         16
    54          4
    55         53
    56        123
    57         85
    58          4
    59          1
    62          1
    63          2
    65          3
    66          1
    67          9
    68          3
    69        312
    70         19
    71          2
    79          3
    80          4
    81          3
    82          5
    83         11
    84         19
    85        592
    86         39
    87          1
    93          6
    95          6
   105          1
   106          1
   107         25
   108          1
   109         23
   119          1
   120          3
   121          6
   122          3
   123          6
   148          1
   149         29
   150          2
   151         28
   152          2
   164         19
   165          2
   166         18
   167          1