##TITLE=Library Entry 23308
##JCAMP-DX=Revision 4.10 
##DATA TYPE=MASS SPECTRUM
##SAMPLE DESCRIPTION=NIST Mass Spectrometry Data Center, 1992
##NAMES=HP
##CAS NAME=Sulfurous acid, dibutyl ester
##MOLFORM=C8H18O3S
##CAS REGISTRY NO=626-85-7
##MP= -300
##BP= -300
##MW= 194
##$RETENTION INDEX=0
##$CONDENSED SPECTRUM=NO
##NPOINTS= 70
##XYDATA=(XY..XY) 1 
    14          3
    15         12
    16          0
    17          0
    18          1
    19          1
    26         17
    27        150
    28         90
    29        273
    30         13
    31         29
    32          7
    33          1
    37          1
    39         82
    41        374
    42         31
    43         77
    44         13
    45         14
    46          0
    48         10
    49          2
    50          8
    51          2
    52          1
    53          7
    54          0
    55         64
    56        159
    57        999
    58         42
    59          5
    63          0
    64          7
    65          3
    66          1
    69          2
    70          1
    71          3
    72          2
    73         12
    74          1
    75          9
    76          0
    78         11
    79          0
    80          0
    83         35
    84          0
    85          2
    86          0
    87         33
    88          1
    95          0
   101          2
   109         24
   110          1
   111          1
   121          8
   122          1
   123          0
   137          0
   139         42
   140          2
   141          2
   151          7
   152          0
   165          0