##TITLE=Library Entry 17167
##JCAMP-DX=Revision 4.10 
##DATA TYPE=MASS SPECTRUM
##SAMPLE DESCRIPTION=Japan AIST/NIMC Database- Spectrum MS-NW-1207
##NAMES=HP
##CAS NAME=2-Hexanol
##MOLFORM=C6H14O
##CAS REGISTRY NO=626-93-7
##MP= -300
##BP= -300
##MW= 102
##$RETENTION INDEX=801
##$CONDENSED SPECTRUM=NO
##NPOINTS= 43
##XYDATA=(XY..XY) 1 
    15         10
    17          1
    18          6
    19         10
    26          5
    27         63
    28         14
    29         50
    30          2
    31         19
    32          1
    38          2
    39         31
    40          5
    41        119
    42         33
    43         69
    44         68
    45        999
    46         22
    47          3
    50          2
    51          2
    52          1
    53          5
    54          3
    55         38
    56         35
    57         23
    58         12
    59          5
    67          2
    69        144
    70          8
    71          3
    83          2
    84         40
    85          5
    86          2
    87         52
    88          3
   100          2
   101          4