##TITLE=Library Entry 71044
##JCAMP-DX=Revision 4.10 
##DATA TYPE=MASS SPECTRUM
##SAMPLE DESCRIPTION=NIST Mass Spectrometry Data Center, 1990.
##NAMES=HP
##CAS NAME=Piperidine, 4-methyl-
##MOLFORM=C6H13N
##CAS REGISTRY NO=626-58-4
##MP= -300
##BP= -300
##MW= 99
##$RETENTION INDEX=816
##$CONDENSED SPECTRUM=NO
##NPOINTS= 53
##XYDATA=(XY..XY) 1 
    14          9
    15         53
    16          4
    17          0
    18         14
    25          4
    26         33
    27        238
    28        397
    29        306
    30        421
    31          8
    37          8
    38         30
    39        209
    40         46
    41        267
    42        385
    43        299
    44        408
    45         12
    50         16
    51         31
    52         20
    53         53
    54         47
    55        216
    56        902
    57        474
    58         21
    62          5
    63          5
    64          3
    65         11
    66         11
    67         38
    68         39
    69         30
    70         76
    71         46
    79          6
    80         16
    81         15
    82         35
    83          6
    84        255
    85         13
    93          4
    94          7
    96          8
    98        999
    99        575
   100         39