##TITLE=Library Entry 96747
##JCAMP-DX=Revision 4.10 
##DATA TYPE=MASS SPECTRUM
##SAMPLE DESCRIPTION=Japan AIST/NIMC Database- Spectrum MS-IW- 278
##NAMES=HP
##CAS NAME=1,3-Benzenediacetonitrile
##MOLFORM=C10H8N2
##CAS REGISTRY NO=626-22-2
##MP= -300
##BP= -300
##MW= 156
##$RETENTION INDEX=0
##$CONDENSED SPECTRUM=NO
##NPOINTS= 84
##XYDATA=(XY..XY) 1 
    14          1
    26          2
    27         10
    28          1
    29          1
    31          2
    36          3
    37          7
    38         13
    39         43
    40          5
    41          4
    43          8
    44          3
    45          1
    49          3
    50         32
    51         58
    52         15
    53          3
    57          1
    61          9
    62         23
    63         55
    64         28
    65         13
    66          3
    68          1
    69          2
    73          3
    74         11
    75         26
    76         28
    77         54
    78         14
    79          3
    85          2
    86          4
    87          9
    88         15
    89        112
    90         19
    91          9
    92          1
    97          1
    98          2
    99          6
   100          9
   101         41
   102         66
   103         54
   104          9
   105          1
   107          2
   111          1
   112          1
   113          1
   114          9
   115          5
   116        999
   117         92
   118          4
   119          1
   121          1
   124          1
   125          4
   126          3
   127         16
   128         71
   129        136
   130        124
   131         14
   132          1
   137          1
   138          1
   139          1
   141          2
   142          1
   153          2
   154          2
   155         23
   156        346
   157         41
   158          2