##TITLE=Library Entry 90188
##JCAMP-DX=Revision 4.10 
##DATA TYPE=MASS SPECTRUM
##SAMPLE DESCRIPTION=Japan AIST/NIMC Database- Spectrum MS-NW-9260
##NAMES=HP
##CAS NAME=4-Chloropyridine
##MOLFORM=C5H4ClN
##CAS REGISTRY NO=626-61-9
##MP= -300
##BP= -300
##MW= 113
##$RETENTION INDEX=0
##$CONDENSED SPECTRUM=NO
##NPOINTS= 39
##XYDATA=(XY..XY) 1 
    25          3
    26         10
    27          4
    39          8
    40          1
    43          7
    47          2
    48          4
    49         29
    50        110
    51        245
    52         25
    53          3
    56         10
    57          3
    60         14
    61          4
    62          9
    63          1
    64          2
    72          2
    73         25
    74          3
    75         18
    76         39
    77         14
    78        652
    79         38
    84          3
    85         14
    86         42
    87          9
    88         13
    89          1
   112         15
   113        999
   114         80
   115        321
   116         23