##TITLE=Library Entry 21345
##JCAMP-DX=Revision 4.10 
##DATA TYPE=MASS SPECTRUM
##SAMPLE DESCRIPTION=RADIAN CORP
##NAMES=HP
##CAS NAME=Hexanedioic acid, monoethyl ester
##MOLFORM=C8H14O4
##CAS REGISTRY NO=626-86-8
##MP= -300
##BP= -300
##MW= 174
##$RETENTION INDEX=0
##$CONDENSED SPECTRUM=NO
##NPOINTS= 85
##XYDATA=(XY..XY) 1 
    14          1
    15          2
    17          4
    18         12
    19          1
    26         36
    27        242
    28        178
    29        507
    30         35
    31        116
    32         50
    38          7
    39        151
    40         26
    41        257
    42        228
    43        335
    44         36
    45        467
    46         16
    47          8
    50          9
    51         17
    52          8
    53         62
    54         83
    55        999
    56        213
    57         89
    58         47
    59        217
    60        425
    61        189
    62          4
    65          1
    66          1
    67          5
    68         59
    69        146
    70        156
    71         23
    72         10
    73        593
    74         69
    75          9
    81         15
    82         69
    83        460
    84        140
    85         42
    86         29
    87        133
    88        616
    89         34
    90          2
    97          2
    98          1
    99         61
   100        479
   101        527
   102         72
   103          5
   108          2
   109          5
   110         57
   111        937
   112        114
   113         13
   114         11
   115        387
   116         26
   127         29
   128        853
   129        887
   130         69
   131          6
   139          3
   146          1
   147          2
   156         90
   157        233
   158         21
   159          3
   175          2