##TITLE=Library Entry 5191
##JCAMP-DX=Revision 4.10 
##DATA TYPE=MASS SPECTRUM
##SAMPLE DESCRIPTION=NIST Mass Spectrometry Data Center, 1998.
##NAMES=HP
##CAS NAME=6-Methyluracil
##MOLFORM=C5H6N2O2
##CAS REGISTRY NO=626-48-2
##MP= -300
##BP= -300
##MW= 126
##$RETENTION INDEX=0
##$CONDENSED SPECTRUM=NO
##NPOINTS= 24
##XYDATA=(XY..XY) 1 
    25          6
    26         35
    27         54
    37         46
    38         32
    39         90
    41        104
    42        999
    43         64
    44         68
    50         15
    51         84
    53         23
    55         33
    56         16
    67         23
    68        670
    69         30
    70         33
    82         17
    83        288
    84         24
   126        846
   127         66