##TITLE=Library Entry 70905
##JCAMP-DX=Revision 4.10 
##DATA TYPE=MASS SPECTRUM
##SAMPLE DESCRIPTION=Japan AIST/NIMC Database- Spectrum MS-NW-6226
##NAMES=HP
##CAS NAME=Myristic anhydride
##MOLFORM=C28H54O3
##CAS REGISTRY NO=626-29-9
##MP= -300
##BP= -300
##MW= 438
##$RETENTION INDEX=0
##$CONDENSED SPECTRUM=NO
##NPOINTS= 228
##XYDATA=(XY..XY) 1 
    15          4
    17          3
    18         11
    26          8
    27        197
    28         44
    29        333
    30          8
    31          7
    37          1
    38          3
    39        120
    40         25
    41        673
    42        159
    43        825
    44         26
    45         31
    46          1
    47          1
    50          2
    51          6
    52          4
    53         46
    54         80
    55        651
    56        184
    57        670
    58         39
    59         27
    60        379
    61         87
    62          5
    63          2
    65          7
    66          9
    67        103
    68         79
    69        330
    70        149
    71        351
    72         23
    73        412
    74         43
    75          4
    76          1
    77          7
    78          3
    79         27
    80         18
    81         92
    82         73
    83        250
    84        319
    85        219
    86         20
    87         84
    88         10
    89          3
    91          5
    92          2
    93         21
    94         17
    95         91
    96         64
    97        205
    98        999
    99        113
   100         17
   101         38
   102         11
   103          1
   105          2
   107         12
   108          9
   109         54
   110         32
   111        160
   112        244
   113         59
   114         12
   115         60
   116         23
   117          3
   118          1
   119          1
   120          1
   121         19
   122          6
   123         24
   124         18
   125         49
   126         54
   127         29
   128          8
   129        211
   130         66
   131          7
   133          1
   134          1
   135         11
   136          4
   137         12
   138         17
   139         20
   140         24
   141          9
   142          5
   143         53
   144         29
   145          3
   149          6
   150          2
   151          5
   152          3
   153         10
   154         16
   155          9
   156          3
   157         20
   158         14
   159          2
   163          3
   164          3
   165          2
   166         36
   167         15
   168         30
   169         19
   170          4
   171         43
   172         14
   173          2
   177          1
   179          1
   180          2
   181          6
   182          7
   183          4
   184          2
   185        130
   186         23
   187          3
   191          5
   192         11
   193          5
   194          2
   195          3
   196          2
   197          2
   198          1
   199         22
   200          9
   201          1
   207          1
   208          7
   209         13
   210         51
   211        761
   212        119
   213         11
   214          6
   215          1
   223          1
   224          2
   225          1
   226         20
   227         27
   228        293
   229         51
   230          5
   236          1
   237          2
   238          1
   239          6
   240          3
   250          1
   252         12
   253          5
   254          4
   255          8
   256          2
   264          1
   265          1
   266          3
   267          1
   268          6
   269          1
   270         27
   271          6
   278          1
   280          3
   281          1
   282          6
   283          2
   284          1
   293          1
   294          2
   295          1
   296          4
   297          1
   298         21
   299          5
   308          1
   310          3
   311          1
   312          8
   313          2
   322          1
   324          2
   325          1
   326          4
   327          1
   336          1
   338          1
   340          3
   350          1
   352          1
   354          3
   355          1
   364          1
   368          2
   382          2
   394          3
   395          1
   396          1
   438          6
   439          2