##TITLE=Library Entry 13360
##JCAMP-DX=Revision 4.10 
##DATA TYPE=MASS SPECTRUM
##SAMPLE DESCRIPTION=Mark Whitten, Florida Museum of Natural History, U. of
 Florida
##NAMES=HP
##CAS NAME=Cedran-diol, (8S,14)-
##MOLFORM=C15H26O2
##CAS REGISTRY NO=62600-05-9
##MP= -300
##BP= -300
##MW= 238
##$RETENTION INDEX=1876
##$CONDENSED SPECTRUM=NO
##NPOINTS= 122
##XYDATA=(XY..XY) 1 
    41        527
    43        999
    44         44
    45         72
    50          6
    51         43
    53        173
    55        353
    56         46
    57        118
    58         52
    59         35
    63         13
    65         97
    66         32
    67        209
    68         41
    69        157
    70         25
    71        176
    72         29
    73         14
    74          6
    75         51
    77        225
    78         56
    79        293
    80         46
    81        347
    82         48
    83         70
    84         22
    85         57
    86         11
    89          9
    91        323
    92         68
    93        421
    94         83
    95        307
    96         43
    97         55
    98         11
    99         13
   102          7
   103         30
   105        313
   106         69
   107        368
   108         67
   109        160
   110         35
   111         40
   112          7
   113         10
   115         50
   116         14
   117         50
   119        266
   120         51
   121        248
   122         52
   123         86
   124         17
   125         16
   127         10
   128         15
   129         22
   130         12
   131         60
   132         21
   133        177
   134         43
   135        151
   136         53
   137         40
   138         11
   139         10
   141          8
   143         10
   144          8
   145         53
   146         17
   147        182
   148         49
   149        368
   150         72
   151         35
   152         11
   153          6
   159         25
   160         11
   161        136
   162         31
   163         54
   164         20
   165         29
   166        135
   167         69
   168         11
   171          7
   173         13
   175         21
   176         20
   177         56
   178         13
   179         11
   187         28
   189        695
   190        118
   191         43
   192         15
   202          8
   205         24
   206         12
   207        221
   208         44
   209          8
   220         11
   223         22
   237          8
   238         11