##TITLE=Library Entry 109952
##JCAMP-DX=Revision 4.10 
##DATA TYPE=MASS SPECTRUM
##SAMPLE DESCRIPTION=NIST Mass Spectrometry Data Center, 1998.
##NAMES=HP
##CAS NAME=Methacrifos
##MOLFORM=C7H13O5PS
##CAS REGISTRY NO=62610-77-9
##MP= -300
##BP= -300
##MW= 240
##$RETENTION INDEX=1491
##$CONDENSED SPECTRUM=NO
##NPOINTS= 153
##XYDATA=(XY..XY) 1 
    14          4
    15         88
    16          1
    25          1
    26         19
    27         95
    28         38
    29         74
    30          7
    31         46
    32          4
    33          6
    34          1
    35          1
    37          4
    38         13
    39         81
    40         19
    41         29
    42          5
    43         21
    44          3
    45         56
    46         13
    47        281
    48         13
    49         17
    50          1
    51          3
    52          1
    53         31
    54         12
    55        110
    56         79
    57          8
    58          1
    59        127
    60          6
    61          7
    62         82
    63        193
    64         32
    65         16
    66          3
    67         26
    68         10
    69         23
    70         11
    71         49
    72         24
    73          8
    74          3
    75          5
    76          3
    77         26
    78          3
    79        406
    80         82
    81         16
    82          8
    83        105
    84         25
    85         35
    86          7
    87          9
    88          5
    89          2
    93        626
    94         37
    95         43
    96          8
    97         13
    98         19
    99        222
   100         25
   101         13
   102         34
   103         14
   104          3
   105          4
   107          1
   109        201
   110        288
   111         82
   112         47
   113         16
   114         23
   115         18
   116          4
   117          2
   118          1
   119          3
   120          1
   121          1
   122          1
   125        999
   126         45
   127         53
   128         13
   129          9
   130         34
   131        166
   132         13
   133         10
   134          3
   135          5
   136          1
   137          1
   141          9
   142         16
   143         13
   144          2
   145          2
   147         11
   148          4
   149         15
   150          6
   151          2
   152          6
   153          2
   155          1
   156          2
   157          2
   161          1
   163          6
   164          2
   165         46
   166          8
   167          4
   175          1
   176          1
   177          5
   178          1
   179          1
   180        638
   181         94
   182         38
   183          5
   192          1
   193          9
   194          1
   195          2
   196          1
   208        548
   209        182
   210         40
   211         10
   212          1
   225          1
   240        284
   241         25
   242         16
   243          1