##TITLE=Library Entry 18965
##JCAMP-DX=Revision 4.10 
##DATA TYPE=MASS SPECTRUM
##SAMPLE DESCRIPTION=Japan AIST/NIMC Database- Spectrum MS-NW-2789
##NAMES=HP
##CAS NAME=2-Pentyn-1-ol
##MOLFORM=C5H8O
##CAS REGISTRY NO=6261-22-9
##MP= -300
##BP= -300
##MW= 84
##$RETENTION INDEX=0
##$CONDENSED SPECTRUM=NO
##NPOINTS= 60
##XYDATA=(XY..XY) 1 
    12          2
    13          1
    14          8
    15         32
    16          2
    17          2
    18          7
    24          2
    25          9
    26         55
    27        334
    28        129
    29        290
    30         17
    31        162
    32         18
    36          9
    37         54
    38         98
    39        770
    40        180
    41        709
    42         80
    43        174
    44         57
    45         18
    48          6
    49         34
    50        134
    51        177
    52         82
    53        260
    54         77
    55        999
    56        371
    57        145
    58         15
    59          3
    60          6
    61         24
    62         32
    63         44
    64         11
    65        171
    66        153
    67        115
    68         26
    69        124
    70          6
    71          1
    77          6
    78          1
    79          7
    80          1
    81         33
    82         12
    83        730
    84        111
    85          9
    86          1