##TITLE=Library Entry 23340
##JCAMP-DX=Revision 4.10 
##DATA TYPE=MASS SPECTRUM
##SAMPLE DESCRIPTION=B. Derendyaev, Novosibirsk Institute of Organic Chemist
ry
##NAMES=HP
##CAS NAME=1-Butoxy-2-ethylhexane
##MOLFORM=C12H26O
##CAS REGISTRY NO=62625-25-6
##MP= -300
##BP= -300
##MW= 186
##$RETENTION INDEX=0
##$CONDENSED SPECTRUM=NO
##NPOINTS= 78
##XYDATA=(XY..XY) 1 
    26         32
    27        180
    29        351
    30         14
    31         26
    33          7
    36         12
    37          5
    38          8
    39         92
    40         21
    41        491
    42         55
    43        250
    45         26
    46          2
    47          1
    50          4
    51          6
    52          8
    53         24
    54         19
    55        173
    56        228
    57        999
    58         43
    59          7
    60          1
    63          1
    64          2
    65          4
    66          2
    67         15
    68         14
    69         68
    70        141
    71        101
    72         17
    73          7
    74          1
    75         18
    76          1
    77          4
    78          2
    79          5
    80          1
    81          5
    82         28
    83        112
    84         57
    85         13
    86          1
    87        104
    88          6
    89         31
    90          2
    91          3
    92          1
    93          1
    95          4
    97          2
    98         50
    99          4
   100          3
   101          8
   110          2
   111          5
   112         81
   113         12
   114          1
   115          2
   123          1
   127          1
   128          4
   129          1
   141          2
   157          1
   186          1