##TITLE=Library Entry 47114
##JCAMP-DX=Revision 4.10 
##DATA TYPE=MASS SPECTRUM
##SAMPLE DESCRIPTION=Japan AIST/NIMC Database- Spectrum MS-NW-5746
##NAMES=HP
##CAS NAME=Ethanone, 2-bromo-1-[4-(phenylazo)phenyl]-
##MOLFORM=C14H11BrN2O
##CAS REGISTRY NO=62625-24-5
##MP= -300
##BP= -300
##MW= 302
##$RETENTION INDEX=0
##$CONDENSED SPECTRUM=NO
##NPOINTS= 111
##XYDATA=(XY..XY) 1 
    14          2
    15          1
    17          1
    18          3
    26          2
    27          9
    28          5
    37          6
    38         15
    39         27
    40          6
    41          3
    42          9
    43         10
    49          2
    50         84
    51        145
    52         12
    53          1
    57          1
    61          4
    62         14
    63         39
    64         30
    65          9
    66          1
    73          2
    74         16
    75         22
    76        123
    77        999
    78         72
    79          3
    80          4
    81          2
    82          5
    86          1
    87          3
    88          3
    89         66
    90        119
    91         19
    92          2
    93          9
    94          3
    95          8
   100          1
   101          4
   102          9
   103          5
   104        126
   105        519
   106         38
   107          1
   111          1
   115          2
   117          2
   118        106
   119         23
   120          2
   121          8
   123          8
   126          3
   127          5
   128          1
   139          1
   147          2
   149          1
   150          2
   151         13
   152         53
   153         25
   154          4
   155          1
   165          8
   166          3
   167          3
   168          2
   169          3
   170          2
   171          2
   177          1
   179          1
   180          1
   181          9
   182          2
   185          1
   194          2
   195         29
   196          4
   197        145
   198         15
   199        141
   200         15
   201          1
   206          1
   209         65
   210         10
   211          1
   224         21
   225         44
   226          5
   227         44
   228          5
   273          1
   275          1
   302        312
   303         50
   304        309
   305         51
   306          4