##TITLE=Library Entry 80707
##JCAMP-DX=Revision 4.10 
##DATA TYPE=MASS SPECTRUM
##SAMPLE DESCRIPTION=JACSAT, 99(5)1536(1977); D. S. WATT ET AL.
##NAMES=HP
##CAS NAME=Benzenehexanenitrile, .beta.,.beta.-dimethyl-.epsilon.-oxo-
##MOLFORM=C14H17NO
##CAS REGISTRY NO=62623-62-5
##MP= -300
##BP= -300
##MW= 215
##$RETENTION INDEX=0
##$CONDENSED SPECTRUM=NO
##NPOINTS= 10
##XYDATA=(XY..XY) 1 
   105        999
   106         90
   133         50
   156         10
   157         20
   175         40
   187         10
   200         40
   201         10
   215         20