##TITLE=Library Entry 80225
##JCAMP-DX=Revision 4.10 
##DATA TYPE=MASS SPECTRUM
##SAMPLE DESCRIPTION=Dmitri Zagorevskii, Scientific Instruments & Applicatio
ns
##NAMES=HP
##CAS NAME=Benzenemethanethiol, .alpha.-methyl-
##MOLFORM=C8H10S
##CAS REGISTRY NO=6263-65-6
##MP= -300
##BP= -300
##MW= 138
##$RETENTION INDEX=1160
##$CONDENSED SPECTRUM=NO
##NPOINTS= 81
##XYDATA=(XY..XY) 1 
    35          8
    36          1
    37         15
    38         38
    39        181
    40         11
    41          9
    43          1
    44          1
    45        200
    46          5
    47         10
    49         11
    50        141
    51        343
    52         71
    53         34
    54          3
    55          1
    57          3
    58         16
    59        115
    60         16
    61         28
    62         32
    63         79
    64         12
    65         47
    66          7
    67          8
    68          7
    69         26
    71          4
    73          6
    74         33
    75         24
    76         29
    77        382
    78        141
    79        393
    80         25
    81          2
    82          3
    83          1
    84          1
    85          2
    86          3
    87          4
    89         21
    90          5
    91         22
    92          2
    93          4
    94          1
    95          2
    97          3
    98          3
    99          1
   101          3
   102         31
   103        223
   104         97
   105        999
   106        154
   107          6
   108          3
   109         41
   110          4
   111          5
   121         35
   122          4
   123         21
   124          1
   125          1
   134          4
   135         14
   136          2
   137          1
   138        206
   139         19
   140          9