##TITLE=Library Entry 79652
##JCAMP-DX=Revision 4.10 
##DATA TYPE=MASS SPECTRUM
##SAMPLE DESCRIPTION=NIST Mass Spectrometry Data Center, 1994
##NAMES=HP
##CAS NAME=1,3,5-Triphenyl-1,5-pentanedione
##MOLFORM=C23H20O2
##CAS REGISTRY NO=6263-84-9
##MP= -300
##BP= -300
##MW= 328
##$RETENTION INDEX=0
##$CONDENSED SPECTRUM=NO
##NPOINTS= 87
##XYDATA=(XY..XY) 1 
    18          3
    28          3
    32          1
    38          4
    39         32
    40          3
    41          1
    42          5
    43          7
    50         46
    51        227
    52         19
    53          6
    55          2
    62          3
    63         15
    64          4
    65         28
    66          1
    75         14
    77        863
    78        112
    79         10
    87          1
    89          9
    91         38
    92          5
   101          2
   102         17
   103         68
   104          1
   105        999
   106         75
   107          8
   111          4
   115         25
   116          4
   117         11
   118          9
   119          4
   120         38
   121          6
   126          1
   127          4
   128          4
   129          6
   130          1
   131        110
   132         12
   145          5
   151          1
   152          6
   153          2
   165          7
   166          2
   176          2
   177          1
   178         12
   179         10
   180          3
   181          6
   189          3
   190          2
   191         12
   192          2
   194          1
   195          1
   196          9
   197          2
   202          2
   203          4
   204          4
   205         12
   206          1
   207         32
   208          1
   209        792
   210        131
   211         11
   221          7
   222          3
   223          6
   233          8
   309          8
   310          7
   328         12
   329          3