##TITLE=Library Entry 26885
##JCAMP-DX=Revision 4.10 
##DATA TYPE=MASS SPECTRUM
##SAMPLE DESCRIPTION=Chemical Concepts
##NAMES=HP
##CAS NAME=2-Allyl-malonic acid, di-t-butyl ester
##MOLFORM=C14H24O4
##CAS REGISTRY NO=62631-25-8
##MP= -300
##BP= -300
##MW= 256
##$RETENTION INDEX=0
##$CONDENSED SPECTRUM=NO
##NPOINTS= 93
##XYDATA=(XY..XY) 1 
    26          1
    27         16
    28          8
    29         61
    31          3
    37          3
    38          2
    39         33
    40          3
    41        137
    42          8
    43          8
    44          6
    45          2
    50          7
    51          3
    52          2
    53         14
    55         23
    56         26
    57        999
    58         35
    59         83
    60          3
    63          5
    64          2
    65          9
    66          4
    67          2
    69          6
    70          7
    71          8
    72          1
    73          2
    74          1
    77          2
    78          1
    79          1
    80          2
    81         17
    91          6
    92          9
    93          6
    94          3
    95          2
    96          7
    97          7
    98        139
    99         15
   100        158
   101          8
   102          1
   103          3
   104          1
   105          6
   106          1
   108         50
   109         64
   110          4
   111          1
   115         36
   116          8
   117          2
   118          3
   119          4
   120         19
   121          8
   122          1
   126         62
   127        106
   128          7
   129          1
   134          1
   137         15
   138          6
   139          1
   141          1
   144        754
   145        102
   146          8
   149         13
   150          1
   164          1
   165         19
   166          1
   182          8
   183         46
   184          4
   185         68
   186          6
   200         42
   201         17
   202          1