##TITLE=Library Entry 38719
##JCAMP-DX=Revision 4.10 
##DATA TYPE=MASS SPECTRUM
##SAMPLE DESCRIPTION=ASES Database, Dalian Institute, P.R. China
##NAMES=HP
##CAS NAME=1,2,6-Trimethoxy-hexane
##MOLFORM=C9H20O3
##CAS REGISTRY NO=62635-56-7
##MP= -300
##BP= -300
##MW= 176
##$RETENTION INDEX=0
##$CONDENSED SPECTRUM=NO
##NPOINTS= 36
##XYDATA=(XY..XY) 1 
    39        130
    41        567
    42         68
    43        226
    44         29
    45        945
    46         19
    53         49
    55         89
    57         39
    58        139
    59        141
    65         40
    67        490
    68         29
    69        159
    71        999
    72         50
    73         29
    74         20
    75         20
    79         30
    81         89
    84         50
    85         40
    88         29
    89        139
    90         20
    97         40
    98         39
    99        588
   100         39
   101        157
   102         19
   131        775
   132         79