##TITLE=Library Entry 62491
##JCAMP-DX=Revision 4.10 
##DATA TYPE=MASS SPECTRUM
##SAMPLE DESCRIPTION=R.C.FAUST DYESTUFFS DIV., I.C.I., MANCHESTER
##NAMES=HP
##CAS NAME=Benzene, [(ethylthio)methyl]-
##MOLFORM=C9H12S
##CAS REGISTRY NO=6263-62-3
##MP= -300
##BP= -300
##MW= 152
##$RETENTION INDEX=1248
##$CONDENSED SPECTRUM=NO
##NPOINTS= 110
##XYDATA=(XY..XY) 1 
    24          0
    25          1
    26         11
    27         34
    28         22
    29        141
    30          6
    31          6
    32          6
    33          3
    34          4
    35          3
    36          0
    37          2
    38         10
    39         44
    40          4
    41          5
    42          1
    43          4
    44          4
    45         83
    46          2
    47         17
    48          1
    49          1
    50         14
    51          3
    52         10
    53          3
    54          0
    55          1
    56          1
    57          2
    58          5
    59          9
    60          7
    61         17
    62         12
    63         29
    64         10
    65         89
    66         17
    67          1
    68          1
    69          7
    70          1
    71          1
    73          0
    74          4
    75          5
    76         12
    77         31
    78          4
    79          8
    80          2
    81          1
    82          1
    83          0
    84          0
    85          0
    86          2
    87          2
    88          1
    89         28
    90         12
    91        999
    92        128
    93          8
    94          3
    95          1
    96          1
    97          1
    98          0
    99          0
   101          0
   102          0
   103          1
   104          0
   105          7
   106         14
   107          0
   108          1
   109          0
   110          1
   111          0
   115          1
   116          0
   117          2
   118          1
   119          0
   120          0
   121         16
   122         15
   123         21
   124          3
   125          5
   126          3
   127          2
   128          4
   129          0
   134          0
   135          0
   136          0
   137          1
   151          2
   152        243
   153         25
   154         12
   155          1