##TITLE=Library Entry 33198
##JCAMP-DX=Revision 4.10 
##DATA TYPE=MASS SPECTRUM
##SAMPLE DESCRIPTION=Chemical Concepts
##NAMES=HP
##CAS NAME=1,3,2-Benzodioxaborole, 2,2'-(1,7-octadiene-1,8-diyl)bis-, (E,E)-
##MOLFORM=C20H20B2O4
##CAS REGISTRY NO=62634-25-7
##MP= -300
##BP= -300
##MW= 346
##$RETENTION INDEX=0
##$CONDENSED SPECTRUM=NO
##NPOINTS= 238
##XYDATA=(XY..XY) 1 
    26          6
    27         48
    28         31
    29         63
    30          2
    31          2
    36         11
    37         37
    38        188
    39         17
    41        276
    42         27
    43         78
    44          8
    45          6
    50         22
    51         33
    52         35
    53        195
    54         35
    55        110
    56         14
    57         33
    58          2
    59          2
    60          5
    61         11
    62         33
    63        186
    64        186
    65        361
    66        281
    67        999
    68        106
    69         43
    70          8
    71         19
    72          2
    73          6
    74         12
    75         44
    76         32
    77        130
    78         37
    79        165
    80        189
    81        309
    82         38
    83         17
    84          6
    85         11
    86          3
    87          6
    88         16
    89         57
    90         23
    91        106
    92        117
    93        348
    94         69
    95        287
    96         29
    97         13
    98          5
    99          5
   100          7
   101        137
   102         35
   103         73
   104         24
   105         48
   106         10
   107         11
   108          6
   109          8
   110         42
   111         11
   112          5
   113         12
   114         35
   115        235
   116         44
   117         58
   118         10
   119        123
   120        450
   121         55
   122          7
   123          5
   124          2
   125          6
   126          5
   127         51
   128         40
   129         40
   130         13
   131         17
   132        112
   133        385
   134        172
   135         48
   136        140
   137         12
   138          4
   139          8
   140          4
   141         32
   142         14
   143         62
   144        212
   145        300
   146        841
   147        203
   148         36
   149         45
   150          4
   151          5
   152          7
   153          9
   154          5
   155         12
   156         30
   157        125
   158        228
   159        618
   160        228
   161         45
   162          8
   163          3
   165          6
   166          4
   167         11
   168          5
   169          8
   170         29
   171        319
   172        964
   173        423
   174        194
   175         22
   176          3
   177          3
   178          3
   179          5
   180          3
   181          5
   182          7
   183         32
   184        102
   185        305
   186        276
   187        116
   188         14
   189          3
   191          2
   192          1
   193          2
   195         12
   196         23
   197         53
   198        140
   199        478
   200        484
   201         79
   202          9
   203          3
   204          1
   205          5
   206          2
   207          3
   208          4
   209         13
   210         28
   211         96
   212        240
   213        780
   214        117
   215         12
   219          2
   220          3
   221          5
   223         10
   224          6
   225         17
   226         41
   227         10
   228         18
   229          3
   235          2
   236          3
   237         10
   238         25
   239         34
   240          5
   249          3
   250          9
   251         42
   252         68
   253         15
   254          9
   261         12
   263         68
   264        155
   265         35
   266         18
   267          3
   275          3
   276         12
   277         38
   278         53
   279         13
   280          2
   288          2
   289          6
   290         14
   291         28
   292         42
   293          8
   297          3
   298         12
   299         26
   300         32
   301         28
   302          4
   314          3
   316          9
   317         24
   318         19
   319          4
   330          4
   331         11
   332          3
   344         63
   345        346
   346        632
   347        210
   348         27
   349          4