##TITLE=Library Entry 39175
##JCAMP-DX=Revision 4.10 
##DATA TYPE=MASS SPECTRUM
##SAMPLE DESCRIPTION=ASES Database, Dalian Institute, P.R. China
##NAMES=HP
##CAS NAME=1,2,8-Trimethoxyoctane
##MOLFORM=C11H24O3
##CAS REGISTRY NO=62635-58-9
##MP= -300
##BP= -300
##MW= 204
##$RETENTION INDEX=0
##$CONDENSED SPECTRUM=NO
##NPOINTS= 25
##XYDATA=(XY..XY) 1 
    67        108
    68         30
    69         40
    71        999
    72         49
    73         20
    74          9
    79         20
    80         10
    82         19
    88         29
    89        108
    91          9
    92          9
    93         40
    94         19
    95        888
    96         71
    97         30
    98         19
   100          9
   109          9
   127         50
   159        829
   160         60