##TITLE=Library Entry 6779
##JCAMP-DX=Revision 4.10 
##DATA TYPE=MASS SPECTRUM
##SAMPLE DESCRIPTION=PYTCAS,15(12)1991(1976); L. GAWELL & K. LEANDER
##NAMES=HP
##CAS NAME=3,6-Methano-8H-1,5,7-trioxacyclopenta[ij]cycloprop[a]azulene-4,8(
3H)-dione, hexahydro-9-hydroxy-8b-methyl-9-(1-methylethyl)-, [1aR-(1a.alpha.
,2a.beta.,3.beta.,6.beta.,6a.beta.,8aS*,8b.beta.,9R*)]-
##MOLFORM=C15H18O6
##CAS REGISTRY NO=62655-15-6
##MP= -300
##BP= -300
##MW= 294
##$RETENTION INDEX=0
##$CONDENSED SPECTRUM=NO
##NPOINTS= 28
##XYDATA=(XY..XY) 1 
    43        999
    44        610
    51        100
    53        150
    55        330
    65        170
    67        150
    69        130
    71        360
    77        210
    79        230
    81        100
    91        260
    93        140
    95        190
    97        120
   105        130
   107        120
   109        110
   112        120
   133        110
   135        120
   137        110
   139        600
   147        120
   149        140
   161        100
   294         60