##TITLE=Library Entry 82515
##JCAMP-DX=Revision 4.10 
##DATA TYPE=MASS SPECTRUM
##SAMPLE DESCRIPTION=A.A.Kutin, Moscow, Russia
##NAMES=HP
##CAS NAME=Pyridine-3-carboxamide, N-(2-hydroxyethyl)-
##MOLFORM=C8H10N2O2
##CAS REGISTRY NO=6265-73-2
##MP= -300
##BP= -300
##MW= 166
##$RETENTION INDEX=0
##$CONDENSED SPECTRUM=NO
##NPOINTS= 82
##XYDATA=(XY..XY) 1 
    35          0
    36          1
    37          5
    38         13
    39         18
    40          8
    41          7
    42         16
    43         17
    44         17
    45         11
    46          0
    48          1
    49         16
    50        138
    51        359
    52         77
    53         37
    54          4
    55          1
    56          3
    58          1
    59          0
    60          2
    61          1
    62          2
    63          4
    64          4
    65          4
    66          3
    67          2
    68          0
    69          0
    70          7
    73          0
    74          1
    75         13
    76         25
    77         39
    78        689
    79         80
    80         17
    81          2
    82          0
    83          0
    88          0
    90          0
    91          2
    92          3
    93          4
    94          2
    95          0
    96          0
   102          0
   103          1
   104          4
   106        999
   107         74
   108          5
   109          1
   117          1
   118          3
   119         15
   120          3
   121          1
   123        358
   124         27
   125          1
   133          6
   135        135
   136         50
   137          4
   138          0
   147         18
   148        151
   149         14
   150          1
   151          3
   152          0
   165          1
   166          5
   167          1