##TITLE=Library Entry 32167
##JCAMP-DX=Revision 4.10 
##DATA TYPE=MASS SPECTRUM
##SAMPLE DESCRIPTION=Tox21 Consortium/NIST Mass Spectrometry Data Center, 20
12
##NAMES=HP
##CAS NAME=4,7-Methano-1H-isoindole-1,3(2H)-dione, 3a,4,7,7a-tetrahydro-, (3
a.alpha.,4.alpha.,7.alpha.,7a.alpha.)-
##MOLFORM=C9H9NO2
##CAS REGISTRY NO=6265-30-1
##MP= -300
##BP= -300
##MW= 163
##$RETENTION INDEX=0
##$CONDENSED SPECTRUM=NO
##NPOINTS= 79
##XYDATA=(XY..XY) 1 
    15          1
    25          1
    26         17
    27         19
    28          7
    29          2
    31          1
    37          6
    38         20
    39         97
    40         40
    41          9
    42          3
    43         10
    44         10
    45         21
    46          9
    49          2
    50         20
    51         39
    52         17
    53         15
    54         15
    55          7
    56          2
    59          1
    60          3
    61          5
    62         14
    63         38
    64         11
    65        118
    66        999
    67         56
    68          3
    69          1
    70          7
    73          1
    74          3
    75          2
    76          2
    77         14
    78          6
    79          5
    80         14
    81          2
    82          1
    85          1
    86          1
    87          1
    89         12
    90         12
    91        167
    92         43
    93          5
    94          1
    96          1
    97          3
    98         99
    99          5
   100          1
   104          1
   105          2
   106          4
   107          2
   108          1
   116          2
   117          2
   118          8
   119          6
   120          3
   134         13
   135          3
   136          3
   146          1
   148          1
   162          1
   163         25
   164          3