##TITLE=Library Entry 47007
##JCAMP-DX=Revision 4.10 
##DATA TYPE=MASS SPECTRUM
##SAMPLE DESCRIPTION=A.A.Kutin, Moscow, Russia
##NAMES=HP
##CAS NAME=1H-Indole-3-acetic acid, .alpha.-(2-oxo-2-phenylethyl)-
##MOLFORM=C18H15NO3
##CAS REGISTRY NO=6266-66-6
##MP= -300
##BP= -300
##MW= 293
##$RETENTION INDEX=0
##$CONDENSED SPECTRUM=NO
##NPOINTS= 209
##XYDATA=(XY..XY) 1 
    33          4
    35          0
    36          1
    37          9
    39        131
    40         41
    41         25
    42         12
    44        115
    45         39
    47          0
    48          0
    50         84
    51        410
    52         42
    53         13
    55         23
    56          4
    57         14
    58          9
    61          7
    62         37
    63         90
    64         24
    65         55
    66          7
    67          3
    69          8
    70          7
    71         15
    73          3
    74         39
    75         53
    77        999
    78         88
    79         12
    80          5
    81          3
    82          6
    83          4
    84          3
    86         12
    87         19
    88         29
    89        103
    90         57
    91         69
    92          8
    93          4
    94          2
    95          3
    96          2
    97          2
    98          5
    99          3
   100          4
   101         23
   102         30
   103         26
   105        722
   106         51
   107          4
   109         10
   110          6
   111          2
   113         32
   115        330
   116         67
   117        159
   118         55
   119          6
   120          8
   121          2
   122          1
   123          7
   124          1
   126          4
   127          9
   128         52
   130        316
   131         34
   132         54
   133          8
   134          1
   135          0
   136          0
   137          1
   138          1
   140         28
   142        399
   143        190
   144        213
   145         25
   146         35
   147          5
   148          0
   149          0
   150          1
   151          1
   152          2
   153          0
   154          2
   155          0
   156          1
   157          1
   158          1
   159          2
   160          3
   161          1
   163          2
   164          1
   165          3
   166          0
   167          0
   168          0
   170        104
   171         16
   172          2
   174         39
   175          5
   176          1
   177          0
   178          1
   179          0
   180          0
   181          0
   182          0
   183          0
   184          0
   185          0
   187          4
   188         16
   189          5
   190          2
   191          2
   192          1
   193          4
   194          0
   195          0
   196          0
   197          0
   198          0
   199          0
   200          1
   201          1
   202          3
   203          2
   204          4
   205          1
   206          1
   207          0
   210          0
   212          0
   213          0
   214          0
   215          0
   216          3
   217         11
   218         36
   219         26
   220          5
   221          0
   222          0
   223          0
   224          0
   227          0
   228          1
   229          1
   230         11
   231          7
   232          3
   233          1
   234          0
   238          0
   239          0
   240          0
   241          0
   243          0
   244          0
   246         32
   247         59
   248         13
   249         38
   250          7
   251          0
   254          0
   256          0
   257          1
   258          0
   259          0
   264          0
   265          0
   266          0
   267          0
   269          0
   272          1
   273          1
   275        188
   276         31
   277          3
   278          0
   283          0
   289          0
   290          0
   291          0
   293         42
   294          7
   295          0
   301          0