##TITLE=Library Entry 68722
##JCAMP-DX=Revision 4.10 
##DATA TYPE=MASS SPECTRUM
##SAMPLE DESCRIPTION=ASES Database, Dalian Institute, P.R. China
##NAMES=HP
##CAS NAME=2-Methyl-5-methoxy-4H-pyran-4-one
##MOLFORM=C7H8O3
##CAS REGISTRY NO=6266-91-7
##MP= -300
##BP= -300
##MW= 140
##$RETENTION INDEX=0
##$CONDENSED SPECTRUM=NO
##NPOINTS= 21
##XYDATA=(XY..XY) 1 
    66         64
    67         78
    68         97
    69        343
    71         42
    72         42
    79        100
    82         45
    83         38
    85        103
    95        999
    96         99
    97        119
    99         46
   110        416
   111        272
   122        133
   125         56
   139        240
   140        728
   141         76