##TITLE=Library Entry 53925
##JCAMP-DX=Revision 4.10 
##DATA TYPE=MASS SPECTRUM
##SAMPLE DESCRIPTION=Frank Antolasic, RMIT Appl. Chem. Department, Victoria
 Australia
##NAMES=HP
##CAS NAME=2-Cyclohexen-1-one, 3-ethoxy-5,5-dimethyl-
##MOLFORM=C10H16O2
##CAS REGISTRY NO=6267-39-6
##MP= -300
##BP= -300
##MW= 168
##$RETENTION INDEX=0
##$CONDENSED SPECTRUM=NO
##NPOINTS= 45
##XYDATA=(XY..XY) 1 
    26         51
    27        325
    28         57
    29        252
    30         18
    31          2
    32         22
    39        277
    40         96
    41        248
    42         95
    43        283
    44          4
    45         11
    50         19
    51         33
    52         22
    53         95
    54         30
    55        245
    56        108
    57         50
    65         18
    66         19
    67        109
    68        591
    69        862
    70         44
    77         32
    79         34
    81         27
    82         29
    84        999
    85         77
    95         21
    96         20
    97         56
   112        650
   113         50
   125         37
   131          5
   140         43
   153         70
   168        298
   169         38