##TITLE=Library Entry 22825
##JCAMP-DX=Revision 4.10 
##DATA TYPE=MASS SPECTRUM
##SAMPLE DESCRIPTION=V.Zaikin,Topchiev Inst.Petrochem.Synth.,Moscow
##NAMES=HP
##CAS NAME=4-Nitrobenzoic acid, hexyl ester
##MOLFORM=C13H17NO4
##CAS REGISTRY NO=6268-24-2
##MP= -300
##BP= -300
##MW= 251
##$RETENTION INDEX=1914
##$CONDENSED SPECTRUM=NO
##NPOINTS= 127
##XYDATA=(XY..XY) 1 
    27        191
    28         58
    29        252
    30         81
    31          9
    36         12
    37         22
    38         48
    39        213
    40         41
    41        454
    42        346
    43        508
    44         43
    45         26
    46         17
    49         12
    50        279
    51         79
    52         14
    53         73
    54         43
    55        515
    56        999
    57         81
    58          6
    59          3
    60          3
    61         12
    62         17
    63         52
    64         61
    65        221
    66         22
    67         24
    68         17
    69        303
    70         29
    71         10
    73         19
    74        104
    75        226
    76        495
    77         66
    78         21
    79          7
    80          3
    81         27
    82         17
    83        242
    84        720
    85         53
    87          2
    88          5
    89          5
    90          5
    91         12
    92        203
    93         37
    94          9
    95          6
    96         17
    97          4
    98          3
    99          4
   101          3
   103         56
   104        519
   105         57
   106          8
   107          5
   109         21
   110          5
   115          5
   117          3
   119          7
   120         96
   121        117
   122         33
   123         13
   124          4
   125          3
   126          4
   127          2
   128          3
   134         55
   135         13
   136          5
   137         30
   138          4
   145          6
   146          3
   148          4
   149         17
   150        872
   151        166
   152         40
   153          5
   162          3
   163          3
   164          3
   165          9
   166          3
   167         70
   168        276
   169        125
   170         10
   171          6
   173         28
   174          3
   178          3
   179          3
   180          5
   190          2
   191          3
   194          8
   195          2
   205          6
   207          6
   208          9
   221          3
   223          3
   225          4
   234          2
   235          6
   251          5
   252          4