##TITLE=Library Entry 97375
##JCAMP-DX=Revision 4.10 
##DATA TYPE=MASS SPECTRUM
##SAMPLE DESCRIPTION=Exported from NIST MS Search
##NAMES=HP
##CAS NAME=Benzene, (3-chloroallyl)-
##MOLFORM=C9H9Cl
##CAS REGISTRY NO=6268-37-7
##MP= -300
##BP= -300
##MW= 152
##$RETENTION INDEX=0
##$CONDENSED SPECTRUM=NO
##NPOINTS= 74
##XYDATA=(XY..XY) 1 
    26          5
    27         15
    37          7
    38         15
    39         83
    40          6
    41         12
    43          3
    47          2
    48          2
    49         20
    50         33
    51         67
    52         13
    53          4
    55          3
    57         28
    58         47
    61         21
    62         28
    63         61
    64         13
    65         72
    66          5
    73         13
    74         15
    75         81
    76         16
    77         47
    78         15
    79          3
    81          3
    83          7
    85          8
    86          7
    87         10
    88          5
    89         51
    90         13
    91        227
    92         36
    93          2
    96          3
    97         13
    98          3
    99         11
   101          5
   102         11
   103          9
   104          3
   105          7
   109         13
   110         25
   111         12
   112         17
   113          8
   114         10
   115        401
   116        100
   117        999
   118         99
   119          5
   123          3
   125          8
   126          2
   127          3
   131          6
   132          3
   133          3
   151          7
   152        248
   153         27
   154         84
   155          9