##TITLE=Library Entry 14296
##JCAMP-DX=Revision 4.10 
##DATA TYPE=MASS SPECTRUM
##SAMPLE DESCRIPTION=PYTCAS, 16(1)123(1977); S. HUNECK ET AL
##NAMES=HP
##CAS NAME=4H-Naphtho[2,3-b]pyran-4,6,9-trione, 5,8-bis(acetyloxy)-2-methyl-
##MOLFORM=C18H12O8
##CAS REGISTRY NO=62681-87-2
##MP= -300
##BP= -300
##MW= 356
##$RETENTION INDEX=0
##$CONDENSED SPECTRUM=NO
##NPOINTS= 19
##XYDATA=(XY..XY) 1 
    43        999
    45        200
    51        120
    53         70
    69        200
   120        120
   148         80
   160        110
   175        140
   189        180
   205        120
   216        180
   272        870
   284         40
   300         10
   314        420
   327         20
   356         10
   358         20