##TITLE=Library Entry 82045
##JCAMP-DX=Revision 4.10 
##DATA TYPE=MASS SPECTRUM
##SAMPLE DESCRIPTION=Japan AIST/NIMC Database- Spectrum MS-NW-7981
##NAMES=HP
##CAS NAME=Benzamide, N-(4-amino-2,5-dimethoxyphenyl)-
##MOLFORM=C15H16N2O3
##CAS REGISTRY NO=6268-05-9
##MP= -300
##BP= -300
##MW= 272
##$RETENTION INDEX=0
##$CONDENSED SPECTRUM=NO
##NPOINTS= 168
##XYDATA=(XY..XY) 1 
    14          1
    15         13
    26          1
    27         11
    28          9
    29          1
    30         11
    31          2
    32          2
    33          1
    37          2
    38          6
    39         26
    40         12
    41         36
    42         36
    43         10
    44          9
    50         25
    51        108
    52         31
    53         18
    54         25
    55          8
    56          7
    57          3
    58          2
    59          1
    62          2
    63          5
    64          7
    65         16
    66         21
    67         49
    68         58
    69         15
    70         10
    71          1
    74          5
    75          7
    76         19
    77        478
    78         45
    79          9
    80         23
    81          9
    82         15
    83          4
    84          4
    85          1
    87          1
    88          1
    89          2
    90          4
    91          5
    92         14
    93         17
    94         48
    95         53
    96         15
    97          9
    98          3
    99          1
   101          1
   102          1
   103          2
   104          8
   105        999
   106         83
   107        112
   108        189
   109         35
   110         20
   111          6
   112          2
   113          1
   114          1
   115          3
   116          2
   117          2
   118          1
   119          2
   120          2
   121         11
   122         44
   123         51
   124         82
   125         40
   126         12
   127          2
   128          2
   129          1
   130          1
   134          2
   135          9
   136         18
   137         38
   138         84
   139         54
   140         28
   141          4
   142          2
   143          1
   144          2
   149          2
   150          2
   151         19
   152         15
   153          9
   154         39
   155          4
   156          1
   157          1
   158          1
   163          1
   164          1
   165          7
   166         10
   167        438
   168         51
   169         24
   170          3
   171          1
   172          1
   179         10
   180          2
   181          2
   182          2
   183          1
   184          1
   185          1
   194          2
   196          1
   197          8
   198          2
   199          1
   200          1
   210          1
   211          1
   212          2
   213          2
   214          1
   215          1
   225          5
   226          7
   227          2
   228          1
   229          4
   239          3
   240          6
   241          8
   242          5
   243          2
   244          1
   250          1
   254          1
   255          2
   256          1
   257        253
   258         43
   259          6
   260          1
   270          1
   271         17
   272        889
   273        157
   274         19
   275          2