##TITLE=Library Entry 21928
##JCAMP-DX=Revision 4.10 
##DATA TYPE=MASS SPECTRUM
##SAMPLE DESCRIPTION=Japan AIST/NIMC Database- Spectrum MS-NW-9021
##NAMES=HP
##CAS NAME=Butanoic acid, 2-amino-4-(methylsulfinyl)-, (.+/-.)-
##MOLFORM=C5H11NO3S
##CAS REGISTRY NO=62697-73-8
##MP= -300
##BP= -300
##MW= 165
##$RETENTION INDEX=0
##$CONDENSED SPECTRUM=NO
##NPOINTS= 102
##XYDATA=(XY..XY) 1 
    14          3
    15         26
    16          6
    17         67
    18        213
    25          1
    26         14
    27         53
    28        435
    29        100
    30         88
    31         10
    32          8
    33          3
    34          5
    35         10
    36          2
    37          2
    38          4
    39         28
    40          5
    41         36
    42         33
    43         26
    44         54
    45         55
    46         86
    47         60
    48         22
    49          9
    50          3
    51          3
    52          7
    53          4
    54         51
    55         85
    56        999
    57        129
    58         13
    59         12
    60          5
    61        116
    62          5
    63         54
    64         68
    65          8
    66          3
    67          2
    68          4
    69          3
    70          5
    71          2
    72          3
    73          3
    74        215
    75         27
    76          5
    77          3
    78          7
    79          1
    80          1
    81          1
    82          1
    83         63
    84         12
    85          5
    86          5
    87          7
    88         16
    89          2
    90          2
    91         31
    92          2
    93          2
    94          1
    95          1
    97          1
    99          2
   100        107
   101         69
   102         46
   103         17
   104         24
   105          2
   106          1
   114          4
   116          3
   119          4
   120         54
   121          3
   122          3
   129         10
   130          9
   131          7
   132          4
   133          1
   147          1
   148         13
   149          4
   150          9
   164          1
   165          9