##TITLE=Library Entry 34220
##JCAMP-DX=Revision 4.10 
##DATA TYPE=MASS SPECTRUM
##SAMPLE DESCRIPTION=KONINKLIJKE SHELL LABORATORIUM AMSTERDAM
##NAMES=HP
##CAS NAME=Octane, 1,2-dibromo-
##MOLFORM=C8H16Br2
##CAS REGISTRY NO=6269-92-7
##MP= -300
##BP= -300
##MW= 270
##$RETENTION INDEX=1335
##$CONDENSED SPECTRUM=NO
##NPOINTS= 205
##XYDATA=(XY..XY) 1 
    29        532
    30         11
    31          9
    32         43
    33          0
    34          0
    35          2
    36          8
    37          5
    38         21
    39        395
    40         60
    41        898
    42        164
    43        616
    44         21
    45          5
    46          4
    47          3
    48          2
    49          1
    50         12
    51         30
    52         16
    53        139
    54         71
    55        704
    56        117
    57        620
    58         29
    59          1
    60          1
    61          0
    62          2
    63          5
    64          2
    65         17
    66          8
    67        115
    68         31
    69        999
    70        110
    71        132
    72          7
    73          1
    74          0
    75          1
    76          0
    77         10
    78          2
    79         16
    80         21
    81         65
    82         20
    83         41
    84         11
    85         11
    86          1
    87          0
    88          0
    89          1
    90          0
    91          3
    92          0
    93         16
    94          1
    95         18
    96          2
    97          6
    98          1
    99          1
   100          0
   101          0
   102          0
   103          1
   104          1
   105         12
   106          6
   107         41
   108          6
   109         30
   110          9
   111        523
   112         53
   113          2
   114          0
   115          1
   116          0
   117          1
   118          0
   119         26
   120          6
   121         43
   122          7
   123         18
   124          1
   125          1
   126          0
   127          0
   128          0
   129          0
   130          1
   131          0
   132          1
   133         16
   134          3
   135         97
   136          5
   137         80
   138          3
   139          0
   140          0
   141          0
   142          0
   143          0
   144          0
   145          0
   146          0
   147         14
   148          9
   149        100
   150         14
   151         86
   152          4
   153          0
   154          0
   155          0
   156          0
   157          0
   158          0
   159          0
   160          0
   161          1
   162          1
   163          2
   164          0
   165          0
   166          0
   167          0
   168          0
   169          0
   170          0
   171          0
   172          0
   173          1
   174          0
   175          0
   176          0
   177          0
   178          0
   179          0
   180          0
   181          0
   182          0
   183          0
   184          0
   185          2
   186          0
   187          4
   188          0
   189          3
   190          4
   191        123
   192         14
   193        119
   194         10
   195          0
   196          0
   197          0
   198          0
   199          1
   200          0
   201          1
   202          0
   203          0
   204          0
   205          0
   206          0
   207          0
   208          0
   209          1
   210          0
   211          0
   212          0
   213          1
   214          0
   215          1
   216          0
   217          0
   218          0
   219          0
   220          0
   221          0
   222          0
   223          0
   224          0
   225          0
   226          0
   227          1
   228          0
   229          3
   230          0
   231          2
   232          0
   233          0