##TITLE=Library Entry 1509
##JCAMP-DX=Revision 4.10 
##DATA TYPE=MASS SPECTRUM
##SAMPLE DESCRIPTION=NIST Mass Spectrometry Data Center, 1998.
##NAMES=HP
##CAS NAME=1-Propanol, 3-bromo-
##MOLFORM=C3H7BrO
##CAS REGISTRY NO=627-18-9
##MP= -300
##BP= -300
##MW= 138
##$RETENTION INDEX=0
##$CONDENSED SPECTRUM=NO
##NPOINTS= 48
##XYDATA=(XY..XY) 1 
    14          3
    15          7
    25          8
    26         76
    27        238
    28        223
    29        286
    30         76
    31        999
    32         13
    37         21
    38         36
    39        146
    40         33
    41        429
    42         31
    43         55
    44          5
    45          9
    53          8
    55         23
    57        348
    58        571
    59        244
    60          5
    79         31
    80         10
    81         37
    82          9
    83          6
    93         20
    94          4
    95         19
   105          7
   106          6
   107         33
   108         12
   109         33
   110         27
   112         21
   120        394
   121         16
   122        389
   123         12
   137          2
   138          7
   139          1
   140          5