##TITLE=Library Entry 21015
##JCAMP-DX=Revision 4.10 
##DATA TYPE=MASS SPECTRUM
##SAMPLE DESCRIPTION=Exported from NIST MS Search
##NAMES=HP
##CAS NAME=1,5-Hexadiene, 2,5-dimethyl-
##MOLFORM=C8H14
##CAS REGISTRY NO=627-58-7
##MP= -300
##BP= -300
##MW= 110
##$RETENTION INDEX=770
##$CONDENSED SPECTRUM=NO
##NPOINTS= 78
##XYDATA=(XY..XY) 1 
     1         21
     2          5
    12          3
    13          4
    14         16
    15         76
    16          2
    25          1
    26         43
    27        538
    28         94
    29        526
    30         12
    31          1
    36          1
    37         19
    38         53
    39        656
    40        111
    41        408
    42         50
    43         50
    44          3
    45          3
    46          2
    49          3
    50         37
    51         75
    52         32
    53        260
    54         69
    55        999
    56         76
    57          5
    58          1
    60          3
    61          3
    62          7
    63         15
    64          3
    65         28
    67        358
    68        651
    69         84
    70         11
    71          1
    73          1
    74          2
    75          3
    76          1
    77         41
    78          9
    79         39
    80         19
    81        185
    82         55
    83         14
    85          1
    86          1
    87          1
    89          1
    90          3
    91         19
    92          3
    93         25
    94          5
    95        668
    96         48
    97          2
   101          1
   102          1
   103          1
   105          1
   107          1
   108          1
   109         10
   110         30
   111          3