##TITLE=Library Entry 707
##JCAMP-DX=Revision 4.10 
##DATA TYPE=MASS SPECTRUM
##SAMPLE DESCRIPTION=Japan AIST/NIMC Database- Spectrum MS-NW-5372
##NAMES=HP
##CAS NAME=Diethyl selenide
##MOLFORM=C4H10Se
##CAS REGISTRY NO=627-53-2
##MP= -300
##BP= -300
##MW= 138
##$RETENTION INDEX=0
##$CONDENSED SPECTRUM=NO
##NPOINTS= 80
##XYDATA=(XY..XY) 1 
    14          3
    15          8
    24          1
    25          6
    26         82
    27        549
    28         20
    29        999
    30         23
    39          9
    40          1
    41        205
    42          7
    43          3
    44          4
    45          1
    47          2
    53          2
    55         32
    56          4
    57         10
    58          1
    61          2
    62          1
    70          1
    75          3
    76         10
    77         11
    78         87
    79         85
    80        208
    81         70
    82        372
    83         78
    84         64
    85         13
    86          1
    87          1
    88          1
    89         12
    90         14
    91         60
    92         39
    93        128
    94         32
    95        166
    96          9
    97         27
   101          4
   102          7
   103         23
   104         46
   105         90
   106        236
   107        300
   108        487
   109        246
   110        873
   111         61
   112        156
   113          4
   117          4
   119         30
   120         26
   121         77
   122          3
   123        164
   124          6
   125         29
   126          2
   132         13
   133          2
   134        137
   135        118
   136        334
   137         21
   138        707
   139         33
   140        128
   141          7