##TITLE=Library Entry 30824
##JCAMP-DX=Revision 4.10 
##DATA TYPE=MASS SPECTRUM
##SAMPLE DESCRIPTION=NIST Mass Spectrometry Data Center
##NAMES=HP
##CAS NAME=Butanoic acid, 4-chloro-
##MOLFORM=C4H7ClO2
##CAS REGISTRY NO=627-00-9
##MP= -300
##BP= -300
##MW= 122
##$RETENTION INDEX=1063
##$CONDENSED SPECTRUM=NO
##NPOINTS= 63
##XYDATA=(XY..XY) 1 
    14          1
    15          2
    25          1
    26         13
    27         60
    28         23
    29         28
    30          1
    31          8
    34          1
    35          3
    36          6
    37         11
    38         20
    39        103
    40         24
    41        187
    42        177
    43         70
    44         10
    45        165
    46          3
    47          3
    48          3
    49         47
    50          7
    51         17
    52          2
    53          3
    54          1
    55         29
    56          5
    57         12
    58         33
    60        999
    61         29
    62          9
    63         11
    64          2
    65          4
    66          1
    67          1
    68         13
    69         10
    70          1
    71          3
    72          1
    73         15
    74          1
    75          7
    76          8
    77         10
    78          4
    79          3
    81          1
    85          6
    86         14
    87         39
    88          2
   104          7
   105         15
   106          3
   107          5