##TITLE=Library Entry 1523
##JCAMP-DX=Revision 4.10 
##DATA TYPE=MASS SPECTRUM
##SAMPLE DESCRIPTION=NIST Mass Spectrometry Data Center, 1994
##NAMES=HP
##CAS NAME=1-Propanol, 3-iodo-
##MOLFORM=C3H7IO
##CAS REGISTRY NO=627-32-7
##MP= -300
##BP= -300
##MW= 186
##$RETENTION INDEX=0
##$CONDENSED SPECTRUM=NO
##NPOINTS= 43
##XYDATA=(XY..XY) 1 
     4          1
    13          1
    14          3
    15         14
    17          2
    18          2
    25          6
    26         51
    27        198
    28         98
    29        197
    30          1
    31        999
    32          9
    33          2
    36          1
    37         10
    38         20
    39         90
    40          1
    41        231
    42         15
    43         28
    44          2
    53          2
    55          9
    57         72
    59        701
    60         24
   127         95
   128         31
   129          7
   139          2
   140          2
   141         12
   153          1
   154          3
   155         31
   157          3
   158         14
   168          2
   186        255
   187          9