##TITLE=Library Entry 30449
##JCAMP-DX=Revision 4.10 
##DATA TYPE=MASS SPECTRUM
##SAMPLE DESCRIPTION=NIST Mass Spectrometry Data Center
##NAMES=HP
##CAS NAME=Hexanedioic acid, dimethyl ester
##MOLFORM=C8H14O4
##CAS REGISTRY NO=627-93-0
##MP= -300
##BP= -300
##MW= 174
##$RETENTION INDEX=1243
##$CONDENSED SPECTRUM=NO
##NPOINTS= 83
##XYDATA=(XY..XY) 1 
    14          2
    15         39
    16          1
    26         10
    27         62
    28         57
    29         74
    30          7
    31         22
    33          3
    37          1
    38          5
    39         95
    40         16
    41        180
    42        112
    43        189
    44         13
    45         58
    46          1
    47          1
    49          1
    50          7
    51         13
    52          7
    53         57
    54         91
    55        836
    56        109
    57         52
    59        999
    60         29
    61          5
    65          2
    66          1
    67          7
    68         36
    69         77
    70          4
    71         46
    72         80
    73        289
    74        385
    75         16
    76          2
    79          1
    80          1
    81         15
    82        119
    83        264
    84         29
    85         11
    86         12
    87        131
    88         31
    89          2
    93          1
    97         54
    98          4
    99         32
   100         31
   101        665
   102         38
   103          4
   108          1
   109          4
   110         35
   111        685
   112         49
   113         32
   114        906
   115        200
   116         15
   117          1
   124          1
   125          7
   127          1
   142        133
   143        537
   144         42
   145          5
   146          3
   175          1