##TITLE=Library Entry 9264
##JCAMP-DX=Revision 4.10 
##DATA TYPE=MASS SPECTRUM
##SAMPLE DESCRIPTION=NIST Mass Spectrometry Data Center, 2010
##NAMES=HP
##CAS NAME=1,2-Propanediol, 1-acetate
##MOLFORM=C5H10O3
##CAS REGISTRY NO=627-69-0
##MP= -300
##BP= -300
##MW= 118
##$RETENTION INDEX=1586
##$CONDENSED SPECTRUM=NO
##NPOINTS= 38
##XYDATA=(XY..XY) 1 
    14          5
    15         29
    16          1
    19          7
    26          6
    27         28
    28          7
    29         45
    30          6
    31         60
    32          1
    37          1
    38          3
    39         18
    40          3
    41         24
    42         45
    43        999
    44         42
    45        335
    46          8
    47          1
    55          2
    57         14
    58         52
    59         14
    60          2
    61          6
    73         28
    74        605
    75         92
    76          5
    87         38
    88         11
    89          1
   103         25
   104          1
   117          1