##TITLE=Library Entry 44611
##JCAMP-DX=Revision 4.10 
##DATA TYPE=MASS SPECTRUM
##SAMPLE DESCRIPTION=Japan AIST/NIMC Database- Spectrum MS-NW-6401
##NAMES=HP
##CAS NAME=Hexanedioic acid, monomethyl ester
##MOLFORM=C7H12O4
##CAS REGISTRY NO=627-91-8
##MP= -300
##BP= -300
##MW= 160
##$RETENTION INDEX=0
##$CONDENSED SPECTRUM=NO
##NPOINTS= 106
##XYDATA=(XY..XY) 1 
    12          4
    13          3
    14         19
    15        409
    16          8
    17          7
    18         38
    19          2
    25          3
    26         62
    27        368
    28        228
    29        337
    30         18
    31        160
    32         16
    33         16
    35          1
    36          6
    37          7
    38         15
    39        212
    40         31
    41        475
    42        216
    43        827
    44         69
    45        195
    46          7
    47          4
    48          1
    49          4
    50         16
    51         22
    52         10
    53         64
    54        169
    55        964
    56        129
    57        117
    58         86
    59        915
    60        150
    61         10
    62          2
    63          2
    64          1
    65          4
    66          4
    67          7
    68         84
    69        198
    70         11
    71         34
    72         83
    73         83
    74        999
    75         40
    76          6
    77          3
    78          1
    79          2
    80          2
    81         15
    82        128
    83        362
    84         42
    85         21
    86         19
    87        288
    88         30
    89          3
    91          1
    92          1
    93          1
    94          1
    95          3
    96          2
    97          9
    98          4
    99         31
   100        486
   101        575
   102         35
   103          4
   105          2
   108          2
   109          3
   110         50
   111        307
   112         24
   113         15
   114        712
   115         63
   116          7
   117          1
   127          3
   128         77
   129        370
   130         26
   131          4
   132          1
   141          1
   142         35
   143         22
   144          2