##TITLE=Library Entry 15105
##JCAMP-DX=Revision 4.10 
##DATA TYPE=MASS SPECTRUM
##SAMPLE DESCRIPTION=NIST Mass Spectrometry Data Center, 1994
##NAMES=HP
##CAS NAME=N-Methylallylamine
##MOLFORM=C4H9N
##CAS REGISTRY NO=627-37-2
##MP= -300
##BP= -300
##MW= 71
##$RETENTION INDEX=0
##$CONDENSED SPECTRUM=NO
##NPOINTS= 41
##XYDATA=(XY..XY) 1 
    12          6
    13         15
    14         54
    15        206
    16          0
    17          0
    18        111
    19          1
    25         18
    26        104
    27        239
    28        692
    29         81
    30        246
    34          9
    37         53
    38        101
    39        346
    40         74
    41        368
    42        427
    43        205
    44        999
    45         26
    50          2
    51         11
    52         29
    53          2
    54         55
    55          2
    56        163
    57          7
    63          1
    64          1
    65          0
    66          2
    68         40
    70        397
    71        404
    72         28
    73          1