##TITLE=Library Entry 58544
##JCAMP-DX=Revision 4.10 
##DATA TYPE=MASS SPECTRUM
##SAMPLE DESCRIPTION=Japan AIST/NIMC Database- Spectrum MS-NW-2826
##NAMES=HP
##CAS NAME=Fumaryl chloride
##MOLFORM=C4H2Cl2O2
##CAS REGISTRY NO=627-63-4
##MP= -300
##BP= -300
##MW= 152
##$RETENTION INDEX=0
##$CONDENSED SPECTRUM=NO
##NPOINTS= 87
##XYDATA=(XY..XY) 1 
    12          8
    13          9
    14          3
    15          3
    16          3
    18          1
    24         21
    25        106
    26        453
    27         16
    28         45
    29         20
    32          1
    35         45
    36         54
    37         39
    38         16
    39          3
    40          4
    41         94
    42          5
    43          2
    44         10
    45          2
    47         11
    48          4
    49          4
    50          3
    51          3
    52         22
    53        127
    54        345
    55         14
    56          2
    59          5
    60         19
    61        171
    62         11
    63        211
    64          4
    65         56
    69          1
    71          2
    72         12
    73          5
    74          2
    75          2
    76          1
    77          3
    78         15
    79          3
    80          3
    81          3
    82        122
    83          6
    87          7
    88          5
    89        999
    90         35
    91        319
    92         10
    94          3
    96         16
    97          4
    98         11
    99          2
   100          2
   101          2
   105          2
   107          6
   109          2
   110          1
   117        566
   118         27
   119        188
   120          9
   121          1
   122          2
   123          2
   124          2
   125          4
   127          2
   133          9
   135          9
   151          1
   153          3
   155          1