##TITLE=Library Entry 4163
##JCAMP-DX=Revision 4.10 
##DATA TYPE=MASS SPECTRUM
##SAMPLE DESCRIPTION=RADIAN CORP
##NAMES=HP
##CAS NAME=Propane, 1,3-diiodo-
##MOLFORM=C3H6I2
##CAS REGISTRY NO=627-31-6
##MP= -300
##BP= -300
##MW= 296
##$RETENTION INDEX=0
##$CONDENSED SPECTRUM=NO
##NPOINTS= 22
##XYDATA=(XY..XY) 1 
    15         28
    25          5
    26         39
    27        151
    36          3
    37         46
    38         90
    39        572
    40         74
    41        999
    42        154
    43          3
   127        361
   128         57
   129          1
   139         12
   141        137
   153          6
   155         12
   169        935
   254         48
   296        182