##TITLE=Library Entry 27701
##JCAMP-DX=Revision 4.10 
##DATA TYPE=MASS SPECTRUM
##SAMPLE DESCRIPTION=NIST Mass Spectrometry Data Center, 1990.
##NAMES=HP
##CAS NAME=1-Propanol, 3-chloro-
##MOLFORM=C3H7ClO
##CAS REGISTRY NO=627-30-5
##MP= -300
##BP= -300
##MW= 94
##$RETENTION INDEX=0
##$CONDENSED SPECTRUM=NO
##NPOINTS= 35
##XYDATA=(XY..XY) 1 
    14         16
    15         37
    16          9
    25         18
    26        153
    27        407
    28        734
    29        489
    30        208
    31        937
    36         25
    37         34
    38         64
    39        137
    40         56
    41        193
    42         27
    43         74
    44         20
    45         28
    49         63
    51         24
    55         17
    57        639
    58        999
    59         35
    61         13
    62         19
    63         28
    64         16
    65         20
    76        144
    78         44
    93         15
    95          5