##TITLE=Library Entry 29562
##JCAMP-DX=Revision 4.10 
##DATA TYPE=MASS SPECTRUM
##SAMPLE DESCRIPTION=Exported from NIST MS Search
##NAMES=HP
##CAS NAME=Propane, 1-ethoxy-2-methyl-
##MOLFORM=C6H14O
##CAS REGISTRY NO=627-02-1
##MP= -300
##BP= -300
##MW= 102
##$RETENTION INDEX=640
##$CONDENSED SPECTRUM=NO
##NPOINTS= 66
##XYDATA=(XY..XY) 1 
     2          3
    12          2
    13          5
    14         22
    15        116
    16          6
    17          1
    18          1
    19          1
    25          2
    26         42
    27        302
    28         64
    29        426
    30         22
    31        763
    32          9
    33         13
    35          1
    36          1
    37          6
    38         14
    39        139
    40         21
    41        252
    42         66
    43          1
    44        150
    45         53
    46          1
    47          1
    49          1
    50          5
    51          6
    52          4
    53          7
    54          2
    55         40
    56         44
    57        134
    58         13
    59        999
    60         34
    61         18
    62          1
    63          1
    69          1
    70          1
    71          2
    72          1
    73         84
    74          2
    75          1
    76          1
    77          1
    78         10
    79          1
    83          1
    85          1
    86          1
    87          3
    88          1
   101          4
   102         70
   103          5
   104          1