##TITLE=Library Entry 91271
##JCAMP-DX=Revision 4.10 
##DATA TYPE=MASS SPECTRUM
##SAMPLE DESCRIPTION=D.HENNEBERG, MAX-PLANCK INSTITUTE, MULHEIM, WEST GERMAN
Y
##NAMES=HP
##CAS NAME=Butanedioic acid, ethyl methyl ester
##MOLFORM=C7H12O4
##CAS REGISTRY NO=627-73-6
##MP= -300
##BP= -300
##MW= 160
##$RETENTION INDEX=1118
##$CONDENSED SPECTRUM=NO
##NPOINTS= 67
##XYDATA=(XY..XY) 1 
    23          4
    24          2
    26         63
    27        352
    28        170
    29        639
    30         22
    31         49
    32          2
    33          7
    35          1
    36          6
    38          7
    39          7
    40          3
    41         38
    42         51
    43         51
    44          8
    45        125
    46          7
    50          1
    53          6
    54         12
    55        633
    56        140
    57        175
    58         16
    59        358
    60         17
    61          6
    66          5
    68          5
    69          2
    72          2
    73        116
    74         23
    76          2
    78          2
    80          1
    81          3
    82          1
    83          8
    84         12
    85         13
    86         14
    87        125
    88        118
    89         16
   100         32
   101        522
   102         17
   114         84
   115        999
   116         57
   117          9
   118          1
   120          2
   128         87
   129        135
   130          9
   131          1
   132          1
   133         35
   134          5
   149          3
   160          5