##TITLE=Library Entry 30897
##JCAMP-DX=Revision 4.10 
##DATA TYPE=MASS SPECTRUM
##SAMPLE DESCRIPTION=NIST Mass Spectrometry Data Center, 1994
##NAMES=HP
##CAS NAME=Ethylvinyl sulfide
##MOLFORM=C4H8S
##CAS REGISTRY NO=627-50-9
##MP= -300
##BP= -300
##MW= 88
##$RETENTION INDEX=696
##$CONDENSED SPECTRUM=NO
##NPOINTS= 52
##XYDATA=(XY..XY) 1 
     8          2
    12          5
    13         12
    14         25
    15         41
    18          6
    24          5
    25         39
    26        253
    27        629
    28         65
    29        259
    30          8
    31          1
    32         30
    33         28
    34         35
    35         50
    36          4
    37          5
    38          6
    39         30
    40          3
    41         15
    43          4
    45        806
    46         68
    47        117
    48          5
    49          5
    50          2
    53         18
    54          9
    55         56
    56         22
    57        154
    58        404
    59        716
    60        999
    61        136
    62         53
    63          3
    68          2
    69          4
    71          9
    73        238
    74         10
    75         12
    85          7
    88        600
    89         35
    90         28