##TITLE=Library Entry 34228
##JCAMP-DX=Revision 4.10 
##DATA TYPE=MASS SPECTRUM
##SAMPLE DESCRIPTION=Chemical Concepts
##NAMES=HP
##CAS NAME=2-Methyl-2-heptene
##MOLFORM=C8H16
##CAS REGISTRY NO=627-97-4
##MP= -300
##BP= -300
##MW= 112
##$RETENTION INDEX=790
##$CONDENSED SPECTRUM=NO
##NPOINTS= 32
##XYDATA=(XY..XY) 1 
    27        156
    29        101
    38          8
    39        168
    40         37
    41        839
    42         71
    43         80
    44          8
    50          8
    51         21
    52          8
    53         71
    54         16
    55        354
    56        421
    57         97
    65         12
    67         67
    68         63
    69        999
    70        147
    71         12
    77          8
    79         12
    81         12
    83         46
    84         33
    95          8
    97         46
   112        240
   113         21