##TITLE=Library Entry 89671
##JCAMP-DX=Revision 4.10 
##DATA TYPE=MASS SPECTRUM
##SAMPLE DESCRIPTION=Japan AIST/NIMC Database- Spectrum MS-NW-2402
##NAMES=HP
##CAS NAME=dl-2-Aminopimelic acid
##MOLFORM=C7H13NO4
##CAS REGISTRY NO=627-76-9
##MP= -300
##BP= -300
##MW= 175
##$RETENTION INDEX=0
##$CONDENSED SPECTRUM=NO
##NPOINTS= 129
##XYDATA=(XY..XY) 1 
    25          8
    26         78
    27        331
    28        632
    29        181
    30        494
    31         56
    32         11
    36          6
    37         23
    38         45
    39        272
    40         94
    41        421
    42        205
    43        280
    44        299
    45        130
    46        117
    47          6
    49          6
    50         31
    51         49
    52         66
    53         90
    54        163
    55        293
    56        777
    57        106
    58         11
    59         18
    60         35
    61          9
    62         11
    63         26
    64         24
    65         90
    66        148
    67        524
    68        135
    69        512
    70        143
    71         41
    72          9
    73         72
    74        499
    75         64
    76         11
    77         16
    78         33
    79         32
    80         38
    81         36
    82         97
    83         62
    84        514
    85         59
    86          9
    87         13
    88          8
    89         22
    90          3
    91         29
    92         31
    93        125
    94         71
    95         99
    96         25
    97         14
    98         12
    99          4
   100         16
   101         14
   102          6
   103          8
   104          4
   105          7
   106          5
   107          9
   108          5
   109         21
   110         29
   111        147
   112        999
   113        137
   114         14
   115          6
   116         12
   117          4
   118          3
   119          5
   120          4
   121          8
   122          5
   123          7
   124          6
   125          5
   126          3
   127          3
   128         10
   129         54
   130        812
   131         57
   132          9
   133          3
   134          3
   135          4
   136          2
   137          5
   138          3
   139          6
   140          8
   141          3
   142          2
   143          3
   144          6
   145          3
   146          3
   149          4
   150          5
   151          2
   152          3
   153          2
   154          3
   155          6
   156          3
   157         24
   158         47
   159          7