##TITLE=Library Entry 148
##JCAMP-DX=Revision 4.10 
##DATA TYPE=MASS SPECTRUM
##SAMPLE DESCRIPTION=O.S. Chizhov, Zelinskii Inst.Org.Chem., Acad.Sci., Mosc
ow,USSR w, USSR
##NAMES=HP
##CAS NAME=1-Propanamine, N-nitro-
##MOLFORM=C3H8N2O2
##CAS REGISTRY NO=627-07-6
##MP= -300
##BP= -300
##MW= 104
##$RETENTION INDEX=0
##$CONDENSED SPECTRUM=NO
##NPOINTS= 13
##XYDATA=(XY..XY) 1 
    28        999
    29        370
    30        630
    39        293
    41        404
    42        167
    43        148
    44        462
    45        252
    46        440
    57        160
    75        520
   104         13