##TITLE=Library Entry 16824
##JCAMP-DX=Revision 4.10 
##DATA TYPE=MASS SPECTRUM
##SAMPLE DESCRIPTION=M.C. HAMMING CONTINENTAL OIL CO., PONCA CITY, OKLA, USA
##NAMES=HP
##CAS NAME=2-Hexanol, 5-methyl-
##MOLFORM=C7H16O
##CAS REGISTRY NO=627-59-8
##MP= -300
##BP= -300
##MW= 116
##$RETENTION INDEX=0
##$CONDENSED SPECTRUM=NO
##NPOINTS= 82
##XYDATA=(XY..XY) 1 
    12          0
    13          1
    14          5
    15         42
    16          2
    17          1
    18          4
    19          4
    25          1
    26         20
    27        191
    28         39
    29        129
    30          5
    31         31
    32          1
    33          0
    36          1
    37          3
    38          8
    39         98
    40         16
    41        199
    42         66
    43        210
    44         64
    45        999
    46         22
    47          2
    48          0
    49          1
    50          4
    51          7
    52          3
    53         14
    54          5
    55        154
    56        132
    57        100
    58         15
    59         14
    60          0
    61          0
    62          0
    63          1
    64          0
    65          2
    66          0
    67          7
    68          2
    69         30
    70         80
    71         45
    72         10
    73          3
    74          0
    75          0
    77          1
    78          0
    79          1
    80          0
    81          3
    82          2
    83        149
    84          9
    85          1
    86          0
    87          4
    88          0
    95          0
    97          7
    98          7
    99          1
   100          0
   101         30
   102          2
   103          0
   111          0
   112          0
   113          0
   114          0
   115          2