##TITLE=Library Entry 2058
##JCAMP-DX=Revision 4.10 
##DATA TYPE=MASS SPECTRUM
##SAMPLE DESCRIPTION=W HEERMA
##NAMES=HP
##CAS NAME=Propane, 1-isocyano-
##MOLFORM=C4H7N
##CAS REGISTRY NO=627-36-1
##MP= -300
##BP= -300
##MW= 69
##$RETENTION INDEX=0
##$CONDENSED SPECTRUM=NO
##NPOINTS= 26
##XYDATA=(XY..XY) 1 
    12          3
    13          3
    14         15
    15         31
    25          6
    26         64
    27        367
    28        253
    29        485
    36          6
    37         26
    38         46
    39        157
    40         93
    41        999
    42        413
    43         81
    51         19
    52         38
    53          5
    54        304
    64         13
    66         10
    68        123
    69         77
    70          5