##TITLE=Library Entry 34743
##JCAMP-DX=Revision 4.10 
##DATA TYPE=MASS SPECTRUM
##SAMPLE DESCRIPTION=Japan AIST/NIMC Database- Spectrum MS-NW-1922
##NAMES=HP
##CAS NAME=dl-Citrulline
##MOLFORM=C6H13N3O3
##CAS REGISTRY NO=627-77-0
##MP= -300
##BP= -300
##MW= 175
##$RETENTION INDEX=0
##$CONDENSED SPECTRUM=NO
##NPOINTS= 145
##XYDATA=(XY..XY) 1 
    12         10
    13          2
    14          9
    15         46
    16         97
    17        137
    18        261
    19          1
    25          3
    26         40
    27        125
    28        459
    29        114
    30        570
    31         27
    32         14
    33          2
    34          1
    36          5
    37         11
    38         28
    39        128
    40         57
    41        338
    42        231
    43        663
    44        396
    45         24
    46          9
    49          1
    50          7
    51         16
    52         30
    53         29
    54         85
    55         73
    56        638
    57        152
    58        313
    59         19
    60          9
    61          3
    63          2
    64          6
    65          8
    66         15
    67         37
    68        141
    69        999
    70        386
    71         26
    72          3
    73          8
    74         16
    75         27
    76          2
    77          3
    78          9
    79          8
    80         11
    81          9
    82         29
    83         29
    84         28
    85         70
    86         61
    87         20
    88          2
    89          3
    91          3
    92          6
    93          9
    94         13
    95         24
    96         27
    97         80
    98         16
    99         12
   100          9
   101         13
   102          3
   103         10
   104          3
   105          2
   106          2
   107          5
   108          4
   109          8
   110         16
   111         28
   112         50
   113         53
   114         57
   115         11
   116          2
   117          1
   118          3
   119          3
   120          5
   121          3
   122          4
   123          4
   124          3
   125          3
   126          2
   127          2
   128          2
   129          4
   130          2
   131          2
   132          2
   133          4
   134          3
   135         15
   136         12
   137         15
   138         19
   139         18
   140         37
   141          6
   144          1
   145          3
   146          3
   147          6
   148          6
   149          5
   150          6
   151          5
   152          2
   153          2
   154          1
   156          2
   157          3
   158          4
   159          2
   160          1
   170          2
   171          3
   172          3
   173          4
   174          4
   175          9
   176         10
   177          3
   178          1