##TITLE=Library Entry 361
##JCAMP-DX=Revision 4.10 
##DATA TYPE=MASS SPECTRUM
##SAMPLE DESCRIPTION=NATIONAL BUREAU OF STANDARDS, WASHINGTON D.C., USA
##NAMES=HP
##CAS NAME=Mercury, diethyl-
##MOLFORM=C4H10Hg
##CAS REGISTRY NO=627-44-1
##MP= -300
##BP= -300
##MW= 260
##$RETENTION INDEX=0
##$CONDENSED SPECTRUM=NO
##NPOINTS= 76
##XYDATA=(XY..XY) 1 
    13          1
    14          8
    15         11
    16          0
    24          0
    25          3
    26         59
    27        289
    28        113
    29        999
    37          1
    38          1
    39          6
    40          0
    41         12
    42          1
    43         23
    49          0
    50          0
    51          0
    52          0
    53          0
    54          0
    55          1
    56          0
    57          1
    58          7
    98          0
    99          0
   100          0
   101          1
   102          0
   196          0
   198         17
   199         33
   200         47
   201         31
   202         57
   203         11
   204         12
   205          2
   211          0
   212          2
   213          4
   214          5
   215          4
   216          5
   217          2
   218          1
   219          0
   224          0
   225          2
   226          3
   227         31
   228         53
   229         70
   230         48
   231         81
   232         11
   233         17
   234          2
   240          0
   241          0
   242          0
   243          0
   244          1
   245          0
   246          0
   247          0
   256         21
   257         36
   258         50
   259         28
   260         63
   261          0
   262         14