##TITLE=Library Entry 31152
##JCAMP-DX=Revision 4.10 
##DATA TYPE=MASS SPECTRUM
##SAMPLE DESCRIPTION=Japan AIST/NIMC Database- Spectrum MS-NW-1658
##NAMES=HP
##CAS NAME=Diglycerol
##MOLFORM=C6H14O5
##CAS REGISTRY NO=627-82-7
##MP= -300
##BP= -300
##MW= 166
##$RETENTION INDEX=0
##$CONDENSED SPECTRUM=NO
##NPOINTS= 82
##XYDATA=(XY..XY) 1 
    13          3
    14         20
    15        150
    16          6
    17         35
    18        147
    19          7
    25          2
    26         17
    27        101
    28         40
    29        190
    30         23
    31        475
    32         24
    33         21
    37          1
    38          3
    39         10
    40          5
    41         26
    42         62
    43        858
    44        591
    45        293
    46          9
    47         15
    49          3
    53          2
    54          1
    55         20
    56         28
    57        350
    58         74
    59         26
    60        111
    61        999
    62         63
    63          8
    69          8
    70          4
    71         16
    72          4
    73         39
    74         58
    75        141
    76         31
    77          2
    79          1
    81          1
    83          4
    84          1
    85          2
    86          4
    87         40
    88         26
    89          5
    91          2
    93         46
    94          2
    95          1
    99          6
   100          4
   101          6
   102          1
   103         44
   104          3
   105         22
   106          5
   107          2
   115          2
   116          2
   117        146
   118         19
   119          3
   121          9
   129          3
   130          3
   131          2
   133          5
   135         12
   136          1