##TITLE=Library Entry 19564
##JCAMP-DX=Revision 4.10 
##DATA TYPE=MASS SPECTRUM
##SAMPLE DESCRIPTION=Japan AIST/NIMC Database- Spectrum MS-NW-3263
##NAMES=HP
##CAS NAME=2-Pentene, (Z)-
##MOLFORM=C5H10
##CAS REGISTRY NO=627-20-3
##MP= -300
##BP= -300
##MW= 70
##$RETENTION INDEX=505
##$CONDENSED SPECTRUM=NO
##NPOINTS= 41
##XYDATA=(XY..XY) 1 
    14          1
    15         11
    25          1
    26         18
    27        134
    28          9
    29        200
    30          4
    31          8
    32          2
    33          1
    36          1
    37         11
    38         25
    39        217
    40         39
    41        235
    42        404
    43         18
    44          6
    49          3
    50         15
    51         20
    52          8
    53         70
    54         25
    55        999
    56         43
    57          1
    60          1
    61          5
    62          6
    63          6
    64          1
    65          6
    66          3
    67         19
    68          3
    69         25
    70        382
    71         21