##TITLE=Library Entry 37529
##JCAMP-DX=Revision 4.10 
##DATA TYPE=MASS SPECTRUM
##SAMPLE DESCRIPTION=NIST Mass Spectrometry Data Center
##NAMES=HP
##CAS NAME=Octadecanoic acid, 3-methylbutyl ester
##MOLFORM=C23H46O2
##CAS REGISTRY NO=627-88-3
##MP= -300
##BP= -300
##MW= 354
##$RETENTION INDEX=2449
##$CONDENSED SPECTRUM=NO
##NPOINTS= 97
##XYDATA=(XY..XY) 1 
    27          6
    28          3
    29         17
    39          7
    40          2
    41         77
    42         28
    43        245
    44          9
    45          3
    53          2
    54          8
    55        134
    56         26
    57        107
    58          9
    59          3
    60         22
    61         13
    67          9
    68         10
    69         72
    70        999
    71        433
    72         22
    73         39
    74          5
    82          5
    83         39
    84         16
    85         41
    86          4
    87         11
    88          2
    96          3
    97         32
    98         21
   101          8
   102          2
   109          4
   110          2
   111         17
   112          6
   113          4
   114          2
   115         29
   116          5
   121          3
   125          8
   126          2
   127          5
   128          1
   129         33
   130         19
   131         36
   132          5
   137          2
   141          2
   143         26
   144          2
   157          4
   169          1
   171          6
   172          2
   181          1
   185         15
   186          2
   199         13
   200          2
   213          2
   227          4
   228          1
   239          2
   241         18
   242          3
   243          1
   256          2
   264          1
   265          3
   266          1
   267         61
   268         12
   269          2
   283          1
   284         34
   285         44
   286          8
   287          1
   297          1
   310          1
   311          9
   312          2
   339          4
   340          1
   354         34
   355          9
   356          1