##TITLE=Library Entry 40514
##JCAMP-DX=Revision 4.10 
##DATA TYPE=MASS SPECTRUM
##SAMPLE DESCRIPTION=Japan AIST/NIMC Database- Spectrum MS-NW- 991
##NAMES=HP
##CAS NAME=N-Ethylformamide
##MOLFORM=C3H7NO
##CAS REGISTRY NO=627-45-2
##MP= -300
##BP= -300
##MW= 73
##$RETENTION INDEX=794
##$CONDENSED SPECTRUM=NO
##NPOINTS= 37
##XYDATA=(XY..XY) 1 
    12          1
    13          3
    14         12
    15         58
    16          5
    17          7
    18         32
    25          4
    26         35
    27        136
    28        236
    29        102
    30        979
    31         16
    38          6
    39          9
    40         26
    41         35
    42         93
    43         36
    44        240
    45         42
    46         70
    47          1
    51          2
    52          2
    54          3
    55          4
    56          3
    57          1
    58        341
    59          9
    71          1
    72         35
    73        999
    74         37
    75          1