##TITLE=Library Entry 15272
##JCAMP-DX=Revision 4.10 
##DATA TYPE=MASS SPECTRUM
##SAMPLE DESCRIPTION=Chemical Concepts
##NAMES=HP
##CAS NAME=Glycylglycine ethyl ester
##MOLFORM=C6H12N2O3
##CAS REGISTRY NO=627-74-7
##MP= -300
##BP= -300
##MW= 160
##$RETENTION INDEX=0
##$CONDENSED SPECTRUM=NO
##NPOINTS= 61
##XYDATA=(XY..XY) 1 
    40        165
    41        450
    42        838
    44        999
    45        668
    46         51
    50          5
    52         10
    53         10
    54         41
    55        279
    56        336
    58        175
    59        248
    60        108
    61         25
    64         31
    67         10
    68         10
    69         31
    71        621
    73        123
    74        160
    75         77
    76         10
    77         10
    79          5
    80          5
    82         25
    83         15
    84         41
    86        175
    87        196
    88         72
    89         92
    91          5
    96         10
    99         46
   102         15
   103         46
   104        315
   105         15
   106          5
   108          5
   110         10
   111          5
   114        678
   115         82
   116          5
   117         41
   119          5
   122         10
   124         10
   126          5
   128         15
   132        128
   133          5
   144          5
   145          5
   160         61
   161          5