##TITLE=Library Entry 4410
##JCAMP-DX=Revision 4.10 
##DATA TYPE=MASS SPECTRUM
##SAMPLE DESCRIPTION=Japan AIST/NIMC Database- Spectrum MS-NW-2850
##NAMES=HP
##CAS NAME=3-Buten-1-ol
##MOLFORM=C4H8O
##CAS REGISTRY NO=627-27-0
##MP= -300
##BP= -300
##MW= 72
##$RETENTION INDEX=597
##$CONDENSED SPECTRUM=NO
##NPOINTS= 40
##XYDATA=(XY..XY) 1 
    12          1
    13          1
    14          5
    15         19
    17          1
    18          4
    25          4
    26         28
    27        156
    28         54
    29         71
    30          7
    31        665
    32         10
    33          2
    36          3
    37         19
    38         33
    39        281
    40         76
    41        350
    42        999
    43        160
    44         69
    45          8
    49          5
    50         16
    51         16
    52          6
    53         33
    54         29
    55         24
    56          3
    57         62
    58          2
    69          5
    70          3
    71         20
    72         72
    73          3