##TITLE=Library Entry 68649
##JCAMP-DX=Revision 4.10 
##DATA TYPE=MASS SPECTRUM
##SAMPLE DESCRIPTION=Chemical Concepts
##NAMES=HP
##CAS NAME=Bicyclo[3.2.1]oct-3-en-2-one, 4-methyl-
##MOLFORM=C9H12O
##CAS REGISTRY NO=62702-89-0
##MP= -300
##BP= -300
##MW= 136
##$RETENTION INDEX=0
##$CONDENSED SPECTRUM=NO
##NPOINTS= 65
##XYDATA=(XY..XY) 1 
    26          5
    27         69
    29         15
    37          5
    38         23
    39        141
    40         37
    41        141
    42          9
    43          4
    44          2
    45          2
    49          2
    50         18
    51         45
    52         28
    53         47
    54         11
    55         21
    56          1
    57          1
    60          1
    61          2
    62          6
    63         15
    64          3
    65         63
    66         30
    67        141
    68         23
    69         12
    70          1
    71          2
    74          2
    75          1
    76          1
    77         56
    78         16
    79         68
    80         10
    82         10
    83          1
    89          2
    91         49
    92         10
    93         42
    94         34
    95        999
    96         56
    97          4
   103          6
   105          7
   106          2
   107         13
   108         30
   109          4
   115          1
   117          4
   118          1
   121         13
   122          1
   135          6
   136        241
   137         32
   138          1