##TITLE=Library Entry 16989
##JCAMP-DX=Revision 4.10 
##DATA TYPE=MASS SPECTRUM
##SAMPLE DESCRIPTION=Japan AIST/NIMC Database- Spectrum MS-IW- 579
##NAMES=HP
##CAS NAME=3-Nitro-2-butanol
##MOLFORM=C4H9NO3
##CAS REGISTRY NO=6270-16-2
##MP= -300
##BP= -300
##MW= 119
##$RETENTION INDEX=0
##$CONDENSED SPECTRUM=NO
##NPOINTS= 64
##XYDATA=(XY..XY) 1 
    12          3
    13          6
    14         30
    15        142
    16         12
    17          2
    18          7
    24          2
    25          7
    26         53
    27        349
    28        170
    29        541
    30        254
    31        222
    32          9
    33          2
    34          1
    36          1
    37          3
    38         15
    39        105
    40         61
    41        198
    42         69
    43        559
    44        223
    45        999
    46         34
    47          5
    48          7
    49          2
    50          8
    51          9
    52          4
    53         40
    54          9
    55        629
    56         46
    57        184
    58        181
    59         38
    60          5
    61          1
    69          4
    70          1
    71         27
    72         48
    73        407
    74         20
    75        482
    76        144
    77          6
    78          1
    83          1
    86          2
    87          3
    89          3
    98          1
   101          4
   102          2
   104         20
   119          1
   120          1