##TITLE=Library Entry 79453
##JCAMP-DX=Revision 4.10 
##DATA TYPE=MASS SPECTRUM
##SAMPLE DESCRIPTION=D.HENNEBERG, MAX-PLANCK INSTITUTE, MULHEIM, WEST GERMAN
Y
##NAMES=HP
##CAS NAME=Benzenebutanoic acid, .gamma.-oxo-, ethyl ester
##MOLFORM=C12H14O3
##CAS REGISTRY NO=6270-17-3
##MP= -300
##BP= -300
##MW= 206
##$RETENTION INDEX=0
##$CONDENSED SPECTRUM=NO
##NPOINTS= 136
##XYDATA=(XY..XY) 1 
    24          1
    25          1
    26         10
    27         65
    28         39
    29         63
    30          2
    31         14
    33          0
    34          0
    36          3
    37          1
    38          1
    39         10
    40          0
    41          0
    42          4
    43          9
    44          0
    45         10
    46          2
    47          0
    48          0
    49          1
    50         25
    51        111
    52          9
    53          3
    54          2
    55         30
    56          4
    57          2
    58          0
    59          0
    61          0
    62          1
    63          4
    64          0
    65          4
    66          2
    67          0
    68          0
    69          0
    70          0
    71          0
    72          0
    73         16
    74          6
    75          4
    76         14
    77        323
    78         27
    79          3
    80          0
    81          0
    82          1
    83          1
    84          0
    85          0
    86          0
    87          0
    88          0
    89          1
    90          0
    91          7
    92          0
    94          0
    95          0
    96          0
    97          0
    98          0
    99          0
   100          1
   101         12
   102          3
   103          5
   104          5
   105        999
   106         85
   107          5
   108          0
   109          0
   110          1
   111          0
   113          4
   114          0
   115          8
   116          1
   117          5
   118          0
   119          0
   120          2
   121          0
   124          0
   125          0
   127          0
   128          0
   129          0
   131          2
   132          1
   133         19
   134          1
   135          0
   136          0
   137          0
   140          0
   144         10
   145          0
   146          0
   147          0
   152          0
   154          0
   155          0
   159          0
   160         15
   161        134
   162         18
   163          2
   164          0
   165          0
   166          0
   169          0
   172          0
   175          0
   176          0
   178          1
   188          3
   189          0
   191          0
   192          0
   200          0
   203          0
   204          2
   205          1
   206         18
   207          2