##TITLE=Library Entry 26561
##JCAMP-DX=Revision 4.10 
##DATA TYPE=MASS SPECTRUM
##SAMPLE DESCRIPTION=ASES Database, Dalian Institute, P.R. China
##NAMES=HP
##CAS NAME=n-Butyl-ethanesulfinylamide
##MOLFORM=C6H15NOS
##CAS REGISTRY NO=62705-33-3
##MP= -300
##BP= -300
##MW= 149
##$RETENTION INDEX=0
##$CONDENSED SPECTRUM=NO
##NPOINTS= 20
##XYDATA=(XY..XY) 1 
    30        162
    41        171
    43         19
    57        999
    58         69
    64        272
    65         50
    72         30
    77         30
    78         29
   106         49
   110         29
   120        872
   121         59
   122         99
   132        139
   133         20
   149        150
   150        232
   151         29