##TITLE=Library Entry 72798
##JCAMP-DX=Revision 4.10 
##DATA TYPE=MASS SPECTRUM
##SAMPLE DESCRIPTION=NIST Mass Spectrometry Data Center, 1994
##NAMES=HP
##CAS NAME=Morpholine, 4-(oxiranylmethyl)-
##MOLFORM=C7H13NO2
##CAS REGISTRY NO=6270-19-5
##MP= -300
##BP= -300
##MW= 143
##$RETENTION INDEX=0
##$CONDENSED SPECTRUM=NO
##NPOINTS= 54
##XYDATA=(XY..XY) 1 
    14         18
    15        125
    16          3
    18          6
    26         47
    27        242
    28        361
    29        282
    30        120
    31        129
    37          2
    38          6
    39         37
    40         25
    41        148
    42        481
    43         71
    44         37
    45         17
    46          1
    51          2
    52         11
    53          9
    54         90
    55        160
    56        360
    57        313
    58         30
    59          4
    68         54
    69         10
    70         92
    71         16
    72         30
    73          1
    80          2
    82         13
    83         11
    84         44
    85         19
    86         18
    87         24
    94          2
    96          2
    98         31
   100        999
   101         53
   102          3
   111          3
   112         11
   113          2
   124          2
   143         97
   144          7