##TITLE=Library Entry 58547
##JCAMP-DX=Revision 4.10 
##DATA TYPE=MASS SPECTRUM
##SAMPLE DESCRIPTION=A.A.Kutin, Moscow, Russia
##NAMES=HP
##CAS NAME=Oxirane, 2-chlorophenyl-
##MOLFORM=C8H7ClO
##CAS REGISTRY NO=62717-50-4
##MP= -300
##BP= -300
##MW= 154
##$RETENTION INDEX=0
##$CONDENSED SPECTRUM=NO
##NPOINTS= 46
##XYDATA=(XY..XY) 1 
    26         15
    29         25
    37         23
    38         28
    39        101
    43         17
    49         23
    50         83
    51         72
    59         65
    61         36
    62         82
    63        175
    64         29
    65         43
    73         31
    74         39
    75         59
    76         20
    77         26
    85         20
    86         23
    87         28
    88         19
    89        999
    90        163
    91        306
    92         29
    97         15
    99         32
   101         17
   103         19
   111         39
   118         15
   119        723
   120         69
   123         29
   124        385
   125        232
   126        155
   127         72
   139         35
   153        234
   154        326
   155        110
   156        105