##TITLE=Library Entry 88059
##JCAMP-DX=Revision 4.10 
##DATA TYPE=MASS SPECTRUM
##SAMPLE DESCRIPTION=Japan AIST/NIMC Database- Spectrum MS-IW-3359
##NAMES=HP
##CAS NAME=1-Methyl-3-oxocyclohexanecarboxylic acid
##MOLFORM=C8H12O3
##CAS REGISTRY NO=62733-86-2
##MP= -300
##BP= -300
##MW= 156
##$RETENTION INDEX=0
##$CONDENSED SPECTRUM=NO
##NPOINTS= 100
##XYDATA=(XY..XY) 1 
    14          4
    15         15
    16          1
    17          9
    18          4
    26         14
    27        163
    28         41
    29        133
    30          4
    31         14
    32          1
    37          6
    38         20
    39        284
    40         71
    41        446
    42        209
    43        155
    44         17
    45         67
    46          2
    47          2
    49          1
    50         13
    51         24
    52         11
    53         80
    54         48
    55        773
    56        181
    57         66
    58         43
    59         27
    60         41
    61          4
    62          4
    63          8
    64          2
    65         16
    66          9
    67        102
    68         87
    69        342
    70        121
    71         42
    72         86
    73         90
    74          9
    75          1
    77         14
    78          6
    79         21
    80          3
    81         30
    82        115
    83        172
    84         28
    85         92
    86         91
    87         65
    88        249
    89         11
    90          1
    91          6
    92          3
    93         19
    94          4
    95         68
    96         23
    97         75
    98          7
    99         12
   100         78
   101          5
   105          1
   107          4
   108          4
   109          9
   110         65
   111        999
   112         87
   113        514
   114        260
   115         16
   116          2
   120          1
   121          1
   123          8
   127          2
   128        138
   129         10
   130          1
   138         20
   139          3
   141         19
   142          2
   156        159
   157         14
   158          1