##TITLE=Library Entry 5383
##JCAMP-DX=Revision 4.10 
##DATA TYPE=MASS SPECTRUM
##SAMPLE DESCRIPTION=A.A.Kutin, Moscow, Russia
##NAMES=HP
##CAS NAME=Pyrimido(5,4-e)-1,2,4-triazine-5,7(6H,8H)-dione, 6,8-dimethyl-, 4
-oxide
##MOLFORM=C7H7N5O3
##CAS REGISTRY NO=62758-20-7
##MP= -300
##BP= -300
##MW= 209
##$RETENTION INDEX=0
##$CONDENSED SPECTRUM=NO
##NPOINTS= 89
##XYDATA=(XY..XY) 1 
    33         23
    34          3
    37          0
    38         99
    39         73
    40        131
    42        999
    43         42
    44         24
    45         11
    46          2
    50          6
    51         28
    52         84
    53        246
    54         64
    55         48
    56        125
    57         31
    58         89
    59          3
    60          0
    65        164
    66         74
    67        250
    68        123
    69         66
    70         29
    71          2
    72          1
    76          0
    77          9
    78          8
    79         30
    80         79
    81        109
    82        147
    83         31
    84          3
    85          0
    88          0
    91          4
    93        136
    94        135
    95         68
    96         37
    97          8
    98          1
    99          2
   106          1
   107          9
   108         21
   109         18
   110         45
   111          3
   114          0
   121         42
   122         51
   123         55
   124         36
   125          4
   126          2
   128          1
   134          0
   136        141
   137        370
   138         28
   139          1
   142          6
   143          3
   150         23
   151         36
   152         15
   153          8
   157          0
   164          6
   165        221
   166         17
   167          1
   179          3
   180          6
   181         48
   182          3
   193          5
   194          0
   195          0
   209        672
   210         62
   211          5