##TITLE=Library Entry 17048
##JCAMP-DX=Revision 4.10 
##DATA TYPE=MASS SPECTRUM
##SAMPLE DESCRIPTION=Chemical Concepts
##NAMES=HP
##CAS NAME=4-Octanone, 5-hydroxy-3,6-dimethyl-
##MOLFORM=C10H20O2
##CAS REGISTRY NO=62759-47-1
##MP= -300
##BP= -300
##MW= 172
##$RETENTION INDEX=0
##$CONDENSED SPECTRUM=NO
##NPOINTS= 40
##XYDATA=(XY..XY) 1 
    31        111
    38          0
    39         55
    40          6
    41        319
    42         19
    43         93
    44          5
    45        999
    46         19
    47          2
    51          0
    53          9
    54          0
    55         33
    56         13
    57        589
    58         35
    59          8
    67          5
    68          3
    69        287
    70         21
    71         26
    72          2
    73          1
    83          9
    84         11
    85        102
    86        140
    87        489
    88         29
    89          0
    97          5
    98          3
    99          1
   101          0
   115          0
   116         41
   117          1