##TITLE=Library Entry 9839
##JCAMP-DX=Revision 4.10 
##DATA TYPE=MASS SPECTRUM
##SAMPLE DESCRIPTION=ASES Database, Dalian Institute, P.R. China
##NAMES=HP
##CAS NAME=1,6-Dimethyl-3,7,9-trioxabicyclo(4,2,1)nonane
##MOLFORM=C8H14O3
##CAS REGISTRY NO=62759-56-2
##MP= -300
##BP= -300
##MW= 158
##$RETENTION INDEX=0
##$CONDENSED SPECTRUM=NO
##NPOINTS= 19
##XYDATA=(XY..XY) 1 
    39         69
    41        119
    43        999
    55        178
    57         70
    58        120
    61         69
    69         30
    70        110
    71        110
    85        389
    98         59
    99         79
   100        150
   113          9
   114         39
   115         29
   143         10
   158         30