##TITLE=Library Entry 50814
##JCAMP-DX=Revision 4.10 
##DATA TYPE=MASS SPECTRUM
##SAMPLE DESCRIPTION=Chemical Concepts
##NAMES=HP
##CAS NAME=4,6-Octadienoic acid
##MOLFORM=C8H12O2
##CAS REGISTRY NO=62765-17-7
##MP= -300
##BP= -300
##MW= 140
##$RETENTION INDEX=0
##$CONDENSED SPECTRUM=NO
##NPOINTS= 85
##XYDATA=(XY..XY) 1 
    26         11
    27        126
    28          5
    29         73
    30          2
    31          9
    36          1
    37          5
    38         19
    39        225
    40         38
    41        301
    42         29
    43         48
    44         11
    45         42
    46          3
    47          3
    49          3
    50         28
    51         65
    52         38
    53        228
    54         57
    55        170
    56         18
    57         23
    58          3
    59          2
    60         17
    61          5
    62         10
    63         26
    64          7
    65         75
    66         50
    67        203
    68         45
    69         21
    70         15
    71         16
    72          2
    73          6
    74          5
    75          5
    76          4
    77        158
    78         36
    79        532
    80        402
    81        999
    82         74
    83         59
    84         13
    85         13
    86          8
    87          2
    88          0
    89          3
    90          1
    91         43
    92          7
    93         55
    94        183
    95        302
    96         34
    97         32
    98         43
    99         11
   107         13
   108          3
   109          4
   110          2
   111         24
   112          5
   121          6
   122         12
   123          9
   124          2
   125         10
   126          2
   139          3
   140        577
   141         58
   142          7