##TITLE=Library Entry 22813
##JCAMP-DX=Revision 4.10 
##DATA TYPE=MASS SPECTRUM
##SAMPLE DESCRIPTION=ASES Database, Dalian Institute, P.R. China
##NAMES=HP
##CAS NAME=4,6-Dimethyl-3,5-dioxo-2,3,4,5-tetrahydro-1,2,4-triazine
##MOLFORM=C5H7N3O2
##CAS REGISTRY NO=62764-56-1
##MP= -300
##BP= -300
##MW= 141
##$RETENTION INDEX=0
##$CONDENSED SPECTRUM=NO
##NPOINTS= 11
##XYDATA=(XY..XY) 1 
    41         99
    42        238
    43        100
    44         80
    55         60
    56        999
    57        130
    58        179
    70         50
    84         70
   141        300