##TITLE=Library Entry 80497
##JCAMP-DX=Revision 4.10 
##DATA TYPE=MASS SPECTRUM
##SAMPLE DESCRIPTION=NIST Mass Spectrometry Data Center
##NAMES=HP
##CAS NAME=Diethyl 2-methylbenzylphosphonate
##MOLFORM=C12H19O3P
##CAS REGISTRY NO=62778-16-9
##MP= -300
##BP= -300
##MW= 242
##$RETENTION INDEX=0
##$CONDENSED SPECTRUM=NO
##NPOINTS= 113
##XYDATA=(XY..XY) 1 
    12          1
    13          1
    14          3
    15         37
    16          3
    17          2
    18          8
    19          6
    26         46
    27        324
    28         85
    29        393
    30         12
    31         14
    37          1
    39        111
    40         12
    41         19
    43         30
    44          3
    45         26
    47         36
    48          3
    49          3
    50         29
    51        111
    52         37
    53         47
    54          2
    55          4
    61          2
    62         10
    63         56
    64         20
    65        149
    66          7
    67          1
    74          5
    75         14
    77        388
    78        227
    79        267
    81        175
    82         10
    83          6
    87          3
    89         26
    91        256
    92         22
    93         39
    94          2
    96         40
    97         97
    98          3
    99          1
   102         47
   103        283
   104        774
   105        999
   106        176
   107         19
   109         67
   110          3
   111          3
   115          5
   116          5
   117         35
   118         14
   119        167
   120         20
   121         29
   122          2
   124        139
   125          6
   126          1
   129          2
   131         41
   132        250
   133         63
   134          7
   136          1
   137         10
   147          6
   149         15
   150          5
   151          2
   153          1
   160          5
   161          1
   167         55
   168         26
   169          5
   171          2
   181          3
   183          2
   185        195
   186        340
   187         34
   188          3
   195          2
   196          2
   197          1
   199         64
   200          7
   213         87
   214        135
   215         16
   216          1
   227         18
   228          2
   242        278
   243         35
   244          4