##TITLE=Library Entry 114503
##JCAMP-DX=Revision 4.10 
##DATA TYPE=MASS SPECTRUM
##SAMPLE DESCRIPTION=Chemical Concepts
##NAMES=HP
##CAS NAME=Silane, [(dichlorostannylene)dimethylidyne]tetrakis[trimethyl-
##MOLFORM=C14H38Cl2Si4Sn
##CAS REGISTRY NO=62789-73-5
##MP= -300
##BP= -300
##MW= 508
##$RETENTION INDEX=0
##$CONDENSED SPECTRUM=NO
##NPOINTS= 289
##XYDATA=(XY..XY) 1 
    26          1
    27          0
    29          3
    31         14
    36          1
    39          0
    40          6
    41          1
    42          0
    43         41
    44          8
    45         97
    46          4
    47          1
    53          0
    55         11
    56          0
    57          4
    58         10
    59        233
    60         15
    61          6
    65          1
    67          0
    69          8
    70          0
    71         11
    72          2
    73        376
    74         32
    75         12
    77          0
    79          0
    81          0
    83         25
    84          2
    85         76
    86          6
    87          5
    89          0
    91          0
    93         12
    95          4
    97          1
    98          0
    99         17
   100          1
   101         17
   102          1
   103         12
   104          0
   105          0
   107          0
   109          0
   111          2
   112          0
   113         57
   114          8
   115         25
   116          3
   117          5
   118          0
   119          0
   120          1
   121          0
   123          0
   125          2
   127         16
   128          2
   129        999
   130        159
   131         78
   132          7
   133          5
   134          1
   135          7
   137          0
   139          0
   141         20
   142          2
   143         24
   144         10
   145          9
   146          0
   147          0
   149         24
   150          3
   151         10
   152          0
   153          3
   154          0
   155          6
   157          2
   158          0
   159          1
   160          0
   161         15
   162          7
   163         26
   164          9
   165         35
   166          0
   167          4
   169          9
   170          0
   171          1
   173          0
   175          0
   176          0
   177          1
   178          0
   179          0
   183          2
   184          0
   185         44
   186          9
   187          6
   188          1
   189          7
   190          2
   191         10
   192          0
   193          4
   195          1
   197          0
   199          4
   200          0
   201          2
   203          0
   205         20
   206          3
   207          9
   208          1
   209          2
   210          0
   211          4
   212          0
   213          4
   214          0
   215          1
   217          0
   219          0
   221          0
   225          0
   227          0
   229          0
   231          0
   233          0
   235          1
   237          1
   238          4
   239          6
   240          4
   241          8
   242          1
   243          0
   253          0
   255          0
   257         15
   258          4
   259          3
   260          0
   261          1
   262          0
   263          1
   271          0
   273        167
   274         53
   275         31
   276          7
   277         39
   278         13
   279         29
   280          6
   281          6
   282          1
   283          4
   284          0
   285          1
   291          0
   293        540
   294        180
   295        294
   296         82
   297         56
   298         18
   299         40
   300          9
   301         16
   302          1
   303          7
   304          0
   305          2
   306          0
   307          2
   308          0
   309          4
   310          1
   311          5
   312          2
   313         13
   314          3
   315          8
   316          1
   317          4
   318          0
   319          4
   320          0
   321          4
   322          0
   323          3
   325         41
   326         28
   327         86
   328         46
   329        125
   330         32
   331         54
   332          9
   333         25
   334          4
   335          6
   336          0
   337          0
   339          1
   341          1
   343          1
   345          9
   346          5
   347         22
   348         12
   349         34
   350          9
   351         21
   352          3
   353          8
   354          0
   355          2
   369          0
   373          0
   375          0
   381          2
   382          1
   383          6
   384          3
   385          9
   386          2
   387          4
   388          0
   389          1
   391          0
   401          0
   403          1
   404          0
   405          3
   406          0
   407          1
   409          0
   457          0
   469          1
   470          0
   471          4
   472          2
   473          6
   474          2
   475          4
   476          1
   477          3
   478          0
   479          1
   485         11
   486          3
   487         17
   488          2
   489        190
   490        167
   491        453
   492        335
   493        699
   494        335
   495        464
   496        173
   497        225
   498         70
   499         83
   500         24
   501         18
   502          4
   503          1