##TITLE=Library Entry 661
##JCAMP-DX=Revision 4.10 
##DATA TYPE=MASS SPECTRUM
##SAMPLE DESCRIPTION=Japan AIST/NIMC Database- Spectrum MS-NW-6078
##NAMES=HP
##CAS NAME=Triethyl methanetricarboxylate
##MOLFORM=C10H16O6
##CAS REGISTRY NO=6279-86-3
##MP= -300
##BP= -300
##MW= 232
##$RETENTION INDEX=0
##$CONDENSED SPECTRUM=NO
##NPOINTS= 117
##XYDATA=(XY..XY) 1 
    15         43
    16          3
    17          1
    18          7
    24          1
    25          3
    26         31
    27        209
    28         50
    29        999
    30         25
    31        212
    32          6
    39          3
    40          9
    41         31
    42        104
    43        138
    44         49
    45        274
    46         35
    47         44
    48          2
    53          1
    54          1
    55         50
    56          6
    57          5
    58         35
    59          9
    60         21
    61         11
    62          1
    63          1
    65          1
    66          1
    68         21
    69        237
    70         23
    71         11
    72          2
    73         18
    74          3
    75         12
    76          2
    77          1
    83          1
    84          1
    85          4
    86        261
    87        449
    88         87
    89         10
    90          1
    91          1
    96          8
    97         17
    98          8
    99          9
   100          2
   101          2
   103          4
   104         59
   105         34
   106          2
   110          1
   112          3
   113          9
   114        156
   115        417
   116         28
   117          5
   119          1
   123          1
   124         13
   125          2
   126          1
   127          1
   130          3
   131         14
   132         62
   133        113
   134          9
   135          2
   139          1
   140          4
   141         44
   142         26
   143         19
   144          3
   145          1
   147          1
   148          1
   149          1
   156          1
   157          1
   158          1
   159         28
   160        270
   161         47
   162          6
   168          1
   171          1
   173          1
   176          2
   177          7
   185          1
   186          6
   187        148
   188         16
   189          3
   204          5
   205         64
   206          7
   207          1
   232          7
   233          2