##TITLE=Library Entry 29630
##JCAMP-DX=Revision 4.10 
##DATA TYPE=MASS SPECTRUM
##SAMPLE DESCRIPTION=CARL DJERASSI DEPT OF CHEM STANFORD UNIV STANFORD CALIF
 94305
##NAMES=HP
##CAS NAME=Pentanal, oxime
##MOLFORM=C5H11NO
##CAS REGISTRY NO=628-79-5
##MP= -300
##BP= -300
##MW= 101
##$RETENTION INDEX=0
##$CONDENSED SPECTRUM=NO
##NPOINTS= 37
##XYDATA=(XY..XY) 1 
    26         60
    27        320
    28        140
    29        200
    30         10
    31         10
    32         20
    37         20
    38         30
    39        170
    40         20
    41        580
    42         60
    43        490
    44         20
    45         10
    46         70
    50         10
    51         30
    52         60
    53         20
    54        240
    55        130
    56        100
    57         10
    58         10
    59        999
    60         20
    67         10
    68         20
    69         20
    72        210
    73         20
    82         20
    84         10
    86         20
   101         20