##TITLE=Library Entry 16763
##JCAMP-DX=Revision 4.10 
##DATA TYPE=MASS SPECTRUM
##SAMPLE DESCRIPTION=Leung Pu, NIH, Bethesda, Maryland, U.S.
##NAMES=HP
##CAS NAME=5-Aminohexanoic acid
##MOLFORM=C6H13NO2
##CAS REGISTRY NO=628-47-7
##MP= -300
##BP= -300
##MW= 131
##$RETENTION INDEX=0
##$CONDENSED SPECTRUM=NO
##NPOINTS= 70
##XYDATA=(XY..XY) 1 
    41        698
    42        428
    43        322
    44        368
    45        999
    46         41
    47          5
    50         21
    51         33
    52         22
    53         60
    54         64
    55        336
    56        251
    57         58
    58         21
    59        153
    60         84
    61          3
    63          9
    64          3
    65         24
    66          6
    67        143
    68         45
    69        173
    70         45
    71         36
    72        500
    73        143
    74         24
    76          6
    77         27
    78         45
    79         23
    80          8
    81         10
    82         19
    83         24
    84         70
    85         30
    86        105
    87         14
    89          4
    91         17
    92          3
    94         10
    95         25
    96         14
    97         19
    98          8
    99         15
   100          8
   103          9
   105         10
   106         15
   107         10
   108          3
   112         39
   113         17
   114        167
   115         24
   116          8
   117          7
   127          3
   128         18
   129        119
   131        306
   132         26
   133          3