##TITLE=Library Entry 19838
##JCAMP-DX=Revision 4.10 
##DATA TYPE=MASS SPECTRUM
##SAMPLE DESCRIPTION=NIST Mass Spectrometry Data Center, 1990.
##NAMES=HP
##CAS NAME=Dimethallyl ether
##MOLFORM=C8H14O
##CAS REGISTRY NO=628-56-8
##MP= -300
##BP= -300
##MW= 126
##$RETENTION INDEX=0
##$CONDENSED SPECTRUM=NO
##NPOINTS= 46
##XYDATA=(XY..XY) 1 
    15          6
    26         27
    27        233
    28         40
    29        289
    30          9
    31         14
    37         14
    38         54
    39        464
    40        107
    41        530
    42         91
    43        290
    44         15
    50         24
    51         38
    52         17
    53        151
    54         14
    55        999
    56        595
    57        129
    58         53
    67         76
    68         37
    69        167
    70        150
    71        218
    72         15
    77          8
    79         18
    80          5
    81         24
    82         46
    83         72
    84         22
    91          8
    93         65
    94          5
    95         13
    96          5
    97         80
    98         23
   111         79
   112          6