##TITLE=Library Entry 57965
##JCAMP-DX=Revision 4.10 
##DATA TYPE=MASS SPECTRUM
##SAMPLE DESCRIPTION=Japan AIST/NIMC Database- Spectrum MS-NW-5396
##NAMES=HP
##CAS NAME=Hexadecanoic acid, ethyl ester
##MOLFORM=C18H36O2
##CAS REGISTRY NO=628-97-7
##MP= -300
##BP= -300
##MW= 284
##$RETENTION INDEX=1993
##$CONDENSED SPECTRUM=NO
##NPOINTS= 170
##XYDATA=(XY..XY) 1 
    14          1
    15          3
    17          2
    18          9
    19          1
    26          5
    27         68
    28         21
    29        227
    30          6
    31          9
    32          4
    39         32
    40          7
    41        268
    42         60
    43        362
    44         13
    45         60
    46          2
    47          1
    51          2
    52          1
    53         15
    54         21
    55        233
    56         58
    57        217
    58         13
    59         12
    60         99
    61        122
    62          4
    63          1
    65          3
    66          2
    67         33
    68         18
    69        132
    70        120
    71         92
    72          6
    73        156
    74         19
    75          6
    77          3
    78          1
    79          9
    80          4
    81         27
    82         12
    83         89
    84         41
    85         48
    86          5
    87         25
    88        999
    89        136
    90          9
    91          4
    92          1
    93          6
    94          3
    95         26
    96          9
    97         64
    98         44
    99         11
   100          2
   101        559
   102         51
   103          6
   104          1
   106          1
   107          6
   108          1
   109         13
   110          5
   111         28
   112         12
   113          6
   114          2
   115         61
   116          8
   117          1
   121          6
   122          1
   123          7
   124          3
   125         14
   126          3
   127          4
   128          1
   129         27
   130          9
   131          1
   135          6
   136          1
   137          3
   138          2
   139          9
   140          2
   141          2
   143         55
   144         12
   145          2
   149          4
   151          1
   152          2
   153          5
   154          1
   155          2
   157        120
   158         15
   159          2
   163          2
   164          1
   165          1
   166          1
   167          3
   168          1
   169          1
   171         13
   172          4
   177          2
   181          2
   182          1
   183          2
   185         24
   186          5
   187          1
   191          1
   194          2
   195          2
   196          1
   199         29
   200          6
   201          1
   205          1
   209          1
   210          1
   211          1
   213         24
   214          5
   219          2
   220          1
   221          1
   223          1
   225          1
   227         11
   228          4
   229          1
   236          1
   237          3
   238          2
   239         72
   240         13
   241         67
   242         11
   243          2
   255         19
   256          6
   257          2
   267          1
   269          2
   270          1
   283          2
   284         84
   285         18
   286          2