##TITLE=Library Entry 29840
##JCAMP-DX=Revision 4.10 
##DATA TYPE=MASS SPECTRUM
##SAMPLE DESCRIPTION=J.A.GILPIN DOW CHEMICAL CO., MIDLAND, MICHIGAN, USA
##NAMES=HP
##CAS NAME=Hexanamide
##MOLFORM=C6H13NO
##CAS REGISTRY NO=628-02-4
##MP= -300
##BP= -300
##MW= 115
##$RETENTION INDEX=1135
##$CONDENSED SPECTRUM=NO
##NPOINTS= 28
##XYDATA=(XY..XY) 1 
    15          4
    27         70
    28         20
    29         60
    30          6
    31          4
    41         90
    42         50
    43        240
    44        270
    45         10
    55         60
    56         10
    57         20
    58          2
    59        999
    60         30
    71         20
    72        180
    73         40
    74          2
    86         90
    87          5
    99         10
   100          3
   114          4
   115          5
   116          7