##TITLE=Library Entry 73752
##JCAMP-DX=Revision 4.10 
##DATA TYPE=MASS SPECTRUM
##SAMPLE DESCRIPTION=Japan AIST/NIMC Database- Spectrum MS-NW-7773
##NAMES=HP
##CAS NAME=Propane, 1-isothiocyanato-
##MOLFORM=C4H7NS
##CAS REGISTRY NO=628-30-8
##MP= -300
##BP= -300
##MW= 101
##$RETENTION INDEX=881
##$CONDENSED SPECTRUM=NO
##NPOINTS= 67
##XYDATA=(XY..XY) 1 
    12          2
    13          2
    14          8
    15         32
    17          1
    18          6
    25          4
    26         50
    27        440
    28         68
    29         64
    30         10
    31          4
    32         27
    33          3
    34          3
    35          1
    36          3
    37         14
    38         28
    39        186
    40         47
    41        544
    42        266
    43        657
    44         49
    45        123
    46         23
    47          7
    48          1
    50          1
    51          7
    52          8
    53          1
    54          7
    55          2
    56          3
    57          9
    58         33
    59         88
    60        102
    61          7
    62          6
    63          2
    64          2
    68          6
    69          3
    70         28
    71         31
    72        493
    73         47
    74         27
    75          3
    76          3
    82          1
    83          3
    84          8
    85          4
    86         22
    87          3
    88          1
    99          2
   100         33
   101        999
   102         60
   103         48
   104          3