##TITLE=Library Entry 57039
##JCAMP-DX=Revision 4.10 
##DATA TYPE=MASS SPECTRUM
##SAMPLE DESCRIPTION=NIST Mass Spectrometry Data Center, 2007
##NAMES=HP
##CAS NAME=Ethanol, 2,2'-oxybis-, diacetate
##MOLFORM=C8H14O5
##CAS REGISTRY NO=628-68-2
##MP= -300
##BP= -300
##MW= 190
##$RETENTION INDEX=1283
##$CONDENSED SPECTRUM=NO
##NPOINTS= 40
##XYDATA=(XY..XY) 1 
    14          6
    15         57
    16          2
    18          1
    19          2
    26          6
    27         21
    28         34
    29         35
    30          5
    31         16
    39          1
    41          4
    42         44
    43        928
    44         34
    45         34
    46          1
    57          5
    58         11
    59          2
    60          1
    61         20
    62          1
    69          1
    70         21
    71          1
    72          3
    73         22
    74          3
    75          6
    87        999
    88         54
    89          5
   100          1
   103          1
   117         30
   118          2
   130          1
   147          1