##TITLE=Library Entry 17140
##JCAMP-DX=Revision 4.10 
##DATA TYPE=MASS SPECTRUM
##SAMPLE DESCRIPTION=Japan AIST/NIMC Database- Spectrum MS-NW-4361
##NAMES=HP
##CAS NAME=Ethanol, 2-(2-chloroethoxy)-
##MOLFORM=C4H9ClO2
##CAS REGISTRY NO=628-89-7
##MP= -300
##BP= -300
##MW= 124
##$RETENTION INDEX=0
##$CONDENSED SPECTRUM=NO
##NPOINTS= 62
##XYDATA=(XY..XY) 1 
    13          2
    14         12
    15         50
    16          3
    17          2
    18          7
    19          1
    25          4
    26         41
    27        530
    28        110
    29        154
    30         20
    31        394
    32          8
    33          6
    35          5
    36         13
    37          2
    38          4
    39          2
    40          1
    41          4
    42         29
    43        145
    44        237
    45        999
    46         22
    47          3
    48          5
    49         32
    50          6
    51         10
    52          2
    55          1
    57         22
    58         45
    59          4
    60          2
    61         22
    62         23
    63        951
    64         28
    65        337
    66          8
    73          5
    75        538
    76         20
    77          3
    78          2
    79          4
    81          1
    87          1
    88         36
    89          3
    93        827
    94         38
    95        254
    96         11
    97          1
   106          1
   107          2