##TITLE=Library Entry 32577
##JCAMP-DX=Revision 4.10 
##DATA TYPE=MASS SPECTRUM
##SAMPLE DESCRIPTION=Japan AIST/NIMC Database- Spectrum MS-NW-3065
##NAMES=HP
##CAS NAME=Cycloheptene
##MOLFORM=C7H12
##CAS REGISTRY NO=628-92-2
##MP= -300
##BP= -300
##MW= 96
##$RETENTION INDEX=785
##$CONDENSED SPECTRUM=NO
##NPOINTS= 62
##XYDATA=(XY..XY) 1 
    15          9
    26         16
    27        175
    28         21
    29        125
    30          3
    37          9
    38         30
    39        393
    40         84
    41        281
    42         73
    43          9
    44          3
    45          8
    46          7
    49          3
    50         27
    51         56
    52         30
    53        217
    54        975
    55        580
    56         55
    57          6
    60          1
    61          7
    62         11
    63         25
    64          5
    65         63
    66         91
    67        999
    68        641
    69         52
    70         22
    71          2
    74          3
    75          2
    76          1
    77         59
    78         14
    79         96
    80         27
    81        739
    82         54
    83         14
    84          2
    85          1
    86          2
    87          1
    89          4
    90          2
    91         91
    92         55
    93         19
    94         16
    95         68
    96        557
    97         43
    98         17
    99          1