##TITLE=Library Entry 29595
##JCAMP-DX=Revision 4.10 
##DATA TYPE=MASS SPECTRUM
##SAMPLE DESCRIPTION=Japan AIST/NIMC Database- Spectrum MS-IW- 599
##NAMES=HP
##CAS NAME=1-Chloro-2-ethoxyethane
##MOLFORM=C4H9ClO
##CAS REGISTRY NO=628-34-2
##MP= -300
##BP= -300
##MW= 108
##$RETENTION INDEX=706
##$CONDENSED SPECTRUM=NO
##NPOINTS= 55
##XYDATA=(XY..XY) 1 
    14          4
    15         15
    16          1
    25          1
    26         15
    27        170
    28         41
    29        215
    30          8
    31        495
    32          7
    33          1
    35          1
    36          5
    38          2
    39          1
    41         62
    42          8
    43         44
    44          9
    45         60
    46          1
    47          1
    48          2
    49         11
    50          4
    51          4
    52          1
    57          1
    58          2
    59        999
    60         34
    61          4
    62          9
    63        224
    64          8
    65         71
    66          2
    72          1
    73          4
    77          1
    78          1
    79         18
    80          1
    81          9
    83          1
    88          1
    93         25
    94          1
    95          8
   107          4
   108        103
   109          9
   110         33
   111          2