##TITLE=Library Entry 8304
##JCAMP-DX=Revision 4.10 
##DATA TYPE=MASS SPECTRUM
##SAMPLE DESCRIPTION=Exported from NIST MS Search
##NAMES=HP
##CAS NAME=1-Propanol, 3-chloro-, acetate
##MOLFORM=C5H9ClO2
##CAS REGISTRY NO=628-09-1
##MP= -300
##BP= -300
##MW= 136
##$RETENTION INDEX=916
##$CONDENSED SPECTRUM=NO
##NPOINTS= 83
##XYDATA=(XY..XY) 1 
    12          1
    13          1
    14          7
    15         44
    16          1
    17          1
    18          5
    25          1
    26         11
    27         48
    28         50
    29         47
    30          9
    31         48
    32          3
    35          1
    36          1
    37          3
    38          5
    39         34
    40          9
    41        118
    42         42
    43        999
    44         27
    45         37
    46          1
    47          1
    48          1
    49         28
    50          1
    51          9
    52          1
    53          1
    55          4
    56          1
    57         37
    58         53
    59          4
    60         16
    61        364
    62         11
    63          9
    64          2
    65          4
    66          1
    67          1
    70          1
    71          1
    72         12
    73        154
    74          6
    75          9
    76        127
    77         12
    78         42
    79          4
    85          1
    86          1
    87         29
    88          3
    89          2
    90          1
    91          1
    92          2
    93         48
    94          3
    95         16
    96          1
   100          1
   101         20
   102          2
   103          1
   104          1
   105          1
   106          2
   107          1
   108          1
   135          1
   136          1
   137          3
   138          1
   139          1