##TITLE=Library Entry 6363
##JCAMP-DX=Revision 4.10 
##DATA TYPE=MASS SPECTRUM
##SAMPLE DESCRIPTION=NIST Mass Spectrometry Data Center, 1994
##NAMES=HP
##CAS NAME=Butane, 1-isothiocyanato-3-methyl-
##MOLFORM=C6H11NS
##CAS REGISTRY NO=628-03-5
##MP= -300
##BP= -300
##MW= 129
##$RETENTION INDEX=1041
##$CONDENSED SPECTRUM=NO
##NPOINTS= 76
##XYDATA=(XY..XY) 1 
     4          0
    14          6
    15         41
    26         42
    27        356
    28        136
    29        325
    30         47
    31          6
    32         32
    33          4
    34          3
    37         11
    38         35
    39        295
    40         58
    41        592
    42        175
    43        999
    44         62
    45         82
    46         14
    47          5
    49          2
    50         20
    51         28
    52         14
    53         47
    54         28
    55        367
    56         29
    57         75
    58         45
    59         87
    60         85
    61         11
    62          8
    63          3
    64          2
    65          2
    67          8
    68         20
    69         45
    70         83
    71         94
    72        458
    73         58
    74         41
    75          4
    78          3
    79          4
    80          5
    81          7
    82          3
    83          2
    84         10
    85         21
    86         27
    87         16
    88          5
    94          2
    96         47
    97          8
    98          3
    99          4
   100         13
   101         32
   102          2
   112          2
   114        575
   115         41
   116         25
   128         41
   129        223
   130         19
   131          9