##TITLE=Library Entry 5661
##JCAMP-DX=Revision 4.10 
##DATA TYPE=MASS SPECTRUM
##SAMPLE DESCRIPTION=NIST Mass Spectrometry Data Center
##NAMES=HP
##CAS NAME=2-Buten-1-ol, acetate
##MOLFORM=C6H10O2
##CAS REGISTRY NO=628-08-0
##MP= -300
##BP= -300
##MW= 114
##$RETENTION INDEX=860
##$CONDENSED SPECTRUM=NO
##NPOINTS= 44
##XYDATA=(XY..XY) 1 
    12          1
    13          3
    14         15
    15         78
    16          1
    18          1
    25          1
    26         21
    27        143
    28         44
    29        130
    30          3
    31          8
    37          6
    38         18
    39        248
    40         20
    41         62
    42         45
    43        999
    44         31
    45          8
    49          1
    50         14
    51         19
    52         10
    53         71
    54        142
    55        216
    56         10
    57         91
    58         10
    61         33
    69          9
    70          6
    71        203
    72        212
    73         10
    74          1
    85         11
    86         12
    99          7
   114         57
   115          3