##TITLE=Library Entry 37310
##JCAMP-DX=Revision 4.10 
##DATA TYPE=MASS SPECTRUM
##SAMPLE DESCRIPTION=NIST Mass Spectrometry Data Center, 1990.
##NAMES=HP
##CAS NAME=Octane, 2-chloro-
##MOLFORM=C8H17Cl
##CAS REGISTRY NO=628-61-5
##MP= -300
##BP= -300
##MW= 148
##$RETENTION INDEX=1006
##$CONDENSED SPECTRUM=NO
##NPOINTS= 42
##XYDATA=(XY..XY) 1 
    27        254
    28         21
    29        220
    39        316
    40         87
    41        850
    42        356
    43        520
    44         20
    49         16
    50         13
    51         36
    52         17
    53         94
    54         87
    55        875
    56        653
    57        329
    58         14
    62         15
    63        115
    65         46
    66          9
    67         71
    68         89
    69        490
    70        999
    71        141
    75         11
    76         18
    77         27
    79         13
    81         17
    82        169
    83        599
    84        373
    85         29
    97         62
   105         52
   107         17
   112        136
   113         11