##TITLE=Library Entry 8814
##JCAMP-DX=Revision 4.10 
##DATA TYPE=MASS SPECTRUM
##SAMPLE DESCRIPTION=Japan AIST/NIMC Database- Spectrum MS-NW-1478
##NAMES=HP
##CAS NAME=Pentane, 1-iodo-
##MOLFORM=C5H11I
##CAS REGISTRY NO=628-17-1
##MP= -300
##BP= -300
##MW= 198
##$RETENTION INDEX=928
##$CONDENSED SPECTRUM=NO
##NPOINTS= 40
##XYDATA=(XY..XY) 1 
    15          8
    26         11
    27        187
    28         24
    29        230
    30          4
    37          3
    38          9
    39        105
    40         19
    41        300
    42         82
    43        999
    44         33
    50          3
    51          4
    52          1
    53         12
    54          2
    55         98
    56          5
    57          1
    62          1
    63          1
    65          1
    67          2
    69          7
    70          5
    71        731
    72         42
    73          1
   127         20
   128          6
   141         11
   153          1
   154          2
   155         22
   169          1
   198         94
   199          5