##TITLE=Library Entry 17862
##JCAMP-DX=Revision 4.10 
##DATA TYPE=MASS SPECTRUM
##SAMPLE DESCRIPTION=MINISTRY OF TECH., E.R.D.E., WALTHAM ABBEY, UK
##NAMES=HP
##CAS NAME=Ethylene glycol, dinitrate
##MOLFORM=C2H4N2O6
##CAS REGISTRY NO=628-96-6
##MP= -300
##BP= -300
##MW= 152
##$RETENTION INDEX=1037
##$CONDENSED SPECTRUM=NO
##NPOINTS= 13
##XYDATA=(XY..XY) 1 
    14          6
    15         20
    27          2
    28         52
    29        140
    30        221
    31         31
    42          8
    43         11
    44         20
    46        999
    57          1
    76        112