##TITLE=Library Entry 17188
##JCAMP-DX=Revision 4.10 
##DATA TYPE=MASS SPECTRUM
##SAMPLE DESCRIPTION=NIST Mass Spectrometry Data Center
##NAMES=HP
##CAS NAME=Pentane, 1-methoxy-
##MOLFORM=C6H14O
##CAS REGISTRY NO=628-80-8
##MP= -300
##BP= -300
##MW= 102
##$RETENTION INDEX=708
##$CONDENSED SPECTRUM=NO
##NPOINTS= 51
##XYDATA=(XY..XY) 1 
    14          1
    15         13
    26          8
    27         69
    28         22
    29        101
    30          4
    31         14
    33         48
    34          1
    37          2
    38          7
    39         88
    40         15
    41        162
    42        210
    43         77
    45        999
    46         28
    47         19
    49          1
    50          4
    51          7
    52          2
    53         15
    54          8
    55        208
    56         46
    57         14
    58         13
    59         55
    60          5
    61          2
    62          1
    63          1
    65          2
    66          1
    67          4
    68          1
    69         27
    70        378
    71         35
    72          2
    73          6
    74         19
    75          1
    84          1
    87          3
   101          4
   102         19
   103          2