##TITLE=Library Entry 17170
##JCAMP-DX=Revision 4.10 
##DATA TYPE=MASS SPECTRUM
##SAMPLE DESCRIPTION=Japan AIST/NIMC Database- Spectrum MS-NW-4041
##NAMES=HP
##CAS NAME=2-Nonanol
##MOLFORM=C9H20O
##CAS REGISTRY NO=628-99-9
##MP= -300
##BP= -300
##MW= 144
##$RETENTION INDEX=1101
##$CONDENSED SPECTRUM=NO
##NPOINTS= 54
##XYDATA=(XY..XY) 1 
    15          6
    18          2
    26          2
    27         55
    28          4
    29         64
    30          2
    31         11
    38          1
    39         33
    40          7
    41        125
    42         53
    43        129
    44         59
    45        999
    46         24
    47          3
    50          1
    51          2
    52          1
    53          8
    54          7
    55        134
    56         83
    57         73
    58         13
    59          6
    65          1
    67          8
    68          6
    69        168
    70         62
    71         35
    72          2
    73          1
    81          2
    82          9
    83         34
    84         37
    85          8
    87          1
    96          3
    97         25
    98         43
    99          4
   100          8
   111         23
   112          2
   126         18
   127          2
   129         20
   130          2
   143          3