##TITLE=Library Entry 31217
##JCAMP-DX=Revision 4.10 
##DATA TYPE=MASS SPECTRUM
##SAMPLE DESCRIPTION=Exported from NIST MS Search
##NAMES=HP
##CAS NAME=Butane, 1-(methylthio)-
##MOLFORM=C5H12S
##CAS REGISTRY NO=628-29-5
##MP= -300
##BP= -300
##MW= 104
##$RETENTION INDEX=813
##$CONDENSED SPECTRUM=NO
##NPOINTS= 75
##XYDATA=(XY..XY) 1 
    12          2
    13          4
    14         14
    15         71
    16          2
    25          2
    26         39
    27        351
    28        107
    29        325
    30          9
    32          3
    33          3
    34          5
    35        104
    36          2
    37         10
    38         12
    39        125
    40         21
    41        492
    42         23
    43         27
    44          4
    45        164
    46         99
    47        226
    48        254
    49        164
    50         21
    51         17
    52          4
    53         18
    54         10
    55        102
    56        708
    57        139
    58         26
    59         37
    60         13
    61        999
    62        125
    63         48
    64          6
    65          1
    67          1
    68          1
    69          4
    70          3
    71          7
    72          2
    73          5
    74          3
    75        166
    76         10
    77          8
    78          1
    79          1
    81          1
    82          1
    83          1
    84          1
    85          3
    86          1
    87          2
    88          1
    89         39
    90          2
    91          3
    92          1
   103          5
   104        483
   105         30
   106         22
   107          1