##TITLE=Library Entry 49768
##JCAMP-DX=Revision 4.10 
##DATA TYPE=MASS SPECTRUM
##SAMPLE DESCRIPTION=Japan AIST/NIMC Database- Spectrum MS-IW-5640
##NAMES=HP
##CAS NAME=1-Heptyne
##MOLFORM=C7H12
##CAS REGISTRY NO=628-71-7
##MP= -300
##BP= -300
##MW= 96
##$RETENTION INDEX=686
##$CONDENSED SPECTRUM=NO
##NPOINTS= 51
##XYDATA=(XY..XY) 1 
    15          5
    26         12
    27        183
    28         37
    29        456
    30         10
    37          9
    38         28
    39        297
    40        116
    41        705
    42         79
    43         39
    44          1
    45          9
    49          3
    50         33
    51         58
    52         33
    53        178
    54        353
    55        509
    56        260
    57        283
    58         12
    61          4
    62          9
    63         17
    64          3
    65         70
    66         30
    67        439
    68        301
    69         20
    70         20
    71          2
    74          2
    75          1
    77         31
    78          5
    79        105
    80         12
    81        999
    82         72
    83          2
    91          9
    92          1
    93          7
    94          2
    95         93
    96          9