##TITLE=Library Entry 2614
##JCAMP-DX=Revision 4.10 
##DATA TYPE=MASS SPECTRUM
##SAMPLE DESCRIPTION=Japan AIST/NIMC Database- Spectrum MS-NW-1009
##NAMES=HP
##CAS NAME=Hexanenitrile
##MOLFORM=C6H11N
##CAS REGISTRY NO=628-73-9
##MP= -300
##BP= -300
##MW= 97
##$RETENTION INDEX=877
##$CONDENSED SPECTRUM=NO
##NPOINTS= 46
##XYDATA=(XY..XY) 1 
    13          1
    14          3
    15         23
    25          1
    26         44
    27        332
    28         89
    29        429
    30         15
    37         13
    38         28
    39        218
    40         48
    41        999
    42        136
    43        275
    44          9
    49          1
    50         12
    51         19
    52         26
    53         35
    54        816
    55        417
    56         43
    57        321
    58         13
    61          2
    62          2
    63          3
    64          7
    65          4
    66         10
    67         10
    68        303
    69        229
    70         37
    71         13
    79          8
    80          7
    81          2
    82        244
    83         12
    96        119
    97          8
    98          1