##TITLE=Library Entry 3592
##JCAMP-DX=Revision 4.10 
##DATA TYPE=MASS SPECTRUM
##SAMPLE DESCRIPTION=NIST Mass Spectrometry Data Center, 2010
##NAMES=HP
##CAS NAME=Carbonochloridic acid, 3-chloropropyl ester
##MOLFORM=C4H6Cl2O2
##CAS REGISTRY NO=628-11-5
##MP= -300
##BP= -300
##MW= 156
##$RETENTION INDEX=999
##$CONDENSED SPECTRUM=NO
##NPOINTS= 77
##XYDATA=(XY..XY) 1 
    14          3
    15          8
    16          2
    25          4
    26         47
    27        155
    28        159
    29        112
    30         18
    31         13
    35         33
    36         17
    37         33
    38         42
    39        243
    40         61
    41        999
    42         59
    43          9
    44        162
    45         24
    46          1
    47          9
    48          9
    49        160
    50          7
    51         55
    52          1
    53          3
    54          1
    55          7
    56          8
    57         52
    58          9
    59          1
    60          4
    61         24
    62         22
    63        727
    64         26
    65        232
    66          5
    67          1
    72          1
    73          5
    74          1
    75         28
    76        941
    77        247
    78        310
    79         75
    80          4
    81         42
    82          1
    83         13
    84          2
    85          9
    86          1
    89          1
    91          5
    92          3
    93        390
    94         18
    95        122
    96          6
    97          1
    99          2
   101          1
   107         19
   108          1
   109          6
   112          1
   119          1
   120          3
   121          1
   122          1
   155          1