##TITLE=Library Entry 29848
##JCAMP-DX=Revision 4.10 
##DATA TYPE=MASS SPECTRUM
##SAMPLE DESCRIPTION=Chemical Concepts
##NAMES=HP
##CAS NAME=Enanthamide
##MOLFORM=C7H15NO
##CAS REGISTRY NO=628-62-6
##MP= -300
##BP= -300
##MW= 129
##$RETENTION INDEX=0
##$CONDENSED SPECTRUM=NO
##NPOINTS= 64
##XYDATA=(XY..XY) 1 
    26          5
    27         81
    28         17
    29         71
    30          7
    31          4
    35          0
    36          4
    37          0
    38          2
    39         42
    40          7
    41        114
    42         20
    43        175
    44        188
    45          9
    46          2
    50          1
    51          2
    52          1
    53          8
    54          4
    55         30
    56         11
    57         24
    58          2
    59        999
    60         35
    61          2
    63          0
    65          0
    66          0
    67          3
    68          2
    69         11
    70          1
    71          2
    72        180
    73         34
    74          1
    77          0
    79          0
    81          0
    82          1
    83          4
    84          5
    85          6
    86         84
    87          5
    88          0
    95          1
    97          0
    98          1
   100         17
   101          1
   111          0
   112          0
   113          3
   114          3
   128          2
   129         24
   130          3
   131          0