##TITLE=Library Entry 23273
##JCAMP-DX=Revision 4.10 
##DATA TYPE=MASS SPECTRUM
##SAMPLE DESCRIPTION=Japan AIST/NIMC Database- Spectrum MS-NW- 971
##NAMES=HP
##CAS NAME=Isobutyl ether
##MOLFORM=C8H18O
##CAS REGISTRY NO=628-55-7
##MP= -300
##BP= -300
##MW= 130
##$RETENTION INDEX=808
##$CONDENSED SPECTRUM=NO
##NPOINTS= 35
##XYDATA=(XY..XY) 1 
    15          3
    18          1
    26          2
    27         39
    28          8
    29        123
    30          3
    31          9
    38          1
    39         41
    40          7
    41        192
    42         21
    43         35
    44          4
    45         19
    47          5
    51          1
    53          3
    54          1
    55         19
    56         46
    57        999
    58         45
    59         16
    69          1
    71          1
    72          1
    73          9
    87         81
    88          7
    89          1
   101          4
   130         25
   131          2