##TITLE=Library Entry 58347
##JCAMP-DX=Revision 4.10 
##DATA TYPE=MASS SPECTRUM
##SAMPLE DESCRIPTION=Japan AIST/NIMC Database- Spectrum MS-NW-2733
##NAMES=HP
##CAS NAME=ENT-337
##MOLFORM=C12H22O5
##CAS REGISTRY NO=6280-99-5
##MP= -300
##BP= -300
##MW= 246
##$RETENTION INDEX=0
##$CONDENSED SPECTRUM=NO
##NPOINTS= 85
##XYDATA=(XY..XY) 1 
    14          2
    15          9
    17          2
    18          7
    26          8
    27         70
    28         57
    29        251
    30          5
    31         24
    32         12
    33          1
    38          1
    39         35
    40          6
    41        262
    42         18
    43         73
    44         63
    45          9
    47          5
    50          1
    51          1
    53          6
    54          5
    55         52
    56        143
    57        554
    58         30
    59          1
    60         17
    61          4
    69          2
    70          1
    71        214
    72         49
    73         19
    74          4
    75          2
    76          1
    81          2
    82          3
    83          1
    85          2
    87          5
    88         16
    89        999
    90        155
    91         16
    92          1
    99         34
   100          9
   101          6
   102          1
   103          3
   107          4
   115          2
   116         38
   117        170
   118          8
   119          2
   127          3
   128          1
   129          1
   133          1
   134         15
   135         16
   136          1
   143          2
   144          4
   145        304
   146         57
   147          6
   154          1
   155         27
   156          3
   157          1
   171          1
   172          7
   173         78
   174          7
   175          1
   190          7
   191          6
   199          1