##TITLE=Library Entry 18629
##JCAMP-DX=Revision 4.10 
##DATA TYPE=MASS SPECTRUM
##SAMPLE DESCRIPTION=NIST Mass Spectrometry Data Center, 1992
##NAMES=HP
##CAS NAME=5-Chlorovaleronitrile
##MOLFORM=C5H8ClN
##CAS REGISTRY NO=6280-87-1
##MP= -300
##BP= -300
##MW= 117
##$RETENTION INDEX=0
##$CONDENSED SPECTRUM=NO
##NPOINTS= 67
##XYDATA=(XY..XY) 1 
    12          1
    13          4
    14          8
    15         20
    16          0
    24          1
    25          7
    26         82
    27        271
    28        142
    29         33
    30          2
    35          6
    36          8
    37         25
    38         48
    39        224
    40         71
    41        598
    42         36
    43          1
    44          0
    47          4
    49         83
    50         24
    51         65
    52         49
    53          0
    54        999
    55        256
    56         11
    57          0
    59          0
    60          2
    61         12
    62         16
    63         33
    64         14
    65         14
    66         18
    67          9
    68         50
    69          2
    72          0
    73          3
    75         23
    76          5
    77         15
    78          2
    79          4
    80         41
    81         17
    82        127
    83          7
    84          0
    87          0
    88          5
    89          5
    90          3
    91          2
    92          0
   102          1
   103          0
   104          0
   116          3
   117          0
   118          2