##TITLE=Library Entry 81122
##JCAMP-DX=Revision 4.10 
##DATA TYPE=MASS SPECTRUM
##SAMPLE DESCRIPTION=Chemical Concepts
##NAMES=HP
##CAS NAME=Ethylenediamine, N,N'-bis(.alpha.-methylbenzyl)-
##MOLFORM=C18H24N2
##CAS REGISTRY NO=6280-75-7
##MP= -300
##BP= -300
##MW= 268
##$RETENTION INDEX=0
##$CONDENSED SPECTRUM=NO
##NPOINTS= 105
##XYDATA=(XY..XY) 1 
    26          0
    27         27
    28         18
    29          3
    30        255
    31          4
    38          1
    39         12
    40          2
    41          5
    42         20
    43          4
    44         26
    45          1
    49          0
    50          6
    51         29
    52          8
    53          5
    54          2
    55          1
    56          9
    57          6
    58          7
    59          4
    62          1
    63          7
    64          1
    65         12
    66          1
    67          1
    68          1
    69          0
    70          2
    71          1
    74          1
    75          1
    76          3
    77        111
    78         28
    79        115
    80          8
    81          0
    87          5
    88          1
    89          6
    90          3
    91         25
    92          2
    93          0
    94          0
    97          0
   101          0
   102          4
   103         55
   104         33
   105        999
   106        109
   107          5
   115          1
   116          0
   117          6
   118         27
   119         19
   120        260
   121         27
   122          1
   126          1
   127          0
   128          0
   130          3
   131          1
   132         27
   133          6
   134        318
   135         35
   136          3
   144          0
   145          0
   146          7
   147          4
   148         22
   149         85
   150         13
   151          1
   152          0
   159          1
   160          0
   161          0
   163         57
   164          7
   165          1
   178          0
   191          1
   210          0
   223          0
   238          1
   239          0
   251          0
   253          1
   254          0
   267          0
   268         28
   269          9
   270          1