##TITLE=Library Entry 87608
##JCAMP-DX=Revision 4.10 
##DATA TYPE=MASS SPECTRUM
##SAMPLE DESCRIPTION=Japan AIST/NIMC Database- Spectrum MS-NW-5335
##NAMES=HP
##CAS NAME=Benzene, 1,2-dipropoxy-
##MOLFORM=C12H18O2
##CAS REGISTRY NO=6280-98-4
##MP= -300
##BP= -300
##MW= 194
##$RETENTION INDEX=0
##$CONDENSED SPECTRUM=NO
##NPOINTS= 64
##XYDATA=(XY..XY) 1 
    15          3
    18          1
    26          6
    27         88
    28          3
    29          6
    31          3
    37          1
    38          5
    39         39
    40          4
    41         93
    42          7
    43        125
    44          4
    45          1
    50          7
    51         15
    52         29
    53         18
    54          4
    55          6
    57          2
    59          1
    62          2
    63         13
    64         23
    65         27
    66          4
    67          2
    74          1
    75          1
    76          1
    77          9
    78          2
    79          3
    80          8
    81         56
    82         11
    83          1
    91          2
    92         10
    93         10
    94          5
    95          7
   105          3
   107          3
   108          1
   109         57
   110        999
   111         69
   112          6
   121         19
   122          2
   123          8
   124          1
   135          1
   151          3
   152         64
   153          6
   165          1
   194        204
   195         28
   196          3