##TITLE=Library Entry 87506
##JCAMP-DX=Revision 4.10 
##DATA TYPE=MASS SPECTRUM
##SAMPLE DESCRIPTION=Japan AIST/NIMC Database- Spectrum MS-IW-3578
##NAMES=HP
##CAS NAME=Phenol, 2-propoxy-
##MOLFORM=C9H12O2
##CAS REGISTRY NO=6280-96-2
##MP= -300
##BP= -300
##MW= 152
##$RETENTION INDEX=0
##$CONDENSED SPECTRUM=NO
##NPOINTS= 54
##XYDATA=(XY..XY) 1 
    15          1
    18          1
    26          5
    27         51
    28          4
    29          4
    31          3
    37          1
    38          7
    39         38
    40          3
    41         53
    42          4
    43         70
    44          2
    50          8
    51         14
    52         19
    53         26
    54          9
    55          8
    57          1
    61          1
    62          3
    63         23
    64         54
    65         25
    66          3
    67          2
    69          1
    74          1
    75          1
    77          7
    79          2
    80          5
    81         48
    82         21
    83          1
    91          1
    92         36
    93          7
    94          2
    95          8
   105          1
   109         33
   110        999
   111         71
   112          6
   121          6
   123          3
   151          1
   152        242
   153         23
   154          2