##TITLE=Library Entry 51163
##JCAMP-DX=Revision 4.10 
##DATA TYPE=MASS SPECTRUM
##SAMPLE DESCRIPTION=E. SCHUMACHER INORG. CHEM. INST., UNIV., ZURICH, SWITZE
RLAND
##NAMES=HP
##CAS NAME=1,3,5-Triazine, 1,3,5-tricyclohexylhexahydro-
##MOLFORM=C21H39N3
##CAS REGISTRY NO=6281-14-7
##MP= -300
##BP= -300
##MW= 333
##$RETENTION INDEX=0
##$CONDENSED SPECTRUM=NO
##NPOINTS= 14
##XYDATA=(XY..XY) 1 
    40        152
    41        551
    42        227
    54        197
    55        888
    56        235
    67        112
    68        263
    82        999
    83        490
    84         28
    96         39
   110         26
   111         60