##TITLE=Library Entry 96614
##JCAMP-DX=Revision 4.10 
##DATA TYPE=MASS SPECTRUM
##SAMPLE DESCRIPTION=Chemical Concepts
##NAMES=HP
##CAS NAME=(2-Nitroallyl)-benzene
##MOLFORM=C9H9NO2
##CAS REGISTRY NO=62811-39-6
##MP= -300
##BP= -300
##MW= 163
##$RETENTION INDEX=0
##$CONDENSED SPECTRUM=NO
##NPOINTS= 101
##XYDATA=(XY..XY) 1 
    26          2
    27         11
    28          1
    29          1
    30          7
    31          1
    33          1
    34          1
    35          1
    36          1
    37          3
    38          8
    39         78
    40          5
    41          8
    42          2
    43          4
    44          1
    45          1
    46          1
    47          2
    48          1
    49          1
    50         28
    51         70
    52         12
    53          3
    54          0
    55          4
    56          1
    57          6
    58         15
    59          1
    60          0
    61          5
    62         21
    63         48
    64         12
    65         79
    66          6
    67          1
    68          2
    69          2
    70          2
    71          2
    72          1
    73          1
    74          9
    75         12
    76         13
    77         37
    78         20
    79         11
    80          1
    81          1
    82          2
    83          2
    84          1
    85          2
    86          6
    87          7
    88          5
    89         52
    90         10
    91        193
    92         17
    93          1
    94          2
    95          1
    96          2
    97          1
    98          2
    99          1
   100          1
   101          1
   102         19
   103          7
   104          1
   105         12
   106          1
   107         12
   108          2
   109          1
   110          1
   111          0
   112          1
   113          6
   114         22
   115        558
   116        999
   117        167
   118         12
   119          2
   130          1
   131          3
   132          0
   133          4
   146          1
   154          2
   163        111
   164          7