##TITLE=Library Entry 10000
##JCAMP-DX=Revision 4.10 
##DATA TYPE=MASS SPECTRUM
##SAMPLE DESCRIPTION=E. DE HOFFMANN, LAB. MASS SPECTROM., UNIV. LOUVAIN, BEL
GH
##NAMES=HP
##CAS NAME=2-Methyl-N,N-diisopropylpropanamide
##MOLFORM=C10H21NO
##CAS REGISTRY NO=6282-98-0
##MP= -300
##BP= -300
##MW= 171
##$RETENTION INDEX=0
##$CONDENSED SPECTRUM=NO
##NPOINTS= 38
##XYDATA=(XY..XY) 1 
    41        279
    42        167
    43        999
    44        551
    45         31
    50          5
    51         28
    52         91
    53         19
    54         12
    55         33
    56         19
    57         16
    58        265
    59         62
    66         28
    67          6
    68          8
    69         12
    70         57
    71        104
    72         16
    80         50
    81          6
    83         25
    84         22
    85         20
    86        671
    87         47
    98          5
   100         17
   101         16
   111          5
   114         32
   128        120
   129         12
   171         52
   172          8