##TITLE=Library Entry 10991
##JCAMP-DX=Revision 4.10 
##DATA TYPE=MASS SPECTRUM
##SAMPLE DESCRIPTION=A.A.Kutin, Moscow, Russia
##NAMES=HP
##CAS NAME=Butanoic acid, 2,2-bis(2-cyanoethyl)-3-oxo-, methyl ester
##MOLFORM=C11H14N2O3
##CAS REGISTRY NO=6282-04-8
##MP= -300
##BP= -300
##MW= 222
##$RETENTION INDEX=0
##$CONDENSED SPECTRUM=NO
##NPOINTS= 116
##XYDATA=(XY..XY) 1 
    33          0
    35          0
    36          0
    37          2
    38          6
    39         38
    40         13
    41         35
    42         16
    43        999
    44         29
    45          7
    47          0
    48          0
    49          0
    50          4
    51         14
    52         18
    53         84
    54         23
    55         24
    56          2
    57          1
    58          2
    59         21
    60          0
    61          0
    62          1
    63          3
    64          5
    65         15
    66          8
    67          9
    68          3
    69          3
    70          1
    71          1
    72          0
    73          0
    74          0
    75          1
    76          1
    77          2
    78          6
    79          4
    80         33
    81          5
    82          2
    83          3
    84          2
    85          1
    86          1
    87          0
    88          0
    89          1
    90          0
    91          1
    92          6
    93          1
    94          3
    95          2
    96          1
    97          6
    98          1
    99          0
   102          0
   104          0
   105          0
   106          4
   107          2
   108        108
   109          8
   110          1
   111          0
   112          2
   113          1
   114          0
   115          0
   116          0
   117          0
   118          1
   119          2
   120          0
   121          0
   122          1
   123          0
   124          3
   125          0
   126          0
   127          0
   128          0
   129          9
   130          0
   131          0
   135          0
   136          0
   137          0
   138          2
   140         55
   141          5
   142          0
   145          0
   147          5
   148          7
   149          3
   150          0
   152          0
   161          1
   162          0
   165          0
   179          0
   180         17
   181          1
   182          1
   191          8
   192          1