##TITLE=Library Entry 28961
##JCAMP-DX=Revision 4.10 
##DATA TYPE=MASS SPECTRUM
##SAMPLE DESCRIPTION=J.A.GILPIN DOW CHEM. CO., MIDLAND, MICHIGAN, USA
##NAMES=HP
##CAS NAME=Hexanamide, N,N-diethyl-
##MOLFORM=C10H21NO
##CAS REGISTRY NO=6282-97-9
##MP= -300
##BP= -300
##MW= 171
##$RETENTION INDEX=0
##$CONDENSED SPECTRUM=NO
##NPOINTS= 40
##XYDATA=(XY..XY) 1 
    15         20
    27        160
    28         80
    29        280
    30         60
    31         10
    41        220
    42        150
    43        410
    44        290
    45         70
    55        130
    56         90
    57         70
    58        999
    59         50
    60        490
    71        130
    72        350
    73        300
    74         80
    85          4
    86        130
    87        170
    88         30
    99         80
   100        470
   101         40
   114         50
   115        710
   116         50
   127          1
   128        300
   129         40
   142         90
   143         10
   156         10
   157          1
   170          9
   171         80