##TITLE=Library Entry 84917
##JCAMP-DX=Revision 4.10 
##DATA TYPE=MASS SPECTRUM
##SAMPLE DESCRIPTION=V.Zaikin,Topchiev Inst.Petrochem.Synth.,Moscow
##NAMES=HP
##CAS NAME=3-Chloropropionic acid, benzyl ester
##MOLFORM=C10H11ClO2
##CAS REGISTRY NO=6282-07-1
##MP= -300
##BP= -300
##MW= 198
##$RETENTION INDEX=0
##$CONDENSED SPECTRUM=NO
##NPOINTS= 64
##XYDATA=(XY..XY) 1 
    25          1
    26          8
    27         26
    29          2
    35          2
    36         15
    37          1
    38          5
    39         20
    40          2
    41          6
    42          2
    43          1
    44          9
    45          3
    49          2
    50         13
    51         30
    52         15
    53          3
    55         22
    56          4
    61          2
    62          6
    63         65
    64          7
    65         54
    66          4
    72          3
    73          3
    74          3
    75          3
    76          4
    77         54
    78         18
    79         75
    80          7
    89         48
    90        197
    91        466
    92         36
    93         15
   104          1
   105         27
   106          9
   107         69
   108        999
   109         66
   110          4
   115          1
   116          2
   117         12
   118          2
   125         28
   126          3
   127         10
   128          1
   144          4
   162          9
   163          1
   198        164
   199         19
   200         52
   201          6