##TITLE=Library Entry 1110
##JCAMP-DX=Revision 4.10 
##DATA TYPE=MASS SPECTRUM
##SAMPLE DESCRIPTION=Exported from NIST MS Search
##NAMES=HP
##CAS NAME=Formamide, N-octyl-
##MOLFORM=C9H19NO
##CAS REGISTRY NO=6282-06-0
##MP= -300
##BP= -300
##MW= 157
##$RETENTION INDEX=1505
##$CONDENSED SPECTRUM=NO
##NPOINTS= 76
##XYDATA=(XY..XY) 1 
    26         18
    27        283
    28        225
    29        328
    30        999
    31         19
    38          6
    39        148
    40         28
    41        409
    42        157
    43        252
    44         95
    45         29
    46        391
    47          6
    50          3
    51          8
    52          5
    53         31
    54         30
    55        201
    56        144
    57         81
    58        919
    59        784
    60         57
    61          3
    65          4
    66          2
    67         17
    68         18
    69        100
    70         95
    71         22
    72        225
    73        108
    74          8
    77          5
    78          3
    79          4
    80          2
    81          6
    82         10
    83         46
    84         42
    85         10
    86        111
    87         57
    88          4
    91          2
    96          3
    97          9
    98          5
    99          5
   100        236
   101         51
   102          4
   104          5
   110          3
   112         11
   113          3
   114         93
   115         25
   116          3
   122          2
   126          3
   128         61
   129         39
   130          4
   140         11
   142         27
   143          3
   156         31
   157         44
   158          8