##TITLE=Library Entry 58859
##JCAMP-DX=Revision 4.10 
##DATA TYPE=MASS SPECTRUM
##SAMPLE DESCRIPTION=Japan AIST/NIMC Database- Spectrum MS-NW-1374
##NAMES=HP
##CAS NAME=Benzenamine, 2-chloro-5-nitro-
##MOLFORM=C6H5ClN2O2
##CAS REGISTRY NO=6283-25-6
##MP= -300
##BP= -300
##MW= 172
##$RETENTION INDEX=0
##$CONDENSED SPECTRUM=NO
##NPOINTS= 106
##XYDATA=(XY..XY) 1 
    14          2
    15          1
    16          1
    25          2
    26          9
    27         11
    28         39
    29          2
    30         34
    35          2
    36          8
    37         40
    38         69
    39        110
    40         21
    41         54
    42          9
    43          1
    44         14
    45          7
    46          7
    47          5
    48          4
    49         17
    50         26
    51         53
    52        176
    53         22
    54         10
    55          2
    57          1
    60          9
    61         52
    62        104
    63        366
    64        100
    65         73
    66         57
    67          5
    68          2
    71          2
    72          9
    73        100
    74         27
    75         47
    76         14
    77          9
    78         42
    79         16
    80          3
    84          2
    85          3
    86         11
    87         22
    88         16
    89         34
    90        999
    91        152
    92          9
    96          3
    97         10
    98          9
    99        311
   100         32
   101         99
   102         10
   103          1
   104          2
   105          8
   106         22
   107          8
   108          2
   109          3
   110          1
   112          2
   113          4
   114        205
   115         14
   116         66
   117          5
   119          1
   120          1
   124          4
   125         34
   126        675
   127         60
   128        220
   129         15
   130          2
   137          3
   139          1
   140          1
   141          1
   142         71
   143          8
   144         27
   145          2
   146          1
   156          9
   158          3
   171          5
   172        964
   173         73
   174        315
   175         22
   176          2