##TITLE=Library Entry 55406
##JCAMP-DX=Revision 4.10 
##DATA TYPE=MASS SPECTRUM
##SAMPLE DESCRIPTION=Japan AIST/NIMC Database- Spectrum MS-IW-5952
##NAMES=HP
##CAS NAME=3-(Perhydro-5-oxo-2-furyl)propionic acid
##MOLFORM=C7H10O4
##CAS REGISTRY NO=6283-72-3
##MP= -300
##BP= -300
##MW= 158
##$RETENTION INDEX=0
##$CONDENSED SPECTRUM=NO
##NPOINTS= 87
##XYDATA=(XY..XY) 1 
    14          1
    15          3
    17          4
    18         21
    26          8
    27         48
    28         85
    29        175
    30          6
    31          7
    37          1
    38          3
    39         29
    40          7
    41         41
    42         30
    43         30
    44         17
    45         29
    46          2
    47          1
    50          2
    51          4
    52          2
    53         12
    54         18
    55         86
    56        133
    57        101
    58         10
    59          2
    60         98
    61          5
    62          1
    63          1
    65          4
    66          4
    67         12
    68         29
    69         12
    70         19
    71         20
    72          2
    73         28
    74         19
    75          2
    77          2
    78          5
    79          1
    81          9
    82          1
    83          7
    84         12
    85        999
    86         55
    87          6
    94          9
    95          5
    96         10
    97          7
    98         84
    99         63
   100          4
   101         10
   103         17
   104          1
   105          1
   111         14
   112        217
   113         21
   114          8
   115          1
   116         64
   117          3
   121          1
   122          9
   123          3
   125          2
   129          3
   130         79
   131          5
   140          9
   141         24
   142          2
   143          1
   157          1
   159          9