##TITLE=Library Entry 23822
##JCAMP-DX=Revision 4.10 
##DATA TYPE=MASS SPECTRUM
##SAMPLE DESCRIPTION=K.Kawamura Anal.Chem.,65,3505(1993)
##NAMES=HP
##CAS NAME=Butane, 1,1',1'',1'''-(1,2-ethanediylidenetetrakis(oxy))tetrakis-
##MOLFORM=C18H38O4
##CAS REGISTRY NO=6284-81-7
##MP= -300
##BP= -300
##MW= 318
##$RETENTION INDEX=0
##$CONDENSED SPECTRUM=NO
##NPOINTS= 36
##XYDATA=(XY..XY) 1 
    39         74
    40          8
    41        399
    42         17
    43         12
    47         12
    50          9
    53          4
    54          3
    55         27
    56         33
    57        999
    58         38
    60         46
    76          4
    77         57
    78          3
    85          3
    87         16
   100         11
   101         16
   102         25
   103        149
   104         16
   116          6
   132          4
   133         14
   134          2
   155          3
   156          3
   157          6
   158         16
   159        152
   160         11
   172          6
   189         17