##TITLE=Library Entry 1282
##JCAMP-DX=Revision 4.10 
##DATA TYPE=MASS SPECTRUM
##SAMPLE DESCRIPTION=NIST Mass Spectrometry Data Center
##NAMES=HP
##CAS NAME=Benzene, 1,3,5-trichloro-2,4-dinitro-
##MOLFORM=C6HCl3N2O4
##CAS REGISTRY NO=6284-83-9
##MP= -300
##BP= -300
##MW= 270
##$RETENTION INDEX=0
##$CONDENSED SPECTRUM=NO
##NPOINTS= 127
##XYDATA=(XY..XY) 1 
    16          6
    25          1
    30        999
    35          9
    36         16
    37         43
    38          5
    46         58
    47         18
    48          6
    49         15
    50          2
    51          2
    53          2
    60         20
    61         41
    62          9
    63         22
    65          7
    71         21
    72         25
    73        110
    74         16
    75          6
    82          1
    83          9
    84         36
    85          7
    86         24
    87         27
    88          3
    89          4
    94          5
    95         11
    96         43
    97          9
    98         18
    99          2
   100          3
   106          8
   107         35
   108        262
   109         31
   110         88
   111          8
   112          3
   114          1
   118         56
   119         10
   120         37
   121         10
   122         16
   123          6
   124          6
   125          2
   126          2
   131        115
   132         12
   133         79
   134          6
   135         12
   136          1
   141          2
   142         19
   143        161
   144         29
   145        102
   146         12
   147         64
   148          5
   149         29
   150          1
   151          6
   154         25
   155          1
   156         22
   157          1
   158          8
   159         28
   160          3
   161         18
   162          1
   163          3
   165          1
   166         33
   167          5
   168         32
   169          3
   170         12
   171          1
   172          2
   175         57
   176          5
   177         45
   178        126
   179         21
   180        116
   181         10
   182         56
   183          4
   184         23
   185          1
   186          7
   188          2
   189         13
   191          8
   192          1
   193          2
   194          9
   195          2
   196          9
   197          1
   198          5
   208          1
   210          2
   240         13
   242         15
   244          5
   254          5
   256          4
   258          1
   270        193
   272        169
   273         16
   274         57
   275          4
   276          6