##TITLE=Library Entry 83078
##JCAMP-DX=Revision 4.10 
##DATA TYPE=MASS SPECTRUM
##SAMPLE DESCRIPTION=Chemical Concepts
##NAMES=HP
##CAS NAME=Acetamide, N-(1-phenylethyl)-
##MOLFORM=C10H13NO
##CAS REGISTRY NO=6284-14-6
##MP= -300
##BP= -300
##MW= 163
##$RETENTION INDEX=0
##$CONDENSED SPECTRUM=NO
##NPOINTS= 93
##XYDATA=(XY..XY) 1 
    26          3
    27         43
    28         27
    29          7
    30          6
    31          0
    37          2
    38          7
    39         49
    40          6
    41         20
    42        237
    43        337
    44        204
    45          8
    49          1
    50         40
    51        124
    52         32
    53         13
    54          3
    55          3
    56          2
    57          6
    59          4
    60         12
    61          2
    62          6
    63         22
    64          5
    65         22
    66          4
    67          2
    68          2
    69          3
    70          1
    71          2
    72          5
    73          2
    74         10
    75         10
    76         18
    77        209
    78         90
    79        201
    80         15
    81          2
    82          0
    83          1
    84          0
    85          2
    86         11
    87          2
    89          9
    90          3
    91         23
    92          8
    93          6
    94          2
    95          1
    96          0
    97          1
   101          1
   102         12
   103         77
   104        322
   105        191
   106        999
   107         92
   108          3
   116          1
   117          3
   118         10
   119         13
   120        302
   121         40
   122          2
   130          0
   131          1
   132          2
   144          6
   145          4
   146          2
   147          1
   148        190
   149         21
   150          1
   160          1
   161          0
   162         27
   163        387
   164         54
   165          4