##TITLE=Library Entry 15772
##JCAMP-DX=Revision 4.10 
##DATA TYPE=MASS SPECTRUM
##SAMPLE DESCRIPTION=Japan AIST/NIMC Database- Spectrum MS-NW-4856
##NAMES=HP
##CAS NAME=Meglumine
##MOLFORM=C7H17NO5
##CAS REGISTRY NO=6284-40-8
##MP= -300
##BP= -300
##MW= 195
##$RETENTION INDEX=0
##$CONDENSED SPECTRUM=NO
##NPOINTS= 69
##XYDATA=(XY..XY) 1 
    14          1
    15         30
    17          5
    18         24
    19          3
    26          1
    27          9
    28         21
    29         12
    30         43
    31         22
    32         50
    39          3
    40          1
    41          6
    42         17
    43         23
    44        999
    45         44
    46          3
    47          1
    53          1
    55          4
    56         14
    57         11
    58          7
    59          4
    60          6
    61         12
    62          2
    68          1
    69          3
    70          4
    71          2
    72          3
    73         45
    74         95
    75         18
    76          1
    82          1
    84          1
    85          2
    86          8
    87          7
    88          7
    89          1
    91          1
    97          1
    98          3
    99          1
   100          2
   103          1
   104         23
   105          7
   110          1
   116         19
   117          3
   118          1
   128          1
   129          1
   134         19
   135          1
   146          1
   148          2
   159          2
   164          9
   165          1
   177          1
   178          2