##TITLE=Library Entry 78592
##JCAMP-DX=Revision 4.10 
##DATA TYPE=MASS SPECTRUM
##SAMPLE DESCRIPTION=A.A.Kutin, Moscow, Russia
##NAMES=HP
##CAS NAME=Propan-1-one, 3-nitro-1-phenyl-
##MOLFORM=C9H9NO3
##CAS REGISTRY NO=62847-52-3
##MP= -300
##BP= -300
##MW= 179
##$RETENTION INDEX=0
##$CONDENSED SPECTRUM=NO
##NPOINTS= 68
##XYDATA=(XY..XY) 1 
    34          0
    37         14
    38         36
    39         63
    40          9
    41          7
    42          8
    43          8
    44          7
    46         48
    48          0
    50        217
    51        445
    52         30
    53         14
    55         55
    56          4
    57          2
    58          1
    61          6
    62         13
    63         18
    64          4
    65         11
    66          3
    67          1
    68          0
    70          3
    71          0
    73          9
    74         45
    75         32
    77        869
    78         51
    79          7
    80          0
    81          0
    83          0
    84          1
    85          1
    86          1
    87          1
    89          3
    90          1
    91          6
    92          2
    93          1
    98          0
   102          6
   103         17
   105        999
   106         63
   107          4
   115          1
   119          0
   120          0
   121          0
   130          0
   131          2
   132          5
   133          6
   134          0
   146          1
   147          0
   149          0
   151          0
   179         20
   180          1