##TITLE=Library Entry 51893
##JCAMP-DX=Revision 4.10 
##DATA TYPE=MASS SPECTRUM
##SAMPLE DESCRIPTION=Exported from NIST MS Search
##NAMES=HP
##CAS NAME=1-Pentyn-3-ol, 3-ethyl-
##MOLFORM=C7H12O
##CAS REGISTRY NO=6285-06-9
##MP= -300
##BP= -300
##MW= 112
##$RETENTION INDEX=0
##$CONDENSED SPECTRUM=NO
##NPOINTS= 74
##XYDATA=(XY..XY) 1 
    12          5
    13          7
    14          8
    15         26
    16          1
    17          1
    18          4
    19          1
    25         52
    26        214
    27        366
    28         69
    29        486
    30         12
    31         21
    32          1
    36          2
    37         12
    38         25
    39        168
    40         25
    41         49
    42         24
    43        208
    44          6
    45          8
    48          1
    49          4
    50         24
    51         36
    52         13
    53        132
    54         21
    55        252
    56         26
    57        236
    58          9
    59          2
    60          1
    61          6
    62         11
    63         18
    64          6
    65         29
    66         10
    67         14
    68          8
    69         10
    70          3
    71          2
    72          1
    73          1
    74          2
    75          1
    76          1
    77         20
    78          4
    79         24
    80          2
    81         10
    82         24
    83        999
    84         54
    85          5
    86         39
    87          4
    91          4
    92          1
    93          4
    94          7
    95          5
    96          1
    97          6
    98          1