##TITLE=Library Entry 37440
##JCAMP-DX=Revision 4.10 
##DATA TYPE=MASS SPECTRUM
##SAMPLE DESCRIPTION=Japan AIST/NIMC Database- Spectrum MS-NW-9384
##NAMES=HP
##CAS NAME=1,2,3-Cyclohexanetriol
##MOLFORM=C6H12O3
##CAS REGISTRY NO=6286-43-7
##MP= -300
##BP= -300
##MW= 132
##$RETENTION INDEX=0
##$CONDENSED SPECTRUM=NO
##NPOINTS= 72
##XYDATA=(XY..XY) 1 
    14          2
    15         12
    17          2
    18          8
    26          5
    27         55
    28         26
    29        105
    30         14
    31         53
    32          1
    37          1
    38          3
    39         46
    40         16
    41         98
    42         67
    43         85
    44         78
    45         27
    46          1
    47         15
    50          2
    51          4
    52          1
    53         14
    54          8
    55         80
    56         13
    57        403
    58        172
    59         10
    60         72
    61          7
    65          5
    66          7
    67         52
    68         57
    69         61
    70        999
    71         81
    72          9
    73         70
    74          5
    75          1
    77          2
    78          2
    79         10
    80          1
    81         19
    82          2
    83         74
    84          8
    85          8
    86         82
    87          6
    88          7
    89          2
    95         20
    96         92
    97         36
    98          4
    99          7
   101          6
   102          1
   112          1
   113         43
   114        172
   115         28
   116          2
   132          1
   133          6