##TITLE=Library Entry 31076
##JCAMP-DX=Revision 4.10 
##DATA TYPE=MASS SPECTRUM
##SAMPLE DESCRIPTION=Div. of Experiment Therapeutics WRAIR, WRAMC, Washingto
n DC 20307
##NAMES=HP
##CAS NAME=5-Nitrothiophene-2-carboxaldehyde semicarbazone
##MOLFORM=C6H6N4O3S
##CAS REGISTRY NO=6286-12-0
##MP= -300
##BP= -300
##MW= 214
##$RETENTION INDEX=0
##$CONDENSED SPECTRUM=NO
##NPOINTS= 83
##XYDATA=(XY..XY) 1 
    41         22
    42         36
    43        197
    44        548
    45        393
    46         21
    47         25
    49         30
    50         62
    51        113
    52         49
    53         41
    54        102
    55         37
    57         54
    58         32
    59         20
    60        999
    61         33
    62         19
    63         28
    64         41
    65          3
    66          8
    67         19
    68         34
    69        194
    70         98
    71        102
    72         16
    73         15
    75          3
    78         13
    79         54
    80         28
    81        265
    82         87
    83         43
    84         36
    85         44
    86         51
    87          3
    92         41
    93         67
    94         24
    95        482
    96         75
    97         70
    98        126
    99         18
   108         50
   109         38
   110          7
   111          9
   112         16
   113         52
   114         10
   123         13
   124        184
   125         75
   126         16
   127          3
   130          3
   136          3
   138         26
   141         59
   153         12
   154         52
   155         30
   156         10
   157         24
   168         60
   169         17
   170        237
   171        619
   172         60
   173         32
   197          7
   198         10
   214        303
   215         67
   216         25
   217          6