##TITLE=Library Entry 13519
##JCAMP-DX=Revision 4.10 
##DATA TYPE=MASS SPECTRUM
##SAMPLE DESCRIPTION=Div. of Experiment Therapeutics WRAIR, WRAMC, Washingto
n DC 20307
##NAMES=HP
##CAS NAME=5-Methyl-2-thiophenecarboxaldehyde thiosemicarbazone
##MOLFORM=C7H9N3S2
##CAS REGISTRY NO=6286-85-7
##MP= -300
##BP= -300
##MW= 199
##$RETENTION INDEX=0
##$CONDENSED SPECTRUM=NO
##NPOINTS= 106
##XYDATA=(XY..XY) 1 
    41         53
    43        999
    45        486
    47         64
    48         17
    50         77
    51        166
    53        510
    54         26
    55         13
    57         50
    58         45
    59        171
    60        488
    61         35
    62         52
    63         50
    65        105
    66        149
    67         27
    69        103
    70         55
    71         94
    72         24
    73         34
    74         30
    76        421
    77        118
    78         39
    79         19
    80         44
    81         32
    82         40
    83          5
    84         72
    85         45
    86          7
    87          3
    88          0
    89          0
    90          4
    91         29
    92          9
    93         19
    95        187
    97        294
    98         95
    99         34
   100         23
   102         20
   103          3
   105         25
   106         34
   107         18
   109         44
   110         67
   111        100
   112        106
   113         84
   114          9
   115          6
   117          5
   122        145
   123        172
   124        550
   125         87
   126         75
   127          6
   128          1
   129          6
   130          5
   131          2
   134          1
   136          4
   137          8
   139        145
   140         55
   141         22
   142         12
   143         19
   144          5
   145          3
   146          2
   153          7
   154          3
   155          7
   156          8
   157          1
   158          0
   165          0
   166         22
   168         18
   169          1
   180          0
   181          1
   182        366
   183         54
   184         38
   185          6
   197          3
   198         16
   199        679
   200         57
   201         20
   202          8
   203          2