##TITLE=Library Entry 76644
##JCAMP-DX=Revision 4.10 
##DATA TYPE=MASS SPECTRUM
##SAMPLE DESCRIPTION=NIST Mass Spectrometry Data Center
##NAMES=HP
##CAS NAME=.alpha.,.beta.-Dibromohydrocinnamic acid
##MOLFORM=C9H8Br2O2
##CAS REGISTRY NO=6286-30-2
##MP= -300
##BP= -300
##MW= 306
##$RETENTION INDEX=0
##$CONDENSED SPECTRUM=NO
##NPOINTS= 136
##XYDATA=(XY..XY) 1 
    12          1
    15          1
    16          3
    25          1
    26         17
    27         35
    29          6
    31          1
    36          6
    37         18
    38         39
    39         80
    40          7
    41          8
    42          4
    43          7
    44        112
    45         65
    46          9
    47          1
    48          1
    49         21
    50        211
    51        436
    52         71
    53         22
    54          3
    55          9
    59          5
    60          9
    61         24
    62         54
    63        109
    64         15
    65         38
    67          1
    68          2
    69         15
    70          2
    71          5
    72          1
    73         23
    74        128
    75        105
    76        132
    77        591
    78         87
    79         74
    80         98
    81         44
    82         94
    84          1
    85          4
    86          8
    87         17
    88          3
    89         20
    90         13
    91        230
    92         41
    93          5
    94         14
    95          2
    97          4
    98         19
    99          6
   100          2
   101         34
   102        365
   103        999
   104        145
   105         54
   106         14
   107         95
   108         13
   109          2
   111          1
   112          1
   113          1
   115          1
   117          2
   118          8
   119         44
   120         75
   121         12
   122         22
   123          2
   125          3
   127          4
   128          6
   129         24
   130         43
   131        183
   132         18
   133          2
   135          4
   136          3
   137          1
   138          5
   139          2
   141          2
   143          3
   144          1
   145          2
   147        924
   148        605
   149         60
   150          6
   151          2
   153          3
   155          1
   156          1
   157         16
   158          2
   159          6
   163          1
   169          6
   170          4
   171          6
   172          1
   181          3
   182        212
   183         28
   184        208
   185         25
   186          1
   191          1
   202          9
   204          3
   225          1
   226         10
   227         44
   228         15
   229         41
   230          4
   262          1