##TITLE=Library Entry 98674
##JCAMP-DX=Revision 4.10 
##DATA TYPE=MASS SPECTRUM
##SAMPLE DESCRIPTION=Japan AIST/NIMC Database- Spectrum MS-NW-5151
##NAMES=HP
##CAS NAME=2-Butenoic acid, 3-(phenylamino)-, ethyl ester
##MOLFORM=C12H15NO2
##CAS REGISTRY NO=6287-35-0
##MP= -300
##BP= -300
##MW= 205
##$RETENTION INDEX=0
##$CONDENSED SPECTRUM=NO
##NPOINTS= 133
##XYDATA=(XY..XY) 1 
    13          2
    14          8
    15         22
    16          1
    17          2
    18          3
    25          2
    26         22
    27        106
    28         28
    29        135
    30          7
    31        101
    32          4
    36          1
    37         12
    38         35
    39        166
    40         27
    41         35
    42         72
    43        100
    44         10
    45         56
    46         21
    47          2
    49          3
    50         52
    51        204
    52         42
    53         11
    54         23
    55          9
    56          2
    57          1
    58          7
    59          2
    60          8
    61          9
    62         16
    63         52
    64         43
    65        158
    66        104
    67         30
    68         13
    69         11
    70          4
    71          2
    73          4
    74         13
    75         19
    76         32
    77        620
    78         66
    79         24
    80          7
    82          2
    83          4
    84          9
    85         16
    86          4
    87          5
    88         16
    89         38
    90         53
    91         77
    92         96
    93        325
    94         32
    95          5
    98          2
    99          1
   101          5
   102         12
   103         41
   104         24
   105         22
   106         43
   107          7
   108          2
   109          1
   110          1
   113          5
   114          4
   115         13
   116         33
   117        166
   118        999
   119        104
   120         52
   121          4
   122          1
   127          1
   128          7
   129          9
   130        357
   131        350
   132        451
   133        123
   134         13
   135          7
   136         20
   137          6
   140          1
   142          5
   143          4
   144        234
   145         29
   146          9
   147          2
   148          4
   157          3
   158         33
   159        401
   160        471
   161         52
   162         22
   163          3
   164         13
   165         33
   166          4
   175          2
   176         18
   177          8
   188          2
   190         39
   191          6
   203          2
   204         35
   205        624
   206         83
   207          9