##TITLE=Library Entry 34770
##JCAMP-DX=Revision 4.10 
##DATA TYPE=MASS SPECTRUM
##SAMPLE DESCRIPTION=Chemical Concepts
##NAMES=HP
##CAS NAME=7-Oxabicyclo[4.1.0]heptane, 1-methoxy-2,2,6-trimethyl-
##MOLFORM=C10H18O2
##CAS REGISTRY NO=62870-56-8
##MP= -300
##BP= -300
##MW= 170
##$RETENTION INDEX=0
##$CONDENSED SPECTRUM=NO
##NPOINTS= 105
##XYDATA=(XY..XY) 1 
    25          6
    27        116
    28         27
    29        125
    30          5
    31         15
    33          4
    38          4
    39        152
    40         34
    41        468
    42        100
    43        752
    44         24
    45         44
    50          4
    51         16
    52          9
    53         86
    54         40
    55        341
    56        143
    57         97
    58         26
    59        118
    60          9
    61          4
    63          5
    65         20
    66          9
    67        143
    68         70
    69        999
    70        169
    71        328
    72        123
    73        174
    74        103
    75        135
    76          7
    77         28
    78         10
    79         44
    80         25
    81        127
    82        234
    83        157
    84         46
    85        274
    86        210
    87        105
    88         41
    89          7
    91         21
    92          7
    93         18
    94         27
    95        340
    96        680
    97        280
    98         30
    99        153
   100         28
   101        290
   102        230
   103         19
   104          4
   105         11
   106          4
   107         19
   108         12
   109        514
   110        200
   111        104
   112         56
   113         69
   114        228
   115        109
   116         13
   117          4
   119          5
   120         15
   121          7
   122          4
   123         76
   124         11
   125         33
   126          7
   127        211
   128         66
   129         14
   132          4
   137          9
   138        110
   139         32
   140         12
   141         18
   142         28
   143          5
   154         35
   155        101
   156         18
   169          6
   170         65
   171         10