##TITLE=Library Entry 19252
##JCAMP-DX=Revision 4.10 
##DATA TYPE=MASS SPECTRUM
##SAMPLE DESCRIPTION=Chemical Concepts
##NAMES=HP
##CAS NAME=1-Decene, 10-bromo-
##MOLFORM=C10H19Br
##CAS REGISTRY NO=62871-09-4
##MP= -300
##BP= -300
##MW= 218
##$RETENTION INDEX=0
##$CONDENSED SPECTRUM=NO
##NPOINTS= 125
##XYDATA=(XY..XY) 1 
    25          3
    26         26
    27        249
    28         32
    29        263
    30          6
    31          2
    36          2
    37          4
    38         13
    39        327
    40         52
    41        882
    42        171
    43        238
    44          9
    45          4
    46          1
    49          1
    50         12
    51         26
    52         14
    53         99
    54        132
    55        999
    56        209
    57        114
    58          7
    59          1
    60          1
    61          1
    62          1
    63          4
    64          1
    65         17
    66         11
    67        169
    68        103
    69        601
    70        107
    71         27
    72          3
    73          1
    74          2
    75          1
    76          1
    77         23
    78          4
    79         16
    80          4
    81        112
    82         74
    83        349
    84         48
    85         13
    86          1
    87          0
    89          1
    91          8
    92          2
    93          9
    94          1
    95         54
    96         37
    97        404
    98         38
    99          3
   103          0
   104          1
   105         10
   106          2
   107         29
   108          2
   109         26
   110          9
   111         18
   112          2
   115          1
   117          1
   119          2
   120          4
   121         12
   122          9
   123          9
   124          1
   125          1
   133          2
   134         27
   135         61
   136         33
   137         48
   138          3
   139          1
   141          1
   147          1
   148         88
   149          9
   150         86
   151          9
   152          1
   153          1
   161          3
   162         29
   163          4
   164         28
   165          3
   166          1
   167          2
   168          0
   174          1
   175          1
   176          9
   177          2
   178          9
   179          1
   188          1
   189          1
   190          3
   191          1
   192          2
   193          0
   218          2
   219          1
   220          2
   221          0