##TITLE=Library Entry 44764
##JCAMP-DX=Revision 4.10 
##DATA TYPE=MASS SPECTRUM
##SAMPLE DESCRIPTION=D. LUKE UNILEVER RESEARCH LAB., PORT SUNLIGHT
##NAMES=HP
##CAS NAME=Undecanoic acid, 11-bromo-, methyl ester
##MOLFORM=C12H23BrO2
##CAS REGISTRY NO=6287-90-7
##MP= -300
##BP= -300
##MW= 278
##$RETENTION INDEX=0
##$CONDENSED SPECTRUM=NO
##NPOINTS= 101
##XYDATA=(XY..XY) 1 
    14          2
    15         48
    26          4
    27         64
    28         40
    29         84
    30          2
    31          9
    39         48
    40         11
    41        222
    42         48
    43        219
    44         10
    45         14
    51          2
    53         20
    54         20
    55        253
    56         36
    57         80
    58         13
    59         94
    60          5
    61          2
    65          3
    66          2
    67         27
    68         14
    69        125
    70         20
    71         32
    72          7
    73         18
    74        999
    75         91
    76          7
    77          2
    79          6
    80          5
    81         26
    82         11
    83         72
    84         33
    85         17
    87        455
    88         47
    89          3
    93          4
    95         13
    96          8
    97         41
    98         15
    99          4
   101         37
   102          3
   107         13
   109         13
   110          2
   111         12
   112          6
   113          3
   115         11
   116          4
   121          4
   123          5
   124          3
   125         10
   126          2
   129         24
   130          3
   135          7
   137          7
   139         13
   140          5
   141          2
   143         30
   144          3
   148          2
   149         12
   150          2
   151          2
   157          3
   163          2
   165          1
   166          2
   167         24
   168          3
   199         97
   200         13
   204          3
   206          2
   235         13
   237         13
   249         30
   250          4
   251         33
   252          4
   253          5
   278          4
   280          4