##TITLE=Library Entry 69386
##JCAMP-DX=Revision 4.10 
##DATA TYPE=MASS SPECTRUM
##SAMPLE DESCRIPTION=Exported from NIST MS Search
##NAMES=HP
##CAS NAME=2-Furanmethanediol, dipropionate
##MOLFORM=C11H14O5
##CAS REGISTRY NO=6289-73-2
##MP= -300
##BP= -300
##MW= 226
##$RETENTION INDEX=0
##$CONDENSED SPECTRUM=NO
##NPOINTS= 73
##XYDATA=(XY..XY) 1 
    12          2
    13         10
    14         25
    15         25
    16          5
    17         14
    18         42
    19          5
    24          6
    25         27
    26        148
    27        393
    28        606
    29        700
    30         82
    31         32
    32         13
    34         10
    36         16
    37         60
    38         96
    39        359
    40         40
    41         33
    42         56
    43         43
    44         64
    45        324
    46         36
    47         22
    48          5
    49         11
    50         19
    51         23
    52         10
    53         30
    54         25
    55        111
    56        184
    57        784
    58         32
    59         15
    60          7
    66         10
    67         61
    68         15
    69         14
    71         14
    73        335
    74        571
    75        129
    77          8
    83          9
    84          7
    85          7
    91         14
    94          8
    95        952
    96        999
    97        131
    98         15
    99          8
   152          9
   153         32
   169         48
   170         11
   183         14
   196          8
   197         25
   198         11
   211         54
   212          7
   226         10