##TITLE=Library Entry 6095
##JCAMP-DX=Revision 4.10 
##DATA TYPE=MASS SPECTRUM
##SAMPLE DESCRIPTION=R.T.HOLMAN,UNIVERSITY OF MINNESOTA
##NAMES=HP
##CAS NAME=Octadecanoic acid, 2-propenyl ester
##MOLFORM=C21H40O2
##CAS REGISTRY NO=6289-31-2
##MP= -300
##BP= -300
##MW= 324
##$RETENTION INDEX=2251
##$CONDENSED SPECTRUM=NO
##NPOINTS= 241
##XYDATA=(XY..XY) 1 
    25          2
    26         13
    27         81
    28        105
    29        227
    30          8
    31         15
    32         16
    33          2
    34          2
    37          4
    38          8
    39        117
    40         28
    41        987
    42        154
    43        999
    44         56
    45         26
    46          2
    47          2
    50          2
    51          3
    52          2
    53         28
    54        174
    55        695
    56        247
    57        902
    58        211
    59         25
    60         28
    61         13
    62          2
    63          2
    64          2
    65          5
    66          6
    67        130
    68         56
    69        434
    70        105
    71        508
    72         42
    73         52
    74          6
    75          2
    76          1
    77          6
    78          3
    79         23
    80         10
    81        150
    82        101
    83        333
    84        130
    85        317
    86         23
    87         24
    88          4
    89          2
    90          1
    91          8
    92          2
    93         22
    94          8
    95        150
    96         42
    97        276
    98        113
    99        109
   100        853
   101        219
   102         25
   103          4
   104          1
   105          5
   106          2
   107         21
   108          6
   109         89
   110         24
   111        146
   112         40
   113        585
   114         56
   115         44
   116          5
   117          2
   118          1
   119          6
   120          2
   121         27
   122          5
   123         47
   124         16
   125         81
   126         17
   127         52
   128          8
   129         26
   130          3
   131          2
   132          1
   133          6
   134          3
   135         28
   136          4
   137         23
   138         10
   139         56
   140         11
   141         22
   142         18
   143         11
   144          3
   145          2
   146          1
   147          5
   148          3
   149         22
   150          4
   151         13
   152          5
   153         38
   154          8
   155         44
   156         15
   157         17
   158          3
   159          1
   160          2
   161          3
   162          2
   163         16
   164          4
   165         10
   166          5
   167         27
   168          5
   169         93
   170         13
   171         15
   172          2
   173          1
   175          3
   176          1
   177         10
   178          3
   179          6
   180          4
   181         19
   182          4
   183         11
   184          3
   185         13
   186          2
   187          1
   189          2
   191          7
   192          2
   193          5
   194          3
   195         14
   196          4
   197          9
   198          3
   199         10
   200          2
   201          1
   202          1
   203          2
   204          1
   205          6
   206          3
   207          5
   208          2
   209         10
   210          4
   211         17
   212          4
   213          7
   214          2
   215          1
   216          1
   217          2
   218          1
   219          2
   220          7
   221          6
   222          6
   223          8
   224          3
   225         23
   226          5
   227          6
   228          2
   229          2
   235          2
   236          2
   237          2
   238          2
   239         16
   240          5
   241          4
   242          2
   243          2
   246          2
   247         20
   248          7
   249          5
   250          2
   251          2
   253         10
   254          3
   255          2
   263          3
   264         19
   265         50
   266         13
   267        227
   268         48
   269          6
   270          2
   281         51
   282         14
   283         19
   284          5
   285          3
   286          2
   295         17
   296          5
   297          1
   306          1
   309         17
   310          5
   323          4
   324         56
   325         15
   326          4
   327          2