##TITLE=Library Entry 7754
##JCAMP-DX=Revision 4.10 
##DATA TYPE=MASS SPECTRUM
##SAMPLE DESCRIPTION=Japan AIST/NIMC Database- Spectrum MS-NW-4453
##NAMES=HP
##CAS NAME=1-Eicosanol
##MOLFORM=C20H42O
##CAS REGISTRY NO=629-96-9
##MP= -300
##BP= -300
##MW= 298
##$RETENTION INDEX=2281
##$CONDENSED SPECTRUM=NO
##NPOINTS= 131
##XYDATA=(XY..XY) 1 
    15          3
    17          2
    18          7
    26          4
    27        100
    28         29
    29        314
    30          8
    31        116
    32          2
    33          1
    38          1
    39         70
    40         17
    41        692
    42        180
    43        999
    44         33
    45         18
    51          3
    52          3
    53         35
    54        104
    55        851
    56        407
    57        865
    58         40
    59          9
    65          6
    66         15
    67        143
    68        376
    69        729
    70        381
    71        409
    72         25
    73         20
    74          1
    77          4
    78          1
    79         10
    80          8
    81         91
    82        454
    83        836
    84        280
    85        257
    86         16
    87          4
    91          2
    92          1
    93          3
    94          3
    95         52
    96        167
    97        690
    98        188
    99         65
   100          4
   101          1
   105          1
   108          2
   109         23
   110         79
   111        381
   112        131
   113         43
   114          4
   115          1
   121          1
   122          1
   123         13
   124         51
   125        202
   126        104
   127         28
   128          3
   135          1
   136          1
   137          9
   138         38
   139        109
   140         69
   141         21
   142          3
   151          3
   152         26
   153         70
   154         54
   155         14
   156          2
   165          2
   166         21
   167         49
   168         44
   169         10
   170          2
   179          1
   180         14
   181         33
   182         34
   183          7
   194         13
   195         22
   196         31
   197          9
   208          9
   209         17
   210         22
   211          9
   212          2
   222          7
   223         12
   224         16
   225          4
   236          3
   237          8
   238          9
   239          3
   250          4
   251          5
   252         61
   253         12
   254          1
   278          6
   279          2
   280        142
   281         32
   282          4
   283          1
   297          1