##TITLE=Library Entry 7372
##JCAMP-DX=Revision 4.10 
##DATA TYPE=MASS SPECTRUM
##SAMPLE DESCRIPTION=NIST Mass Spectrometry Data Center
##NAMES=HP
##CAS NAME=1-Pentadecanol acetate
##MOLFORM=C17H34O2
##CAS REGISTRY NO=629-58-3
##MP= -300
##BP= -300
##MW= 270
##$RETENTION INDEX=1907
##$CONDENSED SPECTRUM=NO
##NPOINTS= 107
##XYDATA=(XY..XY) 1 
    15          4
    26          2
    27         31
    28          9
    29         88
    30          2
    31          2
    39         44
    40         11
    41        346
    42        110
    43        999
    44         30
    45          6
    50          1
    51          2
    52          2
    53         29
    54         81
    55        566
    56        344
    57        457
    58         37
    59          8
    61        441
    62         10
    63          2
    65          5
    66          9
    67        102
    68        152
    69        459
    70        320
    71        205
    72         12
    73         50
    74          3
    75          1
    77          3
    78          1
    79         11
    80          5
    81         58
    82        262
    83        552
    84        224
    85        118
    86          9
    87          7
    88          3
    91          2
    93          2
    94          2
    95         28
    96        112
    97        469
    98        164
    99         26
   100          2
   101         10
   102          3
   108          1
   109          9
   110         46
   111        248
   112         90
   113         13
   114          1
   115          3
   116         47
   117          3
   122          1
   123          4
   124         26
   125        102
   126         55
   127          9
   128          1
   129          3
   130          6
   137          2
   138         15
   139         29
   140         31
   141          5
   142          1
   143          1
   152          7
   153         12
   154         19
   155          3
   156          1
   166          3
   167          5
   168          7
   169          1
   170          1
   180          2
   181          3
   182         46
   183          7
   184          1
   198          1
   208          1
   210         23
   211          4
   255          1