##TITLE=Library Entry 59287
##JCAMP-DX=Revision 4.10 
##DATA TYPE=MASS SPECTRUM
##SAMPLE DESCRIPTION=Chuck Anderson, Aldrich Chemical Co.
##NAMES=HP
##CAS NAME=Heptane, 1-chloro-
##MOLFORM=C7H15Cl
##CAS REGISTRY NO=629-06-1
##MP= -300
##BP= -300
##MW= 134
##$RETENTION INDEX=946
##$CONDENSED SPECTRUM=NO
##NPOINTS= 86
##XYDATA=(XY..XY) 1 
    14          0
    15          4
    24          0
    25          0
    26          9
    27        130
    28         29
    29        161
    30          4
    31          0
    35          0
    36          1
    37          2
    38          8
    39        175
    40         32
    41        636
    42        201
    43        566
    44         22
    45          0
    46          0
    47          0
    48          1
    49         39
    50          9
    51         33
    52          7
    53         59
    54         45
    55        680
    56        430
    57        283
    58         13
    59          0
    60          0
    61          5
    62         13
    63         63
    64          5
    65         26
    66          2
    67         29
    68         31
    69        528
    70        208
    71         38
    72          2
    73          1
    74          0
    75          9
    76          4
    77         13
    78          2
    79          4
    80          0
    81          2
    82          0
    83         24
    84          1
    85          6
    86          0
    87          0
    88          0
    89          1
    91        999
    92         42
    93        304
    94         13
    95          0
    96          0
    97          5
    98          2
    99          0
   103          0
   105        128
   106          7
   107         43
   108          2
   109          0
   119          0
   132          0
   133          0
   134          1
   135          0
   136          0