##TITLE=Library Entry 20021
##JCAMP-DX=Revision 4.10 
##DATA TYPE=MASS SPECTRUM
##SAMPLE DESCRIPTION=Japan AIST/NIMC Database- Spectrum MS-NW-4656
##NAMES=HP
##CAS NAME=1,8-Octanediol
##MOLFORM=C8H18O2
##CAS REGISTRY NO=629-41-4
##MP= -300
##BP= -300
##MW= 146
##$RETENTION INDEX=1314
##$CONDENSED SPECTRUM=NO
##NPOINTS= 83
##XYDATA=(XY..XY) 1 
    15         14
    17          8
    18         17
    26         10
    27        186
    28         59
    29        230
    30          9
    31        523
    32          5
    33          3
    37          2
    38          7
    39        152
    40         36
    41        763
    42        323
    43        358
    44        142
    45         87
    46          4
    49          9
    50          5
    51         11
    52          5
    53         77
    54        526
    55        999
    56        360
    57        308
    58         45
    59         16
    60          8
    61          3
    62          2
    63          2
    64          1
    65         10
    66         46
    67        877
    68        773
    69        418
    70        250
    71        131
    72         43
    73         30
    74          2
    75          1
    76          1
    77          9
    78          4
    79         29
    80         16
    81        349
    82        687
    83        106
    84         25
    85        123
    86         12
    87          6
    91          8
    92          1
    93         10
    94          3
    95        119
    96         13
    97         13
    98         92
    99         19
   100          9
   101          4
   105          1
   106          2
   107          2
   108          3
   109         15
   110         17
   111          3
   116          5
   122          1
   124          3
   127          1
   129          1