##TITLE=Library Entry 52286
##JCAMP-DX=Revision 4.10 
##DATA TYPE=MASS SPECTRUM
##SAMPLE DESCRIPTION=NIST Mass Spectrometry Data Center
##NAMES=HP
##CAS NAME=n-Pentadecanol
##MOLFORM=C15H32O
##CAS REGISTRY NO=629-76-5
##MP= -300
##BP= -300
##MW= 228
##$RETENTION INDEX=1778
##$CONDENSED SPECTRUM=NO
##NPOINTS= 89
##XYDATA=(XY..XY) 1 
    15          1
    19          1
    27         64
    28         18
    29        165
    31        154
    32          1
    33          1
    39         81
    40         20
    41        599
    42        154
    43        644
    44         32
    45         16
    46          1
    50          1
    51          4
    52          3
    53         51
    54         99
    55        941
    56        505
    57        689
    58         30
    59          3
    63          1
    65         10
    66         15
    67        171
    68        347
    69        859
    70        562
    71        313
    72         17
    73         21
    74          1
    77          6
    78          1
    79         16
    80          5
    81         93
    82        443
    83        999
    84        413
    85        194
    86         12
    87          3
    93          2
    94          2
    95         39
    96        162
    97        813
    98        264
    99         41
   100          2
   109         12
   110         75
   111        427
   112        166
   113         20
   114          1
   123          5
   124         39
   125        180
   126         96
   127         13
   128          1
   137          2
   138         20
   139         46
   140         52
   141          8
   142          1
   152          9
   153         19
   154         40
   155          5
   166          4
   167          8
   168         10
   169          1
   180          2
   181          3
   182         59
   183          8
   184          1
   210         16
   211          3