##TITLE=Library Entry 30125
##JCAMP-DX=Revision 4.10 
##DATA TYPE=MASS SPECTRUM
##SAMPLE DESCRIPTION=Japan AIST/NIMC Database- Spectrum MS-IW-6473
##NAMES=HP
##CAS NAME=Octanamide
##MOLFORM=C8H17NO
##CAS REGISTRY NO=629-01-6
##MP= -300
##BP= -300
##MW= 143
##$RETENTION INDEX=1326
##$CONDENSED SPECTRUM=NO
##NPOINTS= 70
##XYDATA=(XY..XY) 1 
    15          1
    16          1
    17          3
    18         10
    26          3
    27         48
    28         16
    29         65
    30          5
    31          3
    38          1
    39         42
    40          8
    41        130
    42         39
    43        159
    44        186
    45          7
    46          3
    50          1
    51          3
    52          1
    53         10
    54         12
    55         80
    56         16
    57         95
    58          6
    59        999
    60         67
    61          4
    65          1
    66          1
    67          7
    68          4
    69         21
    70          6
    71          8
    72        341
    73         57
    74          2
    77          1
    79          2
    80          1
    81          3
    82         16
    83         21
    84          9
    85          3
    86        103
    87          7
    96          9
    97         12
    98          6
   100         54
   101          8
   109          1
   110          3
   111          1
   114         45
   115          4
   124          1
   125          2
   126          1
   127          5
   128          4
   142          4
   143         61
   144         12
   145          1