##TITLE=Library Entry 24236
##JCAMP-DX=Revision 4.10 
##DATA TYPE=MASS SPECTRUM
##SAMPLE DESCRIPTION=Japan AIST/NIMC Database- Spectrum MS-NW-2741
##NAMES=HP
##CAS NAME=Heptadecane
##MOLFORM=C17H36
##CAS REGISTRY NO=629-78-7
##MP= -300
##BP= -300
##MW= 240
##$RETENTION INDEX=1700
##$CONDENSED SPECTRUM=NO
##NPOINTS= 83
##XYDATA=(XY..XY) 1 
    15          1
    26          2
    27         42
    28          8
    29        120
    30          2
    39         25
    40          5
    41        211
    42         58
    43        646
    44         20
    51          1
    53          9
    54         11
    55        135
    56        116
    57        999
    58         42
    65          1
    67         10
    68         11
    69         74
    70         97
    71        640
    72         34
    77          1
    79          2
    81          5
    82         12
    83         53
    84         69
    85        446
    86         28
    91          1
    95          3
    96          6
    97         39
    98         51
    99        110
   100          8
   105          2
   106          1
   109          1
   110          3
   111         18
   112         37
   113         71
   114          6
   119          3
   120          1
   123          1
   124          1
   125          8
   126         27
   127         53
   128          5
   133          2
   134          1
   139          2
   140         21
   141         42
   142          5
   145          2
   147          1
   153          1
   154         15
   155         35
   156          4
   168         11
   169         30
   170          4
   182          8
   183         26
   184          4
   196          5
   197         15
   198          2
   210          2
   211          9
   212          1
   240         39
   241          8