##TITLE=Library Entry 25390
##JCAMP-DX=Revision 4.10 
##DATA TYPE=MASS SPECTRUM
##SAMPLE DESCRIPTION=Japan AIST/NIMC Database- Spectrum MS-NW-2012
##NAMES=HP
##CAS NAME=Heneicosane
##MOLFORM=C21H44
##CAS REGISTRY NO=629-94-7
##MP= -300
##BP= -300
##MW= 296
##$RETENTION INDEX=2100
##$CONDENSED SPECTRUM=NO
##NPOINTS= 89
##XYDATA=(XY..XY) 1 
    14          2
    15          1
    26          1
    27         34
    28          5
    29        111
    30          2
    39         17
    40          4
    41        196
    42         54
    43        587
    44         19
    45          1
    53          7
    54         13
    55        151
    56        104
    57        999
    58         43
    65          1
    66          1
    67         12
    68         14
    69         86
    70         91
    71        695
    72         37
    79          1
    81          5
    82         18
    83         69
    84         65
    85        478
    86         32
    95          2
    96          9
    97         54
    98         51
    99        163
   100         11
   110          5
   111         28
   112         41
   113        109
   114          9
   124          3
   125         13
   126         32
   127         85
   128          8
   138          2
   139          5
   140         27
   141         66
   142          7
   152          1
   153          3
   154         23
   155         54
   156          7
   167          2
   168         18
   169         46
   170          5
   181          1
   182         14
   183         38
   184          5
   196         11
   197         33
   198          5
   210          9
   211         27
   212          4
   224          8
   225         24
   226          4
   238          6
   239         19
   240          4
   252          3
   253         11
   254          3
   266          2
   267          7
   268          2
   296         38
   297          9