##TITLE=Library Entry 26604
##JCAMP-DX=Revision 4.10 
##DATA TYPE=MASS SPECTRUM
##SAMPLE DESCRIPTION=Japan AIST/NIMC Database- Spectrum MS-NW-2125
##NAMES=HP
##CAS NAME=Disulfide, dibutyl
##MOLFORM=C8H18S2
##CAS REGISTRY NO=629-45-8
##MP= -300
##BP= -300
##MW= 178
##$RETENTION INDEX=1301
##$CONDENSED SPECTRUM=NO
##NPOINTS= 69
##XYDATA=(XY..XY) 1 
    15          4
    17          1
    18          7
    26          6
    27         85
    28         13
    29        323
    30          7
    32          3
    34          1
    35          3
    38          1
    39         42
    40          4
    41        318
    42         14
    43         22
    44          3
    45         34
    46         18
    47         47
    48          2
    49          2
    50          1
    51          2
    53         10
    54         11
    55         70
    56         56
    57        999
    58         43
    59         12
    60         17
    61         14
    62          1
    64          6
    65          1
    66         16
    68          1
    71          2
    73          5
    75          1
    76          3
    78          2
    79         29
    80          1
    81          2
    85          2
    86          1
    87         44
    88         32
    89         21
    90          7
    91          2
    93          4
    94          1
   103          2
   117          1
   121          1
   122        336
   123         20
   124         29
   125          1
   146          1
   178        335
   179         35
   180         30
   181          3
   182          1