##TITLE=Library Entry 49835
##JCAMP-DX=Revision 4.10 
##DATA TYPE=MASS SPECTRUM
##SAMPLE DESCRIPTION=Japan AIST/NIMC Database- Spectrum MS-NW-2717
##NAMES=HP
##CAS NAME=1-Octyne
##MOLFORM=C8H14
##CAS REGISTRY NO=629-05-0
##MP= -300
##BP= -300
##MW= 110
##$RETENTION INDEX=784
##$CONDENSED SPECTRUM=NO
##NPOINTS= 59
##XYDATA=(XY..XY) 1 
    14          1
    15          9
    26         19
    27        286
    28         11
    29        292
    30          5
    37          9
    38         27
    39        319
    40         98
    41        713
    42        250
    43        870
    44         28
    45          1
    49          2
    50         28
    51         56
    52         35
    53        197
    54        269
    55        455
    56         88
    57         14
    61          2
    62          6
    63         11
    64          2
    65         54
    66         37
    67        505
    68        266
    69        255
    70        134
    71         59
    72          3
    74          3
    75          1
    76          1
    77         37
    78          8
    79        112
    80         32
    81        999
    82        158
    83          9
    84          2
    85          1
    91          9
    92          1
    93         12
    94          2
    95        271
    96         21
   107          1
   108          1
   109         14
   110          3