##TITLE=Library Entry 30884
##JCAMP-DX=Revision 4.10 
##DATA TYPE=MASS SPECTRUM
##SAMPLE DESCRIPTION=Japan AIST/NIMC Database- Spectrum MS-IW-3812
##NAMES=HP
##CAS NAME=1,2-Ethanediol, diformate
##MOLFORM=C4H6O4
##CAS REGISTRY NO=629-15-2
##MP= -300
##BP= -300
##MW= 118
##$RETENTION INDEX=1523
##$CONDENSED SPECTRUM=NO
##NPOINTS= 33
##XYDATA=(XY..XY) 1 
    13          2
    14         10
    15         65
    16          2
    18          2
    25          3
    26         30
    27        139
    28         76
    29        409
    30         37
    31        832
    32        215
    33         19
    41          5
    42         43
    43        355
    44        865
    45        162
    46         13
    47         93
    48          1
    58          1
    59         12
    60        999
    61         65
    62          8
    72        146
    73         81
    74          6
    75          1
    88          2
    89          1