##TITLE=Library Entry 25409
##JCAMP-DX=Revision 4.10 
##DATA TYPE=MASS SPECTRUM
##SAMPLE DESCRIPTION=Japan AIST/NIMC Database- Spectrum MS-NW-2053
##NAMES=HP
##CAS NAME=Pentacosane
##MOLFORM=C25H52
##CAS REGISTRY NO=629-99-2
##MP= -300
##BP= -300
##MW= 352
##$RETENTION INDEX=2500
##$CONDENSED SPECTRUM=NO
##NPOINTS= 124
##XYDATA=(XY..XY) 1 
    15          8
    26          3
    27         29
    28          4
    29        114
    30          2
    39         18
    40          4
    41        211
    42         56
    43        621
    44         20
    51          1
    53          8
    54         18
    55        202
    56        119
    57        999
    58         45
    65          2
    66          2
    67         21
    68         24
    69        129
    70        103
    71        714
    72         38
    77          1
    79          2
    80          1
    81         10
    82         32
    83        110
    84         80
    85        502
    86         32
    91          1
    95          5
    96         20
    97         91
    98         67
    99        204
   100         15
   109          2
   110         10
   111         53
   112         64
   113        148
   114         12
   123          1
   124          7
   125         29
   126         60
   127        124
   128         11
   138          5
   139         14
   140         55
   141        107
   142         11
   149          1
   152          3
   153          9
   154         48
   155         93
   156         11
   166          2
   167          7
   168         45
   169         86
   170         10
   180          2
   181          4
   182         39
   183         79
   184         10
   194          1
   195          3
   196         35
   197         74
   198         10
   209          2
   210         31
   211         66
   212          9
   213          1
   223          1
   224         27
   225         64
   226         11
   227          1
   238         24
   239         60
   240         10
   241          1
   252         20
   253         56
   254         10
   255          1
   266         17
   267         52
   268         10
   269          1
   280         14
   281         49
   282         10
   283          1
   294         12
   295         44
   296          9
   297          1
   308          6
   309         26
   310          6
   322          4
   323         15
   324          5
   337          1
   350          2
   351          4
   352        361
   353        101
   354         12
   355          1