##TITLE=Library Entry 4429
##JCAMP-DX=Revision 4.10 
##DATA TYPE=MASS SPECTRUM
##SAMPLE DESCRIPTION=Japan AIST/NIMC Database- Spectrum MS-NW-1473
##NAMES=HP
##CAS NAME=1,6-Hexanediol
##MOLFORM=C6H14O2
##CAS REGISTRY NO=629-11-8
##MP= -300
##BP= -300
##MW= 118
##$RETENTION INDEX=1093
##$CONDENSED SPECTRUM=NO
##NPOINTS= 68
##XYDATA=(XY..XY) 1 
    14          3
    15         27
    16          1
    17          4
    18         15
    19         21
    26         19
    27        242
    28         88
    29        285
    30         16
    31        856
    32          9
    33          9
    37          3
    38          9
    39        170
    40         39
    41        923
    42        999
    43        267
    44        238
    45        127
    46          5
    47          2
    49         87
    50          7
    51         10
    52          4
    53         56
    54        399
    55        461
    56        163
    57        462
    58         52
    59         17
    60          4
    61          6
    62         12
    63          2
    65          7
    66          7
    67        695
    68        105
    69        228
    70        380
    71        118
    72        100
    73          9
    75          1
    77          2
    79          8
    80          2
    81         70
    82        234
    83         23
    84          2
    85          6
    87          7
    88         24
    89          1
    95          1
    97          2
    98          3
    99          6
   100          2
   101          1
   117          1