##TITLE=Library Entry 44736
##JCAMP-DX=Revision 4.10 
##DATA TYPE=MASS SPECTRUM
##SAMPLE DESCRIPTION=Chemical Concepts
##NAMES=HP
##CAS NAME=Triacontanoic acid, methyl ester
##MOLFORM=C31H62O2
##CAS REGISTRY NO=629-83-4
##MP= -300
##BP= -300
##MW= 466
##$RETENTION INDEX=3305
##$CONDENSED SPECTRUM=NO
##NPOINTS= 301
##XYDATA=(XY..XY) 1 
    26          3
    27         44
    28         88
    29        161
    30          2
    31          4
    33          1
    34          0
    36          0
    38          0
    39         26
    40          5
    41        263
    42         70
    43        625
    44         16
    45          7
    50          1
    51          1
    53         10
    54         21
    55        320
    56         79
    57        398
    58         20
    59         41
    60          4
    61          2
    65          2
    66          3
    67         44
    68         22
    69        272
    70         43
    71        242
    72         11
    73         21
    74        999
    75        432
    76         19
    77          4
    78          1
    79         11
    80          6
    81         66
    82         29
    83        169
    84         45
    85        114
    86          9
    87        905
    88         69
    89          4
    91          5
    92          1
    93         15
    94          4
    95         64
    96         27
    97        169
    98         62
    99         39
   100          6
   101         85
   102         11
   103          3
   104          0
   105          2
   106          0
   107         14
   108          4
   109         44
   110         15
   111         85
   112         19
   113         19
   114          5
   115         37
   116         24
   117          3
   118          0
   119          2
   120          0
   121         26
   122          5
   123         23
   124         10
   125         44
   126         11
   127         17
   128          2
   129        106
   130         61
   131          4
   132          0
   133          2
   134          0
   135         28
   136          3
   137         17
   138          7
   139         30
   140          6
   141         11
   142          2
   143        431
   144         41
   145          4
   146          0
   147          1
   148          1
   149         20
   150          3
   151         10
   152          4
   153         23
   154          4
   155          6
   156          1
   157         42
   158          9
   159          1
   161          0
   163         11
   164          1
   165          4
   166          2
   167         13
   168          4
   169          4
   170          0
   171         30
   172         11
   173          1
   175          0
   177          6
   178          2
   179          3
   180          1
   181         12
   182          2
   183          3
   184          0
   185         66
   186         18
   187          2
   191          6
   192          1
   193          1
   194          2
   195          7
   196          2
   197          2
   198          0
   199        105
   200         17
   201          1
   203          0
   205          5
   206          1
   207          1
   208          2
   209          6
   210          2
   211          1
   212          0
   213         28
   214          5
   215          1
   219          3
   220          0
   221          1
   222          1
   223          5
   224          2
   225          1
   227         17
   228          7
   229          1
   233          2
   234          0
   235          1
   236          2
   237          4
   238          1
   239          1
   241         31
   242         10
   243          2
   247          1
   248          1
   249          1
   250          0
   251          3
   252          2
   253          1
   255         45
   256         10
   257          1
   261          1
   262          0
   263          1
   264          1
   265          3
   266          2
   267          1
   269         20
   270          6
   271          0
   275          1
   277          0
   278          0
   279          2
   280          1
   283         11
   284          4
   285          1
   289          1
   292          1
   293          3
   294          1
   295          1
   297         15
   298          7
   299          1
   303          1
   305          0
   306          0
   307          1
   308          1
   310          0
   311         34
   312          8
   313          1
   317          0
   321          1
   322          0
   323          0
   325         21
   326          5
   327          1
   334          0
   335          1
   336          0
   339         11
   340          4
   341          1
   348          0
   349          1
   350          0
   353         12
   354          7
   355          1
   363          0
   364          1
   365          0
   367         54
   368         17
   369          2
   377          0
   381         30
   382          9
   383          1
   390          1
   391          0
   392          2
   393          1
   395          7
   396          3
   397          0
   405          1
   409         18
   410          7
   411          1
   415          1
   416          1
   417          3
   418          1
   419          0
   423         96
   424         36
   425          5
   426          0
   432          1
   433          4
   434          3
   435         22
   436          7
   437         19
   438          4
   439          2
   448          1
   449          0
   451          0
   452          1
   453          0
   458          0
   466        594
   467        204
   468         39
   469          5