##TITLE=Library Entry 67751
##JCAMP-DX=Revision 4.10 
##DATA TYPE=MASS SPECTRUM
##SAMPLE DESCRIPTION=S.A. Rang et al., IR & MS of Unsatd. Hydrocarbons, 1977
##NAMES=HP
##CAS NAME=2-Dodecyne
##MOLFORM=C12H22
##CAS REGISTRY NO=629-49-2
##MP= -300
##BP= -300
##MW= 166
##$RETENTION INDEX=1241
##$CONDENSED SPECTRUM=NO
##NPOINTS= 115
##XYDATA=(XY..XY) 1 
    15          2
    24          0
    25          1
    26         16
    27        300
    29        356
    30          8
    31          0
    37          1
    38          6
    39        222
    40         54
    41        711
    42        133
    43        578
    44         14
    45          0
    49          0
    50         10
    51         40
    52         40
    53        267
    54        422
    55        634
    56        144
    57        244
    58         13
    59          1
    62          1
    63          6
    64          3
    65         46
    66         69
    67        578
    68        578
    69        389
    70         81
    71         73
    72          4
    73          0
    74          1
    75          2
    76          0
    77         43
    78         11
    79         99
    80         49
    81        678
    82        211
    83         75
    84         21
    85         12
    86          0
    87          0
    89          0
    91         20
    92          3
    93         37
    94         36
    95        999
    96        300
    97         51
    98          9
    99          3
   100          0
   102          0
   103          0
   104          1
   105          4
   106          0
   107          9
   108          9
   109        300
   110        105
   111         22
   112          7
   113          5
   114          0
   115          1
   116          0
   117          2
   118          0
   119          2
   120          9
   121          3
   122          2
   123         30
   124         20
   125          7
   126          2
   127          1
   128          0
   129          1
   130          0
   131          2
   132          0
   133          3
   134          0
   135          3
   136          1
   137         33
   138          6
   139          2
   149          2
   150          0
   151         11
   152          2
   153          1
   162          1
   163          1
   164          1
   165          3
   166          3
   167          1
   168          0