##TITLE=Library Entry 33372
##JCAMP-DX=Revision 4.10 
##DATA TYPE=MASS SPECTRUM
##SAMPLE DESCRIPTION=Japan AIST/NIMC Database- Spectrum MS-NW-4191
##NAMES=HP
##CAS NAME=1,7-Heptanediol
##MOLFORM=C7H16O2
##CAS REGISTRY NO=629-30-1
##MP= -300
##BP= -300
##MW= 132
##$RETENTION INDEX=1206
##$CONDENSED SPECTRUM=NO
##NPOINTS= 89
##XYDATA=(XY..XY) 1 
    14          2
    15         17
    16          1
    17          4
    18         19
    19         10
    26         11
    27        155
    28         51
    29        213
    30          9
    31        517
    32         10
    33          5
    34          1
    37          2
    38          6
    39        117
    40         33
    41        592
    42        326
    43        304
    44        176
    45         86
    46          4
    47          2
    49         15
    50          4
    51          7
    52          3
    53         60
    54        232
    55        736
    56        497
    57        246
    58         43
    59         12
    60          1
    61          5
    62          4
    63          2
    65          6
    66         17
    67        366
    68        999
    69        207
    70         49
    71        243
    72         24
    73         26
    74          2
    75          4
    76          1
    77          9
    78          1
    79         15
    80          3
    81        328
    82         30
    83         37
    84        244
    85         45
    86         25
    87          4
    89          1
    91          4
    92          1
    93          2
    94          2
    95         37
    96         34
    97         13
    98          1
    99          2
   100          1
   101          3
   102          9
   103          4
   104          2
   105          2
   106          1
   107          4
   108          2
   112          1
   113          3
   114          1
   115          2
   131          1
   133          2