##TITLE=Library Entry 49848
##JCAMP-DX=Revision 4.10 
##DATA TYPE=MASS SPECTRUM
##SAMPLE DESCRIPTION=Japan AIST/NIMC Database- Spectrum MS-NW-5352
##NAMES=HP
##CAS NAME=1-Hexadecyne
##MOLFORM=C16H30
##CAS REGISTRY NO=629-74-3
##MP= -300
##BP= -300
##MW= 222
##$RETENTION INDEX=1664
##$CONDENSED SPECTRUM=NO
##NPOINTS= 106
##XYDATA=(XY..XY) 1 
    15          4
    26          6
    27        160
    28         14
    29        320
    30          8
    36          1
    37          1
    38          5
    39        157
    40         40
    41        708
    42        122
    43        778
    44         26
    45          1
    50          5
    51         17
    52         14
    53        113
    54        280
    55        640
    56        180
    57        432
    58         20
    59          1
    62          1
    63          4
    64          1
    65         31
    66         53
    67        710
    68        306
    69        357
    70        123
    71        132
    72          8
    73          1
    75          1
    76          1
    77         32
    78          9
    79         94
    80         57
    81        999
    82        604
    83        290
    84         66
    85         60
    86          4
    89          1
    91         17
    92          5
    93         29
    94         21
    95        466
    96        383
    97        196
    98         36
    99          6
   103          1
   104          1
   105          3
   106          1
   107          8
   108          7
   109        181
   110         68
   111         46
   112         17
   113          4
   115          1
   117          1
   119          1
   121          3
   122          2
   123         41
   124         21
   125         13
   126          8
   127          2
   135          1
   137         16
   138         10
   139          5
   140          6
   141          2
   149          2
   151          6
   152          7
   153          3
   154          4
   155          1
   164          1
   165          3
   166          3
   167          1
   168          1
   179          2
   180          1
   182          2
   193          1
   194          1
   196          1
   207          1
   222          1