##TITLE=Library Entry 25339
##JCAMP-DX=Revision 4.10 
##DATA TYPE=MASS SPECTRUM
##SAMPLE DESCRIPTION=Chuck Anderson, Aldrich Chemical Co.
##NAMES=HP
##CAS NAME=Octane, 1,1'-oxybis-
##MOLFORM=C16H34O
##CAS REGISTRY NO=629-82-3
##MP= -300
##BP= -300
##MW= 242
##$RETENTION INDEX=1659
##$CONDENSED SPECTRUM=NO
##NPOINTS= 68
##XYDATA=(XY..XY) 1 
    15          1
    26          2
    27         51
    28         19
    29        145
    30          5
    31         10
    32          0
    37          0
    38          1
    39         47
    41        440
    42        181
    43        624
    44         28
    45         26
    46          0
    47          0
    50          0
    51          1
    52          1
    53         17
    54         16
    55        310
    56        297
    57        999
    58         43
    59          2
    65          2
    66          3
    67         35
    68        115
    69        322
    70        234
    71        844
    72         44
    73          6
    74          0
    77          1
    79          3
    80          0
    81         12
    82         83
    83        221
    84        261
    85         24
    86          1
    87          4
    88          0
    95          3
    96          0
    97         20
    98          2
    99          1
   101          0
   111         72
   112         93
   113         75
   114          5
   115          0
   129          3
   131         10
   132          0
   143          5
   144          0
   185          1
   199          1
   243          1