##TITLE=Library Entry 69123
##JCAMP-DX=Revision 4.10 
##DATA TYPE=MASS SPECTRUM
##SAMPLE DESCRIPTION=Japan AIST/NIMC Database- Spectrum MS-NW-1078
##NAMES=HP
##CAS NAME=Octanedinitrile
##MOLFORM=C8H12N2
##CAS REGISTRY NO=629-40-3
##MP= -300
##BP= -300
##MW= 136
##$RETENTION INDEX=0
##$CONDENSED SPECTRUM=NO
##NPOINTS= 59
##XYDATA=(XY..XY) 1 
    13          1
    14          4
    15         20
    25          1
    26         30
    27        203
    28         32
    29        137
    30         13
    37          9
    38         21
    39        210
    40         57
    41        805
    42        251
    43         32
    44          2
    50         11
    51         23
    52         40
    53         68
    54        402
    55        751
    56         41
    57          2
    62          1
    63          4
    64         12
    65         13
    66         26
    67         66
    68        137
    69        423
    70         23
    71          1
    75          1
    76          2
    77          5
    78          3
    79         31
    80         22
    81         34
    82        176
    83        167
    84          8
    91          3
    92          1
    93          6
    94         12
    95          7
    96        999
    97         68
    98          3
   107         12
   108         55
   109          6
   118          2
   121          2
   135          8