##TITLE=Library Entry 7383
##JCAMP-DX=Revision 4.10 
##DATA TYPE=MASS SPECTRUM
##SAMPLE DESCRIPTION=NIST Mass Spectrometry Data Center
##NAMES=HP
##CAS NAME=1-Hexadecanol, acetate
##MOLFORM=C18H36O2
##CAS REGISTRY NO=629-70-9
##MP= -300
##BP= -300
##MW= 284
##$RETENTION INDEX=2009
##$CONDENSED SPECTRUM=NO
##NPOINTS= 109
##XYDATA=(XY..XY) 1 
    15          4
    26          2
    27         29
    28         10
    29         91
    30          3
    38          1
    39         40
    40         11
    41        347
    42        108
    43        999
    44         30
    45          6
    51          2
    52          1
    53         26
    54         82
    55        552
    56        322
    57        482
    58         35
    59          8
    61        446
    62         10
    63          2
    65          5
    66          8
    67        101
    68        146
    69        448
    70        292
    71        217
    72         13
    73         47
    74          2
    75          1
    77          3
    78          1
    79         10
    80          5
    81         61
    82        262
    83        547
    84        209
    85        128
    86         10
    87          6
    88          2
    91          1
    93          2
    94          2
    95         30
    96        115
    97        483
    98        153
    99         29
   101          9
   102          3
   107          1
   108          1
   109         11
   110         47
   111        262
   112         89
   113         15
   114          2
   115          2
   116         44
   117          3
   122          1
   123          6
   124         26
   125        113
   126         53
   127          9
   128          1
   129          2
   130          5
   137          3
   138         16
   139         34
   140         33
   141          6
   142          1
   143          1
   152          9
   153         14
   154         18
   155          4
   156          1
   166          5
   167          7
   168         13
   169          2
   180          2
   181          3
   182          4
   183          1
   194          1
   195          2
   196         35
   197          6
   198          1
   212          1
   222          1
   224         20
   225          4
   269          1