##TITLE=Library Entry 20686
##JCAMP-DX=Revision 4.10 
##DATA TYPE=MASS SPECTRUM
##SAMPLE DESCRIPTION=Japan AIST/NIMC Database- Spectrum MS-NW-7540
##NAMES=HP
##CAS NAME=Hexane, 1,6-diiodo-
##MOLFORM=C6H12I2
##CAS REGISTRY NO=629-09-4
##MP= -300
##BP= -300
##MW= 338
##$RETENTION INDEX=0
##$CONDENSED SPECTRUM=NO
##NPOINTS= 81
##XYDATA=(XY..XY) 1 
    14          2
    15         15
    25          1
    26         27
    27        369
    28         78
    29        236
    30          5
    32          1
    33          1
    36          1
    37          6
    38         15
    39        242
    40         48
    41        807
    42         76
    43        232
    44          9
    49          1
    50         11
    51         19
    52          9
    53         57
    54         27
    55        999
    56         87
    57         38
    58          2
    61          1
    62          1
    63          2
    64          1
    65          7
    66          3
    67         23
    68          4
    69         14
    70          2
    74          1
    77          3
    78          1
    79          4
    80          1
    81         12
    82          3
    83        863
    84         66
    85          3
    97          1
   105          5
   106          1
   121          1
   123          1
   127         59
   128         38
   129          2
   132          1
   139          1
   140          1
   141         32
   142          1
   152          1
   153          3
   154         10
   155        391
   156          9
   165          1
   167          4
   169        250
   170          9
   181          1
   183         73
   184          4
   197          2
   210          8
   211        454
   212         34
   213          1
   338         88
   339          7