##TITLE=Library Entry 3679
##JCAMP-DX=Revision 4.10 
##DATA TYPE=MASS SPECTRUM
##SAMPLE DESCRIPTION=Exported from NIST MS Search
##NAMES=HP
##CAS NAME=Heptanonitrile
##MOLFORM=C7H13N
##CAS REGISTRY NO=629-08-3
##MP= -300
##BP= -300
##MW= 111
##$RETENTION INDEX=988
##$CONDENSED SPECTRUM=NO
##NPOINTS= 85
##XYDATA=(XY..XY) 1 
    12          3
    13          7
    14         18
    15         77
    16          3
    17          2
    18         10
    19          1
    24          1
    25          5
    26         99
    27        624
    28        209
    29        377
    30         17
    31          2
    32          4
    33          1
    36          1
    37         18
    38         43
    39        358
    40         87
    41        999
    42        148
    43        503
    44         20
    45         11
    49          3
    50         20
    51         34
    52         38
    53         58
    54        436
    55        374
    56         67
    57        103
    58          5
    59          2
    60          1
    61          2
    62          3
    63          6
    64          8
    65          8
    66         15
    67         19
    68        148
    69         97
    70         17
    71         51
    72          3
    73          1
    74          2
    75          2
    76          2
    77          4
    78          3
    79          9
    80          6
    81         61
    82        682
    83        518
    84         35
    85          3
    86          2
    87          1
    88          1
    89          1
    90          1
    91          6
    92          2
    93          3
    94          2
    95          1
    96         99
    97          9
    98          1
   105          2
   106          1
   108          1
   109          1
   110         42
   111          3
   112          2