##TITLE=Library Entry 23287
##JCAMP-DX=Revision 4.10 
##DATA TYPE=MASS SPECTRUM
##SAMPLE DESCRIPTION=Japan AIST/NIMC Database- Spectrum MS-NW-6806
##NAMES=HP
##CAS NAME=Mercury di-n-butyl
##MOLFORM=C8H18Hg
##CAS REGISTRY NO=629-35-6
##MP= -300
##BP= -300
##MW= 316
##$RETENTION INDEX=0
##$CONDENSED SPECTRUM=NO
##NPOINTS= 70
##XYDATA=(XY..XY) 1 
    15          4
    26         10
    27         83
    28         59
    29        319
    30          8
    37          1
    38          5
    39         59
    40          9
    41        361
    42         19
    43         35
    44          2
    45          1
    49          1
    50          4
    51          4
    52          2
    53          9
    54          3
    55         36
    56        117
    57        999
    58         47
    59          1
    60          2
    61          1
    69          1
    70          1
    71          2
    73          2
    84          4
    85          8
    90          1
    99          1
   100          1
   101          2
   198          5
   199          8
   200          9
   201          6
   202         12
   204          3
   214          1
   216          1
   226          2
   227          4
   228          5
   229          4
   230          5
   231          3
   232          1
   255          2
   256          3
   257          4
   258          3
   259          5
   261          1
   284          1
   285          1
   286          1
   287          2
   312          9
   313         15
   314         22
   315         13
   316         27
   317          2
   318          6