##TITLE=Library Entry 12530
##JCAMP-DX=Revision 4.10 
##DATA TYPE=MASS SPECTRUM
##SAMPLE DESCRIPTION=Japan AIST/NIMC Database- Spectrum MS-NW-1258
##NAMES=HP
##CAS NAME=Disulfide, dipropyl
##MOLFORM=C6H14S2
##CAS REGISTRY NO=629-19-6
##MP= -300
##BP= -300
##MW= 150
##$RETENTION INDEX=1107
##$CONDENSED SPECTRUM=NO
##NPOINTS= 56
##XYDATA=(XY..XY) 1 
    15          8
    17          1
    18          7
    26          5
    27        132
    28         15
    29         22
    32          4
    33          1
    34          2
    37          1
    38          4
    39         58
    40          6
    41        225
    42         18
    43        999
    44         33
    45         43
    46         21
    47         34
    48          2
    49          2
    55          1
    57          4
    58          6
    59          7
    60          1
    61          2
    64          9
    65          2
    66         73
    67          2
    68          7
    69          1
    71          2
    72          1
    73         33
    74         39
    75         13
    76          3
    78          2
    79         22
    80          1
    81          2
    89          1
    93          1
   107          2
   108        238
   109         11
   110         19
   111          1
   150        336
   151         27
   152         30
   153          2