##TITLE=Library Entry 49745
##JCAMP-DX=Revision 4.10 
##DATA TYPE=MASS SPECTRUM
##SAMPLE DESCRIPTION=NIST Mass Spectrometry Data Center, 1990.
##NAMES=HP
##CAS NAME=1-Octadecyne
##MOLFORM=C18H34
##CAS REGISTRY NO=629-89-0
##MP= -300
##BP= -300
##MW= 250
##$RETENTION INDEX=1238
##$CONDENSED SPECTRUM=NO
##NPOINTS= 61
##XYDATA=(XY..XY) 1 
    14          1
    15          4
    27        173
    28         28
    29        388
    30          9
    39        181
    40         88
    41        919
    42        171
    43        873
    44         29
    50          6
    51         17
    52         17
    53        144
    54        268
    55        762
    56        185
    57        428
    58         18
    63          4
    65         47
    66         77
    67        734
    68        295
    69        350
    70         96
    71        118
    72          7
    77         43
    79        137
    81        999
    82        657
    83        247
    84         42
    85         48
    91         17
    92          5
    93         39
    94         37
    95        417
    96        435
    97        181
    98         23
    99          3
   105          3
   107          7
   109        155
   110         73
   111         34
   112          8
   123         43
   124         28
   125          7
   126          4
   137         14
   138         11
   151          6
   152          5
   166          5