##TITLE=Library Entry 24318
##JCAMP-DX=Revision 4.10 
##DATA TYPE=MASS SPECTRUM
##SAMPLE DESCRIPTION=Japan AIST/NIMC Database- Spectrum MS-NW-5200
##NAMES=HP
##CAS NAME=Pentadecane
##MOLFORM=C15H32
##CAS REGISTRY NO=629-62-9
##MP= -300
##BP= -300
##MW= 212
##$RETENTION INDEX=1500
##$CONDENSED SPECTRUM=NO
##NPOINTS= 76
##XYDATA=(XY..XY) 1 
    15          1
    18          1
    26          3
    27         68
    28          9
    29        167
    30          4
    32          1
    33          1
    38          1
    39         38
    40          8
    41        269
    42         78
    43        734
    44         25
    51          2
    52          1
    53         12
    54         13
    55        142
    56        128
    57        999
    58         47
    59          1
    65          2
    66          1
    67         10
    68         10
    69         62
    70         99
    71        612
    72         35
    73          1
    77          3
    79          2
    81          2
    82         10
    83         39
    84         62
    85        378
    86         26
    87          1
    95          1
    96          5
    97         23
    98         43
    99         93
   100          7
   105          4
   109          1
   110          2
   111          9
   112         28
   113         55
   114          5
   123          1
   125          3
   126         21
   127         41
   128          5
   139          1
   140         14
   141         30
   142          4
   154          9
   155         23
   156          3
   168          5
   169         13
   170          3
   182          3
   183          8
   184          1
   212         24
   213          4