##TITLE=Library Entry 22208
##JCAMP-DX=Revision 4.10 
##DATA TYPE=MASS SPECTRUM
##SAMPLE DESCRIPTION=MINISTRY OF TECH. E.R.D.E., WALTHAM ABBEY, UK
##NAMES=HP
##CAS NAME=Nitric acid, octyl ester
##MOLFORM=C8H17NO3
##CAS REGISTRY NO=629-39-0
##MP= -300
##BP= -300
##MW= 175
##$RETENTION INDEX=1208
##$CONDENSED SPECTRUM=NO
##NPOINTS= 47
##XYDATA=(XY..XY) 1 
    12          3
    13          2
    14          2
    15         17
    25          6
    26         21
    27        240
    28        128
    29        479
    30         91
    31         39
    38          5
    39        132
    40         33
    41        598
    42        194
    43        853
    44         47
    45          8
    46        342
    47          2
    51          3
    52         27
    53         18
    54         52
    55        100
    56        999
    57         39
    58         42
    59          5
    66          4
    67         29
    68         21
    69        618
    70         67
    71        173
    72          5
    76        260
    77          3
    80         11
    81         22
    82          6
    83         57
    84         21
    85         38
    95          9
    97          8