##TITLE=Library Entry 5797
##JCAMP-DX=Revision 4.10 
##DATA TYPE=MASS SPECTRUM
##SAMPLE DESCRIPTION=NIST Mass Spectrometry Data Center, 1994
##NAMES=HP
##CAS NAME=n-Pentyl isothiocyanate
##MOLFORM=C6H11NS
##CAS REGISTRY NO=629-12-9
##MP= -300
##BP= -300
##MW= 129
##$RETENTION INDEX=1079
##$CONDENSED SPECTRUM=NO
##NPOINTS= 77
##XYDATA=(XY..XY) 1 
    14          8
    15         38
    26         61
    27        468
    28        146
    29        473
    30         52
    31          8
    32         32
    33          5
    34          4
    37         13
    38         36
    39        347
    40         71
    41        654
    42        318
    43        999
    44         77
    45        113
    46         16
    47          8
    49          2
    50         13
    51         22
    52         16
    53         35
    54         25
    55        258
    56         23
    57         38
    58         46
    59         84
    60         70
    61          7
    62         11
    63          4
    64          3
    65          4
    67         16
    68         58
    69         54
    70         66
    71         71
    72        450
    73         66
    74         60
    75         11
    76          3
    79          9
    80          5
    81          7
    82          7
    83          3
    84         11
    85         13
    86         30
    87         12
    88          6
    94          8
    96        125
    97         14
    98          7
    99          3
   100        109
   101        299
   102         22
   103         16
   111          3
   112          3
   114        107
   115          6
   116          4
   128         47
   129        210
   130         19
   131         10