##TITLE=Library Entry 24343
##JCAMP-DX=Revision 4.10 
##DATA TYPE=MASS SPECTRUM
##SAMPLE DESCRIPTION=Japan AIST/NIMC Database- Spectrum MS-NW-8200
##NAMES=HP
##CAS NAME=Nonadecane
##MOLFORM=C19H40
##CAS REGISTRY NO=629-92-5
##MP= -300
##BP= -300
##MW= 268
##$RETENTION INDEX=1900
##$CONDENSED SPECTRUM=NO
##NPOINTS= 85
##XYDATA=(XY..XY) 1 
    15          1
    26          3
    27         70
    28         18
    29        231
    30          5
    39         36
    40          8
    41        367
    42         92
    43        819
    44         26
    51          1
    53         13
    54         21
    55        216
    56        139
    57        999
    58         45
    65          2
    66          1
    67         18
    68         18
    69        103
    70        101
    71        659
    72         35
    77          1
    79          2
    81          6
    82         21
    83         67
    84         67
    85        429
    86         27
    95          2
    96         11
    97         48
    98         57
    99        160
   100         11
   105          1
   110          6
   111         25
   112         51
   113        116
   114          9
   124          3
   125         12
   126         46
   127         93
   128          9
   138          1
   139          5
   140         40
   141         78
   142          8
   153          2
   154         33
   155         67
   156          8
   167          1
   168         27
   169         59
   170          8
   182         21
   183         52
   184          7
   196         15
   197         45
   198          7
   210         12
   211         38
   212          6
   224          6
   225         22
   226          4
   238          3
   239         11
   240          2
   266          1
   267          8
   268        218
   269         45
   270          4