##TITLE=Library Entry 24169
##JCAMP-DX=Revision 4.10 
##DATA TYPE=MASS SPECTRUM
##SAMPLE DESCRIPTION=Japan AIST/NIMC Database- Spectrum MS-NW-5238
##NAMES=HP
##CAS NAME=Heptane, 1,1'-oxybis-
##MOLFORM=C14H30O
##CAS REGISTRY NO=629-64-1
##MP= -300
##BP= -300
##MW= 214
##$RETENTION INDEX=1458
##$CONDENSED SPECTRUM=NO
##NPOINTS= 71
##XYDATA=(XY..XY) 1 
    15          2
    18          1
    26          2
    27         53
    28         20
    29        107
    30          3
    31          7
    32          5
    33          1
    39         29
    40          7
    41        188
    42         78
    43        228
    44          9
    45         13
    50          1
    51          1
    53          9
    54         12
    55        155
    56        157
    57        999
    58         44
    59          2
    60          1
    61          1
    65          1
    66          1
    67          8
    68         49
    69        101
    70        223
    71         30
    72          2
    73          5
    77          1
    79          1
    81          6
    82          3
    83         26
    84          3
    85          5
    86          1
    87          2
    89          1
    91          3
    93          1
    95          1
    96          6
    97         98
    98        103
    99         93
   100          7
   107          1
   109          1
   113          1
   114          1
   115          4
   117          6
   129         10
   130          1
   131          1
   135         16
   136          1
   137         15
   143          1
   148          1
   150          1
   171          1