##TITLE=Library Entry 25387
##JCAMP-DX=Revision 4.10 
##DATA TYPE=MASS SPECTRUM
##SAMPLE DESCRIPTION=Japan AIST/NIMC Database- Spectrum MS-NW-5922
##NAMES=HP
##CAS NAME=Octadecane, 1-iodo-
##MOLFORM=C18H37I
##CAS REGISTRY NO=629-93-6
##MP= -300
##BP= -300
##MW= 380
##$RETENTION INDEX=2240
##$CONDENSED SPECTRUM=NO
##NPOINTS= 77
##XYDATA=(XY..XY) 1 
    18          2
    26          1
    27         48
    28         11
    29        124
    30          2
    39         31
    40          7
    41        286
    42         59
    43        567
    44         18
    53         13
    54         18
    55        270
    56         73
    57        999
    58         45
    65          2
    66          1
    67         20
    68         12
    69        140
    70         41
    71        735
    72         41
    77          1
    79          3
    81          7
    82          7
    83         74
    84         16
    85        530
    86         35
    87          1
    95          3
    96          3
    97         40
    98          8
    99        205
   100         15
   109          1
   110          1
   111         14
   112          4
   113        136
   114         11
   125          5
   126          2
   127        102
   128          9
   135          1
   137          1
   139          2
   140          2
   141         73
   142          8
   153          1
   154          1
   155         59
   156          8
   169         49
   170          7
   183         37
   184          6
   197         23
   198          4
   211         10
   212          2
   225          5
   226          1
   252          1
   253        225
   254         46
   255          4
   380          5
   381          1