##TITLE=Library Entry 76967
##JCAMP-DX=Revision 4.10 
##DATA TYPE=MASS SPECTRUM
##SAMPLE DESCRIPTION=Exported from NIST MS Search
##NAMES=HP
##CAS NAME=1,3,5,7-Cyclooctatetraene
##MOLFORM=C8H8
##CAS REGISTRY NO=629-20-9
##MP= -300
##BP= -300
##MW= 104
##$RETENTION INDEX=850
##$CONDENSED SPECTRUM=NO
##NPOINTS= 69
##XYDATA=(XY..XY) 1 
    12          4
    13          3
    14          4
    15         15
    16          1
    24          1
    25          7
    26         76
    27        126
    28         19
    29          2
    31          1
    32          1
    36          5
    37         56
    38         93
    39        308
    40         13
    41          8
    42          3
    43          3
    44          2
    45          1
    48          3
    49         38
    50        278
    51        459
    52        212
    53         26
    54          6
    55          1
    56          1
    60          4
    61         25
    62         48
    63        114
    64         15
    65         39
    66          4
    67          1
    71          1
    72          2
    73         16
    74         76
    75         50
    76         66
    77        350
    78        825
    79         55
    80          2
    84          1
    85          2
    86          4
    87          6
    88          1
    89         25
    90          2
    91          4
    92          2
    97          4
    98         12
    99          3
   100          1
   101         14
   102        105
   103        609
   104        999
   105         85
   106          4