##TITLE=Library Entry 39826
##JCAMP-DX=Revision 4.10 
##DATA TYPE=MASS SPECTRUM
##SAMPLE DESCRIPTION=Exported from NIST MS Search
##NAMES=HP
##CAS NAME=3-Tetradecanone
##MOLFORM=C14H28O
##CAS REGISTRY NO=629-23-2
##MP= -300
##BP= -300
##MW= 212
##$RETENTION INDEX=1573
##$CONDENSED SPECTRUM=NO
##NPOINTS= 123
##XYDATA=(XY..XY) 1 
    12          1
    13          1
    14          3
    15         11
    16          1
    17          1
    18          2
    25          1
    26         25
    27        285
    28         96
    29        667
    30         17
    31          8
    32          2
    37          2
    38          4
    39        102
    40         23
    41        404
    42        108
    43        530
    44         19
    45          5
    50          2
    51          5
    52          4
    53         33
    54         27
    55        247
    56         80
    57        984
    58         50
    59         18
    60          1
    63          2
    65          5
    66          4
    67         41
    68         18
    69         74
    70         38
    71        184
    72        999
    73        306
    74         15
    75          1
    77          4
    78          1
    79          7
    80          3
    81         39
    82         18
    83         58
    84         32
    85        306
    86         28
    87          3
    88          2
    89          1
    91          2
    93          3
    95         63
    96         26
    97         37
    98         19
    99         41
   100          5
   101          2
   105          1
   107          2
   108          1
   109         40
   110         16
   111         13
   112          6
   113         14
   114         17
   115          2
   121          1
   123         14
   124          7
   125          3
   126          1
   127          8
   128          7
   129          1
   135          2
   136          1
   137          2
   138         28
   139          4
   140         13
   141         13
   142          2
   149          2
   150          1
   151          2
   152          2
   153          1
   154          1
   155          7
   156          3
   159          3
   164          1
   165          6
   166          2
   168          1
   169          6
   170          3
   180          1
   183        331
   184         45
   185          5
   193          1
   194          5
   195          1
   196          1
   197          1
   198          1
   211          1
   212         27
   213          7