##TITLE=Library Entry 6330
##JCAMP-DX=Revision 4.10 
##DATA TYPE=MASS SPECTRUM
##SAMPLE DESCRIPTION=Japan AIST/NIMC Database- Spectrum MS-NW-5233
##NAMES=HP
##CAS NAME=Tridecanenitrile
##MOLFORM=C13H25N
##CAS REGISTRY NO=629-60-7
##MP= -300
##BP= -300
##MW= 195
##$RETENTION INDEX=1592
##$CONDENSED SPECTRUM=NO
##NPOINTS= 106
##XYDATA=(XY..XY) 1 
    14          1
    15         10
    26         12
    27        266
    28         57
    29        495
    30         52
    31          2
    37          1
    38          5
    39        189
    40         36
    41        940
    42        221
    43        999
    44         57
    45          3
    50          3
    51          9
    52         10
    53         69
    54        336
    55        572
    56        254
    57        688
    58         44
    59          2
    62          1
    63          2
    64          2
    65         11
    66         13
    67         86
    68         94
    69        459
    70        342
    71        191
    72         20
    73          2
    74          1
    77         10
    78          3
    79         54
    80         26
    81         74
    82        489
    83        491
    84        127
    85         72
    86          9
    87          1
    91         10
    92          2
    93         50
    94         28
    95         45
    96        647
    97        923
    98        108
    99         22
   100          5
   105          4
   106          1
   107         25
   108         18
   109         20
   110        653
   111        363
   112         53
   113         11
   114          3
   119          1
   120          3
   121         15
   122         21
   123          9
   124        421
   125        100
   126         29
   127          5
   134          1
   135          9
   136         10
   137          3
   138        283
   139         50
   140         25
   141          4
   149          4
   150          4
   151          1
   152        270
   153         39
   154         20
   155          3
   164          2
   165          1
   166        137
   167         21
   168          2
   180         25
   181          3
   194         18
   195          4
   196          8
   197          1