##TITLE=Library Entry 69750
##JCAMP-DX=Revision 4.10 
##DATA TYPE=MASS SPECTRUM
##SAMPLE DESCRIPTION=V.G. Zaikin, R.S.Borisov, TIPS RAS, Moscow, Russia
##NAMES=HP
##CAS NAME=Hexadecanenitrile
##MOLFORM=C16H31N
##CAS REGISTRY NO=629-79-8
##MP= -300
##BP= -300
##MW= 237
##$RETENTION INDEX=0
##$CONDENSED SPECTRUM=NO
##NPOINTS= 104
##XYDATA=(XY..XY) 1 
    26         10
    27        109
    28        109
    29        273
    30         22
    31          7
    38          4
    39         97
    40         20
    41        698
    42        186
    43        900
    44         46
    45          2
    51          5
    52          4
    53         49
    54        196
    55        687
    56        344
    57        857
    58         50
    59          2
    60          3
    61        124
    65          6
    66          9
    67        121
    68        132
    69        549
    70        493
    71        345
    72         18
    73         13
    77          8
    78          3
    79         47
    80         24
    81         98
    82        409
    83        621
    84        263
    85        182
    86         13
    87          2
    91         14
    92          2
    93         41
    94         32
    95         66
    96        586
    97        999
    98        224
    99         57
   100          5
   107         19
   108         19
   109         29
   110        690
   111        468
   112        138
   113         32
   114          4
   116         13
   121         11
   122         38
   123         13
   124        496
   125        177
   126        100
   127         16
   130          2
   135          7
   136         23
   137          4
   138        297
   139         73
   140         72
   141          8
   150          5
   152        207
   153         41
   154         48
   155          5
   164          3
   166        186
   167         29
   168         32
   169          3
   180        246
   181         40
   182         53
   183          3
   194        348
   195         59
   196         39
   197          3
   208        254
   209         46
   210          8
   222         47
   223          4
   236         15
   237          3