##TITLE=Library Entry 30119
##JCAMP-DX=Revision 4.10 
##DATA TYPE=MASS SPECTRUM
##SAMPLE DESCRIPTION=Japan AIST/NIMC Database- Spectrum MS-NW-5936
##NAMES=HP
##CAS NAME=Hexadecanamide
##MOLFORM=C16H33NO
##CAS REGISTRY NO=629-54-9
##MP= -300
##BP= -300
##MW= 255
##$RETENTION INDEX=2182
##$CONDENSED SPECTRUM=NO
##NPOINTS= 111
##XYDATA=(XY..XY) 1 
    17          3
    18          1
    27         21
    28          6
    29         55
    30          3
    31          1
    36          1
    39         12
    40          4
    41        105
    42         20
    43        146
    44         60
    45          2
    46          2
    51          1
    53          6
    54          6
    55         73
    56         18
    57         72
    58          4
    59        999
    60         99
    61          5
    67          9
    68          3
    69         36
    70         10
    71         24
    72        340
    73         46
    74          3
    77          1
    79          3
    80          1
    81          6
    82          4
    83         21
    84         11
    85          9
    86         54
    87          7
    93          2
    94          1
    95          5
    96          6
    97         19
    98         26
    99          4
   100         16
   101         15
   102          1
   107          2
   109          2
   110          7
   111          9
   112          3
   113          1
   114         44
   115         24
   116          2
   121          1
   122          1
   123          1
   124          4
   125          5
   126          1
   127          1
   128         51
   129          7
   135          1
   138          2
   139          2
   140          2
   142          9
   143          2
   149          1
   152          2
   153          1
   154          1
   156         10
   157          3
   166          1
   167          1
   170         14
   171          2
   180          2
   181          1
   182          1
   184          9
   185          2
   194          3
   195          1
   196          1
   198          6
   199          2
   208          2
   212         29
   213          6
   214          1
   226         14
   227          3
   238          4
   239          1
   240          2
   254          4
   255         69
   256         14
   257          2