##TITLE=Library Entry 23434
##JCAMP-DX=Revision 4.10 
##DATA TYPE=MASS SPECTRUM
##SAMPLE DESCRIPTION=Japan AIST/NIMC Database- Spectrum MS-NW-5018
##NAMES=HP
##CAS NAME=Heptane, 1-bromo-
##MOLFORM=C7H15Br
##CAS REGISTRY NO=629-04-9
##MP= -300
##BP= -300
##MW= 178
##$RETENTION INDEX=1036
##$CONDENSED SPECTRUM=NO
##NPOINTS= 66
##XYDATA=(XY..XY) 1 
    14          1
    15          8
    26         12
    27        181
    28         21
    29        229
    30          5
    36          2
    37          2
    38          8
    39        122
    40         25
    41        479
    42        148
    43        467
    44         16
    51          8
    52          4
    53         25
    54         16
    55        344
    56        185
    57        999
    58         45
    62          1
    63          2
    65          3
    66          1
    67         11
    68         10
    69        182
    70         82
    71         20
    72          1
    77          1
    79          2
    80          5
    81          3
    82          5
    83         10
    84          1
    85          1
    93          7
    95          6
    97          4
    98         17
    99          9
   105          1
   106          2
   107         24
   108          3
   109         23
   119          1
   121          4
   122          1
   123          4
   135        316
   136         14
   137        310
   138         13
   149         20
   150          1
   151         19
   152          1
   178          6
   180          6