##TITLE=Library Entry 52165
##JCAMP-DX=Revision 4.10 
##DATA TYPE=MASS SPECTRUM
##SAMPLE DESCRIPTION=Japan AIST/NIMC Database- Spectrum MS-NW-1301
##NAMES=HP
##CAS NAME=Hexane, 1,6-dibromo-
##MOLFORM=C6H12Br2
##CAS REGISTRY NO=629-03-8
##MP= -300
##BP= -300
##MW= 242
##$RETENTION INDEX=1312
##$CONDENSED SPECTRUM=NO
##NPOINTS= 68
##XYDATA=(XY..XY) 1 
    14          1
    15          8
    26         13
    27        175
    28         22
    29        106
    30          2
    36          1
    37          2
    38          7
    39        109
    40         28
    41        401
    42         63
    43        192
    44          6
    50          5
    51          8
    52          3
    53         31
    54         26
    55        650
    56         55
    57         46
    58          2
    63          1
    65          3
    66          1
    67         44
    68          4
    69         44
    70          2
    77          1
    79          3
    80          4
    81         17
    82         57
    83        999
    84         65
    85          2
    93         12
    95         11
    97          3
   105          1
   106          4
   107         46
   108          5
   109         43
   119          3
   120          4
   121         36
   122          5
   123         32
   124          1
   133          1
   134          7
   135         18
   136          7
   137         18
   161          1
   162         40
   163         63
   164         42
   165         61
   166          3
   242          4
   244          7
   246          3