##TITLE=Library Entry 51205
##JCAMP-DX=Revision 4.10 
##DATA TYPE=MASS SPECTRUM
##SAMPLE DESCRIPTION=V.G. Zaikin, R.S.Borisov, TIPS RAS, Moscow, Russia
##NAMES=HP
##CAS NAME=Hexadecanal
##MOLFORM=C16H32O
##CAS REGISTRY NO=629-80-1
##MP= -300
##BP= -300
##MW= 240
##$RETENTION INDEX=1817
##$CONDENSED SPECTRUM=NO
##NPOINTS= 100
##XYDATA=(XY..XY) 1 
    26         11
    27        115
    28        123
    29        308
    30          6
    31          3
    37          1
    38          3
    39         88
    40         19
    41        637
    42        148
    43        921
    44        279
    45        127
    46          2
    50          1
    51          3
    52          2
    53         41
    54        157
    55        681
    56        311
    57        931
    58         61
    59          8
    65          7
    66         83
    67        489
    68        659
    69        529
    70        278
    71        458
    72         79
    73          9
    77          5
    78          1
    79         30
    80         35
    81        477
    82        999
    83        685
    84        185
    85        258
    86         33
    87          2
    91          3
    93         14
    94         28
    95        483
    96        625
    97        393
    98        107
    99         71
   100          8
   107          4
   108         10
   109        242
   110        201
   111        159
   112         65
   113         26
   114          3
   121          2
   122          7
   123        128
   124        112
   125         59
   126         39
   127         16
   128          1
   135          1
   136          3
   137         72
   138         67
   139         17
   140         26
   141         10
   151         21
   152         37
   153         10
   154         20
   155          5
   165         21
   166         40
   167          7
   168         19
   169          3
   179         10
   180         13
   181          1
   193          4
   194         48
   195          5
   196         55
   197          9
   212          2
   222         18
   223          1
   240          1