##TITLE=Library Entry 29705
##JCAMP-DX=Revision 4.10 
##DATA TYPE=MASS SPECTRUM
##SAMPLE DESCRIPTION=LAC, NIDDK, NIH, Bethesda, MD 20892
##NAMES=HP
##CAS NAME=Hexadecanal, oxime
##MOLFORM=C16H33NO
##CAS REGISTRY NO=629-91-4
##MP= -300
##BP= -300
##MW= 255
##$RETENTION INDEX=0
##$CONDENSED SPECTRUM=NO
##NPOINTS= 177
##XYDATA=(XY..XY) 1 
    41        656
    43        930
    44         80
    45          3
    46        131
    47          2
    48          1
    50          2
    51          5
    52          0
    53         42
    54         34
    55        527
    56        128
    57        557
    59        999
    60        102
    61         21
    62          2
    63          2
    64          2
    65         12
    67        123
    68         51
    69        315
    70         36
    71        337
    72        411
    73         99
    74          9
    75         92
    76          4
    77         12
    78          1
    79         34
    80          1
    81        155
    82        177
    83        258
    84         82
    85         94
    86        342
    87         40
    88         42
    89         10
    91         21
    92          2
    93         25
    94          3
    95        139
    96        153
    97        203
    98         68
    99         29
   100        433
   101         53
   102         10
   103          1
   104          1
   105          7
   106          2
   107         15
   108          2
   109         71
   110         68
   111         87
   112         44
   113         14
   114        118
   115         27
   116          7
   117          1
   119          2
   121         14
   122         11
   123         40
   124         51
   125         44
   126         23
   127          6
   128        114
   129         35
   130          5
   131          1
   133          2
   134          1
   135          7
   136          8
   137         24
   138         38
   139         23
   140         17
   141          3
   142         53
   143         13
   144          2
   145          0
   146          0
   147          2
   148          1
   149          6
   150          3
   151         11
   152         24
   153         13
   154         13
   155          3
   156         41
   157         16
   158          4
   163          2
   164          1
   165         10
   166         19
   167          8
   168          9
   169          1
   170         30
   171         14
   172          4
   173          0
   177          0
   178          1
   179          6
   180         19
   181          5
   182          8
   183          0
   184         32
   185         15
   186         10
   187          1
   191          0
   192          0
   193          5
   194         30
   195          6
   196          7
   197          1
   198         36
   199         11
   200          2
   208         20
   209          4
   210         11
   211          1
   212         63
   213         23
   214          3
   215          0
   219          2
   220          1
   221          1
   222         88
   223         16
   224          9
   225          5
   226         22
   227         12
   228          2
   236         11
   238        625
   239        336
   240         54
   241          9
   242          4
   243          1
   250          2
   251          0
   252          9
   253          6
   254         60
   255        142
   256        262
   257         58
   258          7
   259          0