##TITLE=Library Entry 16766
##JCAMP-DX=Revision 4.10 
##DATA TYPE=MASS SPECTRUM
##SAMPLE DESCRIPTION=Exported from NIST MS Search
##NAMES=HP
##CAS NAME=Propane, 1,1'-oxybis[3-chloro-
##MOLFORM=C6H12Cl2O
##CAS REGISTRY NO=629-36-7
##MP= -300
##BP= -300
##MW= 170
##$RETENTION INDEX=0
##$CONDENSED SPECTRUM=NO
##NPOINTS= 76
##XYDATA=(XY..XY) 1 
    14          3
    15         15
    18          2
    19          2
    26         10
    27         66
    28         19
    29         29
    30          3
    31         69
    32          3
    36          2
    37          3
    38          6
    39         81
    40         14
    41        490
    42         67
    43         69
    44          6
    45        999
    46         22
    47          3
    48          2
    49         54
    50          3
    51         18
    53          2
    55          4
    57         17
    58         12
    59         47
    60          2
    61          9
    62          8
    63         31
    64          4
    65         11
    67          2
    69          3
    71        102
    72          5
    73          2
    75          7
    76         23
    77        462
    78         24
    79        192
    80          7
    81         15
    85          1
    89         71
    90          3
    91         26
    92          2
    93         17
    94          1
    95          9
   107        279
   108         13
   109         92
   110          5
   121        353
   122         20
   123        120
   124          7
   134          2
   135          1
   137          1
   138          4
   155          2
   157          1
   169          1
   170          1
   171          1
   172          1