##TITLE=Library Entry 10440
##JCAMP-DX=Revision 4.10 
##DATA TYPE=MASS SPECTRUM
##SAMPLE DESCRIPTION=Japan AIST/NIMC Database- Spectrum MS-NW-5268
##NAMES=HP
##CAS NAME=Tetradecanenitrile
##MOLFORM=C14H27N
##CAS REGISTRY NO=629-63-0
##MP= -300
##BP= -300
##MW= 209
##$RETENTION INDEX=1697
##$CONDENSED SPECTRUM=NO
##NPOINTS= 124
##XYDATA=(XY..XY) 1 
    14          1
    15          8
    26         10
    27        229
    28         26
    29        466
    30         51
    31          1
    37          1
    38          3
    39        152
    40         30
    41        844
    42        204
    43        999
    44         59
    45          3
    50          2
    51          9
    52          8
    53         56
    54        269
    55        534
    56        247
    57        746
    58         50
    59          2
    60          2
    62          1
    63          2
    64          2
    65         10
    66         10
    67         87
    68         84
    69        408
    70        364
    71        239
    72         23
    73          2
    75          1
    76          1
    77         11
    78          3
    79         55
    80         26
    81         75
    82        425
    83        451
    84        147
    85        109
    86         14
    87          1
    89          1
    90          1
    91         18
    92          4
    93         50
    94         30
    95         50
    96        627
    97        936
    98        130
    99         27
   100          6
   103          1
   105         13
   106          2
   107         27
   108         22
   109         24
   110        703
   111        397
   112         67
   113         15
   114          5
   115          1
   117          1
   119          1
   120          2
   121         17
   122         26
   123         11
   124        459
   125        124
   126         40
   127         10
   128          3
   129          1
   134          1
   135         10
   136         14
   137          5
   138        251
   139         56
   140         30
   141          5
   142          1
   149          5
   150          6
   151          1
   152        226
   153         38
   154         24
   155          4
   163          2
   164          3
   165          1
   166        239
   167         38
   168         22
   169          3
   178          2
   179          1
   180        132
   181         25
   182          2
   192          1
   194         28
   195          4
   208         15
   209          4
   210          3
   211          1