##TITLE=Library Entry 51580
##JCAMP-DX=Revision 4.10 
##DATA TYPE=MASS SPECTRUM
##SAMPLE DESCRIPTION=Japan AIST/NIMC Database- Spectrum MS-IW-4083
##NAMES=HP
##CAS NAME=13-Docosen-1-ol, (Z)-
##MOLFORM=C22H44O
##CAS REGISTRY NO=629-98-1
##MP= -300
##BP= -300
##MW= 324
##$RETENTION INDEX=2467
##$CONDENSED SPECTRUM=NO
##NPOINTS= 150
##XYDATA=(XY..XY) 1 
    17          2
    18          7
    26          2
    27         35
    28         12
    29        121
    30          3
    31         62
    32          1
    39         39
    40          9
    41        443
    42         83
    43        405
    44         16
    45          8
    51          2
    52          1
    53         37
    54        239
    55        828
    56        201
    57        330
    58         15
    59          2
    65         10
    66         61
    67        437
    68        414
    69        590
    70        165
    71        137
    72         10
    73          3
    77          9
    78          3
    79         42
    80         59
    81        481
    82        999
    83        588
    84        102
    85         84
    86          9
    87          1
    91          6
    92          1
    93         15
    94         33
    95        445
    96        936
    97        437
    98         69
    99         22
   100          5
   101          1
   105          1
   106          1
   107          7
   108         14
   109        278
   110        359
   111        172
   112         38
   113         11
   114          3
   115          1
   121          9
   122         23
   123        202
   124        263
   125         80
   126         23
   127          8
   128          1
   135          6
   136         15
   137        141
   138        182
   139         43
   140         15
   141          6
   142          1
   149          5
   150          3
   151         55
   152        103
   153         25
   154         10
   155          4
   156          1
   163          1
   164          1
   165         31
   166         69
   167         17
   168          8
   169          3
   178          1
   179         21
   180         51
   181         11
   182          6
   183          3
   192          1
   193         16
   194         43
   195          9
   196          4
   197          3
   207         13
   208         37
   209          8
   210          5
   211          4
   221         10
   222         34
   223          7
   224          9
   225          4
   235          9
   236         33
   237          8
   238          7
   239          3
   249         15
   250         41
   251          8
   252          2
   253          2
   263         11
   264         29
   265          6
   266          1
   267          1
   277          9
   278         43
   279          9
   280          3
   281          1
   291          1
   305          1
   306        298
   307         72
   308          9
   309          1
   322          2
   323          1
   324         11
   325          3