##TITLE=Library Entry 77190
##JCAMP-DX=Revision 4.10 
##DATA TYPE=MASS SPECTRUM
##SAMPLE DESCRIPTION=V.G.Zaikin, TIPS RAS, Moscow, Russia
##NAMES=HP
##CAS NAME=Hexanoic acid, 2-phenylethyl ester
##MOLFORM=C14H20O2
##CAS REGISTRY NO=6290-37-5
##MP= -300
##BP= -300
##MW= 220
##$RETENTION INDEX=1650
##$CONDENSED SPECTRUM=NO
##NPOINTS= 72
##XYDATA=(XY..XY) 1 
    26         19
    27        109
    28         26
    29         82
    30          2
    31          4
    37          8
    38         17
    39         95
    40         21
    41        129
    42         65
    43        197
    44         28
    45         15
    50         29
    51         68
    52         19
    53         21
    54         12
    55         93
    56         21
    57         17
    58          3
    59          3
    60         38
    61          6
    62          8
    63         27
    64          6
    65         49
    66         11
    67         18
    68         11
    69         27
    70         11
    71         86
    72          6
    73         18
    74         13
    75          9
    76          7
    77         81
    78         52
    79         52
    80          3
    81         15
    82         11
    83         11
    86          6
    87          3
    89         18
    90         11
    91        109
    92         21
    93          6
    94          3
    95          6
    96          3
    97         15
    98         17
    99        148
   100         12
   101          2
   102         12
   103         69
   104        999
   105        239
   106         19
   109         14
   110         16
   117          7