##TITLE=Library Entry 77604
##JCAMP-DX=Revision 4.10 
##DATA TYPE=MASS SPECTRUM
##SAMPLE DESCRIPTION=V.Zaikin,Inst.Petrochem.Synth.,RAS,Moscow
##NAMES=HP
##CAS NAME=2-Methoxybenzoic acid, 2-phenylethyl ester
##MOLFORM=C16H16O3
##CAS REGISTRY NO=6290-44-4
##MP= -300
##BP= -300
##MW= 256
##$RETENTION INDEX=0
##$CONDENSED SPECTRUM=NO
##NPOINTS= 84
##XYDATA=(XY..XY) 1 
    26          8
    27         28
    28          4
    29         23
    30          5
    39         67
    40          7
    41         18
    42          4
    43         10
    44          1
    50         61
    51         98
    52         28
    53         21
    55          5
    56          2
    57          3
    61          4
    62         14
    63         71
    64         63
    65         71
    66          8
    67          3
    69          4
    71          3
    73          3
    74         15
    75         17
    76         34
    77        381
    78         69
    79         72
    80          4
    81          6
    82          3
    83          3
    84          3
    85          2
    89          8
    90         11
    91        104
    92        152
    93         15
    94          9
    95          5
    96          7
    99         16
   101          2
   102          8
   103         48
   104        999
   105        241
   106         33
   107         14
   108          6
   109          3
   111          2
   112          2
   113          3
   118          3
   119          8
   120         32
   121         13
   122         11
   123        127
   124         10
   125          2
   127          3
   133         14
   134         25
   135        921
   136         96
   137          7
   139          7
   142          2
   147          3
   149          3
   151          8
   152        437
   153         34
   154          3
   165          3