##TITLE=Library Entry 10707
##JCAMP-DX=Revision 4.10 
##DATA TYPE=MASS SPECTRUM
##SAMPLE DESCRIPTION=NIST Mass Spectrometry Data Center
##NAMES=HP
##CAS NAME=1,3-Dioxolane-2-acetic acid, 2,4-dimethyl-, ethyl ester
##MOLFORM=C9H16O4
##CAS REGISTRY NO=6290-17-1
##MP= -300
##BP= -300
##MW= 188
##$RETENTION INDEX=0
##$CONDENSED SPECTRUM=NO
##NPOINTS= 59
##XYDATA=(XY..XY) 1 
    14          4
    15         44
    16          1
    18          2
    19          3
    26         16
    27         99
    28         36
    29        209
    30         11
    31         43
    33          1
    39         63
    40         20
    41        158
    42         99
    43        999
    44         24
    45         39
    53          1
    55          6
    56          4
    57         20
    58         32
    59         53
    60          7
    61         15
    67          3
    68          6
    69         16
    70          3
    71          6
    72         25
    73         11
    74          2
    75          2
    81          1
    83          1
    85         50
    86          8
    87         15
    88          4
    89          1
    98          4
    99         12
   101        597
   102         36
   103          8
   113          2
   115         51
   116          6
   117          1
   127          9
   129          1
   131          8
   144          7
   145          2
   173         38
   174          3