##TITLE=Library Entry 11626
##JCAMP-DX=Revision 4.10 
##DATA TYPE=MASS SPECTRUM
##SAMPLE DESCRIPTION=A.A.Kutin, Moscow, Russia
##NAMES=HP
##CAS NAME=Benzophenone, 4,4'-dihydroxy-, diacetate
##MOLFORM=C17H14O5
##CAS REGISTRY NO=6290-82-0
##MP= -300
##BP= -300
##MW= 298
##$RETENTION INDEX=0
##$CONDENSED SPECTRUM=NO
##NPOINTS= 67
##XYDATA=(XY..XY) 1 
    36         17
    37          5
    38         30
    39         64
    40         45
    41         20
    43        999
    44          9
    49          1
    50         19
    51         14
    52          5
    62         20
    63         66
    64         50
    65        114
    66         13
    75         13
    76         16
    77         21
    78          7
    79          1
    91         10
    92         41
    93         93
    94         15
    95          2
    96          1
   101          5
   102         10
   103          5
   104          5
   105         16
   106          3
   107          2
   121        726
   122         50
   123          6
   124          1
   127         20
   128         36
   129          7
   130          2
   138          2
   139         12
   140          3
   149          7
   150          0
   157         68
   158          7
   185         98
   186         17
   187          1
   197         92
   198         10
   199          2
   213        225
   214        644
   215         80
   216         10
   256        156
   257         21
   258          3
   259          0
   298         60
   299          9
   300          0