##TITLE=Library Entry 20381
##JCAMP-DX=Revision 4.10 
##DATA TYPE=MASS SPECTRUM
##SAMPLE DESCRIPTION=K. NAGAI, YASUDA WOMEN'S UNIV., KAMIYASU, HIROSHIMA, JA
P
##NAMES=HP
##CAS NAME=Isobutyraldehyde, bis(2-methylallyl)acetal
##MOLFORM=C12H22O2
##CAS REGISTRY NO=6290-52-4
##MP= -300
##BP= -300
##MW= 198
##$RETENTION INDEX=0
##$CONDENSED SPECTRUM=NO
##NPOINTS= 33
##XYDATA=(XY..XY) 1 
    39        140
    40         60
    41        140
    42         70
    43        210
    44         50
    45         30
    53         80
    54         70
    55        999
    56        180
    57        140
    58         40
    67         80
    68         30
    69         80
    70        130
    71        310
    72         90
    73         60
    81         50
    83         50
    85         40
    97         40
    99         60
   109        240
   110         50
   111         50
   126         80
   127         90
   143         40
   155        120
   198          1