##TITLE=Library Entry 16884
##JCAMP-DX=Revision 4.10 
##DATA TYPE=MASS SPECTRUM
##SAMPLE DESCRIPTION=Japan AIST/NIMC Database- Spectrum MS-NW-6067
##NAMES=HP
##CAS NAME=1,3-Butanediol, (R)-
##MOLFORM=C4H10O2
##CAS REGISTRY NO=6290-03-5
##MP= -300
##BP= -300
##MW= 90
##$RETENTION INDEX=0
##$CONDENSED SPECTRUM=NO
##NPOINTS= 61
##XYDATA=(XY..XY) 1 
    12          1
    13          2
    14         13
    15         73
    16          4
    17          3
    18         12
    19          2
    25          3
    26         28
    27        196
    28        283
    29        180
    30         17
    31        270
    32          4
    33          2
    34          3
    36          2
    37         10
    38         13
    39         81
    40         23
    41        130
    42        166
    43        923
    44        237
    45        999
    46         66
    47         22
    48          1
    49          7
    50          5
    51          6
    52          2
    53         12
    54         16
    55         44
    56          5
    57        259
    58         14
    59          8
    60          2
    61          2
    62         10
    63          7
    67          2
    69          3
    70          4
    71         30
    72        322
    73         19
    74          2
    75        117
    76          4
    77          1
    85          5
    87          1
    89          5
    90          2
    91          1