##TITLE=Library Entry 7336
##JCAMP-DX=Revision 4.10 
##DATA TYPE=MASS SPECTRUM
##SAMPLE DESCRIPTION=Chemical Concepts
##NAMES=HP
##CAS NAME=3,7-Octadien-2-ol, 2,6-dimethyl-
##MOLFORM=C10H18O
##CAS REGISTRY NO=62911-76-6
##MP= -300
##BP= -300
##MW= 154
##$RETENTION INDEX=0
##$CONDENSED SPECTRUM=NO
##NPOINTS= 81
##XYDATA=(XY..XY) 1 
    27        149
    29        158
    30          4
    31         64
    37          3
    38          9
    39        140
    40         23
    41        134
    42         16
    43        999
    44         25
    45         28
    46          1
    47          0
    49          1
    50         10
    51         24
    52          9
    53         79
    54         19
    55        293
    56         22
    57         16
    58          6
    59        229
    60          8
    61          2
    62          3
    63          6
    64          1
    65         20
    66         11
    67         55
    68         15
    69         53
    70          5
    71         89
    72         17
    73          2
    74          8
    75          1
    76          0
    77         27
    78          6
    79         46
    80         16
    81        238
    82         54
    83         20
    84          9
    85         46
    86          4
    89          0
    91         13
    92          7
    93         34
    94         11
    95         25
    96         95
    97         18
    98          3
    99          9
   103          1
   105          5
   106          2
   107         24
   108          9
   109          3
   110          1
   111          6
   112          1
   119          1
   121         35
   122          3
   123          1
   125          1
   136         11
   137          3
   139         47
   140          4