##TITLE=Library Entry 50626
##JCAMP-DX=Revision 4.10 
##DATA TYPE=MASS SPECTRUM
##SAMPLE DESCRIPTION=Exported from NIST MS Search
##NAMES=HP
##CAS NAME=Cyclohexanol, 4-sec-butyl-
##MOLFORM=C10H20O
##CAS REGISTRY NO=6292-20-2
##MP= -300
##BP= -300
##MW= 156
##$RETENTION INDEX=0
##$CONDENSED SPECTRUM=NO
##NPOINTS= 71
##XYDATA=(XY..XY) 1 
    15          5
    17          5
    18         13
    26          3
    27         60
    28         28
    29        132
    30          7
    31         19
    32          7
    38          3
    39         62
    40         10
    41        200
    42         24
    43        151
    44         30
    45         10
    50          3
    51          7
    52          6
    53         43
    54         65
    55        267
    56         85
    57        335
    58         23
    59          6
    63          3
    65         10
    66         18
    67        260
    68         46
    69         69
    70         69
    71         51
    72          6
    73          2
    77         12
    78          4
    79         56
    80        156
    81        999
    82        263
    83         99
    84         24
    85          6
    91          5
    93          7
    94          5
    95         42
    96         90
    97         30
    98         14
    99         26
   100          4
   105          4
   107          6
   108         11
   109        514
   110         75
   111          7
   112          7
   121          5
   123         48
   124          7
   127          5
   137          6
   138        145
   139         16
   155          2