##TITLE=Library Entry 16211
##JCAMP-DX=Revision 4.10 
##DATA TYPE=MASS SPECTRUM
##SAMPLE DESCRIPTION=Darrick Lee, Cayman Chemical, Ann Arbor, MI
##NAMES=HP
##CAS NAME=.alpha.-Methyl-3,4-(methylenedioxy)phenethylamine hydrochloride
##MOLFORM=C10H13NO2
##CAS REGISTRY NO=6292-91-7
##MP= -300
##BP= -300
##MW= 179
##$RETENTION INDEX=0
##$CONDENSED SPECTRUM=NO
##NPOINTS= 79
##XYDATA=(XY..XY) 1 
    40          5
    41          9
    42         49
    44        999
    45         26
    50         32
    51        113
    52         23
    53         19
    54          5
    55          3
    56          9
    57          3
    59          1
    61          4
    62         13
    63         27
    64          8
    65         16
    66          6
    67         10
    68          2
    73          2
    74         12
    75         12
    76         20
    77        183
    78         83
    79         45
    80         11
    82         38
    86          2
    87          1
    89         16
    90          6
    91         12
    92          3
    93          4
    94          2
   101          2
   102          5
   103         22
   104         24
   105         60
   106         52
   107         15
   108          3
   115          2
   116          5
   117          4
   118          7
   119          3
   120          8
   121         12
   122          3
   130          1
   131          8
   132          4
   133          6
   135        355
   136        681
   137         63
   138          6
   145          1
   146          3
   147          6
   148          7
   149          2
   160          1
   161          5
   162          7
   163         14
   164         17
   165          2
   176          2
   177          5
   178         10
   179         35
   180          6