##TITLE=Library Entry 397
##JCAMP-DX=Revision 4.10 
##DATA TYPE=MASS SPECTRUM
##SAMPLE DESCRIPTION=K. LEVSEN, INST. PHYS. CHEM., UNIV. BONN, W. GER&
##NAMES=HP
##CAS NAME=Dichloromethylethyltin
##MOLFORM=C3H8Cl2Sn
##CAS REGISTRY NO=62925-83-1
##MP= -300
##BP= -300
##MW= 234
##$RETENTION INDEX=0
##$CONDENSED SPECTRUM=NO
##NPOINTS= 93
##XYDATA=(XY..XY) 1 
    13         20
    14         60
    15        200
    25         10
    26        130
    27        500
    29        999
    35         20
    36         20
   116         60
   117         60
   118        100
   119         80
   120        140
   121         50
   122         20
   124         20
   130         20
   131         40
   132         40
   133         60
   134         40
   135         70
   137         10
   139         10
   145         10
   147         20
   149         30
   150         20
   151        180
   152        120
   153        360
   154        360
   155        490
   156         50
   157        180
   159         90
   161         20
   166         30
   167         30
   168         60
   169         40
   170         80
   171         20
   172         30
   174         10
   180         10
   181         20
   182         20
   183         30
   184         20
   185         20
   186         20
   187         30
   188         40
   189         50
   190         50
   191         70
   192         30
   193         40
   194         30
   195         50
   196         50
   197         80
   198         70
   199         90
   200         40
   201        140
   202         90
   203        270
   204        140
   205        370
   206         70
   208         20
   209        100
   210         10
   211         50
   213         20
   215         60
   216         40
   217        130
   218         70
   219        170
   220         40
   221        100
   222         10
   223         40
   225         10
   230         10
   232         20
   233         10
   234         40
   236         20