##TITLE=Library Entry 32411
##JCAMP-DX=Revision 4.10 
##DATA TYPE=MASS SPECTRUM
##SAMPLE DESCRIPTION=Chemical Concepts
##NAMES=HP
##CAS NAME=5-Dodecenol
##MOLFORM=C12H24O
##CAS REGISTRY NO=62936-12-3
##MP= -300
##BP= -300
##MW= 184
##$RETENTION INDEX=1464
##$CONDENSED SPECTRUM=NO
##NPOINTS= 62
##XYDATA=(XY..XY) 1 
    39        276
    40          8
    41        980
    42        266
    43        504
    44         95
    45          2
    52         17
    53        171
    54        790
    55        895
    56        266
    57        333
    58        142
    59          5
    65         10
    66        104
    67        999
    68        866
    69        447
    70        209
    71        161
    72          8
    78         12
    79        123
    80          7
    81        628
    82        799
    83        257
    84         95
    85          4
    94         52
    95        523
    96        399
    97        219
    98         16
   108         19
   109        190
   110        219
   111         57
   112          7
   121          4
   122         47
   123         66
   124         38
   125          3
   136          4
   137         47
   138         95
   139         38
   140         28
   141          9
   142          1
   154          1
   155         19
   156          2
   166         95
   167         19
   168          2
   183          1
   184         19
   185          2