##TITLE=Library Entry 60512
##JCAMP-DX=Revision 4.10 
##DATA TYPE=MASS SPECTRUM
##SAMPLE DESCRIPTION=D. HEBEL, LC, NIDDK, NIH, Bethesda, MD 20892
##NAMES=HP
##CAS NAME=Benzenethanamine, 3-benzyloxy-.beta.-hydroxy-
##MOLFORM=C15H17NO2
##CAS REGISTRY NO=62932-74-5
##MP= -300
##BP= -300
##MW= 243
##$RETENTION INDEX=0
##$CONDENSED SPECTRUM=NO
##NPOINTS= 143
##XYDATA=(XY..XY) 1 
    41         21
    42         11
    43         45
    44          6
    45          9
    49          2
    50         11
    51         32
    52         11
    53          6
    54          2
    55          9
    56          1
    57          2
    58          4
    59         14
    60          4
    61          1
    62          6
    63         29
    64         16
    65        150
    66         33
    67          9
    68          1
    69          1
    70          1
    71          1
    72          7
    73        103
    74          7
    75          2
    76          6
    77         49
    78         14
    79         17
    80          3
    81          1
    82          0
    83          2
    84          1
    86          1
    87          1
    89         21
    90         18
    91        999
    92        182
    93         17
    94         15
    95         34
    96          2
    97          1
    99          0
   101          2
   102          1
   103          1
   104          6
   105         17
   106          9
   107         15
   108          3
   109          5
   110          0
   115          2
   116          1
   117          1
   118          4
   119          4
   120          7
   121         11
   122         17
   123         49
   124          3
   125          1
   127          1
   128          1
   129          1
   131          0
   132          0
   133          1
   134         12
   135         24
   136          4
   137          3
   141          1
   146          1
   147          1
   148          0
   149          1
   150          3
   151          4
   152         15
   153          4
   154          1
   155          2
   162          0
   163          0
   164          1
   165          5
   166          1
   167          1
   168          1
   177          0
   178          1
   179          1
   180          1
   181          2
   182          0
   183          1
   194          4
   195          4
   196          2
   197          2
   207          1
   208          1
   209          1
   210          1
   211         11
   212         12
   213         12
   214        136
   215         21
   216          2
   223          1
   224          1
   225          6
   226         15
   227          7
   228         17
   229         11
   230          1
   235          1
   236          1
   237          1
   238          3
   239          1
   240          3
   241          7
   242         38
   243        128
   244         71
   245          9
   246          1