##TITLE=Library Entry 1549
##JCAMP-DX=Revision 4.10 
##DATA TYPE=MASS SPECTRUM
##SAMPLE DESCRIPTION=Japan AIST/NIMC Database- Spectrum MS-IW- 902
##NAMES=HP
##CAS NAME=Hydrazinecarboxylic acid, methyl ester
##MOLFORM=C2H6N2O2
##CAS REGISTRY NO=6294-89-9
##MP= -300
##BP= -300
##MW= 90
##$RETENTION INDEX=0
##$CONDENSED SPECTRUM=NO
##NPOINTS= 33
##XYDATA=(XY..XY) 1 
    12          1
    13          1
    14          8
    15        340
    16         28
    17         78
    18         40
    27          3
    28        252
    29        149
    30        131
    31        999
    32        116
    33         19
    41          1
    42          9
    43         46
    44        221
    45        602
    46         57
    47          5
    56          1
    58        239
    59        462
    60         16
    61          2
    73          1
    74          1
    75         51
    76          4
    90        869
    91         60
    92          5