##TITLE=Library Entry 20704
##JCAMP-DX=Revision 4.10 
##DATA TYPE=MASS SPECTRUM
##SAMPLE DESCRIPTION=Japan AIST/NIMC Database- Spectrum MS-NW-7489
##NAMES=HP
##CAS NAME=Hexane, 1-bromo-6-chloro-
##MOLFORM=C6H12BrCl
##CAS REGISTRY NO=6294-17-3
##MP= -300
##BP= -300
##MW= 198
##$RETENTION INDEX=0
##$CONDENSED SPECTRUM=NO
##NPOINTS= 84
##XYDATA=(XY..XY) 1 
    14          1
    15          9
    26         24
    27        239
    28         43
    29        179
    30          4
    31          9
    35          2
    36          9
    37          4
    38         10
    39        168
    40         34
    41        597
    42        134
    43        331
    44         10
    45          1
    48          1
    49         29
    50          8
    51         14
    52          6
    53         53
    54         50
    55        999
    56        154
    57        111
    58          5
    61          3
    62         12
    63         37
    64          4
    65         12
    66          3
    67        120
    68         10
    69        172
    70         11
    71          1
    73          2
    75         12
    76         11
    77         66
    78          6
    79         20
    80          8
    81         28
    82        174
    83        960
    84         64
    85          2
    89          4
    90         27
    91         24
    92         10
    93         10
    95          9
   105          2
   106          4
   107         37
   108          5
   109         35
   110          1
   117          2
   118         64
   119         36
   120         23
   121         11
   122          5
   123          6
   134         11
   135         19
   136         12
   137         17
   138          1
   149          1
   162         17
   163          3
   164         18
   165          2
   198          1
   200          1