##TITLE=Library Entry 92
##JCAMP-DX=Revision 4.10 
##DATA TYPE=MASS SPECTRUM
##SAMPLE DESCRIPTION=ALPHA Chemicals / NIST MS Data Center.
##NAMES=HP
##CAS NAME=Bis-2-chloroethyl-2-chloroethylphosphonate
##MOLFORM=C6H12Cl3O3P
##CAS REGISTRY NO=6294-34-4
##MP= -300
##BP= -300
##MW= 268
##$RETENTION INDEX=0
##$CONDENSED SPECTRUM=NO
##NPOINTS= 162
##XYDATA=(XY..XY) 1 
    12          1
    13          2
    14         12
    15         48
    16          1
    17          0
    18          4
    19          5
    24          1
    26        142
    27        999
    28        275
    29         88
    30         15
    31         32
    33          2
    34          0
    35          7
    36          9
    37          4
    38          5
    39          6
    41          9
    42         26
    43         51
    44         23
    45        109
    46          0
    47        144
    48         28
    49        143
    50         16
    51         45
    52          3
    53          2
    55          4
    56          1
    57          7
    58          4
    59          1
    60          5
    61         37
    62        203
    63        789
    64         92
    65        310
    66          7
    69          1
    70          1
    71         14
    72          1
    73          0
    74          5
    75          3
    76          0
    77         32
    78          9
    79          7
    80          0
    81         60
    82         26
    83         46
    84          1
    85          5
    89          7
    91        122
    92          6
    93          6
    94          1
    95          2
    96          5
    97          4
    98          1
    99        111
   100          6
   101         39
   102          1
   103          1
   105          3
   106          1
   107          5
   108         11
   109        115
   110         13
   111          9
   112          6
   113          2
   114          1
   115          1
   117         60
   119         20
   121          3
   122          1
   123          2
   125          6
   127        402
   129        130
   130          3
   131          1
   133          1
   135         87
   137         44
   139          8
   140          1
   141          1
   142          1
   143         41
   144          1
   145        231
   146          1
   147         76
   148          2
   149          2
   153          9
   154          1
   155          4
   156          1
   157          1
   161        122
   163         81
   164          3
   165         15
   166          0
   169          1
   171        206
   172         16
   173         69
   174          3
   175          0
   179          4
   181          2
   183          2
   189        314
   191        201
   192         11
   193         34
   194          1
   197         19
   198          1
   199          6
   205          7
   207        212
   208         25
   209        139
   210          9
   211         22
   212          1
   219         71
   221         45
   222          4
   223          8
   230          0
   233        671
   234         74
   235        425
   236         34
   237         72
   238          5
   241          1
   243          1
   269          2
   271          2