##TITLE=Library Entry 96855
##JCAMP-DX=Revision 4.10 
##DATA TYPE=MASS SPECTRUM
##SAMPLE DESCRIPTION=NIST Mass Spectrometry Data Center, 1994
##NAMES=HP
##CAS NAME=Hexane, 1,1'-thiobis-
##MOLFORM=C12H26S
##CAS REGISTRY NO=6294-31-1
##MP= -300
##BP= -300
##MW= 202
##$RETENTION INDEX=1473
##$CONDENSED SPECTRUM=NO
##NPOINTS= 87
##XYDATA=(XY..XY) 1 
    15         20
    16          0
    27        448
    28         37
    29        626
    30         14
    33          1
    34          3
    35         14
    36          0
    37          4
    38          0
    39        227
    40          0
    41        853
    42        282
    43        889
    44         35
    45        108
    46         72
    47        130
    48         13
    49         10
    50          4
    51         10
    52          9
    53         57
    54          4
    55        798
    56        709
    57        114
    58         20
    59         55
    60        127
    61        506
    62         26
    63         25
    65          8
    67         49
    69        254
    70         24
    71         13
    73         23
    74         14
    75         38
    76          5
    77          5
    78          1
    79          5
    81          9
    83        459
    84        639
    85        149
    86          1
    87         75
    88         17
    89         59
    90          3
    91          2
    97          1
    99          1
   101          7
   103         17
   104          1
   105          0
   117        999
   118        171
   119         97
   120          9
   121          3
   129          1
   131        113
   132         13
   133          6
   145         34
   146          3
   147          2
   159          9
   160          1
   173         33
   174          3
   175          1
   187          2
   202        395
   203         56
   204         22
   205          2