##TITLE=Library Entry 69821
##JCAMP-DX=Revision 4.10 
##DATA TYPE=MASS SPECTRUM
##SAMPLE DESCRIPTION=Japan AIST/NIMC Database- Spectrum MS-NW-3046
##NAMES=HP
##CAS NAME=Cyclohexane, 1-bromo-4-methyl-
##MOLFORM=C7H13Br
##CAS REGISTRY NO=6294-40-2
##MP= -300
##BP= -300
##MW= 176
##$RETENTION INDEX=0
##$CONDENSED SPECTRUM=NO
##NPOINTS= 55
##XYDATA=(XY..XY) 1 
    15          3
    26          5
    27         56
    28          7
    29         43
    30          1
    36          2
    37          1
    38          6
    39         79
    40         13
    41        131
    42         17
    43         45
    44          1
    45          1
    46          4
    47          2
    50          6
    51         11
    52          6
    53         39
    54         42
    55        817
    56         40
    57          4
    62          1
    63          3
    65          8
    66          5
    67         42
    68         28
    69         56
    70          3
    74          1
    77          9
    78          2
    79         15
    80          3
    81         88
    82          6
    83          2
    91          2
    93          1
    95         15
    96         18
    97        999
    98         75
    99          2
   107          1
   111          3
   119          2
   121          2
   176          3
   178          2