##TITLE=Library Entry 37014
##JCAMP-DX=Revision 4.10 
##DATA TYPE=MASS SPECTRUM
##SAMPLE DESCRIPTION=James Little,Eastman Chem.Co.,Kingsport,TN
##NAMES=HP
##CAS NAME=Acetonitrile, ethoxy-
##MOLFORM=C4H7NO
##CAS REGISTRY NO=62957-60-2
##MP= -300
##BP= -300
##MW= 85
##$RETENTION INDEX=0
##$CONDENSED SPECTRUM=NO
##NPOINTS= 24
##XYDATA=(XY..XY) 1 
    25         21
    26         51
    27        126
    28         87
    39         68
    40        142
    41        358
    42        135
    43         17
    44         56
    54         23
    55          7
    56          6
    57         55
    58          8
    59         16
    69          3
    70        999
    71         44
    72          3
    81          1
    83          1
    85         43
    86          5