##TITLE=Library Entry 470
##JCAMP-DX=Revision 4.10 
##DATA TYPE=MASS SPECTRUM
##SAMPLE DESCRIPTION=NIST Mass Spectrometry Data Center, 1992
##NAMES=HP
##CAS NAME=Butyl glyoxylate
##MOLFORM=C6H10O3
##CAS REGISTRY NO=6295-06-3
##MP= -300
##BP= -300
##MW= 130
##$RETENTION INDEX=0
##$CONDENSED SPECTRUM=NO
##NPOINTS= 43
##XYDATA=(XY..XY) 1 
    12          1
    13          4
    14          6
    15         25
    16          0
    17          1
    18         15
    19          4
    26         43
    27        274
    28        139
    29        999
    30         37
    31        122
    33          1
    36          0
    37          5
    38         17
    39        166
    40          0
    41        812
    42         48
    43         49
    44         23
    45         16
    46          1
    49          1
    50          5
    51          6
    52          2
    53         12
    54          1
    55         81
    56         59
    57        551
    58         33
    59          3
    71          0
    72          0
    73          1
    76          0
    88          0
   101          0