##TITLE=Library Entry 34338
##JCAMP-DX=Revision 4.10 
##DATA TYPE=MASS SPECTRUM
##SAMPLE DESCRIPTION=Chemical Concepts
##NAMES=HP
##CAS NAME=1,5,9-Undecatriene, 2,6,10-trimethyl-, (Z)-
##MOLFORM=C14H24
##CAS REGISTRY NO=62951-96-6
##MP= -300
##BP= -300
##MW= 192
##$RETENTION INDEX=0
##$CONDENSED SPECTRUM=NO
##NPOINTS= 94
##XYDATA=(XY..XY) 1 
    23          0
    24          0
    25          0
    26          3
    27        113
    29        142
    30          2
    33          0
    36          0
    37          1
    38          3
    39        138
    40         28
    41        658
    42         31
    43         82
    44          0
    50          3
    51         17
    52          8
    53        107
    54         11
    55        215
    56         15
    57         36
    58          1
    62          0
    63          4
    64          1
    65         22
    66         11
    67        176
    68         66
    69        999
    70         58
    71          3
    75          1
    76          1
    77         36
    78          8
    79         58
    80         33
    81        606
    82        140
    83         15
    84          0
    89          0
    90          1
    91         33
    92         13
    93         93
    94         28
    95         98
    96         16
    97          2
   102          0
   103          1
   105         10
   106          3
   107         61
   108         39
   109         47
   110          9
   111          1
   115          1
   116          0
   117          0
   118          0
   119          2
   120          1
   121         64
   122         28
   123         83
   124         14
   125          1
   128          0
   133          0
   134          1
   135         13
   136         55
   137         21
   138          1
   147          0
   148          2
   149         56
   150          8
   163          0
   176          1
   177         17
   178          2
   190          0
   191          0
   192         16
   193          2