##TITLE=Library Entry 13192
##JCAMP-DX=Revision 4.10 
##DATA TYPE=MASS SPECTRUM
##SAMPLE DESCRIPTION=Chemical Concepts
##NAMES=HP
##CAS NAME=1H-Indene-1,3(2H)-dione, 2,2-bis(acetyloxy)-
##MOLFORM=C13H10O6
##CAS REGISTRY NO=62956-43-8
##MP= -300
##BP= -300
##MW= 262
##$RETENTION INDEX=0
##$CONDENSED SPECTRUM=NO
##NPOINTS= 114
##XYDATA=(XY..XY) 1 
    25          0
    26          2
    27          2
    28         10
    29          1
    35          0
    37          2
    38          5
    39          6
    40          0
    41          1
    42          9
    43        999
    44         22
    45          6
    47          1
    48          0
    49          2
    50         60
    51         14
    52          6
    53          2
    55          0
    56          0
    57          0
    59          0
    60          3
    61          1
    62          2
    63          1
    64          0
    65         16
    66          2
    69          0
    72          0
    73          1
    74         13
    75         15
    76        115
    77         23
    78          2
    79          4
    80          0
    82          0
    83          5
    85          6
    86          0
    87          0
    88          0
    89          0
    90          0
    91          2
    92          1
    93         13
    94          1
    98          0
    99          0
   101          0
   102          0
   103          1
   104        217
   105         36
   106          2
   116          0
   121         10
   122         48
   123          4
   124          0
   126          0
   127          0
   129          0
   130          0
   131          0
   132        110
   133         18
   134          1
   144          1
   145          1
   146          2
   147          3
   148          0
   149         75
   150         45
   151          4
   152          0
   157          0
   158          0
   159          0
   160         95
   161         11
   162          2
   163          0
   174          4
   175          0
   176          0
   177          0
   178        268
   179         26
   180          3
   181          0
   185          0
   186          0
   191          2
   192          3
   193          0
   202         10
   203          4
   204          1
   220        174
   221         22
   222          3
   223          0
   262          3
   263          1