##TITLE=Library Entry 77997
##JCAMP-DX=Revision 4.10 
##DATA TYPE=MASS SPECTRUM
##SAMPLE DESCRIPTION=Chuck Anderson, Aldrich Chemical Co.
##NAMES=HP
##CAS NAME=Butanedioic acid, 2,3-dihydroxy-, bis(1-methylethyl) ester, [S-(R
*,R*)]-
##MOLFORM=C10H18O6
##CAS REGISTRY NO=62961-64-2
##MP= -300
##BP= -300
##MW= 234
##$RETENTION INDEX=1385
##$CONDENSED SPECTRUM=NO
##NPOINTS= 97
##XYDATA=(XY..XY) 1 
    14          2
    15         17
    16          1
    19         21
    25          0
    26          5
    27        137
    28         24
    29         48
    30         18
    31         68
    32          2
    33          0
    36          1
    37          2
    38          5
    39         75
    40         14
    41        312
    42        101
    43        911
    44         43
    45        119
    46          2
    47          1
    49         13
    53          0
    55          1
    57          2
    58         23
    59         93
    60         76
    61         17
    62          0
    63          0
    69          5
    70         22
    71         25
    72          1
    73          3
    74          1
    75          7
    76        455
    77        180
    78          6
    79          1
    83          2
    84          1
    85          1
    87         20
    88        141
    89         99
    90          4
    91          0
    93          0
    97          0
    99          3
   100          1
   101         56
   102          6
   103          3
   104          5
   105        999
   106         31
   107         10
   108          0
   111          1
   112          5
   113          1
   115          4
   116          0
   117         48
   118        367
   119         20
   120          2
   123          0
   128          0
   129         15
   130          9
   131          3
   132          4
   133          2
   141          1
   146          0
   147        282
   148         18
   149          3
   150          0
   151          1
   159          0
   173          0
   174          0
   175          2
   177          5
   191          0
   193          1
   235          0