##TITLE=Library Entry 20202
##JCAMP-DX=Revision 4.10 
##DATA TYPE=MASS SPECTRUM
##SAMPLE DESCRIPTION=GCITA9,106(9-10)879(1976);Z1A; A. M. CAPORUSSO, UNIVERS
ITA DI PISA, ITALY
##NAMES=HP
##CAS NAME=4-Octene, 2,6-dimethyl-, [S-(Z)]-
##MOLFORM=C10H20
##CAS REGISTRY NO=62960-77-4
##MP= -300
##BP= -300
##MW= 140
##$RETENTION INDEX=0
##$CONDENSED SPECTRUM=NO
##NPOINTS= 20
##XYDATA=(XY..XY) 1 
    27        120
    29        140
    39        100
    41        400
    43        260
    53         50
    55        999
    56        280
    57        140
    67         60
    69        710
    70        410
    71         80
    83        170
    84        100
    95         20
    97         30
   111        100
   125         20
   140        130