##TITLE=Library Entry 97005
##JCAMP-DX=Revision 4.10 
##DATA TYPE=MASS SPECTRUM
##SAMPLE DESCRIPTION=Japan AIST/NIMC Database- Spectrum MS-IW-3808
##NAMES=HP
##CAS NAME=Pentanoic acid, 2-methyl-, butyl ester
##MOLFORM=C10H20O2
##CAS REGISTRY NO=6297-41-2
##MP= -300
##BP= -300
##MW= 172
##$RETENTION INDEX=1097
##$CONDENSED SPECTRUM=NO
##NPOINTS= 74
##XYDATA=(XY..XY) 1 
    15          4
    18          1
    26          9
    27        145
    28         60
    29        314
    30          9
    31         14
    37          1
    38          3
    39        101
    40         17
    41        440
    42         90
    43        769
    44         28
    45         36
    47          7
    50          2
    51          6
    52          2
    53         19
    54          8
    55        190
    56        528
    57        411
    58         18
    59         20
    60          5
    61          5
    65          1
    67          6
    68          3
    69         44
    70         51
    71        927
    72         54
    73         67
    74        822
    75         97
    76          6
    77          1
    78          2
    81          4
    82          1
    83          8
    84          1
    85          6
    86          2
    87        201
    88         14
    89         22
    97          4
    98          7
    99        735
   100         60
   101         62
   102          5
   103          3
   113          1
   114          1
   115          9
   116         24
   117        999
   118         67
   119          6
   129         12
   130        195
   131         15
   132          1
   143         22
   144          4
   157          2
   172          1