##TITLE=Library Entry 799
##JCAMP-DX=Revision 4.10 
##DATA TYPE=MASS SPECTRUM
##SAMPLE DESCRIPTION=Chemical Concepts
##NAMES=HP
##CAS NAME=1,3,3,5-Pentanetetracarboxylic acid, tetraethyl ester
##MOLFORM=C17H28O8
##CAS REGISTRY NO=6297-36-5
##MP= -300
##BP= -300
##MW= 360
##$RETENTION INDEX=0
##$CONDENSED SPECTRUM=NO
##NPOINTS= 222
##XYDATA=(XY..XY) 1 
    25          3
    26         44
    27        347
    28        199
    29        999
    30         54
    31        121
    36          9
    37          3
    38          8
    39         90
    40         39
    41        201
    42        213
    43        271
    44        173
    45        198
    46         25
    47         13
    48          4
    50          4
    51          5
    52          5
    53         53
    54         37
    55        532
    56         46
    57         68
    58         31
    59         16
    60         81
    61         43
    62          4
    63          7
    64          5
    65         20
    66         15
    67        111
    68         99
    69        125
    70         55
    71        103
    72         27
    73        165
    74         13
    75          9
    76          4
    77         10
    78          6
    79         16
    80          8
    81         49
    82         20
    83         68
    84         50
    85        206
    86        259
    87         95
    88         84
    89         69
    90          9
    91         12
    92          6
    93         23
    94         22
    95         75
    96         26
    97         56
    98         64
    99        263
   100         26
   101        122
   102         38
   103         11
   104         23
   105         23
   106          7
   107          9
   108          9
   109         22
   110         16
   111        160
   112        129
   113        208
   114        435
   115        100
   116        117
   117         22
   118         10
   119          7
   120          9
   121         17
   122         43
   123         41
   124         10
   125        105
   126         28
   127        485
   128         50
   129         90
   130         37
   131         27
   132         51
   133        107
   134         16
   135         12
   136          5
   137          9
   138         30
   139        140
   140        389
   141        375
   142        137
   143         36
   144          8
   145         24
   146          4
   147          3
   148          4
   149         33
   150         15
   151         10
   152         11
   153        185
   154         29
   155        146
   156         18
   157        117
   158        135
   159         31
   160        415
   161         47
   162         15
   163         10
   165          9
   166         53
   167        192
   168         86
   169        884
   170        109
   171         28
   172          7
   173        518
   174         49
   175         11
   176         11
   178          5
   180          4
   181          5
   182          5
   183          8
   184         12
   185        160
   186        539
   187        121
   188         38
   189         13
   190          7
   193         11
   194         41
   195        410
   196         53
   197         17
   198          5
   199         13
   200          4
   201         19
   202         10
   204          5
   205          4
   206          4
   210          6
   211         12
   212         20
   213         96
   214        449
   215        600
   216         95
   217         19
   218          4
   222          8
   223          9
   224          4
   225          4
   226         15
   227         13
   228          5
   229         33
   230          9
   231          6
   232          8
   239         20
   240         41
   241        288
   242        109
   243         24
   244          5
   256          4
   257          6
   258          5
   259         18
   260        508
   261         69
   262         17
   268         25
   269         42
   270         10
   271          3
   272          3
   273          9
   274          4
   285         17
   286         12
   287         65
   288         19
   289          4
   314         33
   315        592
   316        132
   317         24
   318          4
   360          3