##TITLE=Library Entry 96871
##JCAMP-DX=Revision 4.10 
##DATA TYPE=MASS SPECTRUM
##SAMPLE DESCRIPTION=Japan AIST/NIMC Database- Spectrum MS-IW-3577
##NAMES=HP
##CAS NAME=Valeric acid, 2-methyl-, pentyl ester
##MOLFORM=C11H22O2
##CAS REGISTRY NO=6297-48-9
##MP= -300
##BP= -300
##MW= 186
##$RETENTION INDEX=1187
##$CONDENSED SPECTRUM=NO
##NPOINTS= 78
##XYDATA=(XY..XY) 1 
    15          5
    18          2
    26          9
    27        157
    28         58
    29        239
    30          9
    31         22
    32          1
    37          1
    38          3
    39         93
    40         19
    41        347
    42        280
    43        900
    44         44
    45         36
    46          1
    47          6
    50          1
    51          4
    52          1
    53         20
    54          9
    55        286
    56         72
    57         46
    58          5
    59         17
    60          3
    61          5
    65          2
    66          1
    67          9
    68          9
    69         95
    70        634
    71        866
    72         52
    73         46
    74        709
    75         95
    76          5
    81          3
    82          1
    83          5
    84          1
    85         10
    86          3
    87        168
    88         12
    89         18
    90          1
    97          4
    98          8
    99        554
   100         40
   101         29
   102          4
   103          3
   113          1
   114          9
   115         69
   116         32
   117        999
   118         70
   119          6
   126          1
   129          9
   130          1
   143          5
   144        118
   145          9
   157         12
   158          2
   186          1
   187          1