##TITLE=Library Entry 100373
##JCAMP-DX=Revision 4.10 
##DATA TYPE=MASS SPECTRUM
##SAMPLE DESCRIPTION=V.Zaikin,Inst.Petrochem.Synth.,RAS,Moscow
##NAMES=HP
##CAS NAME=o-Toluic acid, 2-butyl ester
##MOLFORM=C12H16O2
##CAS REGISTRY NO=6297-50-3
##MP= -300
##BP= -300
##MW= 192
##$RETENTION INDEX=0
##$CONDENSED SPECTRUM=NO
##NPOINTS= 103
##XYDATA=(XY..XY) 1 
    25          3
    26         14
    27         86
    28         20
    29        131
    30          6
    39        150
    40         33
    41        181
    42         20
    43         58
    44          5
    45         15
    49          9
    50         46
    51         85
    52         54
    53         25
    54          4
    55         45
    56         99
    57        191
    58         11
    59         12
    60          6
    61         14
    62         25
    63         89
    64         24
    65        212
    66         18
    67          6
    68          3
    69         14
    70          8
    71          5
    73         45
    74         13
    75         12
    76         10
    77         63
    78         12
    79         51
    80          4
    81          3
    82          3
    83          2
    84         10
    85          3
    86          5
    87          3
    88          5
    89         80
    90        166
    91        596
    92         76
    93         31
    94          4
    95         10
    96          4
    97          2
    98          3
    99          5
   100          5
   101          3
   102         13
   103         17
   104         13
   105         44
   106          6
   107          4
   108          3
   110          8
   111          5
   113          4
   115          4
   116          6
   117         28
   118        613
   119        999
   120         87
   121          3
   122          4
   125          4
   127          2
   129          4
   130          3
   131          4
   133          9
   134         12
   135         44
   136        656
   137        113
   138         12
   145          3
   147          4
   151          3
   153          3
   163          4
   177          4
   191          6
   192         90
   193          8