##TITLE=Library Entry 39214
##JCAMP-DX=Revision 4.10 
##DATA TYPE=MASS SPECTRUM
##SAMPLE DESCRIPTION=Japan AIST/NIMC Database- Spectrum MS-IW-3550
##NAMES=HP
##CAS NAME=Isobutyl 2-methylvalerate
##MOLFORM=C10H20O2
##CAS REGISTRY NO=6297-42-3
##MP= -300
##BP= -300
##MW= 172
##$RETENTION INDEX=1064
##$CONDENSED SPECTRUM=NO
##NPOINTS= 78
##XYDATA=(XY..XY) 1 
    15          6
    17          1
    18          3
    26          6
    27        116
    28         46
    29        246
    30          7
    31         16
    37          1
    38          4
    39         94
    40         17
    41        395
    42         83
    43        685
    44         23
    45         24
    47          3
    50          2
    51          5
    52          1
    53         16
    54          6
    55        124
    56        656
    57        728
    58         36
    59         19
    60          3
    61          2
    65          1
    67          4
    68          2
    69         32
    70         37
    71        999
    72         63
    73         56
    74        551
    75         40
    76          3
    78          1
    81          2
    83          5
    84          1
    85          7
    86          1
    87        134
    88         10
    89         14
    96          4
    97          4
    98          8
    99        981
   100         99
   101         30
   102          2
   103          3
   113          1
   114          2
   115          9
   116         30
   117        551
   118         37
   119          3
   128          1
   129         23
   130        139
   131         10
   132          1
   142          1
   143          5
   144          2
   155          3
   157          4
   172          1
   173          3