##TITLE=Library Entry 109323
##JCAMP-DX=Revision 4.10 
##DATA TYPE=MASS SPECTRUM
##SAMPLE DESCRIPTION=D.HENNEBERG, MAX-PLANCK INSTITUTE, MULHEIM, WEST GERMAN
Y
##NAMES=HP
##CAS NAME=Silane, cyclopentenyltrimethyl-
##MOLFORM=C8H16Si
##CAS REGISTRY NO=62987-36-4
##MP= -300
##BP= -300
##MW= 140
##$RETENTION INDEX=0
##$CONDENSED SPECTRUM=NO
##NPOINTS= 89
##XYDATA=(XY..XY) 1 
    26          2
    27          2
    28          1
    29          5
    30          0
    31         17
    32          1
    33          0
    38          0
    39          3
    40          1
    41          5
    42          0
    43         49
    44         16
    45         76
    46          5
    47          2
    49          0
    50          0
    51          0
    52          0
    53          3
    54          0
    55         12
    56          2
    57          9
    58         14
    59        163
    60         11
    61          5
    62          0
    65          2
    66         23
    67         10
    68          3
    69         42
    70          6
    71         12
    72         14
    73        646
    74         55
    75         27
    76          1
    77          3
    78          1
    79          5
    80         20
    81         15
    82          5
    83         40
    84          4
    85          9
    86          0
    87          0
    91          0
    92          0
    93          5
    94          1
    95         20
    96         10
    97        658
    98         70
    99         26
   100          1
   101          0
   105          0
   107          2
   108          1
   109         19
   110          3
   111          2
   112          3
   113          0
   121          1
   122          0
   123          9
   124          6
   125        999
   126        125
   127         39
   128          3
   129          0
   138          1
   139          0
   140        212
   141         29
   142          9
   143          0