##TITLE=Library Entry 59818
##JCAMP-DX=Revision 4.10 
##DATA TYPE=MASS SPECTRUM
##SAMPLE DESCRIPTION=Div. of Experiment Therapeutics WRAIR, WRAMC, Washingto
n DC 20307
##NAMES=HP
##CAS NAME=3-Benzylamino-7-chloro-1,2,4-benzotriazine
##MOLFORM=C14H11ClN4
##CAS REGISTRY NO=6298-44-8
##MP= -300
##BP= -300
##MW= 270
##$RETENTION INDEX=0
##$CONDENSED SPECTRUM=NO
##NPOINTS= 145
##XYDATA=(XY..XY) 1 
    41         33
    42          1
    43         20
    44          1
    45          2
    47          7
    48          2
    49         33
    50         47
    51         79
    52         24
    53         12
    54          2
    55          7
    56          2
    57          3
    60          3
    61         10
    62         32
    63         68
    64          7
    65        249
    66         11
    67          1
    68          1
    69          2
    70          1
    71          1
    72          2
    73         31
    74         34
    75         47
    76         21
    77         36
    78         12
    79          7
    80          1
    81          1
    82          1
    83         10
    84         18
    85          3
    86         12
    87          8
    88         27
    89         57
    91        999
    92         71
    93          2
    97         10
    98         10
    99          6
   100         11
   101          2
   102          4
   103          5
   104         13
   105          2
   106          1
   108          1
   109          2
   110          5
   111          3
   112          2
   113          1
   114          2
   115          4
   116          5
   117          6
   121          1
   122          1
   124        119
   126         49
   127          3
   128          0
   129          1
   130          1
   131          3
   132          1
   133          0
   135          4
   136          4
   137          2
   138          4
   139          3
   140          2
   141          1
   143          0
   148          0
   149          0
   150          2
   151          7
   152          7
   153          3
   154          1
   163          5
   164          4
   165         28
   166         10
   167          9
   168          2
   169          0
   177          2
   178          3
   179          3
   180         18
   181          3
   190         23
   191          5
   192          1
   193          0
   194          0
   199          0
   200          4
   201          1
   202          1
   203          1
   204          0
   205          8
   206         24
   207         83
   208         13
   209          1
   212          0
   213          1
   214         21
   215         27
   216          9
   217          9
   218          1
   224          0
   225          8
   226          1
   227          3
   236          1
   239          1
   241         89
   242         62
   243         35
   244         20
   245          2
   270         59
   271         10
   272         19
   273          3