##TITLE=Library Entry 69220
##JCAMP-DX=Revision 4.10 
##DATA TYPE=MASS SPECTRUM
##SAMPLE DESCRIPTION=LAC, NIDDK, NIH, Bethesda, MD 20892
##NAMES=HP
##CAS NAME=Pyrimidin-6-ol-4-carboxylic acid
##MOLFORM=C5H4N2O3
##CAS REGISTRY NO=6299-87-2
##MP= -300
##BP= -300
##MW= 140
##$RETENTION INDEX=0
##$CONDENSED SPECTRUM=NO
##NPOINTS= 82
##XYDATA=(XY..XY) 1 
    41        231
    42        105
    43         38
    44         52
    45        122
    46         10
    47          3
    48          4
    49          5
    50         19
    51         77
    52        118
    53         79
    54         14
    55         19
    56         11
    57         14
    58          2
    59          3
    60          5
    61          3
    62          3
    63          6
    64          8
    65         14
    66         17
    67        133
    68        768
    69        231
    70         19
    71          9
    72          2
    73          5
    74          3
    75          2
    76          6
    77         28
    78         64
    79         13
    80          8
    81          7
    82          9
    83          6
    84          9
    85          7
    86          3
    87          2
    88          0
    91          5
    92          2
    93          7
    94          6
    95         65
    96        999
    97         55
    98          6
    99          3
   102          1
   104          1
   105          5
   106         37
   107          9
   108          0
   109          2
   111          3
   112          2
   113          2
   115          0
   117          1
   118          1
   119          3
   120          4
   121          5
   122          4
   123         31
   124          3
   125          0
   138          0
   139          2
   140        190
   141         21
   142          2