##TITLE=Library Entry 41836
##JCAMP-DX=Revision 4.10 
##DATA TYPE=MASS SPECTRUM
##SAMPLE DESCRIPTION=Chemical Concepts
##NAMES=HP
##CAS NAME=D-Glucuronic acid, .gamma.-lactone
##MOLFORM=C6H8O6
##CAS REGISTRY NO=63-29-6
##MP= -300
##BP= -300
##MW= 176
##$RETENTION INDEX=0
##$CONDENSED SPECTRUM=NO
##NPOINTS= 106
##XYDATA=(XY..XY) 1 
    25          2
    26         23
    27         82
    28         42
    29        227
    30         83
    31        144
    32          8
    33          1
    36          0
    37          1
    38          5
    39         36
    40         17
    41         12
    42         87
    43        174
    44         61
    45         96
    46          2
    47         43
    48          0
    49          0
    50          1
    51          1
    52          1
    53          4
    54         11
    55         68
    56         33
    57        136
    58        127
    59         15
    60        273
    61        162
    62          4
    63          0
    65          0
    66          0
    67          2
    68          8
    69          5
    70          1
    71        117
    72         33
    73        999
    74         35
    75          5
    76        131
    77          5
    78          1
    79          0
    80          1
    81          0
    82          1
    83         76
    84         32
    85         49
    86         19
    87          4
    88          1
    89         11
    90          1
    91         34
    92          1
    95          2
    96          4
    97          1
    98          1
    99          4
   100          3
   101        378
   102         27
   103          5
   104          0
   105          0
   111          0
   112          6
   113          4
   114          2
   115          3
   116          1
   117          0
   118          3
   119        135
   120          7
   121          1
   125          0
   126          0
   129          1
   130          4
   131          5
   132          0
   133          0
   138          0
   139          0
   140          0
   141          0
   147         24
   148          1
   158          2
   159          6
   166          0
   176         32
   177          2
   178          0