##TITLE=Library Entry 41124
##JCAMP-DX=Revision 4.10 
##DATA TYPE=MASS SPECTRUM
##SAMPLE DESCRIPTION=RADIAN CORP
##NAMES=HP
##CAS NAME=Lactose
##MOLFORM=C12H22O11
##CAS REGISTRY NO=63-42-3
##MP= -300
##BP= -300
##MW= 342
##$RETENTION INDEX=0
##$CONDENSED SPECTRUM=NO
##NPOINTS= 117
##XYDATA=(XY..XY) 1 
    15          5
    17         14
    18         76
    19         13
    26          9
    27         40
    28         62
    29        210
    30         36
    31        200
    32         27
    33          2
    36         11
    37          7
    38         17
    39         76
    40         18
    41        120
    42        141
    43        346
    44        324
    45        165
    46         16
    47         51
    49         16
    50         10
    51         15
    52         10
    53         43
    54         29
    55        167
    56        140
    57        399
    58         93
    59         43
    60        745
    61        319
    62         17
    63          3
    65          3
    66          4
    67         14
    68         38
    69        190
    70         90
    71        283
    72         86
    73        999
    74        116
    75         17
    76          4
    77         24
    78          2
    79          6
    80          9
    81         32
    82         10
    83         22
    84         25
    85        183
    86         62
    87         70
    88         10
    89         40
    90         11
    91        120
    92          5
    93          2
    94          1
    95         44
    96         57
    97        211
    98         70
    99         34
   100          8
   101         74
   102         58
   103         74
   104          5
   109         27
   110         27
   111          7
   112          7
   113         34
   114         17
   115         53
   116         20
   117          3
   119         23
   120          5
   121          3
   123          5
   124          4
   125         11
   126         66
   127         42
   128         18
   129          6
   131         45
   132          8
   133         26
   134          3
   139          2
   143          4
   144         35
   145         46
   146          5
   147          1
   149          2
   155          3
   161          2
   162          4
   163         30
   164          2
   173         14
   191         13
   207          4