##TITLE=Library Entry 83957
##JCAMP-DX=Revision 4.10 
##DATA TYPE=MASS SPECTRUM
##SAMPLE DESCRIPTION=Japan AIST/NIMC Database- Spectrum MS-NW-3719
##NAMES=HP
##CAS NAME=Urea, (3-methylphenyl)-
##MOLFORM=C8H10N2O
##CAS REGISTRY NO=63-99-0
##MP= -300
##BP= -300
##MW= 150
##$RETENTION INDEX=0
##$CONDENSED SPECTRUM=NO
##NPOINTS= 69
##XYDATA=(XY..XY) 1 
    15          1
    16          2
    17          1
    18          3
    26          4
    27         22
    28          5
    29          3
    30          7
    37          7
    38         15
    39         62
    40         10
    41         16
    42          9
    43         21
    44         51
    45          1
    49          2
    50         20
    51         44
    52         35
    53         27
    54          9
    55          1
    61          3
    62          8
    63         22
    64         12
    65         36
    66         12
    67          6
    68          3
    73          1
    74          6
    75          5
    76          7
    77        117
    78         44
    79        100
    80         38
    81          6
    86          1
    87          1
    88          1
    89         15
    90         21
    91         39
    92          7
    93          2
    94          1
   102          2
   103          1
   104         24
   105         11
   106        587
   107        999
   108         81
   109          3
   119          1
   121          1
   132         16
   133         17
   134          4
   148          1
   149          8
   150        449
   151         44
   152          3