##TITLE=Library Entry 24242
##JCAMP-DX=Revision 4.10 
##DATA TYPE=MASS SPECTRUM
##SAMPLE DESCRIPTION=LAC, NIDDK, NIH, Bethesda, MD 20892
##NAMES=HP
##CAS NAME=Hentriacontane
##MOLFORM=C31H64
##CAS REGISTRY NO=630-04-6
##MP= -300
##BP= -300
##MW= 436
##$RETENTION INDEX=3100
##$CONDENSED SPECTRUM=NO
##NPOINTS= 200
##XYDATA=(XY..XY) 1 
    41        194
    42         64
    43        691
    44         23
    45          1
    53          7
    54         24
    55        239
    56        145
    57        999
    58         41
    59          0
    65          1
    66          2
    67         24
    68         36
    69        176
    70        120
    71        665
    72         37
    75          0
    77          0
    79          3
    80          1
    81         19
    82         43
    83        158
    84         78
    85        491
    86         32
    87          1
    91          2
    95          5
    96         26
    97        144
    98         56
    99        147
   100         11
   101          0
   107          0
   108          0
   110         14
   111         71
   112         44
   113         89
   114          9
   115          2
   117          0
   124          7
   125         34
   126         36
   127         63
   128          7
   137          1
   138          4
   139         13
   140         35
   141         49
   142          6
   147          1
   148          2
   151          2
   152          4
   153          7
   154         34
   155         37
   156          6
   157          0
   159          0
   161          0
   162          0
   164          1
   166          2
   167          3
   168         28
   169         33
   170          4
   176          0
   180          1
   181          2
   182         27
   183         28
   184          4
   189          0
   190          0
   194          3
   195          2
   196         24
   197         26
   198          4
   203          0
   205          1
   206          1
   209          1
   210         23
   211         25
   212          5
   218          0
   220          0
   222          2
   223          3
   224         21
   225         25
   226          4
   233          1
   236          1
   237          2
   238         19
   239         25
   240          5
   243          0
   245          0
   246          0
   249          0
   251          1
   252         19
   253         25
   254          4
   259          0
   260          0
   261          0
   263          0
   264          2
   265          1
   266         17
   267         22
   268          4
   275          0
   276          1
   277          1
   278          0
   279          1
   280         16
   281         20
   282          5
   283          1
   284          2
   287          0
   289          0
   291          1
   292          2
   294         15
   295         23
   296          4
   297          0
   298          0
   302          0
   304          1
   306          0
   308         13
   309         22
   310          5
   311          0
   316          0
   319          0
   320          1
   321          0
   322         10
   323         21
   324          6
   327          0
   331          0
   336         10
   337         18
   338          6
   339          0
   341          0
   348          0
   350          9
   351         22
   352          5
   355          0
   356          0
   364          8
   365         23
   366          5
   373          0
   375          0
   378          6
   379         17
   380          5
   381          0
   390          0
   392          6
   393         11
   394          3
   395          0
   399          1
   403          0
   406          3
   407          6
   408          3
   420          0
   421          3
   422          0
   434          0
   435          3
   436         64
   437         23
   438          4