##TITLE=Library Entry 24225
##JCAMP-DX=Revision 4.10 
##DATA TYPE=MASS SPECTRUM
##SAMPLE DESCRIPTION=Japan AIST/NIMC Database- Spectrum MS-NW- 729
##NAMES=HP
##CAS NAME=Octacosane
##MOLFORM=C28H58
##CAS REGISTRY NO=630-02-4
##MP= -300
##BP= -300
##MW= 394
##$RETENTION INDEX=2800
##$CONDENSED SPECTRUM=NO
##NPOINTS= 128
##XYDATA=(XY..XY) 1 
    26          1
    27         26
    28          7
    29        111
    30          2
    39         16
    40          4
    41        224
    42         57
    43        683
    44         22
    53          9
    54         22
    55        235
    56        125
    57        999
    58         43
    65          1
    66          2
    67         24
    68         27
    69        151
    70        101
    71        676
    72         37
    77          1
    79          3
    80          1
    81         12
    82         34
    83        124
    84         69
    85        466
    86         30
    87          1
    91          1
    95          6
    96         20
    97        101
    98         56
    99        192
   100         14
   105          3
   106          4
   109          3
   110         10
   111         56
   112         50
   113        139
   114         12
   119          1
   123          2
   124          8
   125         32
   126         44
   127        113
   128          9
   138          5
   139         16
   140         40
   141         91
   142          9
   152          4
   153         10
   154         35
   155         78
   156          9
   166          3
   167          8
   168         31
   169         67
   170          9
   180          2
   181          5
   182         27
   183         60
   184          8
   194          1
   195          4
   196         26
   197         57
   198          8
   208          1
   209          2
   210         22
   211         50
   212          8
   222          1
   223          2
   224         18
   225         43
   226          8
   237          1
   238         17
   239         40
   240          8
   252         15
   253         37
   254          7
   266         13
   267         33
   268          7
   280         12
   281         30
   282          7
   294         10
   295         28
   296          7
   302          1
   308          8
   309         25
   310          6
   322          7
   323         22
   324          6
   336          6
   337         17
   338          5
   350          3
   351         10
   352          3
   364          2
   365          7
   366          2
   393          1
   394         72
   395         21
   396          4