##TITLE=Library Entry 24274
##JCAMP-DX=Revision 4.10 
##DATA TYPE=MASS SPECTRUM
##SAMPLE DESCRIPTION=Japan AIST/NIMC Database- Spectrum MS-NW-6088
##NAMES=HP
##CAS NAME=Pentatriacontane
##MOLFORM=C35H72
##CAS REGISTRY NO=630-07-9
##MP= -300
##BP= -300
##MW= 492
##$RETENTION INDEX=3500
##$CONDENSED SPECTRUM=NO
##NPOINTS= 202
##XYDATA=(XY..XY) 1 
    26          1
    27         24
    28          8
    29         95
    30          2
    39         16
    40          4
    41        209
    42         58
    43        692
    44         22
    51          2
    53          8
    54         24
    55        250
    56        126
    57        999
    58         46
    59          2
    65          1
    66          2
    67         29
    68         32
    69        179
    70        103
    71        661
    72         37
    73          1
    74          6
    75          2
    77          1
    79          3
    80          2
    81         18
    82         43
    83        161
    84         70
    85        463
    86         31
    87          4
    91          1
    93          2
    94          1
    95         10
    96         30
    97        143
    98         55
    99        190
   100         14
   101          1
   105          1
   109          5
   110         14
   111         74
   112         49
   113        142
   114         12
   115          1
   119          7
   123          3
   124          9
   125         42
   126         45
   127        111
   128         11
   129          1
   131          9
   137          2
   138          8
   139         23
   140         41
   141         91
   142          9
   143          2
   151          1
   152          6
   153         15
   154         36
   155         75
   156          9
   162          1
   166          5
   167         10
   168         33
   169         66
   170          9
   180          4
   181          8
   182         29
   183         58
   184          9
   185          1
   193          1
   194          3
   195          7
   196         25
   197         51
   198          8
   199          1
   205          1
   208          2
   209          5
   210         23
   211         46
   212          8
   219          1
   222          2
   223          4
   224         21
   225         42
   226          7
   227          1
   231          2
   236          2
   237          3
   238         18
   239         39
   240          7
   241          1
   243          1
   250          2
   251          2
   252         17
   253         35
   254          7
   255          1
   264          1
   265          2
   266         16
   267         36
   268          8
   269          1
   278          1
   279          2
   280         13
   281         30
   282          8
   283          3
   292          1
   293          2
   294         12
   295         28
   296          7
   297          1
   307          1
   308         11
   309         27
   310          6
   311          1
   321          1
   322         10
   323         24
   324          7
   325          1
   336          9
   337         24
   338          6
   339          1
   343          1
   350          9
   351         23
   352          7
   353          1
   364          8
   365         21
   366          6
   367          1
   378          7
   379         21
   380          6
   381          1
   382          4
   383          1
   392          7
   393         19
   394          6
   395          1
   406          6
   407         18
   408          6
   409          1
   420          5
   421         16
   422          6
   423          1
   424          1
   434          4
   435         15
   436          6
   437          1
   448          2
   449          9
   450          4
   462          1
   463          7
   464          3
   477          1
   490          1
   491          1
   492         41
   493         15
   494          2