##TITLE=Library Entry 25328
##JCAMP-DX=Revision 4.10 
##DATA TYPE=MASS SPECTRUM
##SAMPLE DESCRIPTION=Japan AIST/NIMC Database- Spectrum MS-NW-7070
##NAMES=HP
##CAS NAME=Tritriacontane
##MOLFORM=C33H68
##CAS REGISTRY NO=630-05-7
##MP= -300
##BP= -300
##MW= 464
##$RETENTION INDEX=3300
##$CONDENSED SPECTRUM=NO
##NPOINTS= 194
##XYDATA=(XY..XY) 1 
    17          1
    18          4
    26          1
    27         22
    28          6
    29         86
    30          2
    39         15
    40          4
    41        207
    42         56
    43        672
    44         23
    51          1
    52          1
    53          8
    54         24
    55        247
    56        132
    57        999
    58         45
    59          1
    65          2
    66          2
    67         30
    68         33
    69        187
    70        110
    71        714
    72         41
    73          1
    77          2
    78          1
    79          4
    80          2
    81         18
    82         45
    83        170
    84         80
    85        528
    86         36
    87          1
    91          2
    92          1
    93          2
    94          1
    95          9
    96         30
    97        149
    98         61
    99        213
   100         16
   101          1
   105          2
   106          1
   109          5
   110         16
   111         80
   112         54
   113        164
   114         14
   115          1
   119          1
   123          3
   124         10
   125         47
   126         48
   127        129
   128         13
   129          1
   133          1
   137          2
   138          9
   139         25
   140         43
   141        107
   142         12
   143          1
   151          1
   152          6
   153         16
   154         39
   155         92
   156         11
   157          1
   165          1
   166          5
   167         11
   168         36
   169         79
   170         10
   171          1
   179          1
   180          4
   181          9
   182         32
   183         70
   184          9
   185          1
   194          3
   195          7
   196         29
   197         62
   198          9
   199          1
   208          3
   209          6
   210         26
   211         56
   212          9
   213          1
   222          2
   223          4
   224         24
   225         54
   226          9
   227          1
   236          2
   237          3
   238         21
   239         48
   240          9
   241          1
   250          2
   251          3
   252         19
   253         43
   254          9
   255          1
   264          2
   265          2
   266         17
   267         40
   268          9
   269          1
   278          1
   279          2
   280         15
   281         37
   282          8
   283          1
   292          1
   293          1
   294         15
   295         35
   296          8
   297          1
   306          1
   307          1
   308         13
   309         34
   310          8
   311          1
   321          1
   322         13
   323         33
   324          8
   325          1
   336         11
   337         31
   338          8
   339          1
   350         10
   351         30
   352          8
   353          1
   364          9
   365         28
   366          8
   367          1
   378          9
   379         27
   380          8
   381          1
   392          7
   393         26
   394          8
   395          1
   406          7
   407         22
   408          7
   409          1
   420          3
   421         13
   422          5
   423          1
   434          2
   435          9
   436          4
   449          1
   463          1
   464         51
   465         18
   466          4