##TITLE=Library Entry 4470
##JCAMP-DX=Revision 4.10 
##DATA TYPE=MASS SPECTRUM
##SAMPLE DESCRIPTION=Japan AIST/NIMC Database- Spectrum MS-NW-6396
##NAMES=HP
##CAS NAME=Propanenitrile, 2,2-dimethyl-
##MOLFORM=C5H9N
##CAS REGISTRY NO=630-18-2
##MP= -300
##BP= -300
##MW= 83
##$RETENTION INDEX=658
##$CONDENSED SPECTRUM=NO
##NPOINTS= 46
##XYDATA=(XY..XY) 1 
    12          1
    13          2
    14          7
    15         47
    16          1
    25          1
    26         22
    27        103
    28         33
    29         30
    30          1
    31          1
    32          1
    36          2
    37         21
    38         27
    39        141
    40         54
    41        799
    42        999
    43         31
    44          7
    49          3
    50          9
    51         19
    52         49
    53         11
    54         13
    55         22
    56          8
    57         11
    58          1
    62          1
    63          4
    64         14
    65          3
    66         36
    67        154
    68        484
    69         25
    70          3
    71          1
    75          1
    82         43
    83          5
    84          1