##TITLE=Library Entry 121
##JCAMP-DX=Revision 4.10 
##DATA TYPE=MASS SPECTRUM
##SAMPLE DESCRIPTION=Exported from NIST MS Search
##NAMES=HP
##CAS NAME=Carbon monoxide
##MOLFORM=CO
##CAS REGISTRY NO=630-08-0
##MP= -300
##BP= -300
##MW= 28
##$RETENTION INDEX=0
##$CONDENSED SPECTRUM=NO
##NPOINTS= 4
##XYDATA=(XY..XY) 1 
    12         47
    16         17
    28        999
    29         12