##TITLE=Library Entry 25333
##JCAMP-DX=Revision 4.10 
##DATA TYPE=MASS SPECTRUM
##SAMPLE DESCRIPTION=Japan AIST/NIMC Database- Spectrum MS-NW- 619
##NAMES=HP
##CAS NAME=Hexatriacontane
##MOLFORM=C36H74
##CAS REGISTRY NO=630-06-8
##MP= -300
##BP= -300
##MW= 506
##$RETENTION INDEX=3600
##$CONDENSED SPECTRUM=NO
##NPOINTS= 185
##XYDATA=(XY..XY) 1 
    26          2
    27         21
    28          7
    29         78
    30          2
    38          1
    39         14
    40          4
    41        164
    42         43
    43        548
    44         17
    51          1
    53          7
    54         20
    55        190
    56        114
    57        999
    58         42
    65          1
    66          3
    67         27
    68         30
    69        149
    70        100
    71        743
    72         39
    73          1
    77          2
    78          1
    79          4
    80          3
    81         17
    82         52
    83        150
    84         72
    85        519
    86         34
    87          1
    91          4
    92          3
    93          2
    94          2
    95         11
    96         36
    97        146
    98         58
    99        231
   100         18
   104          1
   105          7
   106          2
   107          1
   108          1
   109          5
   110         16
   111         84
   112         48
   113        167
   114         14
   115          1
   117          1
   119          2
   121          1
   122          1
   123          4
   124         11
   125         48
   126         41
   127        131
   128         12
   129          1
   131          1
   133          1
   137          3
   138          9
   139         26
   140         34
   141        105
   142         10
   143          1
   150          1
   151          2
   152          7
   153         17
   154         30
   155         84
   156          9
   166          5
   167         11
   168         26
   169         70
   170          9
   180          4
   181          9
   182         22
   183         60
   184          9
   186          2
   194          4
   195          7
   196         20
   197         53
   198          8
   208          3
   209          5
   210         17
   211         46
   212          7
   214          2
   222          2
   223          4
   224         15
   225         39
   226          7
   236          2
   237          4
   238         13
   239         34
   240          6
   242          3
   244          1
   250          1
   251          2
   252         12
   253         31
   254          6
   264          1
   265          2
   266         10
   267         26
   268          6
   278          1
   279          2
   280          9
   281         23
   282          5
   292          1
   293          1
   294          9
   295         21
   296          5
   307          1
   308          8
   309         20
   310          5
   321          1
   322          7
   323         19
   324          5
   336          6
   337         17
   338          5
   350          6
   351         15
   352          5
   364          5
   365         14
   366          4
   378          5
   379         14
   380          4
   392          4
   393         13
   394          4
   406          4
   407         13
   408          4
   420          4
   421         11
   422          4
   434          3
   435         11
   436          4
   448          2
   449          9
   450          3
   462          1
   463          6
   464          2
   476          1
   477          5
   478          2
   506          9
   507          4