##TITLE=Library Entry 25418
##JCAMP-DX=Revision 4.10 
##DATA TYPE=MASS SPECTRUM
##SAMPLE DESCRIPTION=Japan AIST/NIMC Database- Spectrum MS-NW-6930
##NAMES=HP
##CAS NAME=Hexacosane
##MOLFORM=C26H54
##CAS REGISTRY NO=630-01-3
##MP= -300
##BP= -300
##MW= 366
##$RETENTION INDEX=2600
##$CONDENSED SPECTRUM=NO
##NPOINTS= 124
##XYDATA=(XY..XY) 1 
    27         19
    28          5
    29         83
    30          1
    39         12
    40          3
    41        199
    42         53
    43        604
    44         20
    53          8
    54         20
    55        220
    56        122
    57        999
    58         42
    65          1
    66          1
    67         22
    68         26
    69        150
    70        107
    71        724
    72         39
    73          1
    77          1
    79          2
    80          1
    81         10
    82         33
    83        126
    84         78
    85        534
    86         34
    87          1
    95          5
    96         19
    97        100
    98         63
    99        198
   100         15
   109          2
   110         10
   111         55
   112         55
   113        143
   114         12
   123          1
   124          7
   125         30
   126         48
   127        116
   128         11
   138          5
   139         14
   140         44
   141         96
   142         10
   152          3
   153          9
   154         40
   155         86
   156          9
   166          3
   167          6
   168         35
   169         77
   170          9
   180          2
   181          4
   182         32
   183         67
   184          9
   194          1
   195          3
   196         29
   197         62
   198          9
   208          1
   209          2
   210         25
   211         57
   212          9
   223          1
   224         22
   225         54
   226          9
   227          1
   237          1
   238         20
   239         52
   240          9
   241          1
   252         18
   253         48
   254          9
   255          1
   266         16
   267         46
   268          9
   269          1
   280         13
   281         44
   282          9
   283          1
   294         11
   295         41
   296          9
   297          1
   308          9
   309         37
   310          9
   311          1
   322          6
   323         22
   324          6
   336          3
   337         13
   338          5
   351          1
   365          3
   366        163
   367         47
   368          7