##TITLE=Library Entry 46817
##JCAMP-DX=Revision 4.10 
##DATA TYPE=MASS SPECTRUM
##SAMPLE DESCRIPTION=Japan AIST/NIMC Database- Spectrum MS-NW-4193
##NAMES=HP
##CAS NAME=2,3-Dibromopropyl chloroacetate
##MOLFORM=C5H7Br2ClO2
##CAS REGISTRY NO=6301-36-6
##MP= -300
##BP= -300
##MW= 292
##$RETENTION INDEX=0
##$CONDENSED SPECTRUM=NO
##NPOINTS= 120
##XYDATA=(XY..XY) 1 
    12          1
    13          4
    14          9
    15         21
    17          1
    18          3
    25          4
    26         34
    27        162
    28         36
    29         66
    30          6
    31         78
    32          7
    35          2
    36          6
    37          9
    38         21
    39        262
    40         23
    41        145
    42         93
    43         23
    44          3
    45          8
    47          5
    48         12
    49        248
    50         26
    51         79
    52         12
    53          3
    55          9
    56          2
    57        134
    58         19
    59          5
    60          1
    61          1
    62          1
    63          2
    69          1
    71          1
    73          2
    74          3
    75          5
    76         15
    77        999
    78         73
    79        309
    80         10
    81          9
    82         10
    83          1
    85          5
    89          1
    91          1
    92          1
    93         48
    94          2
    95         46
    96          1
    97          7
   104          1
   105         16
   106         65
   107         74
   108         70
   109         28
   110          9
   111          1
   117          1
   119        304
   120         14
   121        300
   122         14
   123         11
   125          2
   129          1
   131          1
   133         53
   134          3
   135         17
   136         23
   137         32
   138         22
   139         29
   140          1
   151          1
   155          1
   157          1
   171          2
   173          4
   175          2
   179          1
   181          1
   183          3
   185          5
   186          1
   187          5
   188          1
   189          3
   198         56
   199         21
   200        111
   201         41
   202         49
   203         17
   213        194
   214         10
   215        254
   216         14
   217         58
   218          3
   257          3
   259          5
   261          2
   262          1
   264          2
   266          1