##TITLE=Library Entry 11900
##JCAMP-DX=Revision 4.10 
##DATA TYPE=MASS SPECTRUM
##SAMPLE DESCRIPTION=A.A.Kutin, Moscow, Russia
##NAMES=HP
##CAS NAME=Coumarin, 3-acetyl-8-allyl-
##MOLFORM=C14H12O3
##CAS REGISTRY NO=6301-16-2
##MP= -300
##BP= -300
##MW= 228
##$RETENTION INDEX=0
##$CONDENSED SPECTRUM=NO
##NPOINTS= 67
##XYDATA=(XY..XY) 1 
    38         35
    39        195
    40         40
    41         36
    42        108
    43        999
    44         31
    50        117
    51        151
    52         59
    53         63
    62         77
    63        165
    64         36
    65         45
    68          7
    74         72
    75         55
    76         70
    77        156
    78         57
    79         10
    86         14
    87         25
    88         18
    89         36
    90         10
    91         22
    96          4
    98          2
    99          7
   101         31
   102        127
   103         43
   113          8
   115        141
   116         19
   125          2
   126         28
   127        168
   128        359
   129        188
   130         24
   131         45
   139         19
   141         19
   143          9
   153         10
   156          4
   157         97
   158         18
   159         12
   167          5
   169         17
   181          6
   182          2
   183          7
   185         80
   186         13
   195         29
   199         12
   200          7
   209          7
   213        159
   214         11
   227         27
   228        127