##TITLE=Library Entry 79351
##JCAMP-DX=Revision 4.10 
##DATA TYPE=MASS SPECTRUM
##SAMPLE DESCRIPTION=Chemical Concepts
##NAMES=HP
##CAS NAME=(3-Chlorophenyl)phenylmethanol
##MOLFORM=C13H11ClO
##CAS REGISTRY NO=63012-03-3
##MP= -300
##BP= -300
##MW= 218
##$RETENTION INDEX=0
##$CONDENSED SPECTRUM=NO
##NPOINTS= 73
##XYDATA=(XY..XY) 1 
    36         21
    38         11
    39         41
    50         65
    51        167
    52         34
    53         17
    62         14
    63         39
    64         13
    65         11
    69         16
    74         26
    75         91
    76         66
    77        482
    78        260
    79        296
    80         34
    81         21
    82         91
    83         31
    84         14
    85         11
    87         13
    89         20
    90         10
    91         25
   100         11
   105        999
   106        125
   107        145
   108         17
   109         12
   110         40
   111         93
   112         88
   113         82
   114         35
   115         29
   127         10
   139        315
   140         44
   141        132
   142         19
   143         12
   151         14
   152         46
   153         38
   154         15
   155         12
   163         28
   164         25
   165        156
   166         67
   167         65
   168         18
   170          9
   172         12
   181         12
   183         86
   184         21
   185         11
   199         12
   201         23
   202         29
   203         14
   216         10
   217         99
   218        239
   219         76
   220         79
   221         13