##TITLE=Library Entry 13057
##JCAMP-DX=Revision 4.10 
##DATA TYPE=MASS SPECTRUM
##SAMPLE DESCRIPTION=Chemical Concepts
##NAMES=HP
##CAS NAME=2-Naphthalen-1-ylpropan-2-ol
##MOLFORM=C13H14O
##CAS REGISTRY NO=6301-54-8
##MP= -300
##BP= -300
##MW= 186
##$RETENTION INDEX=0
##$CONDENSED SPECTRUM=NO
##NPOINTS= 103
##XYDATA=(XY..XY) 1 
    26          4
    27         13
    28         12
    29         21
    30          1
    31         43
    32          3
    38          1
    39         15
    40          1
    41         12
    42          1
    43        999
    44         23
    45         14
    50         10
    51         24
    52          4
    53          2
    55          2
    57          5
    58          3
    59         37
    60          2
    61          1
    62          5
    63         25
    64         27
    65          5
    69          2
    70          4
    71          2
    72          3
    73          2
    74         15
    75         19
    76         28
    77         29
    78         14
    79          2
    81          2
    82          7
    83          6
    84          4
    85          5
    86          8
    87          6
    88          2
    89          6
    90          1
    91          4
    92          4
    93          1
    98          2
    99          2
   100          2
   101         13
   102         12
   103          2
   104          1
   105          1
   113          2
   114          2
   115         30
   116          8
   117          1
   125          3
   126         25
   127         81
   128         95
   129         40
   130          4
   139          9
   140          2
   141         20
   142          9
   143         53
   144         23
   145          4
   150          4
   151         10
   152         32
   153         33
   154          6
   155         20
   156          3
   157          8
   158          2
   163          2
   164          2
   165         11
   166          2
   167          9
   168         11
   169          9
   170          4
   171        259
   172         48
   173          4
   185          2
   186        138
   187         26
   188          2