##TITLE=Library Entry 16200
##JCAMP-DX=Revision 4.10 
##DATA TYPE=MASS SPECTRUM
##SAMPLE DESCRIPTION=Chuck Anderson, Aldrich Chemical Co.
##NAMES=HP
##CAS NAME=5,6-Dihydro-5-methyl-4H-1,3,5-dithiazine
##MOLFORM=C4H9NS2
##CAS REGISTRY NO=6302-94-9
##MP= -300
##BP= -300
##MW= 135
##$RETENTION INDEX=0
##$CONDENSED SPECTRUM=NO
##NPOINTS= 35
##XYDATA=(XY..XY) 1 
    14          2
    15         87
    18         11
    27         33
    28         56
    29          5
    30         34
    32          8
    40         25
    41         66
    42        592
    43        165
    44        999
    45        240
    46        208
    47         50
    48          4
    57        650
    58         43
    59         10
    60          8
    64         29
    70         74
    71         37
    74         25
    76          4
    78         10
    88         29
    89        493
    90         45
    91         30
    92          9
   135        999
   136         61
   137         87