##TITLE=Library Entry 49675
##JCAMP-DX=Revision 4.10 
##DATA TYPE=MASS SPECTRUM
##SAMPLE DESCRIPTION=ASES Database, Dalian Institute, P.R. China
##NAMES=HP
##CAS NAME=4-(2-Pyrrol-1-yl-ethyl)pyridine
##MOLFORM=C11H12N2
##CAS REGISTRY NO=6302-13-2
##MP= -300
##BP= -300
##MW= 172
##$RETENTION INDEX=0
##$CONDENSED SPECTRUM=NO
##NPOINTS= 24
##XYDATA=(XY..XY) 1 
    41        121
    44         89
    50         49
    51        307
    52        119
    53        677
    54         58
    65        120
    67         58
    77        178
    78        206
    79        109
    80        999
    81        219
    92         59
    93         48
   104         50
   105        110
   106        119
   144         50
   169         49
   171        119
   172        975
   173        158