##TITLE=Library Entry 65827
##JCAMP-DX=Revision 4.10 
##DATA TYPE=MASS SPECTRUM
##SAMPLE DESCRIPTION=Philip Morris R&D
##NAMES=HP
##CAS NAME=2-Pyridylacetone
##MOLFORM=C8H9NO
##CAS REGISTRY NO=6302-02-9
##MP= -300
##BP= -300
##MW= 135
##$RETENTION INDEX=0
##$CONDENSED SPECTRUM=NO
##NPOINTS= 64
##XYDATA=(XY..XY) 1 
    36          2
    37          4
    38         12
    39         57
    40         10
    41          7
    42          6
    43        195
    44          6
    45          3
    46          8
    47          0
    49          1
    50         14
    51         26
    52         17
    53          8
    54          2
    58          0
    59          1
    60          3
    61          2
    62          5
    63         18
    64         14
    65         94
    66         68
    67         12
    68          0
    73          0
    74          0
    75          0
    76          1
    77          3
    78         24
    79          3
    80          0
    87          0
    88          0
    89          0
    90          2
    91          8
    92        151
    93        999
    94         70
    95          1
   101          0
   104          1
   105          0
   106          2
   107          9
   108          0
   116          0
   117          4
   118          0
   119          0
   120         68
   121          5
   122          0
   133          0
   134          5
   135        109
   136         10
   137          0