##TITLE=Library Entry 67505
##JCAMP-DX=Revision 4.10 
##DATA TYPE=MASS SPECTRUM
##SAMPLE DESCRIPTION=Japan AIST/NIMC Database- Spectrum MS-IW-6581
##NAMES=HP
##CAS NAME=Butanoic acid, 4-phenoxy-
##MOLFORM=C10H12O3
##CAS REGISTRY NO=6303-58-8
##MP= -300
##BP= -300
##MW= 180
##$RETENTION INDEX=0
##$CONDENSED SPECTRUM=NO
##NPOINTS= 58
##XYDATA=(XY..XY) 1 
    17          1
    18          3
    27         12
    28          3
    29          3
    31          4
    38          3
    39         29
    40          7
    41         30
    42          4
    43         59
    44          2
    45         46
    46          1
    50          6
    51         25
    52          2
    53          1
    55          7
    57          1
    60          1
    62          1
    63          6
    64          3
    65         27
    66         34
    67          3
    68          3
    69         14
    74          2
    75          1
    76          2
    77         54
    78          5
    79          6
    81          3
    85          5
    86          1
    87         98
    88          4
    91          6
    92          2
    93          5
    94        999
    95         70
    96          4
   105          1
   107          9
   108          1
   115          1
   119          2
   120          8
   121          3
   163          6
   180        149
   181         16
   182          1