##TITLE=Library Entry 64972
##JCAMP-DX=Revision 4.10 
##DATA TYPE=MASS SPECTRUM
##SAMPLE DESCRIPTION=Institute of Organic Chemistry, USSR, 1990
##NAMES=HP
##CAS NAME=2-Propanone, 1-(4-pyridinyl)-
##MOLFORM=C8H9NO
##CAS REGISTRY NO=6304-16-1
##MP= -300
##BP= -300
##MW= 135
##$RETENTION INDEX=0
##$CONDENSED SPECTRUM=NO
##NPOINTS= 14
##XYDATA=(XY..XY) 1 
    43        860
    51         86
    52         60
    54         46
    63         66
    64         80
    65        216
    66         80
    67         50
    78         30
    91        283
    92        999
    93        166
   135        160