##TITLE=Library Entry 2237
##JCAMP-DX=Revision 4.10 
##DATA TYPE=MASS SPECTRUM
##SAMPLE DESCRIPTION=V.Zaikin,Topchiev Inst.Petrochem.Synth.,Moscow
##NAMES=HP
##CAS NAME=Trichloroacetic acid 2-propenyl ester
##MOLFORM=C5H5Cl3O2
##CAS REGISTRY NO=6304-34-3
##MP= -300
##BP= -300
##MW= 202
##$RETENTION INDEX=1044
##$CONDENSED SPECTRUM=NO
##NPOINTS= 78
##XYDATA=(XY..XY) 1 
    25          2
    26         27
    27         74
    28         12
    29         38
    30          2
    31          7
    35         15
    36         32
    37         10
    38         26
    39        301
    40         51
    41        999
    42         32
    43          4
    44         36
    45          3
    47         56
    48          5
    49         19
    50          4
    51          8
    52          9
    53          2
    55         11
    56          2
    57         59
    58          5
    63          7
    65          2
    68          1
    69          1
    73          2
    75         44
    76          8
    77         16
    78          4
    79         16
    81          2
    82         93
    83         16
    84         63
    85         31
    86          8
    87         13
    89          4
   103          2
   109          8
   110         59
   111         11
   112         40
   113          4
   114          5
   117        187
   118          2
   119        179
   120          2
   121         56
   123         10
   125          5
   127          4
   129          2
   131          2
   137          1
   139         13
   141          7
   145          1
   146          7
   147          2
   148          8
   150          1
   167          9
   169          5
   171          1
   202          5
   204          6
   206          1