##TITLE=Library Entry 463
##JCAMP-DX=Revision 4.10 
##DATA TYPE=MASS SPECTRUM
##SAMPLE DESCRIPTION=Chemical Concepts
##NAMES=HP
##CAS NAME=2-Nonenoic acid, 2-methyl-, ethyl ester
##MOLFORM=C12H22O2
##CAS REGISTRY NO=6305-58-4
##MP= -300
##BP= -300
##MW= 198
##$RETENTION INDEX=0
##$CONDENSED SPECTRUM=NO
##NPOINTS= 121
##XYDATA=(XY..XY) 1 
    24          0
    25          2
    26         50
    27        644
    28         68
    29        999
    30         25
    31         28
    32          7
    36          0
    37          4
    38         17
    39        419
    40         70
    41        813
    42        174
    43        614
    44         20
    45         68
    46          2
    47          1
    49          0
    50         15
    51         44
    52         31
    53        242
    54        169
    55        774
    56        182
    57        129
    58         11
    59         43
    60          2
    61          1
    62          2
    63          8
    64          2
    65         43
    66         29
    67        236
    68         88
    69        632
    70         57
    71         99
    72          8
    73         31
    74        136
    75         14
    76          0
    77         29
    78          7
    79         45
    80         11
    81        147
    82        177
    83        218
    84         66
    85         60
    86         23
    87        503
    88         31
    89          3
    91         10
    92          1
    93         10
    94         25
    95        220
    96         74
    97         96
    98         35
    99        117
   100        150
   101         39
   102        647
   103         37
   104          3
   105          1
   107          2
   108          3
   109         45
   110         75
   111         22
   112          8
   113        256
   114         27
   115        465
   116         56
   117          4
   121          1
   123         87
   124         47
   125         23
   126          3
   127         27
   128         40
   129         29
   130          5
   133          0
   134          3
   135          0
   137          8
   139          1
   140          0
   141        137
   142         25
   143          3
   144          1
   151          6
   152         82
   153        253
   154         28
   155         17
   156          5
   157          1
   169         11
   170         12
   171          0
   183          7
   198        126
   199         17
   200          0