##TITLE=Library Entry 11790
##JCAMP-DX=Revision 4.10 
##DATA TYPE=MASS SPECTRUM
##SAMPLE DESCRIPTION=NIST Mass Spectrometry Data Center, 1994
##NAMES=HP
##CAS NAME=1-(2-Chlorophenyl)propan-2-one
##MOLFORM=C9H9ClO
##CAS REGISTRY NO=6305-95-9
##MP= -300
##BP= -300
##MW= 168
##$RETENTION INDEX=0
##$CONDENSED SPECTRUM=NO
##NPOINTS= 70
##XYDATA=(XY..XY) 1 
    13          3
    14         17
    15         89
    16          0
    26          5
    27          8
    35          1
    36          1
    37          9
    38         21
    39         70
    40          6
    41          4
    42          1
    43        999
    44         24
    47          1
    49          7
    50         33
    51         40
    52          4
    53          1
    55          0
    57          0
    60          1
    61         14
    62         41
    63        109
    64         19
    65         13
    66          1
    72          2
    73         26
    74          9
    75         23
    76          4
    77         16
    78          3
    79          2
    84          2
    85          7
    86         10
    87          9
    88          2
    89        133
    90         31
    91         34
    92          3
    97          4
    99         36
   100          2
   101         14
   102          3
   103          5
   105          5
   113          1
   115          3
   118          2
   123          2
   125        150
   126         33
   127         53
   128         10
   131          3
   133        145
   134         15
   168         24
   169          2
   170          8
   171          0