##TITLE=Library Entry 59887
##JCAMP-DX=Revision 4.10 
##DATA TYPE=MASS SPECTRUM
##SAMPLE DESCRIPTION=Japan AIST/NIMC Database- Spectrum MS-IW-4113
##NAMES=HP
##CAS NAME=4-Benzyloxy-2-methylpyridine 1-oxide
##MOLFORM=C13H13NO2
##CAS REGISTRY NO=63071-08-9
##MP= -300
##BP= -300
##MW= 215
##$RETENTION INDEX=0
##$CONDENSED SPECTRUM=NO
##NPOINTS= 72
##XYDATA=(XY..XY) 1 
    26          1
    27          4
    28          4
    30          4
    38          2
    39         25
    40          4
    41          9
    42          3
    43          3
    44          1
    50          4
    51         13
    52          5
    53          4
    54          2
    55          2
    56          1
    57          1
    62          2
    63         11
    64          6
    65         95
    66          6
    67          2
    68          2
    69          1
    70          1
    74          1
    75          1
    76          1
    77          9
    78          2
    79          1
    80          1
    84          5
    89         13
    90          7
    91        999
    92         88
    93          3
    96          1
    98          2
   105          6
   106          5
   107          1
   108          2
   109          4
   115          3
   124          4
   125          1
   127          1
   128          2
   129          2
   130          1
   141          1
   149          1
   167          1
   168          2
   170          1
   171          1
   184          1
   196          5
   197          2
   198          4
   199         68
   200          9
   213          1
   214          1
   215         92
   216         13
   217          1