##TITLE=Library Entry 68233
##JCAMP-DX=Revision 4.10 
##DATA TYPE=MASS SPECTRUM
##SAMPLE DESCRIPTION=JACSAT, 99(23)7601(1977); B. M. TROST
##NAMES=HP
##CAS NAME=(4R*,5R*,9S*)-5,9-Dimethylspiro[3.5]nonan-1-one
##MOLFORM=C11H18O
##CAS REGISTRY NO=63088-19-7
##MP= -300
##BP= -300
##MW= 166
##$RETENTION INDEX=0
##$CONDENSED SPECTRUM=NO
##NPOINTS= 36
##XYDATA=(XY..XY) 1 
    39        250
    40         70
    41        510
    42         70
    43        100
    53        200
    54         90
    55        350
    56        100
    65         60
    67        550
    68        640
    69        170
    70         50
    77         90
    79        130
    81        510
    82        800
    83         90
    91         60
    93         80
    95        999
    96        250
    97        120
   107         70
   109        790
   110        310
   122        150
   123        330
   124        150
   133         70
   138        200
   148         80
   151        150
   166        300
   167         30