##TITLE=Library Entry 37235
##JCAMP-DX=Revision 4.10 
##DATA TYPE=MASS SPECTRUM
##SAMPLE DESCRIPTION=Japan AIST/NIMC Database- Spectrum MS-NW-8464
##NAMES=HP
##CAS NAME=Isoamyl laurate
##MOLFORM=C17H34O2
##CAS REGISTRY NO=6309-51-9
##MP= -300
##BP= -300
##MW= 270
##$RETENTION INDEX=1846
##$CONDENSED SPECTRUM=NO
##NPOINTS= 110
##XYDATA=(XY..XY) 1 
    15          1
    17          1
    18          3
    26          2
    27         33
    28         14
    29         89
    30          4
    31          3
    39         21
    40          5
    41        161
    42         75
    43        500
    44         18
    45          9
    51          1
    53          8
    54         11
    55        214
    56         60
    57        179
    58          9
    59          4
    60         62
    61         24
    65          1
    67         15
    68         10
    69         66
    70        999
    71        474
    72         25
    73         61
    74          8
    75          1
    79          3
    80          1
    81         15
    82          6
    83         38
    84         24
    85         49
    86          4
    87         20
    88          3
    89          3
    93          2
    94          1
    95         21
    96          5
    97         25
    98         23
    99          9
   100          2
   101         15
   102          3
   103          3
   107          1
   109         11
   110          3
   111          9
   112          5
   113          3
   114          1
   115         23
   116          3
   117          1
   121          1
   123          4
   124          1
   125          3
   126          1
   127          2
   129         24
   130          9
   131          5
   135          1
   137          1
   138          3
   139          2
   140          2
   141          1
   143         12
   144          1
   153          1
   155         16
   156          2
   157         13
   158          1
   163          2
   165          1
   171          6
   172          3
   173          5
   181          1
   183         94
   184         12
   185          4
   199          3
   200         24
   201         34
   202          4
   211          9
   212          1
   227          5
   228          4
   229          4
   255          2
   270          2