##TITLE=Library Entry 7000
##JCAMP-DX=Revision 4.10 
##DATA TYPE=MASS SPECTRUM
##SAMPLE DESCRIPTION=Exported from NIST MS Search
##NAMES=HP
##CAS NAME=Acetyl cyanide
##MOLFORM=C3H3NO
##CAS REGISTRY NO=631-57-2
##MP= -300
##BP= -300
##MW= 69
##$RETENTION INDEX=0
##$CONDENSED SPECTRUM=NO
##NPOINTS= 39
##XYDATA=(XY..XY) 1 
    12         34
    13         40
    14         95
    15        248
    16          5
    17          5
    18         19
    20          1
    21          1
    24         13
    25         28
    26         70
    27         71
    28        188
    29         36
    30          2
    31          1
    32          1
    36          8
    37         11
    38         49
    39         39
    40         78
    41         53
    42         89
    43        999
    44         27
    45         12
    50         17
    51         41
    52         15
    53          2
    54        343
    55          9
    56          1
    57          1
    69        324
    70         13
    71          1