##TITLE=Library Entry 90750
##JCAMP-DX=Revision 4.10 
##DATA TYPE=MASS SPECTRUM
##SAMPLE DESCRIPTION=Japan AIST/NIMC Database- Spectrum MS-NW-1767
##NAMES=HP
##CAS NAME=Tetrapropylammonium iodide
##MOLFORM=C12H28IN
##CAS REGISTRY NO=631-40-3
##MP= -300
##BP= -300
##MW= 313
##$RETENTION INDEX=0
##$CONDENSED SPECTRUM=NO
##NPOINTS= 124
##XYDATA=(XY..XY) 1 
    14          2
    15         22
    25          1
    26         16
    27        272
    28         70
    29         24
    30        240
    31          4
    32          2
    36          1
    37          8
    38         13
    39        109
    40         15
    41        370
    42        107
    43        861
    44         62
    45          4
    50          1
    51          3
    52          2
    53          4
    54         11
    55         20
    56         31
    57         22
    58         40
    59          3
    60          6
    63          1
    64          1
    65          2
    66          1
    67          9
    68          8
    69         12
    70         36
    71         11
    72        232
    73         11
    74          1
    77          3
    78          2
    79          4
    80          3
    81          7
    82          7
    83          9
    84         30
    85          8
    86        116
    87          6
    91          5
    92          2
    93          3
    94          3
    95          6
    96          4
    97          6
    98         10
    99          3
   100         13
   101          1
   104          1
   105          3
   106          1
   107          3
   108          2
   109          3
   110          2
   111          4
   112         12
   113          2
   114        999
   115         78
   116          3
   117          1
   119          1
   121          2
   122          1
   123          2
   124          1
   125          2
   126          1
   127         49
   128         23
   129          3
   130          1
   131          1
   133          1
   135          1
   136          1
   137          1
   138          1
   139          1
   140          1
   141          8
   142         14
   143         52
   144          6
   145          1
   147          1
   149          1
   150          1
   151          1
   152          1
   153          1
   155          6
   156          1
   165          1
   167          1
   168          1
   169          1
   170        166
   171          6
   181          1
   182          1
   183          1
   184          3
   185          1
   186          7
   187          1