##TITLE=Library Entry 57450
##JCAMP-DX=Revision 4.10 
##DATA TYPE=MASS SPECTRUM
##SAMPLE DESCRIPTION=Japan AIST/NIMC Database- Spectrum MS-IW-7605
##NAMES=HP
##CAS NAME=Silane, tetraethyl-
##MOLFORM=C8H20Si
##CAS REGISTRY NO=631-36-7
##MP= -300
##BP= -300
##MW= 144
##$RETENTION INDEX=922
##$CONDENSED SPECTRUM=NO
##NPOINTS= 50
##XYDATA=(XY..XY) 1 
    26          1
    27          7
    29         18
    30          3
    31         46
    32          1
    33          1
    39          1
    41          1
    42          3
    43         42
    44         10
    45         29
    46          2
    47          1
    53          7
    54          3
    55         21
    56         13
    57         57
    58         65
    59        378
    60         28
    61         11
    66          2
    67          2
    69          1
    70          1
    71          4
    72          3
    73          9
    75          1
    83          3
    84          1
    85         10
    86         18
    87        999
    88        105
    89         40
    90          1
   103          1
   113          1
   114          2
   115        842
   116         99
   117         32
   118          2
   144         36
   145          5
   146          1