##TITLE=Library Entry 88870
##JCAMP-DX=Revision 4.10 
##DATA TYPE=MASS SPECTRUM
##SAMPLE DESCRIPTION=Japan AIST/NIMC Database- Spectrum MS-IW-5201
##NAMES=HP
##CAS NAME=Glyclopyramide
##MOLFORM=C11H14ClN3O3S
##CAS REGISTRY NO=631-27-6
##MP= -300
##BP= -300
##MW= 303
##$RETENTION INDEX=0
##$CONDENSED SPECTRUM=NO
##NPOINTS= 146
##XYDATA=(XY..XY) 1 
    12          1
    14          2
    15         10
    16          8
    25          2
    26         25
    27         65
    28        130
    29         38
    30         21
    31          5
    32          5
    33          2
    34          5
    35          2
    36         24
    37         14
    38         31
    39         64
    40         24
    41        213
    42        165
    43         97
    44        116
    45         17
    46         37
    47          3
    48         15
    49          9
    50        125
    51         60
    52          9
    53          9
    54         11
    55         26
    56         39
    57         24
    58         92
    59          3
    60          5
    61         15
    62         14
    63         38
    64         38
    65         14
    66          5
    67         30
    68         78
    69         56
    70        125
    71         16
    72          6
    73         31
    74         78
    75        330
    76         67
    77         27
    78          5
    79          2
    80          3
    81          4
    82          9
    83         10
    84         28
    85        384
    86        273
    87         16
    88          2
    89          6
    90         23
    91          6
    92          7
    93          3
    94          1
    95          3
    96          2
    97          2
    98          4
    99         30
   100         12
   101         11
   102          5
   103          1
   105          1
   106          1
   107          4
   108         30
   109         44
   110         23
   111        999
   112        137
   113        329
   114         35
   115          4
   118          4
   120          1
   124          3
   125         10
   126          3
   127         59
   128         62
   129         21
   130         18
   131          8
   133          2
   137          2
   138         32
   139          4
   140          3
   141          1
   142          3
   143          9
   144         73
   145         10
   146         25
   147          3
   148          1
   153          1
   155          1
   159         14
   160          3
   161          6
   162          1
   172          1
   173         24
   174          2
   175        790
   176         58
   177        290
   178         21
   179         12
   180          1
   184          2
   191         91
   192          7
   193         33
   194          3
   195          1
   217        271
   218         24
   219        102
   220          9
   221          4
   222          1
   254          2
   256          1