##TITLE=Library Entry 6809
##JCAMP-DX=Revision 4.10 
##DATA TYPE=MASS SPECTRUM
##SAMPLE DESCRIPTION=Japan AIST/NIMC Database- Spectrum MS-NW-9218
##NAMES=HP
##CAS NAME=Ammonium acetate
##MOLFORM=C2H7NO2
##CAS REGISTRY NO=631-61-8
##MP= -300
##BP= -300
##MW= 77
##$RETENTION INDEX=0
##$CONDENSED SPECTRUM=NO
##NPOINTS= 26
##XYDATA=(XY..XY) 1 
    12          7
    13         26
    14         64
    15        271
    16        488
    17        733
    18         41
    25          5
    26          4
    27          1
    28         56
    29         78
    30          4
    31         20
    40          9
    41         31
    42        115
    43        999
    44         41
    45        894
    46         10
    47          4
    59          1
    60        650
    61         61
    62          4