##TITLE=Library Entry 58390
##JCAMP-DX=Revision 4.10 
##DATA TYPE=MASS SPECTRUM
##SAMPLE DESCRIPTION=Japan AIST/NIMC Database- Spectrum MS-NW-2923
##NAMES=HP
##CAS NAME=Thiopropionamide
##MOLFORM=C3H7NS
##CAS REGISTRY NO=631-58-3
##MP= -300
##BP= -300
##MW= 89
##$RETENTION INDEX=0
##$CONDENSED SPECTRUM=NO
##NPOINTS= 63
##XYDATA=(XY..XY) 1 
    12          1
    13          1
    14          6
    15         25
    16          1
    17          3
    18          1
    24          1
    25          6
    26         53
    27        101
    28        378
    29         70
    30         73
    31          1
    32         32
    33         30
    34         63
    35          4
    36          5
    37          5
    38          7
    39         19
    40         14
    41         18
    42         41
    43          6
    44         25
    45         63
    46          9
    47         11
    48          2
    50          3
    51         21
    52         36
    53         15
    54        177
    55         33
    56        280
    57         16
    58         14
    59         43
    60        686
    61         85
    62         32
    63          3
    64          4
    68          1
    69          8
    70          2
    71         75
    72        102
    73         26
    74         13
    75          1
    76          5
    86          4
    87         16
    88         51
    89        999
    90         47
    91         45
    92          1