##TITLE=Library Entry 761
##JCAMP-DX=Revision 4.10 
##DATA TYPE=MASS SPECTRUM
##SAMPLE DESCRIPTION=NIST Mass Spectrometry Data Center, 1994
##NAMES=HP
##CAS NAME=Diethyl dibromomalonate
##MOLFORM=C7H10Br2O4
##CAS REGISTRY NO=631-22-1
##MP= -300
##BP= -300
##MW= 316
##$RETENTION INDEX=0
##$CONDENSED SPECTRUM=NO
##NPOINTS= 61
##XYDATA=(XY..XY) 1 
    13          9
    14         26
    15         33
    19         13
    26         53
    27        334
    28        109
    29        999
    30         36
    31         38
    39          7
    41        198
    42        107
    43        112
    44         13
    45        128
    55         17
    60         17
    69        229
    70         20
    71          9
    72          9
    73         47
    75         10
    79          7
    81          9
    86         93
    87        110
    88         26
    92         36
    93         29
    94         33
    95         25
    96          7
   109         31
   111         26
   115         57
   120        276
   121        111
   122        262
   123        110
   133         21
   138        788
   140        757
   141         24
   159         16
   165         28
   166        312
   167         62
   168        291
   169         38
   193        193
   194         21
   195        187
   196         15
   210         42
   211         34
   212         41
   213         36
   238         52
   240         48