##TITLE=Library Entry 42086
##JCAMP-DX=Revision 4.10 
##DATA TYPE=MASS SPECTRUM
##SAMPLE DESCRIPTION=Japan AIST/NIMC Database- Spectrum MS-NW-9053
##NAMES=HP
##CAS NAME=2-Ethyl-2-methylsuccinic acid
##MOLFORM=C7H12O4
##CAS REGISTRY NO=631-31-2
##MP= -300
##BP= -300
##MW= 160
##$RETENTION INDEX=0
##$CONDENSED SPECTRUM=NO
##NPOINTS= 93
##XYDATA=(XY..XY) 1 
    14          3
    15         16
    16          2
    17          7
    18         27
    26         16
    27        218
    28         71
    29        302
    30          8
    31         43
    32          3
    36          7
    37          4
    38         14
    39        243
    40         45
    41        662
    42        201
    43        331
    44         21
    45        304
    46          9
    47          6
    49          1
    50          9
    51         16
    52          8
    53         82
    54         30
    55        898
    56         74
    57        201
    58         47
    59        106
    60        223
    61         18
    62          2
    63          4
    65          8
    66          3
    67         46
    68        238
    69        797
    70        618
    71        151
    72         60
    73        999
    74         47
    75          4
    77          1
    79          5
    81         26
    82         28
    83        297
    84         22
    85        120
    86        285
    87        678
    88         33
    89          4
    95          8
    96        136
    97        265
    98         19
    99        181
   100         49
   101        772
   102         42
   103          4
   109          1
   110          1
   111          1
   112          1
   113         87
   114        919
   115        266
   116        124
   117          9
   118          1
   127         19
   128          1
   131         10
   132        110
   133          6
   134          1
   141          1
   142         52
   143         38
   144          3
   145          1
   160         10
   161          5