##TITLE=Library Entry 48722
##JCAMP-DX=Revision 4.10 
##DATA TYPE=MASS SPECTRUM
##SAMPLE DESCRIPTION=V.G.Zaikin, TIPS, Russian Acad. Sci., Moscow
##NAMES=HP
##CAS NAME=Dimethyl(pentafluorophenyl)silanol
##MOLFORM=C8H7F5OSi
##CAS REGISTRY NO=63107-86-8
##MP= -300
##BP= -300
##MW= 242
##$RETENTION INDEX=0
##$CONDENSED SPECTRUM=NO
##NPOINTS= 115
##XYDATA=(XY..XY) 1 
    30          2
    31        145
    38         20
    39         23
    43         29
    44         37
    45        291
    46         14
    47        328
    48         10
    49         44
    50         12
    51         69
    57         35
    58          4
    59         28
    60         10
    61         23
    62         19
    63         79
    64         19
    65         84
    67         18
    68         14
    69         59
    70          7
    71         16
    73         18
    74         48
    75        496
    76         44
    77        104
    78         61
    79        999
    80        107
    81        198
    82         14
    83         74
    84          8
    85         46
    86         17
    87         12
    88          8
    89         19
    91         38
    92         23
    93        109
    94         19
    95         85
    96         15
    98         67
    99        184
   100         10
   101         19
   104         10
   105         25
   106         15
   107          8
   110         48
   111         21
   112         12
   113         33
   114         30
   115         12
   116          7
   117         76
   118          8
   119         42
   122         10
   123         38
   124         10
   125        199
   126         12
   127         42
   128          6
   129        151
   130         19
   132         12
   133         12
   134          8
   135         37
   137         19
   139         12
   141        161
   142         17
   143         49
   144         12
   145         51
   147         12
   148         40
   149         10
   155          6
   157         17
   159         51
   160         15
   161        100
   162         10
   163         12
   164          8
   165         10
   167          8
   168         35
   207         42
   208         12
   209         28
   210         12
   225         14
   226         12
   227        286
   228         42
   229         14
   241          4
   242        123
   243         17
   244          5