##TITLE=Library Entry 14498
##JCAMP-DX=Revision 4.10 
##DATA TYPE=MASS SPECTRUM
##SAMPLE DESCRIPTION=Div. of Experiment Therapeutics WRAIR, WRAMC, Washingto
n DC 20307
##NAMES=HP
##CAS NAME=2,4-Diamino-5-[3,4-cyclopentylidenedioxybenzyl]pyrimidine
##MOLFORM=C16H18N4O2
##CAS REGISTRY NO=63124-62-9
##MP= -300
##BP= -300
##MW= 298
##$RETENTION INDEX=0
##$CONDENSED SPECTRUM=NO
##NPOINTS= 168
##XYDATA=(XY..XY) 1 
    41        794
    43        999
    44         43
    45         16
    50         16
    51        263
    52        145
    53        230
    54        155
    55        363
    56         31
    57         10
    60         40
    62         19
    63        189
    65        176
    67        411
    68         82
    69         43
    70         36
    71         21
    74         15
    75         30
    76         51
    77        130
    78         74
    79         92
    81        419
    82         18
    83         34
    84         12
    85          8
    86          7
    87         17
    88          7
    89        159
    90         52
    91         56
    92         27
    93         21
    94         19
    95         59
    96         44
    97          6
    98         26
    99          5
   100         28
   101         17
   102         31
   103         29
   104         53
   105         82
   106         59
   107         35
   108          3
   110        155
   111         32
   113          7
   114         52
   115         52
   116        101
   117         73
   118         30
   119         15
   120          8
   121         32
   123        545
   124         51
   126          5
   127         33
   128         24
   129         20
   130         21
   131         58
   132         37
   133         35
   134         53
   135        103
   136          2
   137          2
   140         11
   141         29
   142         50
   143         70
   144         50
   145         31
   146         44
   147         52
   148         24
   149         32
   152          2
   153         13
   154          6
   155         14
   156         29
   157         18
   158         26
   159         28
   160         33
   161         37
   162         13
   167          5
   168         26
   169         47
   170         31
   171         43
   172         32
   173         36
   174         15
   175         20
   176          4
   177          4
   182          6
   183          9
   185        164
   186         77
   187         89
   188         42
   189         26
   190          2
   196         18
   197         64
   198         39
   199         18
   200         13
   201         13
   203        125
   204         16
   210         10
   211         11
   213        169
   214        113
   216        769
   217         69
   223          6
   224          8
   225         13
   226          4
   227         19
   229         48
   230         13
   231        370
   232        136
   233         15
   239         17
   241        183
   242         41
   243         20
   252         32
   253         62
   255         48
   256         15
   257         17
   258          2
   267         12
   269        441
   270         81
   271         10
   279          4
   280         31
   281         54
   282         12
   283         15
   296         23
   297        145
   298        839
   299        147
   300         22