##TITLE=Library Entry 71107
##JCAMP-DX=Revision 4.10 
##DATA TYPE=MASS SPECTRUM
##SAMPLE DESCRIPTION=Chuck Anderson, Aldrich Chemical Co.
##NAMES=HP
##CAS NAME=(S)-(-)-2-(Methoxymethyl)-1-pyrrolidinecarboxaldehyde
##MOLFORM=C7H13NO2
##CAS REGISTRY NO=63126-45-4
##MP= -300
##BP= -300
##MW= 143
##$RETENTION INDEX=0
##$CONDENSED SPECTRUM=NO
##NPOINTS= 64
##XYDATA=(XY..XY) 1 
    14          2
    15         62
    16          1
    17          1
    18         10
    26          9
    27         80
    28        384
    29        116
    30         71
    31         15
    32          0
    33          3
    37          2
    38          8
    39        107
    40         28
    41        287
    42        116
    43        326
    44         26
    45        155
    46          7
    47          0
    50          3
    51          6
    52          6
    53         29
    54         31
    55         65
    56         33
    57          6
    58         14
    59         17
    60          0
    64          0
    65          5
    66          3
    67         31
    68        134
    70        941
    71         67
    72          6
    73          0
    74          0
    80          7
    81          1
    82         25
    83         11
    84          8
    85          5
    86          2
    94          0
    96          2
    98        999
    99         53
   100          7
   111        297
   112         22
   113          3
   114          2
   128          1
   143          1
   144          3