##TITLE=Library Entry 91069
##JCAMP-DX=Revision 4.10 
##DATA TYPE=MASS SPECTRUM
##SAMPLE DESCRIPTION=ASES Database, Dalian Institute, P.R. China
##NAMES=HP
##CAS NAME=2-(2-Dipropylaminoethyl)-pyridine
##MOLFORM=C13H22N2
##CAS REGISTRY NO=6312-16-9
##MP= -300
##BP= -300
##MW= 206
##$RETENTION INDEX=0
##$CONDENSED SPECTRUM=NO
##NPOINTS= 19
##XYDATA=(XY..XY) 1 
    41        111
    42        100
    43        151
    51         49
    58         50
    70         50
    72        201
    78         80
    79         69
    84         99
    86        191
    93         59
    94         69
   105         70
   106        249
   107         49
   114        999
   115         99
   177        159