##TITLE=Library Entry 79094
##JCAMP-DX=Revision 4.10 
##DATA TYPE=MASS SPECTRUM
##SAMPLE DESCRIPTION=Chemical Concepts
##NAMES=HP
##CAS NAME=2-Butene-1,4-dione, 1,2,3,4-tetraphenyl-, (Z)-
##MOLFORM=C28H20O2
##CAS REGISTRY NO=6313-26-4
##MP= -300
##BP= -300
##MW= 388
##$RETENTION INDEX=0
##$CONDENSED SPECTRUM=NO
##NPOINTS= 169
##XYDATA=(XY..XY) 1 
    27          4
    29          1
    30          0
    31          5
    39          4
    40          0
    41          1
    42          0
    43          1
    44          1
    45          3
    46          1
    50          4
    51         34
    52          2
    53          1
    55          1
    56          0
    57          1
    58          2
    59          0
    60          0
    61          0
    62          0
    63          2
    64          0
    65          2
    66          0
    67          0
    69          0
    71          0
    73          1
    74          1
    75          2
    76          7
    77        340
    78         20
    79          1
    81          0
    83          0
    86          0
    87          0
    88          0
    89          2
    90          0
    91         10
    92          7
    93          0
    97          0
    98          0
    99          3
   100          0
   101          1
   102          1
   103          0
   104          1
   105        999
   106         92
   107          5
   108          0
   111          0
   113          1
   114          0
   115          1
   116          0
   117          0
   118          0
   119          0
   122          0
   124          0
   125          1
   126          2
   127          1
   128          0
   129          0
   131          0
   132          0
   133          1
   134          0
   135          0
   137          0
   138          0
   139          1
   140          0
   141          0
   147          0
   149          1
   150          2
   151          4
   152          7
   153          1
   155          1
   157          0
   162          0
   163          1
   164          0
   165          1
   166          0
   167          0
   170          0
   171          0
   174          0
   175          0
   176          7
   177          5
   178         23
   179          4
   181          0
   186          0
   187          0
   188          0
   189          0
   194          0
   200          0
   201          0
   202          0
   204          0
   205          1
   206          0
   213          0
   215          0
   224          0
   226          0
   227          0
   228          0
   239          2
   240          2
   241          0
   249          0
   250          2
   251          0
   252          5
   253          4
   254          2
   255         28
   256          6
   257          0
   264          0
   265          1
   266          0
   267          5
   268          1
   269          0
   281          2
   282          3
   283         40
   284          8
   285          0
   299          1
   300          0
   309          0
   311          8
   312          2
   313          0
   326          0
   329          1
   331          1
   341          0
   344          1
   359          2
   360          3
   361          1
   370          0
   371          0
   387          2
   388         76
   389         23
   390          3
   391          0