##TITLE=Library Entry 78019
##JCAMP-DX=Revision 4.10 
##DATA TYPE=MASS SPECTRUM
##SAMPLE DESCRIPTION=D.M. JERINA, NIDDK, NATL. INST. HEALTH, BETHESDA, MD.,
 USA
##NAMES=HP
##CAS NAME=Cholest-7-en-3.beta.,5.alpha.-diol-6.alpha.-benzoate
##MOLFORM=C34H50O4
##CAS REGISTRY NO=63139-17-3
##MP= -300
##BP= -300
##MW= 522
##$RETENTION INDEX=0
##$CONDENSED SPECTRUM=NO
##NPOINTS= 100
##XYDATA=(XY..XY) 1 
    41        345
    42        111
    43        788
    44        453
    45        203
    46         48
    49         31
    50        253
    51        385
    52         77
    53         70
    55        307
    56         92
    57        255
    58         97
    59         88
    60         69
    61         23
    63         20
    65         43
    66         25
    67         76
    68         27
    69        178
    70         44
    71        126
    72         25
    73         56
    74        100
    75         46
    76         65
    77        605
    78        107
    79         68
    81        102
    82         36
    83         86
    84         30
    85         50
    87         23
    91         70
    93         64
    94         42
    95        109
    96         24
    97         62
    99         30
   105        999
   106         60
   107         67
   108         21
   109         59
   110         33
   111         43
   115         22
   117         28
   119         42
   121         61
   122        569
   123        101
   124         73
   125         28
   128         25
   129         30
   131         34
   133         35
   135         36
   137         24
   139         27
   141         22
   143         27
   145         37
   147         31
   149         23
   152         78
   157         41
   159         41
   161         35
   171         22
   173         28
   175         26
   183         20
   185         21
   197         37
   209         24
   211         21
   215         23
   227         23
   251         34
   349         24
   364         47
   365         42
   367         34
   382         55
   383         21
   385         25
   400        188
   401         53
   471         30
   486         34