##TITLE=Library Entry 62531
##JCAMP-DX=Revision 4.10 
##DATA TYPE=MASS SPECTRUM
##SAMPLE DESCRIPTION=Chuck Anderson, Aldrich Chemical Co.
##NAMES=HP
##CAS NAME=Ethylene glycol di-p-toluenesulfonate
##MOLFORM=C16H18O6S2
##CAS REGISTRY NO=6315-52-2
##MP= -300
##BP= -300
##MW= 370
##$RETENTION INDEX=0
##$CONDENSED SPECTRUM=NO
##NPOINTS= 69
##XYDATA=(XY..XY) 1 
    15          4
    27          8
    28          3
    29          8
    30          1
    36          0
    38          9
    39         91
    40          8
    41         35
    42          4
    43         10
    44          2
    45         14
    48         10
    50         16
    51         31
    52         11
    53          8
    62          9
    63         46
    64         25
    65        258
    66         15
    67          6
    69          0
    73          0
    74          4
    75          5
    76          2
    77         44
    78         13
    79         19
    80          1
    89         68
    90        106
    91        999
    92        124
    93          9
    96          0
   104          5
   105          8
   106          6
   107         57
   108         11
   121          2
   133          0
   134          7
   139         55
   140         18
   141          5
   151          7
   154         13
   155        524
   156         69
   157         69
   158          6
   165          6
   171         11
   172          4
   180          3
   181          5
   198         91
   199        123
   200         59
   201         11
   215         18
   216          1
   370         15