##TITLE=Library Entry 12201
##JCAMP-DX=Revision 4.10 
##DATA TYPE=MASS SPECTRUM
##SAMPLE DESCRIPTION=Japan AIST/NIMC Database- Spectrum MS-IW-7407
##NAMES=HP
##CAS NAME=2-Methyl-N-(O-nitrophenyl)propanamide
##MOLFORM=C10H12N2O3
##CAS REGISTRY NO=6316-52-5
##MP= -300
##BP= -300
##MW= 208
##$RETENTION INDEX=0
##$CONDENSED SPECTRUM=NO
##NPOINTS= 99
##XYDATA=(XY..XY) 1 
    15          3
    26          4
    27         85
    28         30
    29          3
    30         12
    37          5
    38         16
    39         83
    40         11
    41        154
    42         56
    43        999
    44         45
    45          1
    50         17
    51         36
    52         48
    53         13
    54          4
    55         23
    56          5
    57          1
    58          2
    61          2
    62          8
    63         51
    64         55
    65        121
    66         17
    67          2
    68          1
    69         11
    70        586
    71        707
    72         30
    73          2
    74          4
    75          7
    76         14
    77         26
    78         24
    79         13
    80         35
    81          2
    86          4
    87          1
    88          2
    89          3
    90         86
    91         53
    92        240
    93         23
    94          2
   103          7
   104          9
   105          7
   106          9
   107          5
   108         35
   109          3
   117          5
   118         17
   119          9
   120          4
   121         32
   122         80
   123         11
   130          1
   131          1
   132          4
   133          2
   134          1
   135          3
   137          1
   138        882
   139         79
   140          6
   145          3
   146          9
   147          9
   148         14
   149          2
   150          1
   151          1
   160          2
   161          3
   162        198
   163         23
   164          2
   165         25
   166          2
   177          1
   179          2
   192          1
   207          1
   208        482
   209         68
   210          6