##TITLE=Library Entry 52688
##JCAMP-DX=Revision 4.10 
##DATA TYPE=MASS SPECTRUM
##SAMPLE DESCRIPTION=V.G.Zaikin,TIPS,Russian Acad.Sci.Moscow
##NAMES=HP
##CAS NAME=Chloroacetic acid, dodecyl ester
##MOLFORM=C14H27ClO2
##CAS REGISTRY NO=6316-04-7
##MP= -300
##BP= -300
##MW= 262
##$RETENTION INDEX=1807
##$CONDENSED SPECTRUM=NO
##NPOINTS= 76
##XYDATA=(XY..XY) 1 
    28          3
    29          5
    39          4
    40          2
    41        190
    42        101
    43        314
    44         18
    49         70
    50          5
    51         16
    52          4
    53         15
    54         69
    55        680
    56        540
    57        585
    58         15
    67        120
    68        254
    69        839
    70        700
    71        350
    72          6
    77        273
    78          5
    79        103
    80          4
    81         98
    82        452
    83        999
    84        622
    85        238
    86          6
    93         13
    94         26
    95        211
    96        199
    97        778
    98        395
    99         89
   100          5
   101          6
   105          6
   107         25
   109         18
   110         71
   111        418
   112        211
   113         49
   119          8
   121          6
   122          3
   123         25
   124         33
   125        165
   126         97
   127         29
   133          9
   135         13
   137         13
   138         31
   139         45
   140        229
   141         39
   142          6
   166          9
   167          5
   168        141
   169         55
   170          5
   174          6
   182         11
   196          1
   213         35
   214          6