##TITLE=Library Entry 12755
##JCAMP-DX=Revision 4.10 
##DATA TYPE=MASS SPECTRUM
##SAMPLE DESCRIPTION=NIST Mass Spectrometry Data Center
##NAMES=HP
##CAS NAME=(1aR,4S,7R,7aS,7bR)-1,1,4,7-Tetramethyl-1a,2,3,4,6,7,7a,7b-octahy
dro-1H-cyclopropa[e]azulen-4-ol
##MOLFORM=C15H24O
##CAS REGISTRY NO=63181-42-0
##MP= -300
##BP= -300
##MW= 220
##$RETENTION INDEX=1577
##$CONDENSED SPECTRUM=NO
##NPOINTS= 127
##XYDATA=(XY..XY) 1 
    27         67
    29         59
    31          8
    39        153
    40         27
    41        385
    42         29
    43        999
    44         28
    45         16
    50          8
    51         46
    52         24
    53        140
    54         30
    55        285
    56          8
    57         52
    58         10
    59         54
    60          9
    62          5
    63         15
    64         16
    65        136
    66         40
    67        218
    68         33
    69        252
    70         26
    71         60
    72         14
    73         14
    74          6
    76         10
    77        257
    78         78
    79        269
    80         77
    81        296
    82        127
    83        265
    84         13
    85         42
    87          8
    88         10
    89         18
    90         11
    91        334
    92         56
    93        230
    94         99
    95        392
    96        210
    97         31
    99         24
   102          7
   103         44
   105        327
   106        100
   107        197
   108         79
   109        113
   110         19
   112         14
   113          7
   115         91
   116         36
   117        318
   118         55
   119        264
   120        247
   121        220
   123        491
   124         94
   125        569
   126         53
   127        277
   128         80
   129         80
   130         40
   131        372
   132         80
   133        273
   134        108
   135        156
   136         58
   137        158
   138        389
   139         60
   140         76
   141         25
   142         19
   143         48
   144         68
   145        278
   146         82
   147        167
   148         30
   149        101
   150         31
   151         25
   152         11
   158         18
   159        760
   160         79
   161         67
   162        129
   163        116
   164         46
   170          4
   171         10
   172          7
   173         29
   174         57
   176         14
   177        187
   185          6
   187        230
   188         31
   200          5
   201          8
   202        244
   203         42
   205         60
   220        192
   221         48