##TITLE=Library Entry 1986
##JCAMP-DX=Revision 4.10 
##DATA TYPE=MASS SPECTRUM
##SAMPLE DESCRIPTION=Japan AIST/NIMC Database- Spectrum MS-NW-1172
##NAMES=HP
##CAS NAME=cis-Aconitic anhydride
##MOLFORM=C6H4O5
##CAS REGISTRY NO=6318-55-4
##MP= -300
##BP= -300
##MW= 156
##$RETENTION INDEX=0
##$CONDENSED SPECTRUM=NO
##NPOINTS= 84
##XYDATA=(XY..XY) 1 
    12         21
    13          8
    14         17
    15          7
    16         49
    17         12
    18         59
    19          2
    24          7
    25         27
    26         41
    27         20
    28        113
    29         41
    30          1
    31          3
    32          4
    33          9
    34         11
    36         28
    37        148
    38        230
    39        928
    40        999
    41         57
    42         55
    43         21
    44        971
    45        125
    46          6
    47          1
    48          4
    49          7
    50          7
    51          2
    52          6
    53         48
    54          5
    55         21
    56          8
    57          8
    58          5
    60          4
    64          1
    65          2
    66         23
    67         55
    68        824
    69         47
    70          4
    71          5
    73          3
    77          2
    78          1
    79          3
    80          1
    81          3
    82          3
    83          4
    84        227
    85         13
    86         11
    87          1
    91          1
    94          4
    95          2
    96          1
    97          4
    98          3
    99          1
   107          2
   108          1
   109          2
   110          4
   111         13
   112        175
   113         11
   114          2
   128          2
   129          2
   130          2
   138          8
   139          6
   156          2