##TITLE=Library Entry 82427
##JCAMP-DX=Revision 4.10 
##DATA TYPE=MASS SPECTRUM
##SAMPLE DESCRIPTION=A.A.Kutin, Moscow, Russia
##NAMES=HP
##CAS NAME=Benzenepropanoic acid, 4-amino-.alpha.-phenyl-
##MOLFORM=C15H15NO2
##CAS REGISTRY NO=6318-46-3
##MP= -300
##BP= -300
##MW= 241
##$RETENTION INDEX=0
##$CONDENSED SPECTRUM=NO
##NPOINTS= 152
##XYDATA=(XY..XY) 1 
    33          1
    34          0
    36          0
    37          1
    38          4
    39         20
    40         11
    41          5
    42          4
    43          5
    44         10
    45          6
    46          0
    47          0
    48          0
    50          7
    51         21
    52         11
    53         10
    54          5
    55          1
    56          0
    57          1
    59          1
    60          2
    61          1
    62          5
    63         15
    64          6
    65         21
    66          7
    67          3
    68          0
    69          1
    70          1
    71          1
    72          0
    74          3
    75          4
    77         94
    78         28
    79         42
    80          8
    81          1
    82          3
    84          7
    85          1
    86          1
    87          2
    89         23
    90         21
    91         26
    92          6
    93          6
    94          2
    95          1
    97         17
    98         19
    99          7
   100          0
   101          1
   102          4
   103         10
   106        999
   107         63
   108          2
   109          0
   110          0
   111          0
   112          0
   113          1
   115          6
   116          2
   117          6
   118         10
   119          5
   120          3
   121          0
   122          1
   123          0
   124          1
   125          0
   126          1
   127          1
   128          2
   129          0
   130          1
   131          0
   132          1
   134         12
   135          4
   136          1
   137          0
   138          0
   139          2
   140          1
   141          1
   142          0
   143          0
   144          0
   145          0
   146          0
   148          3
   149          0
   150          1
   151          2
   152          4
   153          2
   154          1
   155          0
   156          1
   157          0
   160          0
   161          0
   162          0
   163          1
   164          1
   165          6
   166          2
   167          3
   168          1
   169          0
   170          0
   171          0
   172          0
   173          0
   174          0
   176          3
   177          3
   178          5
   179          2
   180          4
   181          1
   182          0
   186          0
   190          0
   191          1
   192          1
   193          5
   194          7
   195          5
   196          2
   197          0
   208          0
   221          0
   222          0
   235          0
   238          0
   239          2
   241         33
   242          4
   243          0