##TITLE=Library Entry 391
##JCAMP-DX=Revision 4.10 
##DATA TYPE=MASS SPECTRUM
##SAMPLE DESCRIPTION=Chemical Concepts
##NAMES=HP
##CAS NAME=4-Cyclopentene-1,2,3-trione, 4,5-diethoxy-
##MOLFORM=C9H10O5
##CAS REGISTRY NO=63183-46-0
##MP= -300
##BP= -300
##MW= 198
##$RETENTION INDEX=0
##$CONDENSED SPECTRUM=NO
##NPOINTS= 81
##XYDATA=(XY..XY) 1 
    26         43
    27        281
    28         38
    29        999
    30         29
    31         10
    37          0
    38          0
    39          2
    40          3
    41         17
    42          6
    43         23
    44          6
    45         15
    46          0
    47          0
    52          6
    53          4
    54          1
    55          2
    56         21
    57        141
    58        116
    59          5
    60          0
    68         27
    69         29
    70          5
    71          2
    72          0
    73          0
    74          1
    75          1
    76          1
    80          1
    85         49
    86         41
    87          5
    88          0
    97          0
    98          2
    99          1
   100          0
   102          0
   103          9
   104          0
   111          0
   113        275
   114         56
   115         15
   116          1
   117          0
   126          0
   127          1
   129          0
   131         25
   132          2
   133          0
   141          4
   142         51
   143         11
   144          1
   145          0
   149          2
   150          0
   154          0
   155          1
   156          0
   159         11
   160          3
   167          0
   169          0
   170         71
   171         11
   172          1
   173          0
   183          0
   198         87
   199         13
   200          2