##TITLE=Library Entry 46564
##JCAMP-DX=Revision 4.10 
##DATA TYPE=MASS SPECTRUM
##SAMPLE DESCRIPTION=V.A.Korolev, Moscow, Russia
##NAMES=HP
##CAS NAME=3-(3-Nitrophenyl)-1-phenyltriaz-1-ene
##MOLFORM=C12H10N4O2
##CAS REGISTRY NO=63193-60-2
##MP= -300
##BP= -300
##MW= 242
##$RETENTION INDEX=0
##$CONDENSED SPECTRUM=NO
##NPOINTS= 43
##XYDATA=(XY..XY) 1 
    30        120
    37         19
    38         83
    39        236
    40         35
    41         25
    44         15
    46         10
    50        448
    51        553
    52        105
    53         12
    54         11
    61          7
    62         44
    63        221
    64        244
    65        382
    66         36
    74         97
    75        292
    76        394
    77        999
    78         79
    79          4
    81         11
    91         50
    92        167
    93         36
   105         89
   106          6
   122        193
   123         17
   150        183
   151         14
   165         11
   167         15
   168          2
   195         10
   196          5
   242        136
   243         19
   244          2