##TITLE=Library Entry 40184
##JCAMP-DX=Revision 4.10 
##DATA TYPE=MASS SPECTRUM
##SAMPLE DESCRIPTION=Chemical Concepts
##NAMES=HP
##CAS NAME=Phthalic anhydride, tetraiodo-
##MOLFORM=C8I4O3
##CAS REGISTRY NO=632-80-4
##MP= -300
##BP= -300
##MW= 652
##$RETENTION INDEX=0
##$CONDENSED SPECTRUM=NO
##NPOINTS= 106
##XYDATA=(XY..XY) 1 
    26          5
    27         20
    28         55
    30         24
    39         13
    41         48
    42         11
    43         52
    44         98
    45         29
    48         50
    49          5
    52          8
    53          5
    54          6
    55         40
    56         15
    57         50
    59          9
    60        104
    61         12
    64          8
    67         13
    68          7
    69         30
    70         16
    71         25
    72        999
    73        139
    74         12
    76          5
    77          7
    79          5
    81         14
    82          7
    83         20
    84          8
    85         13
    88          8
    91          6
    93          5
    95         12
    96          6
    97         16
    98          8
    99          4
   100         83
   101         12
   104          4
   105          8
   107          5
   109         11
   110          5
   111         12
   112          5
   113          4
   116          5
   123          5
   125          4
   127        720
   128        134
   129          4
   135          4
   137          4
   139         30
   151         17
   163         68
   175         21
   179          4
   187         17
   191          5
   193          2
   199        567
   200         61
   201          4
   203          3
   212          3
   215          2
   227         93
   228          8
   254         95
   278          4
   290         69
   304         69
   318         36
   320         20
   322         13
   326        419
   327         47
   335          2
   354          7
   355         26
   356          3
   453        285
   454         18
   481        455
   482         54
   483          0
   526         55
   527          1
   580         20
   608        163
   609          9
   652        622
   653         54
   654          2