##TITLE=Library Entry 52872
##JCAMP-DX=Revision 4.10 
##DATA TYPE=MASS SPECTRUM
##SAMPLE DESCRIPTION=Japan AIST/NIMC Database- Spectrum MS-NW-9502
##NAMES=HP
##CAS NAME=2-Propanone, 1,1,3,3-tetrachloro-
##MOLFORM=C3H2Cl4O
##CAS REGISTRY NO=632-21-3
##MP= -300
##BP= -300
##MW= 194
##$RETENTION INDEX=999
##$CONDENSED SPECTRUM=NO
##NPOINTS= 86
##XYDATA=(XY..XY) 1 
    12          1
    13          4
    14          1
    24          2
    25         10
    26         19
    27          1
    28          9
    29          7
    35         13
    36         27
    37          9
    38          9
    40          1
    41         11
    42          5
    43          2
    44          2
    47         35
    48         80
    49         30
    50         25
    51          6
    52          1
    53          6
    59          4
    60         22
    61         29
    62          8
    63         16
    65          3
    71          1
    72          2
    73          3
    74          1
    75          1
    76        139
    77         58
    78         44
    79         17
    82         11
    83        999
    84         19
    85        642
    86          9
    87        106
    88          1
    89          3
    91          1
    94          2
    95         31
    96          9
    97         21
    98          5
    99          4
   110         16
   111        235
   112         15
   113        151
   114          5
   115         23
   117         10
   119          9
   121          4
   123          3
   125          2
   127          3
   129          4
   130          4
   131         21
   132          4
   133         19
   134          2
   135          6
   136          1
   155          1
   157          2
   159          9
   161          9
   163          3
   194         27
   195          1
   196         35
   197          1
   198         16
   200          3