##TITLE=Library Entry 40160
##JCAMP-DX=Revision 4.10 
##DATA TYPE=MASS SPECTRUM
##SAMPLE DESCRIPTION=Japan AIST/NIMC Database- Spectrum MS-NW-1075
##NAMES=HP
##CAS NAME=Urea, tetramethyl-
##MOLFORM=C5H12N2O
##CAS REGISTRY NO=632-22-4
##MP= -300
##BP= -300
##MW= 116
##$RETENTION INDEX=0
##$CONDENSED SPECTRUM=NO
##NPOINTS= 33
##XYDATA=(XY..XY) 1 
    14          3
    15         66
    16          1
    27          4
    28         29
    29          3
    30          4
    31          1
    39          1
    40          5
    41          9
    42         90
    43         24
    44        255
    45         42
    46          4
    50          1
    56         31
    57          5
    58         25
    59          1
    69          1
    72        999
    73         44
    74          4
    85          2
    87          1
    88          2
   101          2
   113          1
   116        299
   117         18
   118          1