##TITLE=Library Entry 88454
##JCAMP-DX=Revision 4.10 
##DATA TYPE=MASS SPECTRUM
##SAMPLE DESCRIPTION=Dr. Jiri Zamecnik, DCIEM, North York, Canada, GP Librar
y
##NAMES=HP
##CAS NAME=Thiophene, 3,4-dimethyl-
##MOLFORM=C6H8S
##CAS REGISTRY NO=632-15-5
##MP= -300
##BP= -300
##MW= 112
##$RETENTION INDEX=888
##$CONDENSED SPECTRUM=NO
##NPOINTS= 30
##XYDATA=(XY..XY) 1 
    38         24
    39        109
    41         43
    45        175
    47         11
    50         18
    51         34
    53         35
    55         11
    58         16
    59         20
    65         19
    67         45
    69         48
    70         14
    71         49
    77         69
    78         30
    79         25
    84          8
    85         17
    97        670
    98         18
    99         12
   109          9
   110         12
   111        999
   112        842
   113         54
   114         14