##TITLE=Library Entry 31930
##JCAMP-DX=Revision 4.10 
##DATA TYPE=MASS SPECTRUM
##SAMPLE DESCRIPTION=V.A.Korolev, Moscow, Russia
##NAMES=HP
##CAS NAME=Benzoic acid, 2-(aminosulfonyl)-
##MOLFORM=C7H7NO4S
##CAS REGISTRY NO=632-24-6
##MP= -300
##BP= -300
##MW= 201
##$RETENTION INDEX=0
##$CONDENSED SPECTRUM=NO
##NPOINTS= 67
##XYDATA=(XY..XY) 1 
    36         21
    37         73
    38        119
    39        321
    40         25
    41         13
    43         55
    44         43
    45        300
    46         70
    47         32
    48        151
    50        514
    51        276
    52         41
    53         92
    55         10
    57          6
    61         32
    62         56
    63        124
    64        251
    65        999
    66         74
    69         27
    73         54
    74        244
    75        285
    76        295
    77         62
    78          7
    80        139
    81         30
    82         10
    85          8
    89         17
    90         22
    91         94
    92         64
    93        101
    95          4
    97          6
    98          6
   103         55
   104         54
   105          4
   106          8
   107         18
   108         26
   109         12
   119         17
   120        107
   121        629
   122         49
   123         11
   137        636
   138        234
   139         33
   155          9
   156         18
   184         19
   185        181
   186         20
   187          9
   201        344
   202         28
   203          7