##TITLE=Library Entry 70375
##JCAMP-DX=Revision 4.10 
##DATA TYPE=MASS SPECTRUM
##SAMPLE DESCRIPTION=Exported from NIST MS Search
##NAMES=HP
##CAS NAME=Thiophene, 2,3-dimethyl-
##MOLFORM=C6H8S
##CAS REGISTRY NO=632-16-6
##MP= -300
##BP= -300
##MW= 112
##$RETENTION INDEX=896
##$CONDENSED SPECTRUM=NO
##NPOINTS= 84
##XYDATA=(XY..XY) 1 
    12          4
    13          4
    14          4
    15         36
    16          1
    24          1
    25          5
    26         40
    27        176
    28         15
    29         12
    32          7
    33          5
    34          3
    35          2
    36          3
    37         26
    38         39
    39        174
    40         21
    41         65
    42          5
    43          3
    44          8
    45        299
    46         13
    47         24
    48          4
    49         18
    50         77
    51        119
    52         33
    53        103
    54         13
    55         33
    56          5
    57         37
    58        100
    59        138
    60         12
    61         18
    62         17
    63         26
    64          4
    65         34
    66         17
    67         72
    68          9
    69         63
    70         19
    71         46
    72          7
    73          5
    74          6
    75          2
    76          2
    77        111
    78         47
    79         24
    80          3
    81          9
    82         11
    83          8
    84         17
    85         46
    86          4
    87          2
    92          2
    93          9
    94          1
    95         11
    96          3
    97        999
    98        104
    99         47
   100          4
   108          2
   109         21
   110         21
   111        832
   112        834
   113         94
   114         39
   115          2