##TITLE=Library Entry 51995
##JCAMP-DX=Revision 4.10 
##DATA TYPE=MASS SPECTRUM
##SAMPLE DESCRIPTION=NIST Mass Spectrometry Data Center, 1994
##NAMES=HP
##CAS NAME=3-Methyl-4-hexyn-3-ol
##MOLFORM=C7H12O
##CAS REGISTRY NO=6320-68-9
##MP= -300
##BP= -300
##MW= 112
##$RETENTION INDEX=0
##$CONDENSED SPECTRUM=NO
##NPOINTS= 63
##XYDATA=(XY..XY) 1 
    13          0
    14          4
    15         47
    17          3
    18          2
    19          1
    25          2
    26         23
    27        142
    28         30
    29         98
    30          1
    36          1
    37         16
    38         38
    39        184
    40         33
    41        106
    42          1
    43        810
    44         17
    49          3
    50         25
    51         38
    52         13
    53         46
    54          7
    55         46
    56          3
    57         34
    58          1
    60          0
    61          4
    62         12
    63         24
    64          5
    65         25
    66         12
    67         64
    68          7
    69         10
    71          1
    72          3
    73          1
    75          1
    76          1
    77         28
    78          5
    79         18
    80          3
    81          4
    82          1
    83        999
    84         55
    85          3
    91          5
    93          3
    94          2
    95          7
    96          2
    97         98
    98          5
   112          1