##TITLE=Library Entry 86638
##JCAMP-DX=Revision 4.10 
##DATA TYPE=MASS SPECTRUM
##SAMPLE DESCRIPTION=NIST Mass Spectrometry Data Center
##NAMES=HP
##CAS NAME=2-Bromothiophenol
##MOLFORM=C6H5BrS
##CAS REGISTRY NO=6320-02-1
##MP= -300
##BP= -300
##MW= 188
##$RETENTION INDEX=0
##$CONDENSED SPECTRUM=NO
##NPOINTS= 93
##XYDATA=(XY..XY) 1 
    17          1
    24          1
    25          6
    26          9
    32         20
    33         21
    34          2
    36         11
    37         64
    38         74
    39        107
    40          4
    44          8
    45         55
    46          1
    47          4
    48          4
    49         29
    50        123
    51         37
    53         17
    54         66
    56          6
    57         29
    58         71
    60         10
    61         33
    62         47
    63         98
    64         22
    65        172
    66         11
    69        274
    70         18
    71         15
    72          4
    73         23
    74         53
    75         54
    76         27
    77         10
    79         19
    80         17
    81         82
    82        140
    83         23
    84         10
    91          1
    93         25
    94         20
    95         22
    96          1
   104          3
   105         10
   106         11
   108        306
   109        999
   110         91
   111         50
   112          4
   113          2
   116          2
   117          6
   118          2
   119          6
   123          1
   125          1
   128          2
   129          1
   130          2
   131          2
   135          1
   137          1
   143          3
   144          3
   145          2
   146          2
   149          1
   155          5
   156          2
   157          4
   158          2
   162          2
   164          2
   183          1
   184          4
   185          2
   188        424
   189         59
   190        441
   191         35
   192         18
   193          1