##TITLE=Library Entry 39718
##JCAMP-DX=Revision 4.10 
##DATA TYPE=MASS SPECTRUM
##SAMPLE DESCRIPTION=Japan AIST/NIMC Database- Spectrum MS-IW-2132
##NAMES=HP
##CAS NAME=Propanamide, 3-bromo-
##MOLFORM=C3H6BrNO
##CAS REGISTRY NO=6320-96-3
##MP= -300
##BP= -300
##MW= 151
##$RETENTION INDEX=0
##$CONDENSED SPECTRUM=NO
##NPOINTS= 75
##XYDATA=(XY..XY) 1 
    12          1
    13          2
    14          6
    15          8
    16         24
    17         23
    18         42
    24          2
    25         11
    26         90
    27        369
    28        193
    29         29
    30         26
    36          3
    37          2
    38          4
    39          3
    40          6
    41         10
    42         24
    43         43
    44        974
    45         58
    46          5
    49          1
    50          2
    51          7
    52         12
    53         14
    54         15
    55        191
    56          9
    61          1
    62          1
    63         10
    64          2
    65          4
    70          7
    71        159
    72        999
    73         42
    74          3
    79         17
    80         19
    81         16
    82         19
    91          4
    92          1
    93          9
    94          2
    95          9
   104          1
   105          6
   106          9
   107        116
   108         15
   109        106
   110          8
   118          1
   120          1
   122          2
   123         19
   124          3
   125         19
   133          6
   134          1
   135         12
   136          1
   137          7
   150          4
   151         88
   152          8
   153         85
   154          4