##TITLE=Library Entry 10947
##JCAMP-DX=Revision 4.10 
##DATA TYPE=MASS SPECTRUM
##SAMPLE DESCRIPTION=K. Kirk, LC, NIDDK, NIH, Bethesda, MD 20892
##NAMES=HP
##CAS NAME=Oxazolid-2-one, 3-acetyl-4-methyl-5-phenyl-
##MOLFORM=C12H13NO3
##CAS REGISTRY NO=63204-87-5
##MP= -300
##BP= -300
##MW= 219
##$RETENTION INDEX=0
##$CONDENSED SPECTRUM=NO
##NPOINTS= 111
##XYDATA=(XY..XY) 1 
    43        999
    44         26
    45          4
    50         26
    51         53
    52         12
    53          5
    54          4
    55          7
    56          6
    57          7
    58          0
    60         24
    61          2
    62          7
    63         20
    64          7
    65         19
    66          1
    67          1
    68          3
    69         19
    70        137
    71          8
    72          1
    73          1
    74          4
    75          4
    76          7
    77         76
    78         20
    79         57
    80          3
    81          1
    82          0
    83          1
    84          2
    85          6
    86          2
    87          1
    88          0
    89         35
    90         24
    91         59
    92          6
    93          1
    95          1
    96          0
    97          1
    99          0
   101          0
   102          2
   103          7
   104          4
   105         60
   107        527
   108         39
   109          3
   111          1
   113          1
   115         19
   116        119
   117         33
   118         27
   119          6
   120          0
   121          0
   124          1
   125          0
   127          2
   128          1
   129          1
   130          4
   131          1
   132         24
   133          8
   134          6
   135          1
   137          0
   142          1
   143          1
   144          0
   145          0
   147          0
   149         69
   150          6
   151          1
   153          0
   158          1
   159         11
   160          2
   161          1
   162          7
   163          1
   174          0
   175         18
   176         53
   177         36
   178          4
   179          1
   184          1
   189          3
   190          0
   193          1
   199          0
   204          1
   205          6
   206          1
   219         99
   220         23
   221          3