##TITLE=Library Entry 63986
##JCAMP-DX=Revision 4.10 
##DATA TYPE=MASS SPECTRUM
##SAMPLE DESCRIPTION=A.A.Kutin, Moscow, Russia
##NAMES=HP
##CAS NAME=Benzo[b]1,4-oxazin-3(2H)-one, 4-benzyl-
##MOLFORM=C15H13NO2
##CAS REGISTRY NO=63208-65-1
##MP= -300
##BP= -300
##MW= 239
##$RETENTION INDEX=0
##$CONDENSED SPECTRUM=NO
##NPOINTS= 88
##XYDATA=(XY..XY) 1 
    34          0
    38          8
    39         49
    40         14
    41         12
    42          9
    43          2
    44          3
    50         13
    51         35
    52         11
    53          3
    55          1
    56          0
    61          0
    62          6
    63         29
    64         19
    65        123
    66          7
    67          0
    74          2
    75          5
    76          7
    77         28
    78         13
    79          7
    80          0
    82          0
    84          0
    87          0
    89         20
    91        999
    92         65
    93         12
    94          1
    96          0
    98          0
   102          1
   103          4
   104          6
   105         13
   106          5
   107          1
   114          0
   115          1
   117          0
   118          0
   119          3
   120         32
   121          2
   126          0
   127          1
   128          0
   131          0
   132          1
   133          3
   134          1
   135          1
   139          1
   140          0
   141          0
   148          1
   149          1
   150          0
   151          2
   152          4
   153          1
   154          0
   165          0
   167          2
   168          0
   178          0
   179          0
   180          1
   181          0
   182          0
   195          1
   196          4
   197          1
   208          0
   209          0
   210          2
   211          0
   237          1
   239        154
   240         25
   241          2