##TITLE=Library Entry 54932
##JCAMP-DX=Revision 4.10 
##DATA TYPE=MASS SPECTRUM
##SAMPLE DESCRIPTION=Japan AIST/NIMC Database- Spectrum MS-NW-5725
##NAMES=HP
##CAS NAME=Pentanoic acid, 2-propenyl ester
##MOLFORM=C8H14O2
##CAS REGISTRY NO=6321-45-5
##MP= -300
##BP= -300
##MW= 142
##$RETENTION INDEX=963
##$CONDENSED SPECTRUM=NO
##NPOINTS= 70
##XYDATA=(XY..XY) 1 
    14          2
    15         18
    17          2
    18          9
    25          1
    26         22
    27        144
    28         58
    29        351
    30         12
    31         20
    32          2
    37          5
    38         12
    39        179
    40         30
    41        721
    42         40
    43         82
    44         10
    45         15
    47          1
    50          3
    51          4
    52          1
    53          9
    54         40
    55        183
    56         60
    57        921
    58         61
    59         54
    60         47
    61          7
    67          8
    68          2
    69          6
    70          3
    71          9
    72          8
    73         26
    74          4
    75          9
    76          1
    77          1
    79          1
    81          6
    82         18
    83         53
    84         14
    85        999
    86         59
    87          6
    88          5
    91          1
    95          2
    96          1
    97          2
    99         12
   100        154
   101         22
   102          3
   103         23
   104          2
   113         26
   114          4
   115          2
   116          1
   127          1
   142          2