##TITLE=Library Entry 86918
##JCAMP-DX=Revision 4.10 
##DATA TYPE=MASS SPECTRUM
##SAMPLE DESCRIPTION=A.Pleshkova, Nesmeyanov Inst.Org.Elem.Cpds, Moscow
##NAMES=HP
##CAS NAME=1,1'-Methylene-bis(di-2-propenylamine)
##MOLFORM=C13H22N2
##CAS REGISTRY NO=6321-38-6
##MP= -300
##BP= -300
##MW= 206
##$RETENTION INDEX=0
##$CONDENSED SPECTRUM=NO
##NPOINTS= 28
##XYDATA=(XY..XY) 1 
    28         41
    30          9
    32          8
    39         17
    40         11
    41        215
    42         46
    43         11
    44         66
    55        150
    56         19
    68          9
    69          9
    70         57
    73         39
    79          9
    81         23
    82         31
    96         19
    97         21
    98          5
   109         19
   110        999
   111         69
   112          6
   137         13
   165          7
   205          1