##TITLE=Library Entry 12856
##JCAMP-DX=Revision 4.10 
##DATA TYPE=MASS SPECTRUM
##SAMPLE DESCRIPTION=LAC, NIDDK, NIH, Bethesda, MD 20892
##NAMES=HP
##CAS NAME=2-Thiabutylamine-1-thione, N-acetyl-
##MOLFORM=C5H9NOS2
##CAS REGISTRY NO=6322-61-8
##MP= -300
##BP= -300
##MW= 163
##$RETENTION INDEX=0
##$CONDENSED SPECTRUM=NO
##NPOINTS= 49
##XYDATA=(XY..XY) 1 
    42         72
    43        999
    45         91
    46         31
    47         26
    48          6
    49          2
    51          2
    57         16
    58         41
    59        115
    60        189
    61         75
    62         98
    64         39
    65          7
    67          4
    70          4
    72          2
    76         35
    77         25
    78          3
    83          2
    84          3
    86         13
    88         35
    90          2
    92         68
    93        244
    95         34
    97          2
   101          3
   102         37
   103         11
   104         24
   105         10
   106          4
   107          3
   120          7
   121         32
   123          4
   130         27
   135        461
   136         41
   137         20
   145          2
   163        708
   164          4
   165         71