##TITLE=Library Entry 72796
##JCAMP-DX=Revision 4.10 
##DATA TYPE=MASS SPECTRUM
##SAMPLE DESCRIPTION=NIST Mass Spectrometry Data Center, 1994
##NAMES=HP
##CAS NAME=2-Morpholinoethyl isothiocyanate
##MOLFORM=C7H12N2OS
##CAS REGISTRY NO=63224-35-1
##MP= -300
##BP= -300
##MW= 172
##$RETENTION INDEX=0
##$CONDENSED SPECTRUM=NO
##NPOINTS= 59
##XYDATA=(XY..XY) 1 
    14          8
    15         64
    16          2
    18          3
    19          1
    26         31
    27        138
    28        291
    29        129
    30         55
    31         13
    32         14
    33          2
    34          1
    38          1
    39         11
    40         18
    41         89
    42        414
    43         35
    44         47
    45         33
    46          2
    47          1
    51          2
    52          9
    53          5
    54         58
    55         63
    56        280
    57         35
    58         22
    59         28
    60         27
    61          2
    62          1
    67          2
    68          9
    70        115
    71         21
    72         83
    73          4
    74          2
    81          4
    82          5
    83          3
    84         12
    85         19
    86         19
    87          2
    98         12
   100        999
   101         57
   102          4
   112          5
   113          5
   114          1
   115          2
   172          2