##TITLE=Library Entry 87029
##JCAMP-DX=Revision 4.10 
##DATA TYPE=MASS SPECTRUM
##SAMPLE DESCRIPTION=NIST Mass Spectrometry Data Center, 1994
##NAMES=HP
##CAS NAME=1-Diethylamino-2-butyne
##MOLFORM=C8H15N
##CAS REGISTRY NO=6323-82-6
##MP= -300
##BP= -300
##MW= 125
##$RETENTION INDEX=0
##$CONDENSED SPECTRUM=NO
##NPOINTS= 63
##XYDATA=(XY..XY) 1 
    13          2
    14          9
    15         53
    16          2
    17          4
    18         33
    26         42
    27        381
    28        336
    29        195
    30        149
    31          2
    32         12
    37          9
    38         22
    39         92
    40         25
    41        116
    42        460
    43         21
    44         58
    48          3
    49          4
    50         40
    51         77
    52         44
    53        557
    54         84
    55         37
    56        153
    57         19
    58        335
    59         15
    63          2
    64          3
    65         11
    66         15
    67         22
    68         40
    69          7
    70         86
    71          8
    72         26
    77          5
    79          8
    80         25
    81         16
    82         22
    84         12
    86         27
    87          2
    93          3
    94         19
    95          6
    96         16
   108         19
   110        999
   111         86
   112          3
   122          3
   124         51
   125        141
   126         13