##TITLE=Library Entry 72693
##JCAMP-DX=Revision 4.10 
##DATA TYPE=MASS SPECTRUM
##SAMPLE DESCRIPTION=K. Jacobson, LBC, NIDDK, NIH, Bethesda, MD 20892
##NAMES=HP
##CAS NAME=(6H)Pyrido[2,3-b][1,4]benzodizepin-6-one, 5,11-dihydro-11-(pipera
zinyl)
##MOLFORM=C18H19N5O2
##CAS REGISTRY NO=63257-31-8
##MP= -300
##BP= -300
##MW= 337
##$RETENTION INDEX=0
##$CONDENSED SPECTRUM=NO
##NPOINTS= 219
##XYDATA=(XY..XY) 1 
    42        289
    43         77
    44         99
    45          4
    48          0
    49          1
    50         30
    51         28
    52         29
    53         21
    54         33
    55         25
    56        400
    57         54
    58         40
    59          1
    60          1
    61          7
    62          6
    63         21
    64         29
    65         26
    66         19
    67          4
    68         18
    69         19
    70        207
    71         21
    72         10
    74         11
    75         19
    76         42
    77         47
    78         15
    79         12
    80          5
    81         10
    82          6
    83         13
    84         53
    85         57
    86          7
    87          2
    88          3
    89          5
    90         25
    91         24
    92         23
    93         15
    94          3
    95          4
    96          4
    97         47
    98         36
    99        999
   100         69
   102         57
   103         20
   104         13
   105          9
   106          3
   107          3
   108          1
   109          1
   110          0
   111          6
   112          2
   113         30
   114          6
   115          4
   116          3
   117          4
   118          5
   119          9
   120          6
   121          1
   122          0
   123          1
   124          3
   125          7
   126         30
   127         16
   128         12
   129         29
   130         21
   131          6
   132          4
   133          2
   134          1
   135          1
   136          0
   137          0
   138          1
   139          3
   140          9
   141          8
   142          3
   143          3
   144          3
   145          2
   146          3
   147          1
   148          0
   149          1
   151          0
   152          1
   153          4
   154          5
   155         42
   156         35
   157         15
   158          2
   159          0
   161          0
   162          0
   163          0
   165          1
   166          3
   167         10
   168         19
   169          9
   170         10
   171          6
   172          0
   173          0
   177          0
   178          0
   179          1
   180          6
   181         13
   182         88
   183         53
   184         17
   185          6
   186          1
   192          1
   193          1
   194         20
   195          9
   196         25
   197          6
   198          1
   202          0
   205          1
   206          3
   207          2
   208          2
   209          4
   210         54
   211        583
   212        108
   213         11
   214          1
   219          0
   220          1
   221          1
   222          4
   223          2
   224         49
   225         11
   226          1
   227          1
   233          0
   234          0
   235          2
   236          3
   237          2
   238         19
   239          3
   240          0
   243          1
   248          1
   249          2
   250          5
   251         36
   252         53
   253         28
   254          5
   255          0
   261          0
   262          0
   263          1
   264          1
   265          1
   266          1
   267          2
   268          2
   269         17
   270          3
   274          0
   277          0
   279          0
   281         22
   282          5
   283          0
   288          0
   289          0
   290          4
   291          0
   293          1
   294         19
   295        175
   296         31
   297          4
   298          0
   303          0
   307          4
   308         15
   309          3
   310          0
   320          1
   321          0
   322          0
   335          3
   336          1
   337        162
   338         48
   339          7
   340          0