##TITLE=Library Entry 65814
##JCAMP-DX=Revision 4.10 
##DATA TYPE=MASS SPECTRUM
##SAMPLE DESCRIPTION=Chemical Concepts
##NAMES=HP
##CAS NAME=Carbamic acid, phenyl-, octyl ester
##MOLFORM=C15H23NO2
##CAS REGISTRY NO=6327-52-2
##MP= -300
##BP= -300
##MW= 249
##$RETENTION INDEX=0
##$CONDENSED SPECTRUM=NO
##NPOINTS= 53
##XYDATA=(XY..XY) 1 
    27         53
    28         18
    29        113
    38         10
    39         75
    40         15
    41        217
    42         48
    43        314
    44         12
    50         10
    51         40
    52         11
    53         14
    54          9
    55        107
    56         28
    57        282
    58         14
    63         19
    64         29
    65        110
    66         53
    67         14
    69         56
    70         16
    71        160
    72         10
    77        119
    78         13
    83         12
    84          8
    91         45
    92        101
    93        999
    94         76
   106         42
   119         61
   120         92
   121          9
   134         31
   136         15
   137        280
   138        103
   139          9
   148         23
   149         13
   157          5
   162         21
   176         19
   190          4
   249        210
   250         38