##TITLE=Library Entry 30783
##JCAMP-DX=Revision 4.10 
##DATA TYPE=MASS SPECTRUM
##SAMPLE DESCRIPTION=Exported from NIST MS Search
##NAMES=HP
##CAS NAME=2,4,6,8,9,10-Hexathiatricyclo[3.3.1.1(3,7)]decane, 1,3,5,7-tetram
ethylll-
##MOLFORM=C8H12S6
##CAS REGISTRY NO=6327-74-8
##MP= -300
##BP= -300
##MW= 300
##$RETENTION INDEX=0
##$CONDENSED SPECTRUM=NO
##NPOINTS= 41
##XYDATA=(XY..XY) 1 
    15          2
    18          4
    44         20
    45         10
    57         14
    58         61
    59        999
    60         41
    61         47
    62          2
    64          2
    76         20
    91         14
    92          2
    93          4
   117         80
   118        277
   119         23
   120         23
   123          2
   125          6
   145         18
   146         14
   147         20
   149         51
   150        406
   151         68
   152         55
   153          2
   177         39
   179          2
   183         20
   209        246
   210         20
   211         10
   241          4
   300        473
   301         47
   302        119
   303          8
   304         10