##TITLE=Library Entry 28763
##JCAMP-DX=Revision 4.10 
##DATA TYPE=MASS SPECTRUM
##SAMPLE DESCRIPTION=Finnigan MAT: Toxicological Library (LIBR-TX)
##NAMES=HP
##CAS NAME=Normethadol(.alpha.)
##MOLFORM=C20H27NO
##CAS REGISTRY NO=6327-73-7
##MP= -300
##BP= -300
##MW= 297
##$RETENTION INDEX=0
##$CONDENSED SPECTRUM=NO
##NPOINTS= 42
##XYDATA=(XY..XY) 1 
    57         76
    58        999
    71         32
    72         38
    77         43
    84         34
    91        114
    99         65
   103         21
   105         38
   115         71
   117         13
   129         27
   130         34
   134         79
   147         11
   152         15
   165         56
   166         11
   167         13
   178         47
   179         37
   180         30
   191         17
   193         44
   194          8
   205          8
   207         12
   208         16
   219          8
   220          6
   222         22
   237          6
   239         20
   248          5
   250         23
   251          6
   262          3
   264          7
   276          5
   277          5
   297          3