##TITLE=Library Entry 84253
##JCAMP-DX=Revision 4.10 
##DATA TYPE=MASS SPECTRUM
##SAMPLE DESCRIPTION=NIST Mass Spectrometry Data Center, 1998.
##NAMES=HP
##CAS NAME=Nuarimol
##MOLFORM=C17H12ClFN2O
##CAS REGISTRY NO=63284-71-9
##MP= -300
##BP= -300
##MW= 314
##$RETENTION INDEX=2374
##$CONDENSED SPECTRUM=NO
##NPOINTS= 254
##XYDATA=(XY..XY) 1 
    25          1
    26          6
    27          9
    28         29
    29          3
    31          3
    33          1
    35          1
    36          1
    37          3
    38          8
    39         27
    40          5
    41          3
    42          1
    45          3
    46          1
    49          4
    50         80
    51        108
    52        155
    53        232
    54         12
    55          4
    56          3
    57         26
    58          1
    59          1
    60          2
    61          9
    62         23
    63         44
    64          7
    65          3
    66          2
    67          2
    68         13
    69         22
    70         17
    71          2
    72          5
    73         12
    74         64
    75        296
    76         72
    77         87
    78         16
    79        261
    80        106
    81         35
    82          6
    83         11
    84          9
    85         58
    86         25
    87         42
    88         24
    89          8
    90         19
    92          6
    93         35
    94         54
    95        398
    96         67
    97         25
    98         38
    99         39
   100         19
   101         74
   102         37
   103          6
   104         77
   105         33
   106          6
   107        999
   108         71
   109         13
   110         10
   111        230
   112        243
   113        108
   114         77
   115          9
   117         14
   118          9
   119          8
   120         51
   121         22
   122          8
   123        528
   124         46
   125         21
   126         16
   127          8
   128         30
   129         15
   130         14
   131         28
   132         37
   133         19
   134          6
   135          6
   136         10
   137          9
   138          6
   139        765
   140         73
   141        245
   142         22
   143          6
   144         16
   145         10
   146         13
   147         21
   148         41
   149         24
   150         21
   151         27
   152         17
   153          4
   154          2
   155         14
   156         16
   157         22
   158         16
   159          5
   160          2
   161          5
   162          5
   163         11
   164          6
   165          4
   166          2
   167          5
   168         18
   169         33
   170        132
   171         46
   172          9
   173          8
   174         30
   175        228
   176         40
   177          9
   178          2
   179          5
   180          9
   181         37
   182         20
   183         80
   184         13
   185          7
   186          8
   187         25
   188          8
   189          8
   190          4
   191         52
   192          9
   193         20
   194         25
   195         13
   196         33
   197         10
   198          3
   199         27
   200          7
   201         17
   202         15
   203        656
   204         90
   205         45
   206         37
   207        184
   208         50
   209         13
   210          2
   211          1
   212          3
   213          2
   214          6
   215          3
   216          1
   217         19
   218          6
   219        151
   220         21
   221         48
   222         12
   223         13
   224          6
   225          9
   226          1
   229          1
   230          5
   231          4
   232         27
   233         10
   234          1
   235        744
   236        109
   237        240
   238         34
   239          3
   240          1
   241          5
   242          4
   243          9
   244          2
   245          3
   246          1
   247          1
   248          1
   249          5
   250          8
   251          5
   252         16
   253          3
   257          1
   258          3
   259          6
   260          9
   261         34
   262         20
   263          7
   264          1
   265          1
   268          2
   269          3
   270          2
   271          1
   272          1
   277          7
   278          5
   279         78
   280         15
   281          2
   285          1
   286          7
   287          3
   288          3
   289          1
   294          3
   295          2
   296          5
   297         28
   298         10
   299         10
   300          3
   314        350
   315         72
   316        117
   317         22
   318          2