##TITLE=Library Entry 81839
##JCAMP-DX=Revision 4.10 
##DATA TYPE=MASS SPECTRUM
##SAMPLE DESCRIPTION=Japan AIST/NIMC Database- Spectrum MS-IW-4349
##NAMES=HP
##CAS NAME=2',4'-Benzoxylidide
##MOLFORM=C15H15NO
##CAS REGISTRY NO=6328-77-4
##MP= -300
##BP= -300
##MW= 225
##$RETENTION INDEX=0
##$CONDENSED SPECTRUM=NO
##NPOINTS= 61
##XYDATA=(XY..XY) 1 
    27          4
    28          2
    30          1
    39          8
    40          1
    41          3
    42          1
    43          1
    50          7
    51         40
    52          5
    53          5
    54          1
    63          3
    64          1
    65          9
    66          1
    74          1
    75          2
    76          9
    77        359
    78         28
    79          4
    80          1
    89          2
    90          1
    91         19
    92          4
    93          6
    94          1
   102          1
   103          5
   104          8
   105        999
   106         89
   107          7
   116          1
   117          2
   118          7
   119          4
   120        124
   121         32
   122         37
   123          3
   132          1
   146          4
   163          7
   164          1
   165          1
   180          3
   181          1
   194          1
   208          5
   209          2
   210          3
   211          1
   223          1
   224          3
   225        423
   226         71
   227          6