##TITLE=Library Entry 11875
##JCAMP-DX=Revision 4.10 
##DATA TYPE=MASS SPECTRUM
##SAMPLE DESCRIPTION=A.Pleshkova, Nesmeyanov Inst.Org.Elem.Cpds, Moscow
##NAMES=HP
##CAS NAME=N-Isopropoxy-2,2-dicarbethoxyaziridine
##MOLFORM=C11H19NO5
##CAS REGISTRY NO=63289-98-5
##MP= -300
##BP= -300
##MW= 245
##$RETENTION INDEX=0
##$CONDENSED SPECTRUM=NO
##NPOINTS= 49
##XYDATA=(XY..XY) 1 
    40         48
    41        221
    42         88
    43        999
    44        102
    45        106
    46         22
    55         86
    56         48
    57         46
    58         58
    59          9
    70         38
    71         75
    72         25
    84         29
    85        109
    86         96
    87         21
    99        407
   100         38
   101         79
   111         73
   112        125
   113         48
   114          9
   127        898
   128         73
   129        374
   130        111
   131         21
   133        154
   134         15
   140         42
   141         48
   142          9
   143         52
   144         11
   157        328
   158         96
   159         25
   161         54
   162          3
   173         54
   186         19
   199         42
   200         19
   203         64
   204          6