##TITLE=Library Entry 76038
##JCAMP-DX=Revision 4.10 
##DATA TYPE=MASS SPECTRUM
##SAMPLE DESCRIPTION=Chemical Concepts
##NAMES=HP
##CAS NAME=Cyclopentanol, 1-[2-methyl-3-(methylthio)-2-propenyl]-, (Z)-
##MOLFORM=C10H18OS
##CAS REGISTRY NO=63297-93-8
##MP= -300
##BP= -300
##MW= 186
##$RETENTION INDEX=0
##$CONDENSED SPECTRUM=NO
##NPOINTS= 147
##XYDATA=(XY..XY) 1 
    26          6
    27         81
    29        112
    30          3
    31         21
    34          2
    35          9
    37          1
    38          5
    39        104
    40         15
    41        239
    42         23
    43        144
    44          6
    45         99
    46         13
    47         41
    48          5
    49          8
    50          8
    51         23
    52         10
    53        123
    54        222
    55        289
    56         77
    57        186
    58         11
    59         81
    60         17
    61         77
    62          6
    63          9
    64          3
    65         34
    66         11
    67        523
    68         46
    69         39
    70          7
    71         50
    72         14
    73         23
    74         11
    75          7
    76          2
    77         40
    78         10
    79         67
    80         10
    81         58
    82         11
    83         45
    84         16
    85        558
    86         51
    87        485
    88        193
    89         40
    90         11
    91         42
    92         21
    93         58
    94          9
    95         32
    96          9
    97         15
    98          9
    99         13
   100          3
   101        129
   102        999
   103         98
   104         65
   105         20
   106          4
   107          6
   108          2
   109         21
   110          4
   111         58
   112         17
   113          8
   114          3
   115         10
   116          2
   117          5
   118          2
   119         28
   120         17
   121         40
   122          6
   123          3
   124          2
   125         15
   126          3
   127          4
   128          3
   129         12
   130          2
   131          2
   132          1
   133          2
   134          1
   135         21
   136          2
   137          4
   138          4
   139         37
   140          5
   141          4
   142          1
   143          2
   144          1
   145          1
   147          1
   148          0
   149          3
   150          2
   152          1
   153         92
   154         36
   155         10
   156          2
   157          2
   158          1
   165          1
   167          2
   168         24
   169         13
   170          3
   171          2
   172          3
   173          1
   175          3
   176          1
   177          1
   178          1
   181          2
   182          1
   183          1
   184          1
   185          1
   186         84
   187         12
   188          5