##TITLE=Library Entry 73164
##JCAMP-DX=Revision 4.10 
##DATA TYPE=MASS SPECTRUM
##SAMPLE DESCRIPTION=Chemical Concepts
##NAMES=HP
##CAS NAME=Cropropamide
##MOLFORM=C13H24N2O2
##CAS REGISTRY NO=633-47-6
##MP= -300
##BP= -300
##MW= 240
##$RETENTION INDEX=1723
##$CONDENSED SPECTRUM=NO
##NPOINTS= 114
##XYDATA=(XY..XY) 1 
    26          2
    27         22
    28         32
    29         10
    30          7
    31          2
    38          2
    39         36
    40          7
    41        160
    42         36
    43         57
    44         26
    45         11
    46          9
    51          1
    52          1
    53          3
    54          6
    55         14
    56         30
    57         10
    58         69
    59          3
    65          2
    66          1
    67          9
    68         12
    69        373
    70         54
    71          9
    72         86
    73         10
    74          3
    76          1
    77          2
    79          1
    81          2
    82          3
    83          4
    84          5
    85          3
    86          5
    87          6
    91          3
    95          1
    96          2
    97          3
    98         34
    99          5
   100        999
   101         77
   102          2
   103          1
   104          1
   105          1
   110          4
   111          5
   112          3
   113          3
   114          9
   115         62
   116          4
   117          2
   119          1
   120          1
   121          1
   124          2
   125          1
   126          6
   127          1
   128          5
   129          1
   130          1
   131          1
   132          1
   133          2
   134          2
   135          1
   138          5
   139          2
   140          1
   141          5
   142          2
   143         27
   144          3
   145          1
   146          4
   147          1
   152          4
   154          2
   155          1
   160          2
   161          1
   162         28
   163          3
   166          1
   167          4
   168        304
   169         38
   170          3
   171         15
   172          1
   180          5
   181          1
   191          1
   193          1
   195         37
   196         20
   197          2
   211          4
   225          4
   240         11
   241          1