##TITLE=Library Entry 5503
##JCAMP-DX=Revision 4.10 
##DATA TYPE=MASS SPECTRUM
##SAMPLE DESCRIPTION=Exported from NIST MS Search
##NAMES=HP
##CAS NAME=Butanoic acid, 3-cyano-3-hydroxy-, ethyl ester
##MOLFORM=C7H11NO3
##CAS REGISTRY NO=6330-37-6
##MP= -300
##BP= -300
##MW= 157
##$RETENTION INDEX=0
##$CONDENSED SPECTRUM=NO
##NPOINTS= 44
##XYDATA=(XY..XY) 1 
    12         13
    13         13
    14         13
    15        103
    16          6
    18         13
    19          6
    25          6
    26         69
    27        620
    28        103
    29        193
    30         13
    31        275
    32          6
    38          6
    39         13
    40         10
    41          6
    42        103
    43        999
    44        275
    45        151
    57         13
    58        124
    59         13
    60         82
    61         34
    68          6
    69         55
    70         13
    73         13
    84         41
    85        137
    86         13
    87         27
    88        193
    89          6
    90          6
   102         20
   111         34
   115         34
   130         69
   131         13