##TITLE=Library Entry 63601
##JCAMP-DX=Revision 4.10 
##DATA TYPE=MASS SPECTRUM
##SAMPLE DESCRIPTION=T.SUZUKI FAC. OF AGRI., TOHOKU UNIV., SENDAI, JAPAN
##NAMES=HP
##CAS NAME=4-Imidazolidinone, 5-(phenylmethyl)-2-thioxo-
##MOLFORM=C10H10N2OS
##CAS REGISTRY NO=6330-09-2
##MP= -300
##BP= -300
##MW= 206
##$RETENTION INDEX=0
##$CONDENSED SPECTRUM=NO
##NPOINTS= 29
##XYDATA=(XY..XY) 1 
    41         70
    43         38
    50         35
    51         70
    52         24
    55         35
    57         35
    59         49
    60         76
    63         52
    65        191
    74         31
    76         28
    77         56
    78         35
    86         35
    89         35
    90         24
    91        999
    92        146
   103         31
   104         28
   115         21
   116         28
   117         38
   118         20
   206        363
   207         45
   208         24