##TITLE=Library Entry 59735
##JCAMP-DX=Revision 4.10 
##DATA TYPE=MASS SPECTRUM
##SAMPLE DESCRIPTION=Div. of Experiment Therapeutics WRAIR, WRAMC, Washingto
n DC 20307
##NAMES=HP
##CAS NAME=S,S'-Methylenebis[benzylsulfone]
##MOLFORM=C15H16O4S2
##CAS REGISTRY NO=6331-52-8
##MP= -300
##BP= -300
##MW= 324
##$RETENTION INDEX=0
##$CONDENSED SPECTRUM=NO
##NPOINTS= 74
##XYDATA=(XY..XY) 1 
    41          3
    45          0
    50          0
    51          4
    52          1
    62          3
    63         18
    64          8
    65        130
    66          6
    75          0
    76          1
    77          8
    78          3
    79          2
    84          1
    86          2
    87          0
    89         26
    91        999
    92        108
    93          4
   104         92
   105         95
   106          7
   107          1
   109          0
   117          0
   118          0
   121          1
   123          1
   128          0
   129          1
   131          0
   135          1
   137          4
   139          2
   141          0
   151          2
   152          1
   153          4
   155          2
   157          1
   165          1
   166          5
   167          0
   168          0
   169          6
   170          0
   171          0
   178          0
   179          7
   180          7
   181         44
   182          9
   183          0
   193          2
   194          0
   195          2
   196         34
   197          5
   217          1
   230          7
   231          1
   235          0
   243          3
   244          0
   247          0
   271          0
   309          3
   321          0
   324          7
   325          1
   326          0