##TITLE=Library Entry 57596
##JCAMP-DX=Revision 4.10 
##DATA TYPE=MASS SPECTRUM
##SAMPLE DESCRIPTION=Japan AIST/NIMC Database- Spectrum MS-IW-3299
##NAMES=HP
##CAS NAME=dl-2-Amino-4-hydroxy-2-methylbutyric acid
##MOLFORM=C5H11NO3
##CAS REGISTRY NO=6331-64-2
##MP= -300
##BP= -300
##MW= 133
##$RETENTION INDEX=0
##$CONDENSED SPECTRUM=NO
##NPOINTS= 61
##XYDATA=(XY..XY) 1 
    14          3
    15         40
    16          2
    17         18
    18        176
    19          3
    26          8
    27         36
    28         76
    29         22
    30         62
    31         53
    32          1
    37          2
    38          5
    39         41
    40         19
    41        118
    42        450
    43        114
    44         66
    45         17
    46          3
    47          1
    50          2
    51          3
    52          5
    53         14
    54         20
    55          7
    56         26
    57        175
    58        300
    59         12
    60          3
    68          9
    69         12
    70        256
    71        100
    72         15
    73          1
    74          3
    81          1
    82          1
    83          1
    84          3
    85         21
    86         16
    87         13
    88        999
    89         57
    90          4
    97          1
    98          2
   100          6
   102          1
   103         25
   104          1
   115          1
   118          8
   134          1