##TITLE=Library Entry 100589
##JCAMP-DX=Revision 4.10 
##DATA TYPE=MASS SPECTRUM
##SAMPLE DESCRIPTION=Chemical Concepts
##NAMES=HP
##CAS NAME=Acetic acid, (2,4-xylyl)-
##MOLFORM=C10H12O2
##CAS REGISTRY NO=6331-04-0
##MP= -300
##BP= -300
##MW= 164
##$RETENTION INDEX=0
##$CONDENSED SPECTRUM=NO
##NPOINTS= 46
##XYDATA=(XY..XY) 1 
    27         10
    38          2
    39         26
    40          3
    41         24
    45          6
    50          7
    51         25
    52          8
    53         12
    55          2
    58          4
    62          3
    63         14
    64          2
    65         23
    67          2
    74          3
    75          4
    76          3
    77         50
    78         20
    79         17
    89          6
    91         94
    92          9
    93         10
   102          7
   103         32
   104         28
   105         63
   106          4
   107          3
   115         28
   116          8
   117         41
   118         69
   119        999
   120         84
   121          8
   135          1
   146          2
   149          2
   164        282
   165         31
   166          2