##TITLE=Library Entry 44555
##JCAMP-DX=Revision 4.10 
##DATA TYPE=MASS SPECTRUM
##SAMPLE DESCRIPTION=Chemical Concepts
##NAMES=HP
##CAS NAME=5-Heptenoic acid, methyl ester
##MOLFORM=C8H14O2
##CAS REGISTRY NO=63329-96-4
##MP= -300
##BP= -300
##MW= 142
##$RETENTION INDEX=0
##$CONDENSED SPECTRUM=NO
##NPOINTS= 86
##XYDATA=(XY..XY) 1 
    25          1
    26         13
    27        174
    28          9
    29        161
    30          4
    31         34
    33          4
    34          0
    36          0
    37          2
    38          9
    39        177
    40         33
    41        308
    42         48
    43        530
    44         23
    45         20
    46          0
    48          0
    49          0
    50         11
    51         21
    52         13
    53         80
    54         50
    55        357
    56         33
    57         33
    58          6
    59        149
    60          6
    61          2
    62          2
    63          3
    64          1
    65         12
    66         10
    67        142
    68        358
    69        224
    70         16
    71         29
    72          4
    73          7
    74        999
    75         54
    76          6
    77          7
    78          2
    79         13
    80          3
    81         39
    82        111
    83        124
    84         14
    85         19
    86          2
    87         96
    88         14
    89          1
    91          1
    93          4
    94          0
    95          5
    97          1
    99          5
   100          2
   101         20
   102          1
   105          0
   109          3
   110        220
   111        113
   112          8
   113         30
   114          3
   115          4
   125          0
   127          4
   128          0
   141          0
   142         73
   143          6
   144          1