##TITLE=Library Entry 59919
##JCAMP-DX=Revision 4.10 
##DATA TYPE=MASS SPECTRUM
##SAMPLE DESCRIPTION=A.A.Kutin, Moscow, Russia
##NAMES=HP
##CAS NAME=Adenine, 8-benzylthio-
##MOLFORM=C12H11N5S
##CAS REGISTRY NO=6332-12-3
##MP= -300
##BP= -300
##MW= 257
##$RETENTION INDEX=0
##$CONDENSED SPECTRUM=NO
##NPOINTS= 175
##XYDATA=(XY..XY) 1 
    33          1
    34          0
    37          3
    38         21
    39        101
    40         13
    41         26
    42          8
    43         41
    44         12
    45         23
    46          2
    47          1
    48          0
    49          1
    50         20
    51         44
    52         15
    53         62
    54         39
    55         21
    56          1
    57          1
    58          5
    59         12
    60         16
    61          4
    62         18
    63         56
    64         22
    65        226
    66         21
    67          5
    68          7
    69          4
    70         45
    71          6
    72          6
    73          0
    74          3
    75          4
    76          4
    77         19
    78          8
    79          6
    80         10
    81          5
    82          1
    83          1
    84          3
    85         70
    86          6
    87          5
    89         42
    91        999
    92         71
    93          4
    94          1
    95          2
    96         12
    97          9
    98          4
    99          1
   100          0
   101          0
   102          1
   103          1
   104          3
   105          1
   106          6
   107          2
   108          4
   109          1
   110          0
   111          1
   112         19
   113          2
   114          1
   115          0
   116          4
   117          1
   118          1
   119          1
   120          0
   121         20
   122          3
   123          3
   124          4
   125          1
   126          0
   127          0
   128          1
   129          0
   130          0
   131          0
   133          0
   134          1
   135          2
   136          1
   137          0
   139         59
   140          4
   141          3
   142          1
   143          1
   144          0
   146          0
   148          4
   149          0
   150          0
   151          1
   152          1
   153          2
   154          1
   155          1
   156          0
   157          0
   158          0
   159          0
   160          0
   161          0
   163          0
   164          0
   166         40
   167          6
   168          2
   169          0
   170          2
   171          1
   175          0
   178          1
   179          1
   180          5
   181          0
   182          0
   183          2
   184          0
   185          3
   186          0
   187          0
   189          0
   195          1
   196          0
   197          3
   198          1
   199          0
   200          0
   201          0
   202          0
   206          0
   207          6
   208          0
   211          0
   212          1
   213          0
   214          0
   222          1
   223          8
   224         85
   225         12
   226          0
   227          0
   229          0
   238          0
   239          0
   240          0
   241          0
   242          0
   254          1
   255          1
   256         29
   257        187
   258         29
   259         10
   260          1