##TITLE=Library Entry 88189
##JCAMP-DX=Revision 4.10 
##DATA TYPE=MASS SPECTRUM
##SAMPLE DESCRIPTION=NIST Mass Spectrometry Data Center, 2010
##NAMES=HP
##CAS NAME=4-Chlorobenzenesulfonamide, N-methyl-
##MOLFORM=C7H8ClNO2S
##CAS REGISTRY NO=6333-79-5
##MP= -300
##BP= -300
##MW= 205
##$RETENTION INDEX=1744
##$CONDENSED SPECTRUM=NO
##NPOINTS= 105
##XYDATA=(XY..XY) 1 
    27          4
    28         26
    29          6
    30        113
    31          2
    35          1
    36          1
    37          4
    38          6
    39          6
    45          6
    48          6
    49          9
    50        118
    51         62
    52          5
    53          2
    54          2
    60         14
    61         15
    62         14
    63         22
    64          9
    65         10
    66          1
    67          1
    68          1
    69         10
    70         16
    71          5
    74         93
    75        380
    76         80
    77         44
    78         35
    79          6
    80          2
    81          5
    82          4
    84         11
    85         44
    86          8
    87         17
    88          1
    89          2
    90          4
    92          2
    93          3
    94         11
    95          5
    97          1
    98          1
    99         19
   100          5
   101          8
   102          2
   103          1
   104          5
   105          6
   106          8
   107          3
   108         12
   109          4
   111        999
   112        200
   113        323
   114         59
   115          6
   118          1
   122          2
   123          1
   124          1
   125          2
   126          7
   127         13
   128         50
   129         10
   130         18
   131         16
   132          1
   133          5
   134          1
   138          2
   139          2
   140         42
   141        182
   142         26
   143         60
   144          9
   145          1
   147          1
   159         18
   160          2
   161          6
   169          1
   175        293
   176         31
   177        114
   178         13
   179          6
   205        295
   206         28
   207        112
   208         10
   209          5