##TITLE=Library Entry 59308
##JCAMP-DX=Revision 4.10 
##DATA TYPE=MASS SPECTRUM
##SAMPLE DESCRIPTION=Japan AIST/NIMC Database- Spectrum MS-NW-3320
##NAMES=HP
##CAS NAME=Butane, 1,1'-oxybis[4-chloro-
##MOLFORM=C8H16Cl2O
##CAS REGISTRY NO=6334-96-9
##MP= -300
##BP= -300
##MW= 198
##$RETENTION INDEX=0
##$CONDENSED SPECTRUM=NO
##NPOINTS= 76
##XYDATA=(XY..XY) 1 
    14          1
    15          5
    17          1
    18          3
    26          9
    27         97
    28         18
    29        114
    30          4
    31         43
    32          1
    35          1
    36         11
    37          1
    38          4
    39         61
    40         11
    41        114
    42         97
    43         42
    44         23
    45         10
    49         21
    50          2
    51          8
    52          1
    53         22
    54         16
    55        774
    56         45
    57          8
    58          2
    59          2
    60          1
    61          2
    62         17
    63         36
    64          6
    65         11
    67          2
    69          2
    70          1
    71         53
    72         19
    73         25
    74          2
    75          6
    76          1
    77          3
    79          1
    85          6
    88          1
    89          9
    90         17
    91        999
    92         49
    93        333
    94         13
   105          1
   107         10
   108          1
   109          5
   121         46
   122          3
   123         15
   124          1
   134          1
   135          1
   136          1
   137          2
   163          1
   198          9
   199          1
   200          6
   201          1
   202          1