##TITLE=Library Entry 83776
##JCAMP-DX=Revision 4.10 
##DATA TYPE=MASS SPECTRUM
##SAMPLE DESCRIPTION=Chemical Concepts
##NAMES=HP
##CAS NAME=Phenol, 4-(2-phenylethyl)-
##MOLFORM=C14H14O
##CAS REGISTRY NO=6335-83-7
##MP= -300
##BP= -300
##MW= 198
##$RETENTION INDEX=0
##$CONDENSED SPECTRUM=NO
##NPOINTS= 90
##XYDATA=(XY..XY) 1 
    27         15
    29          1
    38          2
    39         37
    40          2
    41          8
    42          0
    43          1
    44          0
    50          6
    51         28
    52         12
    53         19
    54          0
    55          9
    56          0
    57          0
    58          2
    59          0
    61          0
    62          3
    63         15
    64          4
    65         48
    66          3
    67          0
    68          0
    69          0
    70          0
    71          0
    74          1
    75          3
    76          4
    77         73
    78         19
    79          7
    80          0
    81          3
    82          1
    84          0
    86          0
    87          0
    88          1
    89         10
    90          3
    91        114
    92         13
    93          0
    94          2
    95          0
    97          1
   101          1
   102          1
   103          4
   104          3
   105          3
   107        999
   108         71
   109          3
   115          4
   118          0
   119          1
   120          1
   126          0
   127          1
   128          1
   129          0
   139          1
   141          1
   151          1
   152          2
   153          1
   154          0
   163          0
   164          0
   165          4
   166          0
   167          1
   176          0
   177          1
   178          3
   179          1
   181          1
   182          1
   194          0
   195          1
   196          1
   198         86
   199         13
   200          1