##TITLE=Library Entry 86911
##JCAMP-DX=Revision 4.10 
##DATA TYPE=MASS SPECTRUM
##SAMPLE DESCRIPTION=A.A.Kutin, Moscow, Russia
##NAMES=HP
##CAS NAME=Bicyclo(3.3.1)nonan-9-one, 2-(1-pyrrolidinyl)-
##MOLFORM=C13H21NO
##CAS REGISTRY NO=6335-43-9
##MP= -300
##BP= -300
##MW= 207
##$RETENTION INDEX=0
##$CONDENSED SPECTRUM=NO
##NPOINTS= 93
##XYDATA=(XY..XY) 1 
    33          3
    34          6
    39         49
    40         90
    41        101
    42         37
    43         32
    44         29
    45          1
    48          0
    50          2
    51          5
    52          4
    53         22
    54         31
    55         52
    56         16
    57          4
    58          1
    59          0
    63          1
    64          2
    65          8
    67         49
    68         30
    69         47
    70         40
    71          6
    72          2
    73          0
    74          0
    75          1
    77         12
    78          5
    79         16
    80         11
    81         14
    82         10
    83          5
    84         13
    85          1
    86          4
    87          0
    89          0
    91          6
    93          6
    94          8
    95          8
    96         46
    97         55
    98          6
    99          0
   103          2
   104          1
   105          1
   106          4
   107          3
   108         17
   110        999
   111         71
   112          4
   115          0
   117          0
   118          0
   119          0
   120          1
   121          1
   122          4
   123          6
   124          3
   125          0
   127          0
   128          1
   131          0
   133          0
   134          1
   135          1
   136          3
   137          1
   138          1
   148          0
   149          2
   150          4
   151          5
   152          0
   165          0
   166          1
   171          0
   178          6
   179          0
   206          5
   207         42
   208          6