##TITLE=Library Entry 24378
##JCAMP-DX=Revision 4.10 
##DATA TYPE=MASS SPECTRUM
##SAMPLE DESCRIPTION=T. BRYCE UNILEVER RESEARCH COLWORTH/WELWYN, BEDFORD U.K
.
##NAMES=HP
##CAS NAME=N-Nitroso-di-n-octylamine
##MOLFORM=C16H34N2O
##CAS REGISTRY NO=6335-97-3
##MP= -300
##BP= -300
##MW= 270
##$RETENTION INDEX=2080
##$CONDENSED SPECTRUM=NO
##NPOINTS= 60
##XYDATA=(XY..XY) 1 
    39         70
    41        450
    42        275
    43        950
    44        450
    45         87
    51         15
    53         22
    54         27
    55        317
    56        225
    57        999
    58        147
    59         32
    67         27
    68         30
    69        225
    70        187
    71        550
    72         45
    73         25
    74         72
    77         12
    81         15
    82         25
    83         45
    84         17
    85         87
    95         15
    96         10
    97         15
    98         70
    99         20
   100         15
   112         90
   113         15
   126         42
   128         17
   140        150
   141         57
   142        200
   143         25
   154         12
   155        450
   156         55
   157         37
   159         80
   168         42
   169         20
   171         45
   172         30
   182         65
   183         15
   196         17
   225          7
   240        115
   241         25
   253        400
   254         72
   270         12