##TITLE=Library Entry 45088
##JCAMP-DX=Revision 4.10 
##DATA TYPE=MASS SPECTRUM
##SAMPLE DESCRIPTION=LAC, NIDDK, NIH, Bethesda, MD 20892
##NAMES=HP
##CAS NAME=d-Galactose oxime
##MOLFORM=C6H13NO6
##CAS REGISTRY NO=6336-64-7
##MP= -300
##BP= -300
##MW= 195
##$RETENTION INDEX=0
##$CONDENSED SPECTRUM=NO
##NPOINTS= 75
##XYDATA=(XY..XY) 1 
    42        402
    43        742
    44        284
    45        279
    46        159
    47         40
    49         15
    51          8
    52          8
    53         13
    54         41
    55        115
    56        120
    57        229
    58        195
    59        131
    60        351
    61        627
    62         25
    63          4
    67          3
    68         35
    69         31
    70        222
    71        130
    72         79
    73        575
    74        277
    75        999
    77         10
    78          2
    81          6
    82         14
    83         14
    84         10
    85         52
    86        164
    87        182
    88        211
    89         24
    90         16
    91         63
    96          2
    97         10
    98         11
    99         34
   100         21
   101         16
   102         11
   103         86
   104        107
   105          7
   111          2
   112          5
   113          4
   114          5
   115          7
   116         12
   117         15
   118          4
   119         17
   127          1
   128          3
   129          6
   130          2
   133          5
   134         93
   135          4
   136          1
   145          4
   146         62
   147          4
   160          1
   195          3
   196          1