##TITLE=Library Entry 100100
##JCAMP-DX=Revision 4.10 
##DATA TYPE=MASS SPECTRUM
##SAMPLE DESCRIPTION=HCACAV,61(8)2941(1978); M. JULLIARD ET AL
##NAMES=HP
##CAS NAME=Benzene, 1,1'-(1,2-ethanediyl)bis[3,5-dimethyl-
##MOLFORM=C18H22
##CAS REGISTRY NO=63376-64-7
##MP= -300
##BP= -300
##MW= 238
##$RETENTION INDEX=0
##$CONDENSED SPECTRUM=NO
##NPOINTS= 11
##XYDATA=(XY..XY) 1 
    77        100
    79         80
   105        280
   119        999
   132        100
   133        100
   154        100
   193         20
   208        200
   223        250
   238        230