##TITLE=Library Entry 47641
##JCAMP-DX=Revision 4.10 
##DATA TYPE=MASS SPECTRUM
##SAMPLE DESCRIPTION=A.A.Kutin, Moscow, Russia
##NAMES=HP
##CAS NAME=Benzoic acid, 4-(3,5-dimethyl-1-phenyl-4-pyrazolylazo)-, ethyl es
ter
##MOLFORM=C20H20N4O2
##CAS REGISTRY NO=63377-49-1
##MP= -300
##BP= -300
##MW= 348
##$RETENTION INDEX=0
##$CONDENSED SPECTRUM=NO
##NPOINTS= 194
##XYDATA=(XY..XY) 1 
    33          4
    34          0
    39        118
    40         47
    41         21
    42         14
    43          9
    44          8
    45         16
    48          0
    50         62
    51        143
    52         18
    53          8
    54          6
    55          2
    56          0
    57          1
    59          0
    63         64
    65        164
    66         47
    67          5
    68          2
    69          1
    70          0
    71          0
    72          0
    74         10
    75         33
    77        999
    78         42
    79          8
    80          3
    81          4
    83          0
    84          0
    85          0
    87          1
    89         25
    90         21
    91         27
    92         16
    93          6
    95          1
    96          0
    97          0
    98          0
    99          0
   100          0
   103         86
   104         48
   105         63
   106        201
   107         11
   108          1
   109          0
   111          0
   112          0
   115         23
   116         15
   118        143
   119         15
   120          9
   121         10
   122          1
   123          0
   124          0
   125          0
   127         21
   128         75
   129         24
   130         43
   131         19
   132          7
   133          1
   134          0
   135          0
   136          0
   137          1
   138          1
   139          1
   141         15
   142         13
   143         23
   144         27
   145          5
   146          1
   148          1
   149         11
   150          4
   151         10
   152          9
   154          6
   155          8
   156         17
   157          3
   158          0
   159          3
   160          3
   162          0
   163          0
   164          0
   165          3
   166          0
   167          0
   169         11
   171        404
   172         46
   174         17
   176          1
   177          0
   178          4
   179          0
   180          0
   181          0
   182          0
   183          0
   184          0
   185          0
   186          1
   187          3
   188          0
   190          0
   191          0
   192          0
   193          0
   195          0
   199        733
   200         88
   201          4
   203          0
   204          2
   205          1
   206          1
   207          0
   208          0
   209          0
   211          0
   212          0
   213          0
   214          0
   215          0
   216          0
   217          0
   218          0
   219          0
   220          0
   228          0
   229          0
   230          0
   231          1
   232          2
   233          1
   234          0
   241          0
   242          0
   243          0
   245          1
   246          2
   247          4
   248          2
   249          0
   250          0
   251          0
   258          0
   259          0
   260          0
   262          0
   271          0
   273          1
   274          2
   275         29
   276          6
   277          1
   278          0
   279          0
   291         14
   292          3
   293          0
   301          0
   303         33
   304          6
   305          1
   306          0
   319          9
   320          4
   321          0
   333          0
   345          0
   348        381
   349         82
   350          9
   351          0