##TITLE=Library Entry 69394
##JCAMP-DX=Revision 4.10 
##DATA TYPE=MASS SPECTRUM
##SAMPLE DESCRIPTION=L.Muller ET.AL.J.Agric.Food Chem.,46,3172(1998)
##NAMES=HP
##CAS NAME=1H-Imidazole, 1,4-dimethyl-
##MOLFORM=C5H8N2
##CAS REGISTRY NO=6338-45-0
##MP= -300
##BP= -300
##MW= 96
##$RETENTION INDEX=979
##$CONDENSED SPECTRUM=NO
##NPOINTS= 23
##XYDATA=(XY..XY) 1 
    41        151
    42        415
    44         15
    51         17
    52         44
    53         19
    54        186
    55         46
    56          9
    65          5
    66         38
    67         20
    68        444
    69         29
    79          7
    81        184
    82         31
    83          9
    91          7
    93          7
    95        787
    96        999
    97         59