##TITLE=Library Entry 11074
##JCAMP-DX=Revision 4.10 
##DATA TYPE=MASS SPECTRUM
##SAMPLE DESCRIPTION=NIST Mass Spectrometry Data Center, 1994
##NAMES=HP
##CAS NAME=Ethyl 2-cyanoacetoacetate
##MOLFORM=C7H9NO3
##CAS REGISTRY NO=634-55-9
##MP= -300
##BP= -300
##MW= 155
##$RETENTION INDEX=0
##$CONDENSED SPECTRUM=NO
##NPOINTS= 68
##XYDATA=(XY..XY) 1 
    12          5
    13          4
    14         23
    15         95
    16          5
    17          0
    18          0
    19          3
    24          2
    25          8
    26         61
    27        224
    28         80
    29        269
    30         16
    31         38
    32          1
    37         20
    38         38
    39         32
    40         44
    41         21
    42          1
    43        999
    44         37
    45         50
    46          5
    50          4
    51         16
    52         50
    53         39
    54         61
    55         16
    56         16
    61         57
    62          4
    63          8
    64         12
    65         11
    66         18
    67         38
    68        162
    69         29
    70          3
    72          3
    78          2
    80          9
    81         17
    83         82
    84         12
    85         37
    94          9
    95          6
    96         16
    97          3
    98          5
    99          8
   109        285
   110         55
   111         19
   112        101
   113          6
   127        276
   128         16
   137          5
   140         12
   155        172
   156         12