##TITLE=Library Entry 81949
##JCAMP-DX=Revision 4.10 
##DATA TYPE=MASS SPECTRUM
##SAMPLE DESCRIPTION=Japan AIST/NIMC Database- Spectrum MS-IW-4268
##NAMES=HP
##CAS NAME=Benzamide, N-1-naphthalenyl-
##MOLFORM=C17H13NO
##CAS REGISTRY NO=634-42-4
##MP= -300
##BP= -300
##MW= 247
##$RETENTION INDEX=0
##$CONDENSED SPECTRUM=NO
##NPOINTS= 75
##XYDATA=(XY..XY) 1 
    27          2
    28          1
    38          1
    39          6
    41          1
    50          9
    51         40
    52          3
    57          1
    62          3
    63          9
    64          2
    65          4
    71          1
    74          5
    75          7
    76         10
    77        344
    78         24
    79          1
    86          1
    87          4
    88          6
    89         10
    90          1
    98          1
    99          1
   100          6
   101          6
   102          1
   103          2
   104          4
   105        999
   106         81
   107          5
   113          7
   114         17
   115         65
   116          9
   125          1
   126          5
   127          6
   128          2
   140          9
   141          3
   142          3
   143         11
   144         67
   145          7
   153          1
   154          1
   169          2
   176          1
   189          1
   190          1
   200          4
   201          7
   202          9
   203          2
   211          1
   216          2
   217          4
   218          1
   225          1
   226          2
   227         11
   228         37
   229         83
   230         18
   231          4
   245          1
   246          3
   247        468
   248         89
   249          9