##TITLE=Library Entry 88302
##JCAMP-DX=Revision 4.10 
##DATA TYPE=MASS SPECTRUM
##SAMPLE DESCRIPTION=NIST Mass Spectrometry Data Center, 1994
##NAMES=HP
##CAS NAME=1H-Pyrrole-2-carboxylic acid
##MOLFORM=C5H5NO2
##CAS REGISTRY NO=634-97-9
##MP= -300
##BP= -300
##MW= 111
##$RETENTION INDEX=0
##$CONDENSED SPECTRUM=NO
##NPOINTS= 40
##XYDATA=(XY..XY) 1 
    12          4
    14         12
    16          2
    17          3
    18          4
    25          8
    26         23
    28        190
    29         27
    32          9
    36         16
    37         97
    38        210
    39        305
    40         83
    41         35
    44         11
    45         51
    47          9
    49          5
    50          5
    51          8
    52         15
    53         18
    54         16
    55         28
    62          6
    63         13
    64         62
    65        346
    66        233
    67         17
    82         11
    83          9
    93        839
    94        214
    95         15
   111        999
   112         66
   113          6