##TITLE=Library Entry 27678
##JCAMP-DX=Revision 4.10 
##DATA TYPE=MASS SPECTRUM
##SAMPLE DESCRIPTION=Japan AIST/NIMC Database- Spectrum MS-NW-4670
##NAMES=HP
##CAS NAME=Urea, N,N-diethyl-
##MOLFORM=C5H12N2O
##CAS REGISTRY NO=634-95-7
##MP= -300
##BP= -300
##MW= 116
##$RETENTION INDEX=0
##$CONDENSED SPECTRUM=NO
##NPOINTS= 48
##XYDATA=(XY..XY) 1 
    12          1
    14          3
    15         34
    16          7
    17          4
    18         17
    25          1
    26         17
    27        109
    28        100
    29        165
    30        497
    31          8
    38          2
    39          4
    40         10
    41         23
    42         91
    43         56
    44        344
    45          9
    46          1
    50          1
    52          1
    53          1
    54          5
    55         17
    56         48
    57         11
    58        999
    59         39
    68          1
    69          2
    70          9
    71          4
    72         92
    73         47
    74          2
    83          4
    87         41
    88          9
    98          4
   100          5
   101        243
   102         12
   116        232
   117         16
   118          1