##TITLE=Library Entry 53826
##JCAMP-DX=Revision 4.10 
##DATA TYPE=MASS SPECTRUM
##SAMPLE DESCRIPTION=G.Spiteller, Monantsh Chem., 96,104(1965)
##NAMES=HP
##CAS NAME=Conhydrin
##MOLFORM=C8H17NO
##CAS REGISTRY NO=63401-12-7
##MP= -300
##BP= -300
##MW= 143
##$RETENTION INDEX=0
##$CONDENSED SPECTRUM=NO
##NPOINTS= 14
##XYDATA=(XY..XY) 1 
    41         47
    42         18
    43         20
    55         50
    56        106
    57         21
    67         11
    68         10
    69         10
    84        999
    85         64
    96         11
   114         18
   143          6