##TITLE=Library Entry 13024
##JCAMP-DX=Revision 4.10 
##DATA TYPE=MASS SPECTRUM
##SAMPLE DESCRIPTION=Japan AIST/NIMC Database- Spectrum MS-IW-5943
##NAMES=HP
##CAS NAME=1-Acetyl-5,5-dimethyl-2,4-dioxoimidazolidine
##MOLFORM=C7H10N2O3
##CAS REGISTRY NO=6341-67-9
##MP= -300
##BP= -300
##MW= 170
##$RETENTION INDEX=0
##$CONDENSED SPECTRUM=NO
##NPOINTS= 72
##XYDATA=(XY..XY) 1 
    14          8
    15         92
    16          2
    26          7
    27         22
    28         59
    29         21
    30         14
    31          1
    32          1
    37          2
    38          7
    39         59
    40         32
    41        112
    42        488
    43        999
    44         60
    45          4
    46          1
    51          1
    52          4
    53          3
    54          9
    55          9
    56         85
    57        574
    58         57
    59          8
    60          2
    67          3
    68         24
    69         64
    70         69
    71         18
    72          2
    73          3
    82          8
    83          9
    84        433
    85         39
    86         45
    87          3
    95          3
    98          4
    99         57
   100        121
   101         18
   102          1
   109          2
   110         17
   111          5
   112          7
   113        767
   114         42
   115          4
   126          5
   127        518
   128        546
   129        222
   130         13
   131          1
   141          3
   142        101
   143          8
   155        121
   156          9
   157          1
   169          1
   170        958
   171        101
   172         10