##TITLE=Library Entry 61824
##JCAMP-DX=Revision 4.10 
##DATA TYPE=MASS SPECTRUM
##SAMPLE DESCRIPTION=NIST Mass Spectrometry Data Center
##NAMES=HP
##CAS NAME=3-(2-Methoxyphenyl)propionic acid
##MOLFORM=C10H12O3
##CAS REGISTRY NO=6342-77-4
##MP= -300
##BP= -300
##MW= 180
##$RETENTION INDEX=0
##$CONDENSED SPECTRUM=NO
##NPOINTS= 87
##XYDATA=(XY..XY) 1 
    12          3
    14         14
    15        109
    17          1
    18          2
    27         25
    28          1
    30          8
    37         15
    38         56
    39        241
    40         27
    41         31
    42         29
    45        126
    47          1
    50        102
    51        234
    52         77
    53         53
    54          9
    55         39
    56          2
    60          2
    61         12
    62         47
    63        136
    64         55
    65        257
    66         34
    67         10
    68          5
    69          3
    73          1
    75         29
    77        299
    78        130
    79         81
    80          8
    81          6
    82          2
    83          2
    85          2
    86          7
    87          6
    89         64
    91        999
    92        108
    93        126
    94         21
    95         13
    97          1
    98          2
   101          8
   102         27
   103         72
   104         20
   105         62
   106         10
   107         43
   108         39
   109          7
   115          3
   116          2
   119        170
   121        704
   122         69
   123         22
   124          2
   131          7
   134        198
   135         42
   136          5
   137          6
   147         11
   148          2
   149          2
   161          2
   163          2
   165          2
   166          6
   174          1
   176          1
   177          1
   180        300
   181         33
   182          5