##TITLE=Library Entry 56011
##JCAMP-DX=Revision 4.10 
##DATA TYPE=MASS SPECTRUM
##SAMPLE DESCRIPTION=NIST Mass Spectrometry Data Center, 1994
##NAMES=HP
##CAS NAME=3-Diethylamino-2,2-dimethylpropionaldehyde
##MOLFORM=C9H19NO
##CAS REGISTRY NO=6343-47-1
##MP= -300
##BP= -300
##MW= 157
##$RETENTION INDEX=0
##$CONDENSED SPECTRUM=NO
##NPOINTS= 74
##XYDATA=(XY..XY) 1 
    12          0
    14          4
    15         29
    18         11
    19          0
    27        119
    28         98
    29        214
    30        243
    31          6
    36          0
    37          1
    39         51
    41         92
    42        124
    43         34
    44         40
    45          3
    46          0
    48          0
    49          0
    50          1
    51          2
    52          2
    53          9
    54         14
    55         42
    56         74
    57         44
    58        261
    59          9
    60          0
    65          0
    66          0
    67          2
    68          5
    69          5
    70         17
    71         13
    72         64
    73         11
    74          3
    77          0
    79          0
    80          1
    81          1
    82          5
    84         13
    86        999
    87         65
    88          2
    94          0
    95          0
    96          1
    98         11
    99          3
   100          2
   101          1
   102          3
   110          0
   112          7
   113          2
   114          1
   124          0
   126          2
   127          1
   128          6
   129          5
   130          0
   140          1
   142          6
   143          0
   156          1
   157          1