##TITLE=Library Entry 27738
##JCAMP-DX=Revision 4.10 
##DATA TYPE=MASS SPECTRUM
##SAMPLE DESCRIPTION=Japan AIST/NIMC Database- Spectrum MS-NW-1072
##NAMES=HP
##CAS NAME=1-Methoxy-2-aminobutane
##MOLFORM=C5H13NO
##CAS REGISTRY NO=63448-63-5
##MP= -300
##BP= -300
##MW= 103
##$RETENTION INDEX=0
##$CONDENSED SPECTRUM=NO
##NPOINTS= 45
##XYDATA=(XY..XY) 1 
    14          2
    15         27
    16          1
    17          5
    18         18
    26          4
    27         26
    28         40
    29         20
    30        113
    31         27
    32          5
    33          4
    38          2
    39         15
    40          4
    41        206
    42         76
    43         50
    44         63
    45         68
    46          3
    47          8
    51          1
    52          1
    53          7
    54          5
    55         10
    56         36
    57         12
    58        999
    59         69
    60          2
    67          2
    68          4
    69          1
    70          9
    71         14
    72          8
    73         17
    74        130
    75         11
    85          3
    86          4
   102          1