##TITLE=Library Entry 83320
##JCAMP-DX=Revision 4.10 
##DATA TYPE=MASS SPECTRUM
##SAMPLE DESCRIPTION=A.A.Kutin, Moscow, Russia
##NAMES=HP
##CAS NAME=Thianthrene, 2,3,7,8-tetrabromo-
##MOLFORM=C12H4Br4S2
##CAS REGISTRY NO=63459-67-6
##MP= -300
##BP= -300
##MW= 528
##$RETENTION INDEX=0
##$CONDENSED SPECTRUM=NO
##NPOINTS= 311
##XYDATA=(XY..XY) 1 
    33          5
    34          5
    36         10
    37         78
    38         40
    39         18
    40         46
    41         10
    42          1
    43         12
    44         52
    45         99
    46          3
    47          4
    48          5
    49         30
    50         58
    51         11
    53         10
    55          7
    56          7
    57         29
    58          6
    59          9
    60         23
    61        200
    62        413
    63        101
    64         11
    65          5
    66          2
    67         10
    68         41
    69        392
    70         25
    71         34
    73        143
    74        350
    75         49
    76          8
    77         10
    79         46
    80         80
    81        134
    82         76
    83         28
    84         48
    85         51
    86         42
    87         36
    88         59
    89         13
    90         30
    91         28
    92         58
    93        323
    94        111
    95         52
    96         11
    97         12
    98         32
    99         17
   100         12
   101          8
   103          3
   104         38
   105        229
   106        999
   107        158
   108         30
   109         13
   110         24
   111         23
   112         23
   113          8
   114          2
   115          5
   116         21
   117         83
   118         46
   119         34
   120          9
   121          7
   122         21
   123         56
   124         65
   125         50
   126          4
   127          4
   128         10
   129         18
   130         37
   131         21
   132          8
   133         10
   134         12
   135         22
   136         36
   137         43
   138        139
   139         32
   140         28
   141         51
   142         25
   143         60
   144         16
   145        126
   146        279
   147        196
   148         31
   149         25
   150          6
   151         14
   152         18
   153         19
   154         21
   155         17
   156          6
   157          0
   158          1
   159          6
   160          9
   161         11
   162         24
   163         16
   164         15
   165         19
   166         12
   167         78
   168        188
   169        148
   170         51
   171         28
   172          5
   173         24
   174          7
   175         63
   176         13
   177         10
   178          8
   179          8
   180         61
   181         15
   182          6
   183          6
   184         18
   185        270
   186        470
   187        308
   188         57
   189          6
   190          1
   191          2
   193          1
   195          3
   196          0
   197         19
   198          6
   199         17
   200          4
   201          2
   202          6
   203         10
   204         12
   205          3
   208          6
   210         31
   211         80
   212        703
   213        169
   214         77
   215         24
   216         10
   217         35
   218         10
   219         26
   220          5
   221          5
   222          5
   223          5
   224         28
   225        138
   226        113
   227         51
   228         12
   229          2
   230          1
   231          5
   232          3
   233          2
   234          2
   236          3
   237          1
   241          5
   242          2
   243          5
   244          2
   245          3
   246          9
   247         50
   248         21
   249         51
   250         15
   251          7
   252          4
   253          2
   254          4
   255          3
   256          3
   257          0
   258          7
   259         10
   260         19
   261         13
   262         14
   264         26
   265         50
   266         83
   267         60
   268         21
   276          1
   277          0
   278          3
   279          2
   280          2
   282          1
   284          1
   290         55
   291        106
   292        185
   293        126
   294        143
   295         32
   296         16
   297          6
   298          3
   301          1
   303          4
   304          1
   305          5
   306          3
   307          1
   308          0
   309          2
   311          3
   324          1
   325          9
   326          6
   327         21
   328         10
   329         20
   330          6
   331          7
   332          1
   333          1
   335          3
   338         33
   339         12
   340         52
   341         13
   342         26
   343          5
   367          3
   370        396
   371        172
   372        704
   373        275
   374        400
   375        144
   376         46
   377         12
   378          1
   405          2
   407          6
   409          6
   411          3
   417          3
   418          6
   419          9
   420         10
   421          9
   422          9
   423          4
   424          2
   447         25
   449        190
   450        141
   451        514
   452        291
   453        534
   454        266
   455        229
   456        116
   458          6
   495          3
   497         15
   499         22
   501         16
   502          1
   503          2
   525          1
   527        158
   529        579
   531        873
   532        156
   533        524
   534         93
   535        150
   536         23
   537         10
   538          1