##TITLE=Library Entry 61731
##JCAMP-DX=Revision 4.10 
##DATA TYPE=MASS SPECTRUM
##SAMPLE DESCRIPTION=CHBEAM,112( )577(1979); H.-D. SCHARF ET AL
##NAMES=HP
##CAS NAME=Cyclopropa[3,4]pentaleno[1,2-d][1,3]dioxole, 2a,2b,2c,5a,5b,5c-he
xahydro-4,4-dimethyl-, (2a.alpha.,2b.alpha.,2c.alpha.,5a.alpha.,5b.alpha.,5c
.alpha.)-
##MOLFORM=C11H14O2
##CAS REGISTRY NO=63456-13-3
##MP= -300
##BP= -300
##MW= 178
##$RETENTION INDEX=0
##$CONDENSED SPECTRUM=NO
##NPOINTS= 14
##XYDATA=(XY..XY) 1 
    39        150
    43        270
    51         50
    52         30
    55        150
    65        150
    78         60
    85        160
    91        999
   100         70
   103        190
   120        530
   163         16
   178          8