##TITLE=Library Entry 32196
##JCAMP-DX=Revision 4.10 
##DATA TYPE=MASS SPECTRUM
##SAMPLE DESCRIPTION=Chemical Concepts
##NAMES=HP
##CAS NAME=2,5-Cyclohexadiene-1,4-diol
##MOLFORM=C6H8O2
##CAS REGISTRY NO=63453-92-9
##MP= -300
##BP= -300
##MW= 112
##$RETENTION INDEX=0
##$CONDENSED SPECTRUM=NO
##NPOINTS= 72
##XYDATA=(XY..XY) 1 
    25          9
    26         63
    27        312
    28        122
    29        220
    30         18
    31        103
    33          2
    36          7
    37         51
    38        124
    39        575
    40        256
    41        138
    42         54
    43        131
    44          3
    45         10
    46         13
    47        111
    48          5
    49         23
    50        133
    51        175
    52         95
    53        186
    54         35
    55        332
    56         28
    57         54
    58          5
    59          0
    60          7
    61         17
    62         34
    63         91
    64         45
    65        360
    66        999
    67        131
    68        450
    69         46
    70         10
    71         17
    72          3
    73          9
    74         29
    75         19
    76         20
    77        129
    78        291
    79         42
    80          4
    81        144
    82         39
    83        601
    84         44
    85          4
    91          2
    92          4
    93         40
    94        651
    95         84
    96          7
    97         30
   103          5
   109          3
   110         37
   111         17
   112        530
   113         42
   114          4