##TITLE=Library Entry 12553
##JCAMP-DX=Revision 4.10 
##DATA TYPE=MASS SPECTRUM
##SAMPLE DESCRIPTION=Japan AIST/NIMC Database- Spectrum MS-IW-6582
##NAMES=HP
##CAS NAME=2-Nitrotoluene-.alpha.,.alpha.-diol diacetate
##MOLFORM=C11H11NO6
##CAS REGISTRY NO=6345-63-7
##MP= -300
##BP= -300
##MW= 253
##$RETENTION INDEX=0
##$CONDENSED SPECTRUM=NO
##NPOINTS= 78
##XYDATA=(XY..XY) 1 
    14          3
    15         27
    27          7
    28          5
    29          1
    30         10
    37          2
    38          5
    39         29
    40          1
    41          3
    42         19
    43        999
    44         32
    45          8
    49          1
    50         47
    51         95
    52         15
    53          5
    60          4
    61          3
    62          3
    63          9
    64          9
    65        104
    66          7
    67          1
    73          1
    74         12
    75         14
    76         78
    77         67
    78         15
    79         14
    80          2
    87          1
    89          1
    90          2
    91          9
    92          7
    93        126
    94          9
    95          8
   103          3
   104         92
   105         24
   106          5
   107          7
   108          1
   119          2
   120          2
   121        311
   122         28
   123        151
   124         12
   125          1
   133          1
   134         30
   135         15
   136          2
   137          1
   145          1
   150         38
   151        340
   152        198
   153         18
   154          2
   165        243
   166         24
   167          2
   194         87
   195          8
   196          1
   207        104
   208         12
   209          1
   253          1