##TITLE=Library Entry 55259
##JCAMP-DX=Revision 4.10 
##DATA TYPE=MASS SPECTRUM
##SAMPLE DESCRIPTION=CHBEAM,112( )577(1979); H.-D. SCHARF ET AL
##NAMES=HP
##CAS NAME=Benzo[3,4]cyclobuta[1,2-d]-1,3-dioxole, 3a,3b,7a,7b-tetrahydro-2,
2-dimethyl-, (3a.alpha.,3b.beta.,7a.beta.,7b.alpha.)-
##MOLFORM=C11H14O2
##CAS REGISTRY NO=63456-12-2
##MP= -300
##BP= -300
##MW= 178
##$RETENTION INDEX=0
##$CONDENSED SPECTRUM=NO
##NPOINTS= 15
##XYDATA=(XY..XY) 1 
    39        220
    41        200
    43        410
    51         80
    52         50
    60        200
    65        160
    78         90
    85        999
    91        780
   100        480
   103         90
   120        110
   163         70
   178         13