##TITLE=Library Entry 5789
##JCAMP-DX=Revision 4.10 
##DATA TYPE=MASS SPECTRUM
##SAMPLE DESCRIPTION=NIST Mass Spectrometry Data Center, 1994
##NAMES=HP
##CAS NAME=p-Pentyloxynitrobenzene
##MOLFORM=C11H15NO3
##CAS REGISTRY NO=63469-11-4
##MP= -300
##BP= -300
##MW= 209
##$RETENTION INDEX=1732
##$CONDENSED SPECTRUM=NO
##NPOINTS= 96
##XYDATA=(XY..XY) 1 
     4          3
    12          1
    14          2
    15         16
    16          0
    17          0
    18          5
    26         25
    27        281
    28         61
    29        386
    30        135
    37          8
    38         52
    39        232
    40         32
    41        397
    42        194
    43        999
    44         32
    46          6
    50         83
    51         32
    52         21
    53         45
    54          6
    55        247
    56         12
    57          1
    61          5
    62         25
    63        104
    64         80
    65        117
    66         16
    67          8
    68          1
    69        105
    70        281
    71        120
    72          6
    73          1
    74         18
    75         55
    76         78
    77         18
    78         15
    79         10
    80         10
    81         42
    82          4
    89          2
    90          2
    91         14
    92         29
    93         58
    94         12
    95          1
    96          1
   103          1
   104          0
   105          3
   106         14
   107         15
   108          0
   109        189
   110         14
   115          1
   118          1
   119          6
   120          1
   122         25
   123         92
   124         60
   125          4
   131          1
   133          3
   134          1
   135          1
   136          1
   139        220
   140        171
   141         31
   142          3
   148          1
   149          1
   152         23
   153          1
   163          1
   166          1
   179          2
   180          1
   193          3
   209        109
   210         14
   211          1