##TITLE=Library Entry 16426
##JCAMP-DX=Revision 4.10 
##DATA TYPE=MASS SPECTRUM
##SAMPLE DESCRIPTION=LAC, NIDDK, NIH, Bethesda, MD 20892
##NAMES=HP
##CAS NAME=Phenol, 2-[(N,N-dimethylamino)methyl]-3,5-dimethyl-
##MOLFORM=C11H17NO
##CAS REGISTRY NO=63487-28-5
##MP= -300
##BP= -300
##MW= 179
##$RETENTION INDEX=0
##$CONDENSED SPECTRUM=NO
##NPOINTS= 102
##XYDATA=(XY..XY) 1 
    41         62
    42        140
    43         45
    44        999
    45        187
    46         90
    47         11
    50         13
    51         46
    52         22
    53         47
    54          6
    55         23
    56          7
    57         21
    58        223
    59         10
    60          3
    61          2
    62          5
    63         23
    64         10
    65         72
    66         17
    67         26
    68          4
    69          5
    70          2
    71          3
    72          6
    73          5
    74          5
    75          9
    76          6
    77         97
    78         31
    79         78
    80         12
    81          6
    82          9
    83          2
    84          1
    85          1
    86          1
    87          2
    89         34
    90          7
    91         65
    92          7
    93          8
    94          5
    95          2
    96          1
    97          0
    98          0
   101          2
   102          6
   103         26
   104         11
   105         65
   106         85
   107         28
   108          5
   109          1
   111          0
   115         16
   116          6
   117          7
   118          9
   119         11
   120          9
   121         25
   122          5
   123          2
   124          0
   128          1
   129          0
   130          4
   131          4
   132          6
   133         25
   134        455
   135        518
   136         81
   137          6
   144          2
   145          2
   146          7
   147          9
   148         28
   149          4
   150          1
   161          1
   162         13
   163          5
   164         15
   165          2
   177          4
   178         47
   179        542
   180         69
   181          5