##TITLE=Library Entry 77119
##JCAMP-DX=Revision 4.10 
##DATA TYPE=MASS SPECTRUM
##SAMPLE DESCRIPTION=Japan AIST/NIMC Database- Spectrum MS-NW-2304
##NAMES=HP
##CAS NAME=Butanedioic acid, phenyl-
##MOLFORM=C10H10O4
##CAS REGISTRY NO=635-51-8
##MP= -300
##BP= -300
##MW= 194
##$RETENTION INDEX=0
##$CONDENSED SPECTRUM=NO
##NPOINTS= 110
##XYDATA=(XY..XY) 1 
    12          6
    13          1
    15          2
    17          8
    18         11
    24          1
    25          4
    26         26
    27         40
    28         11
    29         12
    30          1
    36          1
    37          8
    38         15
    39         52
    40          4
    41         10
    42          9
    43         12
    44         56
    45         22
    46          1
    49          8
    50         59
    51        156
    52         53
    53          9
    54          2
    55          8
    56          2
    57          6
    58          1
    60          2
    61          9
    62         18
    63         41
    64          9
    65         17
    66          8
    67          3
    68          2
    69          3
    70          2
    71          3
    73          4
    74         19
    75         18
    76         28
    77        164
    78        177
    79        102
    80          7
    81          2
    82          6
    83          3
    84          2
    85          3
    86          3
    87          5
    88          1
    89         21
    90         16
    91        161
    92         13
    93          2
    94          2
    95          3
    96          2
    97          2
    98          2
    99          1
   101          4
   102         60
   103        223
   104        999
   105        125
   106         10
   107        109
   108         10
   109          2
   110          1
   111          1
   115          5
   116          4
   117          1
   118         11
   119          2
   120          3
   122          2
   123          5
   124          1
   125          1
   127          1
   129          2
   130          3
   131         10
   132          9
   133          2
   135          1
   147          6
   148        157
   149         18
   150         78
   151          9
   174          3
   176         93
   177         12
   178          1
   194          3