##TITLE=Library Entry 797
##JCAMP-DX=Revision 4.10 
##DATA TYPE=MASS SPECTRUM
##SAMPLE DESCRIPTION=Japan AIST/NIMC Database- Spectrum MS-NW-5820
##NAMES=HP
##CAS NAME=Tetraethyl 1,1,2,3-propanetetracarboxylate
##MOLFORM=C15H24O8
##CAS REGISTRY NO=635-03-0
##MP= -300
##BP= -300
##MW= 332
##$RETENTION INDEX=0
##$CONDENSED SPECTRUM=NO
##NPOINTS= 260
##XYDATA=(XY..XY) 1 
    12          1
    14          7
    15         19
    16          4
    17          3
    18         10
    25          3
    26         27
    27        211
    28         73
    29        999
    30         24
    31         63
    32         10
    36          4
    37          3
    38          6
    39         72
    40         30
    41         83
    42         49
    43         68
    44         44
    45         79
    46          8
    47         13
    48          1
    50          1
    51          1
    53         13
    54          7
    55         76
    56          7
    57         40
    58          9
    59          6
    60         13
    61          9
    63          1
    64          1
    65          2
    66          5
    67         12
    68         94
    69         32
    70          8
    71         43
    72          5
    73         30
    74          2
    75          5
    76          1
    77          1
    78          1
    79          1
    80          1
    81          9
    82          5
    83         19
    84         61
    85        209
    86        127
    87         26
    88         40
    89         15
    90          2
    91          2
    92          1
    93          2
    94          3
    95         54
    96          6
    97          5
    98          2
    99        142
   100         16
   101         26
   102          4
   103          7
   104         12
   105         10
   106          1
   107          1
   108          1
   109          1
   110          2
   111         34
   112        118
   113        393
   114         84
   115         25
   116         11
   117         16
   118          2
   119          1
   121          1
   122          3
   123          4
   124          2
   125         11
   126          4
   127        112
   128         19
   129         36
   130          9
   131          7
   132         51
   133         59
   134          5
   135          1
   136          1
   137          2
   138         22
   139        417
   140        263
   141        313
   142         34
   143         35
   144          4
   145         30
   146          4
   147          1
   148          1
   149          1
   150          2
   151          1
   152          1
   153          3
   154          2
   155          4
   156         69
   157         76
   158         25
   159         11
   160        310
   161         28
   162          5
   163          1
   164          1
   165         13
   166         10
   167        850
   168        108
   169         31
   170          5
   171         17
   172          3
   173        112
   174         17
   175          5
   176          2
   177          1
   178          1
   179          1
   180          1
   181          1
   182          1
   183          9
   184        132
   185        230
   186        132
   187         43
   188          9
   189          3
   190          1
   191          1
   193          1
   194         17
   195          4
   196          2
   197          2
   198          3
   199         14
   200          4
   201          7
   202          2
   203         11
   204          2
   205          1
   206          1
   207          1
   208          2
   209          1
   210          1
   211         36
   212        360
   213        690
   214        145
   215         62
   216          9
   217          3
   218          2
   221          1
   222          1
   223          1
   224          2
   226          2
   227          3
   228          1
   229          4
   230          3
   231         63
   232         10
   233          4
   234          3
   235          3
   236          2
   237          2
   238          2
   239          5
   240        354
   241        264
   242         37
   243          8
   244          1
   245          7
   246          1
   247          1
   248          1
   249          1
   250          1
   251          1
   253          1
   254          6
   255          2
   256          1
   257         11
   258         20
   259        446
   260         75
   261         13
   262          2
   264          1
   265          1
   266          1
   267          1
   268          1
   270          1
   271          1
   272          1
   273          5
   274          2
   277          1
   279          1
   281          1
   283          1
   284          1
   285          2
   286         60
   287        212
   288         33
   289          7
   290          1
   300          3
   301          2
   303          1
   304          1
   305          3
   314          1
   332          1