##TITLE=Library Entry 22523
##JCAMP-DX=Revision 4.10 
##DATA TYPE=MASS SPECTRUM
##SAMPLE DESCRIPTION=V.Zaikin,Topchiev Inst.Petrochem.Synth.,Moscow
##NAMES=HP
##CAS NAME=3-Chloropropionic acid, octyl ester
##MOLFORM=C11H21ClO2
##CAS REGISTRY NO=63505-50-0
##MP= -300
##BP= -300
##MW= 220
##$RETENTION INDEX=1494
##$CONDENSED SPECTRUM=NO
##NPOINTS= 83
##XYDATA=(XY..XY) 1 
    27        264
    28        113
    29        591
    30         23
    31         37
    35          3
    36          8
    37          5
    38         13
    39        241
    40         47
    41        853
    42        548
    43        806
    44         53
    45         28
    46          3
    49         15
    50          8
    51         12
    52         15
    53         56
    54        110
    55        965
    56        999
    57        406
    58         18
    60          5
    61         14
    62         17
    63        609
    64         26
    65        183
    66         17
    67         34
    68        200
    69        686
    70        969
    71        196
    72          6
    73         67
    75          4
    77          9
    80          6
    81         18
    82        123
    83        601
    84        656
    85         52
    87          9
    89          2
    90          3
    91        675
    92         23
    93        260
    94          3
    95          7
    96         10
    97         68
    98         12
   101          9
   104          2
   106          9
   108         12
   109        450
   110         23
   111        176
   112        283
   113         29
   119          7
   121         15
   122          5
   123          5
   127         16
   129         25
   135          9
   137          3
   148          4
   149         15
   150          2
   151          5
   157          7
   185          2