##TITLE=Library Entry 22227
##JCAMP-DX=Revision 4.10 
##DATA TYPE=MASS SPECTRUM
##SAMPLE DESCRIPTION=V.Zaikin,Topchiev Inst.Petrochem.Synth.,Moscow
##NAMES=HP
##CAS NAME=3-Chloropropionic acid, hexyl ester
##MOLFORM=C9H17ClO2
##CAS REGISTRY NO=63505-49-7
##MP= -300
##BP= -300
##MW= 192
##$RETENTION INDEX=1293
##$CONDENSED SPECTRUM=NO
##NPOINTS= 64
##XYDATA=(XY..XY) 1 
    27        110
    28         75
    29        216
    30          5
    31         22
    36          4
    37          8
    38          8
    39        123
    40         29
    41        403
    42        380
    43        618
    44         41
    45         14
    48          3
    49         13
    50          5
    51         14
    53         12
    54         38
    55        419
    56        999
    57         92
    58          3
    59          2
    61          6
    62         16
    63        318
    64         12
    65        105
    66          3
    67         18
    68         15
    69        293
    70         28
    71         14
    72          4
    73         42
    81          3
    82          9
    83         52
    84        419
    85         89
    87          3
    90          4
    91        460
    92         12
    93        153
    94          5
    99          6
   101          6
   102          3
   106          6
   108         12
   109        237
   110         11
   111         80
   121         19
   123          6
   135         12
   137          4
   149          7
   151          2