##TITLE=Library Entry 28336
##JCAMP-DX=Revision 4.10 
##DATA TYPE=MASS SPECTRUM
##SAMPLE DESCRIPTION=Chemical Concepts
##NAMES=HP
##CAS NAME=1,3-Dioxan-4-ol, 2,6-diethyl-5-methyl-
##MOLFORM=C9H18O3
##CAS REGISTRY NO=63512-35-6
##MP= -300
##BP= -300
##MW= 174
##$RETENTION INDEX=0
##$CONDENSED SPECTRUM=NO
##NPOINTS= 77
##XYDATA=(XY..XY) 1 
    26        120
    27        514
    28        272
    29        719
    30         87
    31        462
    33          0
    36          2
    37         14
    38         21
    39        191
    40         42
    41        512
    42        277
    43        614
    44         19
    45         53
    46          1
    47         47
    48          1
    49          0
    50          4
    51          8
    52          3
    53         33
    54         17
    55        553
    56         42
    57        557
    58        999
    59        589
    60         21
    61          2
    62          0
    63          1
    65          4
    66          1
    67         11
    68          6
    69         65
    70        955
    71        108
    72          6
    73          3
    74          0
    75         52
    76          1
    77          2
    79          5
    80          0
    81         26
    82          2
    83         11
    84          0
    85          5
    86          4
    87         74
    88          2
    97          5
    98         16
    99        259
   100         17
   101          2
   105         20
   106          0
   110         21
   111          1
   115          7
   116         26
   117          6
   128          2
   145         31
   146          2
   155          2
   157          1
   173         11
   174          0