##TITLE=Library Entry 64653
##JCAMP-DX=Revision 4.10 
##DATA TYPE=MASS SPECTRUM
##SAMPLE DESCRIPTION=A.A.Kutin, Moscow, Russia
##NAMES=HP
##CAS NAME=Di(1,2,3-triazolo[4,5-a:4,5-c])benzene, 5-methyl-2,7-diphenyl-
##MOLFORM=C19H14N6
##CAS REGISTRY NO=63517-77-1
##MP= -300
##BP= -300
##MW= 326
##$RETENTION INDEX=0
##$CONDENSED SPECTRUM=NO
##NPOINTS= 208
##XYDATA=(XY..XY) 1 
    36          0
    37          8
    38         30
    39         57
    40         18
    41         34
    42          2
    44          2
    45          0
    46          0
    47          0
    50         84
    51        241
    52         51
    53          7
    54          1
    55          1
    56          1
    57          0
    59          0
    61          5
    63        161
    64        361
    65         95
    66         10
    67          2
    68          0
    69          0
    70          0
    72          0
    74         27
    75         31
    77        361
    78         30
    79          3
    80          0
    81          0
    83          0
    85          0
    86          0
    87          3
    88          7
    89         18
    91        999
    92         61
    93          6
    94          0
    97          0
    98          0
    99          0
   100          1
   101          2
   102          4
   103          8
   104         10
   105          8
   106         11
   107          1
   109          0
   111          0
   112          1
   113          2
   114          2
   115          6
   116          3
   117          2
   118          4
   119          1
   121          5
   122          0
   123          0
   124          0
   125          0
   126          1
   127          6
   128          4
   129          3
   130          4
   131          2
   132          0
   133          0
   134          0
   137          0
   138          1
   139          5
   140          5
   141          3
   142          2
   143          1
   144          0
   145          0
   146          0
   150          0
   151          1
   152          3
   153          3
   154          2
   155          4
   156          3
   157          1
   158          0
   161          0
   163         64
   165          5
   166          3
   167          6
   168          4
   169          1
   170          0
   171          0
   177          0
   179          6
   180          3
   181          5
   182          3
   183          1
   184          0
   186          0
   187          0
   191          2
   192          6
   193          4
   194          4
   195          1
   196          1
   198          0
   203          0
   204          1
   205          1
   206          5
   207          9
   208         14
   209          3
   210          0
   211          0
   212          0
   214          0
   215          0
   216          0
   217          0
   219          1
   221          4
   222          1
   223          0
   227          0
   229          0
   230          0
   231          0
   232          1
   234         18
   235         45
   236          7
   237          0
   240          0
   241          0
   242          0
   243          0
   244          0
   245          0
   246          0
   247          1
   248          0
   249          1
   253          0
   254          0
   255          1
   256          0
   257          0
   258          0
   261          0
   266          0
   267          0
   268          2
   269          2
   270          1
   271          0
   272          0
   273          0
   274          0
   281          0
   282          1
   283          1
   284          0
   285          0
   286          3
   287          0
   295          0
   296          1
   297         11
   298          5
   299          3
   300          9
   301          1
   302          0
   310          1
   311          4
   312          1
   313          0
   320          0
   321          2
   322          5
   323          7
   325        128
   326        672
   327        151
   328         16
   329          1
   330          0