##TITLE=Library Entry 52790
##JCAMP-DX=Revision 4.10 
##DATA TYPE=MASS SPECTRUM
##SAMPLE DESCRIPTION=T. SPANDE, LBC, NIDDK, NIH, Bethesda, MD 20892
##NAMES=HP
##CAS NAME=Methyl hexahydro-1H-pyrrolizine-1-carboxylate, (1S-trans)-
##MOLFORM=C9H15NO2
##CAS REGISTRY NO=63527-06-0
##MP= -300
##BP= -300
##MW= 169
##$RETENTION INDEX=0
##$CONDENSED SPECTRUM=NO
##NPOINTS= 111
##XYDATA=(XY..XY) 1 
    41        176
    42        107
    43        144
    44         51
    45         87
    46         11
    47          1
    49          1
    50          4
    51         11
    52         11
    53         46
    54         52
    55        319
    56         65
    57         58
    58          5
    59         50
    60         69
    61          7
    63          3
    64          0
    65         10
    66          6
    67         33
    68         49
    69         83
    70         84
    71         41
    72          5
    73         18
    74         20
    75          6
    76          2
    77         14
    78          5
    79         15
    80         53
    81         39
    82        405
    83        999
    84         72
    85         24
    86          3
    87         14
    88          1
    89          0
    91          6
    92          2
    93          7
    94          9
    95          9
    96          9
    97         15
    98         11
    99         14
   100          7
   101         10
   103          5
   104          3
   105          4
   106         12
   107          5
   108         66
   109         32
   110         83
   111         16
   112          6
   113          5
   115          3
   119          0
   120          3
   121          2
   122          1
   123          3
   124          2
   125          4
   126          6
   127          4
   128          2
   129          5
   133          2
   134          1
   135          3
   136         13
   137          3
   138        145
   139         15
   140          4
   141         55
   142          5
   143          4
   147          1
   149          2
   150          3
   151          3
   152          3
   153          2
   154        119
   155         13
   156          0
   157          1
   163          1
   164          2
   165          1
   166          0
   167          5
   168         64
   169        262
   170         34
   171          5