##TITLE=Library Entry 9287
##JCAMP-DX=Revision 4.10 
##DATA TYPE=MASS SPECTRUM
##SAMPLE DESCRIPTION=Institute of Organic Chemistry, Novosibirsk, USSR 1988
##NAMES=HP
##CAS NAME=Methyl 3,4-di-O-acetyl-2-O-methyl-6-deoxy-.alpha.-D-mannopyranosi
de
##MOLFORM=C12H20O7
##CAS REGISTRY NO=63527-42-4
##MP= -300
##BP= -300
##MW= 276
##$RETENTION INDEX=0
##$CONDENSED SPECTRUM=NO
##NPOINTS= 72
##XYDATA=(XY..XY) 1 
    40          4
    41         41
    42         25
    43        999
    44         34
    45          5
    53         15
    54          6
    55         37
    56          8
    57         52
    58         23
    59         48
    60         12
    61         33
    67          7
    68         45
    69         30
    70        109
    71         91
    72         78
    73         67
    74        999
    75         63
    76          5
    81          7
    82          8
    83        149
    84         11
    85        119
    86          9
    87        399
    88        399
    89         26
    95          2
    96        135
    97         39
    98          8
    99         54
   100         29
   101         54
   102         19
   103         93
   111         28
   112         51
   113        169
   114        139
   115        109
   116        489
   117         45
   118          5
   125         65
   126          6
   127          4
   129        289
   130         30
   131          9
   141          4
   142          6
   143         37
   144          6
   156        129
   157         72
   158          6
   159          6
   172         12
   173          8
   184         19
   185          7
   189          5
   232          1
   245         37