##TITLE=Library Entry 14994
##JCAMP-DX=Revision 4.10 
##DATA TYPE=MASS SPECTRUM
##SAMPLE DESCRIPTION=OGDEN BioServices Corp., NCI, Rockville, MD 20852
##NAMES=HP
##CAS NAME=Esorubicin
##MOLFORM=C27H29NO10
##CAS REGISTRY NO=63521-85-7
##MP= -300
##BP= -300
##MW= 527
##$RETENTION INDEX=0
##$CONDENSED SPECTRUM=NO
##NPOINTS= 226
##XYDATA=(XY..XY) 1 
    41        825
    42        495
    43        999
    44        244
    45        367
    47        121
    48         62
    52        134
    53        400
    54        103
    55        345
    56        130
    57        317
    58         41
    60         36
    62         68
    63        178
    64         57
    65        276
    66        168
    67        484
    68        180
    69        375
    70        654
    71        338
    72         82
    74         41
    75         74
    76         77
    77        256
    78        189
    79        207
    80        118
    81        918
    82        163
    83        172
    87         45
    88         93
    89        106
    90         38
    91        157
    92        135
    93        264
    94        120
    95        241
    96        305
    97        617
    98        228
    99         70
   101         49
   102         63
   103         58
   104         61
   105        144
   106        161
   107        107
   108         71
   109         75
   110         63
   111        114
   112        133
   113        184
   114         42
   115        120
   116         59
   117        112
   118        103
   119        133
   120        129
   121        160
   122         52
   123         76
   124         92
   125         70
   126         53
   127         61
   128         72
   129        119
   130        135
   131         87
   132        120
   133         72
   134         58
   135         91
   137         48
   138         41
   139        113
   140         46
   141         63
   142         54
   143         69
   144        121
   145        123
   146         79
   147        125
   148         42
   149        120
   150         65
   151         80
   152        125
   153         72
   154         70
   155        121
   156         51
   157         55
   158         62
   159         57
   161         54
   162         44
   163        160
   164         75
   165        154
   166         43
   167         43
   168         51
   169         46
   170         43
   171         79
   172         64
   173         99
   174         63
   175         53
   176        116
   177         47
   178         51
   179         44
   181         91
   184         37
   185         36
   187         53
   189        105
   190         42
   191         85
   192         63
   193         47
   194         36
   197         41
   202         45
   203         70
   205         64
   209         52
   211         57
   217        270
   218         47
   219         39
   220         59
   221         83
   225         71
   233         61
   234         58
   235         35
   237         65
   238         45
   239         57
   240         53
   241         42
   245         56
   248         70
   249         85
   250         37
   253         36
   254         50
   261         66
   262         84
   263         49
   265        108
   266         71
   269         38
   270         94
   271         42
   273         43
   276         40
   277         49
   278         42
   281         69
   284        107
   285         44
   289         53
   290        119
   291        114
   292         40
   293         65
   294         88
   295         53
   296         45
   297         37
   301         59
   302         48
   303         42
   305         40
   306        109
   307         99
   308         82
   309        521
   310        179
   311         89
   313         84
   317        210
   318        319
   319        267
   320        151
   321        121
   322        110
   323        102
   329         50
   335         42
   336        536
   337        818
   338        324
   339        321
   340         63
   347        510
   348        164
   349         71
   350         49
   354         97
   355         77
   362         63
   378        512
   379        131
   380         46
   396         91
   398        146
   414        981
   415        237
   416         51