##TITLE=Library Entry 39949
##JCAMP-DX=Revision 4.10 
##DATA TYPE=MASS SPECTRUM
##SAMPLE DESCRIPTION=Chemical Concepts
##NAMES=HP
##CAS NAME=5-Isoxazolidinecarboxylic acid, 3,3,5-trimethyl-, methyl ester
##MOLFORM=C8H15NO3
##CAS REGISTRY NO=63535-54-6
##MP= -300
##BP= -300
##MW= 173
##$RETENTION INDEX=0
##$CONDENSED SPECTRUM=NO
##NPOINTS= 90
##XYDATA=(XY..XY) 1 
    26         15
    27        103
    29        115
    30        106
    31         36
    33         53
    34          2
    37          6
    38         16
    39        196
    40         48
    41        443
    42        303
    43        759
    44         26
    45         23
    46          4
    50          4
    51         10
    52          7
    53         41
    54         52
    55        127
    56        793
    57        128
    58        109
    59        104
    60          5
    61         13
    65         12
    66          7
    67         41
    68         19
    69        188
    70         70
    71         55
    72        999
    73        841
    74        124
    75         19
    77          7
    79         25
    80         22
    81         83
    82         23
    83         62
    84         21
    85         45
    86         13
    87         11
    88          5
    91          4
    93          6
    94          3
    95         13
    96          7
    97         12
    98        775
    99         81
   100         63
   101        487
   102         32
   103         14
   109         49
   110         12
   111         11
   112         15
   113         11
   114        460
   115         39
   116          8
   118         16
   124          4
   125          4
   126        102
   127         14
   128          4
   129          2
   130          3
   140         48
   141         15
   142         13
   143         17
   157          5
   158        557
   159         50
   160          6
   173        308
   174         78
   175          8