##TITLE=Library Entry 73101
##JCAMP-DX=Revision 4.10 
##DATA TYPE=MASS SPECTRUM
##SAMPLE DESCRIPTION=Chemical Concepts
##NAMES=HP
##CAS NAME=5-Isoxazolidinecarboxylic acid, 3,5-dimethyl-, methyl ester
##MOLFORM=C7H13NO3
##CAS REGISTRY NO=63535-55-7
##MP= -300
##BP= -300
##MW= 159
##$RETENTION INDEX=0
##$CONDENSED SPECTRUM=NO
##NPOINTS= 110
##XYDATA=(XY..XY) 1 
    26         12
    27         71
    28        100
    29         99
    30         42
    31         25
    33         13
    34          2
    37          4
    38         10
    39        116
    40         39
    41        402
    42        285
    43        906
    44         55
    45         32
    46          2
    47          2
    49          1
    50          2
    51          5
    52          5
    53         25
    54         12
    55         37
    56        100
    57         88
    58        959
    59        464
    60        218
    61         18
    63          4
    65          9
    66          5
    67         56
    68         23
    69        274
    70         24
    71         16
    72          6
    73        184
    74         13
    75         12
    76          1
    77          2
    78          1
    79          2
    80          4
    81          6
    82         15
    83          8
    84        245
    85         36
    86         11
    87         10
    88          2
    89          1
    91          3
    92          0
    93          2
    94          6
    95         48
    96         20
    97         13
    98         21
    99         34
   100        999
   101        662
   102         48
   103          6
   104          2
   105          1
   106          1
   107          2
   108          1
   109          2
   110         21
   111          6
   112         95
   113         12
   114          2
   115          4
   116          7
   117          1
   119          1
   120          1
   121          2
   122          2
   123          1
   126          7
   127         36
   128         13
   129         21
   130          2
   135          1
   136          1
   137          2
   138          2
   139          1
   141          2
   142         28
   143          5
   144        109
   145          9
   146          2
   158          3
   159        517
   160         84
   161          8