##TITLE=Library Entry 10697
##JCAMP-DX=Revision 4.10 
##DATA TYPE=MASS SPECTRUM
##SAMPLE DESCRIPTION=Chemical Concepts
##NAMES=HP
##CAS NAME=Acetate, (2-(3-hydroxy-3-methyl-2-oxotetrahydro-1H-1-pyrrolyl)eth
yl] ester
##MOLFORM=C9H15NO4
##CAS REGISTRY NO=63535-65-9
##MP= -300
##BP= -300
##MW= 201
##$RETENTION INDEX=0
##$CONDENSED SPECTRUM=NO
##NPOINTS= 109
##XYDATA=(XY..XY) 1 
    26          7
    27         61
    28         88
    29         59
    30        107
    31         18
    38          2
    39         29
    40         10
    41         78
    42        594
    43        999
    44         74
    45         26
    46          3
    50          1
    51          4
    52          3
    53         21
    54         23
    55        124
    56        269
    57        129
    58         52
    59         10
    60          5
    61          9
    65          1
    66          1
    67          4
    68         16
    69         22
    70        120
    71        177
    72         54
    73          9
    74         47
    75          2
    76          1
    77          2
    78          1
    79          1
    80          3
    81          4
    82         18
    83         16
    84         16
    85         16
    86         14
    87         48
    88         72
    89          3
    90          1
    91          2
    93          1
    94          5
    95          6
    96         15
    97          7
    98        123
    99         11
   100        834
   101        102
   102          7
   103          1
   104          1
   105          2
   106          1
   107          1
   108          1
   109          2
   110         19
   111         63
   112         37
   113        179
   114         29
   115          8
   116         49
   117          3
   120          1
   122          1
   123         68
   124         18
   125          2
   126         14
   127          2
   128        110
   129         19
   130         17
   131          2
   135          1
   139          1
   140         76
   141        598
   142         76
   143          6
   144         47
   145          3
   158         52
   159         12
   160          1
   172          9
   173          2
   183        122
   184         13
   185          2
   186          4
   201          9
   202          5