##TITLE=Library Entry 81560
##JCAMP-DX=Revision 4.10 
##DATA TYPE=MASS SPECTRUM
##SAMPLE DESCRIPTION=Chemical Concepts
##NAMES=HP
##CAS NAME=2-Buten-1-ol, 1,1-diphenyl-
##MOLFORM=C16H16O
##CAS REGISTRY NO=63553-53-7
##MP= -300
##BP= -300
##MW= 224
##$RETENTION INDEX=0
##$CONDENSED SPECTRUM=NO
##NPOINTS= 132
##XYDATA=(XY..XY) 1 
    26          5
    27         31
    28         29
    29         15
    30          2
    31          9
    32         11
    38          3
    39         37
    40          7
    41         65
    42         53
    43         38
    44         14
    45          7
    50         20
    51        104
    52         12
    53          6
    55         20
    56         11
    57         23
    59          5
    60         10
    61          6
    62          2
    63         13
    64          4
    65          8
    67          6
    68          2
    69         47
    70          6
    71         19
    72         13
    73         21
    74          8
    75         12
    76         22
    77        535
    78         64
    79         18
    80          2
    81          6
    82          4
    83         10
    84          2
    85          4
    87          2
    88          2
    89          7
    90          2
    91         43
    92          5
    93          3
    95          6
    96          2
    97          6
    98          3
    99          3
   101          4
   102          6
   103         16
   104         10
   105        999
   106         83
   107         13
   109          3
   111          3
   112          2
   113          3
   114          2
   115         16
   116          3
   117          7
   118          8
   119          5
   120          4
   121          2
   123          2
   125          2
   126          4
   127         11
   128         13
   129         12
   130          2
   131         15
   132          3
   133          2
   135          3
   139          6
   141          3
   145          5
   147         24
   148          2
   149          5
   150          4
   151          9
   152         26
   153         17
   154          8
   155          8
   163          4
   164          5
   165         42
   166         12
   167         12
   168          5
   177          2
   178          6
   179          4
   180          5
   181         44
   182         85
   183        787
   184        154
   185         16
   189          3
   191          7
   192          2
   194          2
   195          2
   197          4
   202          3
   205          3
   206          5
   207          5
   209         18
   210          3
   223          3
   224         29
   225          5