##TITLE=Library Entry 19083
##JCAMP-DX=Revision 4.10 
##DATA TYPE=MASS SPECTRUM
##SAMPLE DESCRIPTION=N.W. Davies, Centr. Sci. Lab., Univ. Tasmania, Hobart,
 Australia
##NAMES=HP
##CAS NAME=Prost-13-en-1-oic acid, 9,11,15-trihydroxy-6-oxo-, methyl ester,
 (9.alpha.,11.alpha.,13E,15S)-
##MOLFORM=C21H36O6
##CAS REGISTRY NO=63557-55-1
##MP= -300
##BP= -300
##MW= 384
##$RETENTION INDEX=0
##$CONDENSED SPECTRUM=NO
##NPOINTS= 200
##XYDATA=(XY..XY) 1 
    26         39
    27        268
    37         10
    38         19
    39        238
    41        783
    42         89
    43        762
    44         26
    50         18
    51         41
    52         26
    53        193
    54         76
    55        999
    56        151
    57        200
    58         62
    59        146
    63         13
    65         85
    66         93
    67        374
    68         72
    69        150
    70         54
    71        413
    72         37
    73        198
    74         25
    77        180
    78         94
    79        434
    80        222
    81        428
    82         93
    83        364
    84        226
    85         72
    86         17
    87         47
    88         16
    91        323
    92        145
    93        249
    94        116
    95        535
    96        202
    97        137
    98         40
    99        718
   100         56
   101         58
   103         39
   104         38
   105        214
   106         66
   107        263
   108        132
   109        192
   110         46
   111        638
   112         48
   113         34
   114         24
   115        193
   116         35
   117        151
   118         38
   119        149
   120         57
   121        263
   122         77
   123        105
   124         40
   125         37
   126         43
   127         54
   128         30
   129        100
   130         25
   131         85
   132         30
   133        182
   134         58
   136        142
   139         27
   140         27
   141         45
   143        420
   144         45
   145         58
   146         24
   147         65
   148         29
   149         53
   150        115
   151        140
   152         49
   153         68
   154         25
   155         51
   156         13
   157         31
   158         36
   159         29
   160         13
   161         64
   162         47
   163         83
   164         91
   165         72
   166         37
   167         37
   168         10
   169         63
   171         38
   172         17
   173         41
   174         18
   175         26
   176         16
   177         29
   178         17
   179        166
   180         28
   181         36
   182         27
   183         19
   185         14
   187         47
   188         33
   189         36
   190         47
   191         48
   192         29
   193         49
   194         53
   195        188
   196        244
   197         76
   198         14
   199         23
   201         23
   202         10
   203         19
   204         19
   205         30
   206         26
   207         17
   208         77
   209         34
   211         16
   215         27
   217         18
   219         12
   221         15
   222        152
   223         37
   224         10
   225         16
   227         15
   232         11
   233         28
   234         39
   235         15
   243         18
   245         23
   247         14
   248         15
   249         15
   250         22
   259         17
   261         27
   262         12
   263         10
   265         73
   266         23
   267         14
   273         10
   275         10
   277         18
   279         52
   280         11
   292         14
   293         12
   294         15
   295         19
   299         11
   304         24
   305         13
   317         13
   319         24
   322         22
   330         37
   331         10
   335         20
   348         36
   349         10
   366         26