##TITLE=Library Entry 70342
##JCAMP-DX=Revision 4.10 
##DATA TYPE=MASS SPECTRUM
##SAMPLE DESCRIPTION=JCPRB4,(13)1564(1977); D. HORTON ET AL.
##NAMES=HP
##CAS NAME=1,3-Dioxan-5-ol, 2-phenyl-4-(1H-pyrazol-3-yl)-, [2R-(2.alpha.,4.a
lpha.,5.beta.)]-
##MOLFORM=C13H14N2O3
##CAS REGISTRY NO=63554-26-7
##MP= -300
##BP= -300
##MW= 246
##$RETENTION INDEX=0
##$CONDENSED SPECTRUM=NO
##NPOINTS= 16
##XYDATA=(XY..XY) 1 
    77        180
    79        190
    91         58
    97        999
   105         70
   106         36
   107        520
   110         52
   123         15
   140         43
   149          7
   169          1
   203         90
   245          0
   246          0
   247          0