##TITLE=Library Entry 91020
##JCAMP-DX=Revision 4.10 
##DATA TYPE=MASS SPECTRUM
##SAMPLE DESCRIPTION=Japan AIST/NIMC Database- Spectrum MS-NW-5676
##NAMES=HP
##CAS NAME=2-Thiophenemethanol
##MOLFORM=C5H6OS
##CAS REGISTRY NO=636-72-6
##MP= -300
##BP= -300
##MW= 114
##$RETENTION INDEX=1043
##$CONDENSED SPECTRUM=NO
##NPOINTS= 87
##XYDATA=(XY..XY) 1 
    15          5
    17          4
    18         15
    24          1
    25          4
    26         18
    27         56
    28         26
    29         52
    30          4
    31         42
    32          8
    33          5
    34          5
    35          1
    36          5
    37         29
    38         49
    39        194
    40         11
    41         54
    42          7
    43          9
    44         18
    45        419
    46         15
    47         25
    48          7
    49         16
    50         47
    51         57
    52         28
    53        147
    54          8
    55         17
    56         13
    57         65
    58         91
    59         38
    60         10
    61         13
    62         13
    63         18
    64          3
    65          1
    66          2
    67          2
    68          6
    69         59
    70         26
    71         27
    72          5
    73          2
    74          3
    75          1
    76          4
    77          2
    78          1
    79          3
    80          6
    81        240
    82         31
    83         26
    84         28
    85        809
    86         57
    87         44
    88          4
    92          3
    93         10
    94          1
    95         17
    96         28
    97        647
    98         52
    99         33
   100          3
   104          1
   106          1
   109          1
   111         58
   112         19
   113        405
   114        999
   115         82
   116         52
   117          4