##TITLE=Library Entry 71941
##JCAMP-DX=Revision 4.10 
##DATA TYPE=MASS SPECTRUM
##SAMPLE DESCRIPTION=Chemical Concepts
##NAMES=HP
##CAS NAME=(.+/-.)-Dethiobiotin
##MOLFORM=C10H18N2O3
##CAS REGISTRY NO=636-20-4
##MP= -300
##BP= -300
##MW= 214
##$RETENTION INDEX=0
##$CONDENSED SPECTRUM=NO
##NPOINTS= 107
##XYDATA=(XY..XY) 1 
    26          0
    27         13
    28         30
    29         19
    30         16
    31          1
    39          9
    40          2
    41         32
    42         25
    43         37
    44        127
    45          9
    53          3
    54          7
    55         24
    56         82
    57         18
    58          1
    59          1
    60          3
    65          1
    66          0
    67          5
    68          4
    69          8
    70         14
    71         14
    72          2
    73          6
    76          1
    77          2
    78          0
    79          2
    80          1
    81         15
    82         17
    83         13
    84          7
    85          8
    91          3
    92          0
    93          3
    94          2
    95         27
    96          6
    97         14
    98         28
    99        999
   100         80
   101          3
   104          1
   105          1
   108          1
   109          5
   110          3
   111          9
   112          2
   113         16
   114         14
   115          1
   120          1
   121          1
   122          0
   123          1
   124          2
   125          2
   126         14
   127          9
   128          2
   129          1
   133          0
   134          0
   135          1
   136          0
   137          2
   138          5
   139          1
   140          0
   141          6
   142          3
   143          0
   144          9
   145          0
   152          3
   153          3
   154          1
   155         89
   156          8
   157          0
   163          1
   167          1
   168          1
   169          1
   170          1
   171          1
   178          0
   180          1
   181          3
   182          0
   195          1
   196          1
   197          6
   199         21
   200          1
   214         25
   215          4