##TITLE=Library Entry 88534
##JCAMP-DX=Revision 4.10 
##DATA TYPE=MASS SPECTRUM
##SAMPLE DESCRIPTION=Association of Official Racing Chemists
##NAMES=HP
##CAS NAME=Clopamide
##MOLFORM=C14H20ClN3O3S
##CAS REGISTRY NO=636-54-4
##MP= -300
##BP= -300
##MW= 345
##$RETENTION INDEX=0
##$CONDENSED SPECTRUM=NO
##NPOINTS= 119
##XYDATA=(XY..XY) 1 
    46          7
    48         18
    50         13
    51          9
    52          6
    53         21
    55        254
    56         56
    57         32
    58         52
    59        191
    60          6
    62          5
    63         14
    64         22
    65          9
    66          4
    67         15
    68         30
    69         92
    70         59
    71         17
    72         12
    73          8
    74         20
    75         64
    76          9
    77         10
    78          4
    79         10
    80         12
    81         18
    83        202
    84         28
    85         21
    86          8
    87          5
    89          3
    90         12
    91         10
    93          7
    94          6
    95         16
    96         70
    97         25
    98         20
    99         55
   100          6
   101          5
   102          3
   103          6
   106          7
   107          7
   108          8
   109         42
   110        130
   111        999
   112        152
   113         14
   115          7
   117          8
   118          7
   119         16
   120          5
   124          5
   125         11
   127        714
   128         64
   129          6
   131          4
   133          5
   137         10
   138         24
   139         10
   140         11
   141          9
   142         12
   143         30
   144          9
   145         11
   147          5
   152          4
   153          6
   154          9
   155          4
   156          6
   173          9
   175          5
   179          5
   181          3
   182          6
   186          6
   189          4
   190          9
   191          1
   192          5
   193          3
   195          6
   201          4
   216          5
   218        150
   219         13
   220         53
   221          3
   222          5
   234          5
   235          4
   249          4
   250          9
   276         10
   328          4
   330         99
   331         22
   332         45
   333          6
   344          6
   345          8
   346          3
   347          4