##TITLE=Library Entry 49542
##JCAMP-DX=Revision 4.10 
##DATA TYPE=MASS SPECTRUM
##SAMPLE DESCRIPTION=TNO Volatile Compounds in Food - Chemical Concepts
##NAMES=HP
##CAS NAME=1H-Pyrrole, 2-methyl-
##MOLFORM=C5H7N
##CAS REGISTRY NO=636-41-9
##MP= -300
##BP= -300
##MW= 81
##$RETENTION INDEX=850
##$CONDENSED SPECTRUM=NO
##NPOINTS= 29
##XYDATA=(XY..XY) 1 
    25          2
    26         12
    27         49
    28        119
    34          3
    35          2
    36          5
    37          6
    38         15
    39         30
    40         25
    41         26
    42          6
    47          1
    49          5
    50         20
    51         29
    52         28
    53        113
    54         12
    62          2
    63          4
    65          1
    78         11
    79         10
    80        999
    81        712
    82         18
    84          2