##TITLE=Library Entry 50344
##JCAMP-DX=Revision 4.10 
##DATA TYPE=MASS SPECTRUM
##SAMPLE DESCRIPTION=Exported from NIST MS Search
##NAMES=HP
##CAS NAME=1-Cyclohexene-1-carboxylic acid
##MOLFORM=C7H10O2
##CAS REGISTRY NO=636-82-8
##MP= -300
##BP= -300
##MW= 126
##$RETENTION INDEX=0
##$CONDENSED SPECTRUM=NO
##NPOINTS= 80
##XYDATA=(XY..XY) 1 
    15          4
    18          1
    26         12
    27         24
    28         37
    29         30
    31          6
    32          5
    37          7
    38         19
    39        136
    40         27
    41        202
    42         35
    43         30
    44          5
    45         30
    46          2
    47          4
    49          4
    50         36
    51         68
    52         42
    53        159
    54         19
    55         67
    56          8
    57         12
    58          2
    60          4
    61          2
    62          5
    63         10
    64          2
    65         35
    66         42
    67         93
    68         35
    69         60
    70         26
    71          8
    72          5
    73          8
    74          7
    75          3
    76          2
    77         86
    78         18
    79        283
    80        447
    81        999
    82         72
    83         31
    84         14
    85          7
    86          3
    91          1
    92          1
    93         11
    94          2
    95          3
    96          1
    97         81
    98         43
    99          5
   105          5
   107         10
   108        221
   109         30
   110          3
   111         98
   112          6
   122          3
   123          3
   124          1
   125         17
   126        384
   127         33
   128          5
   129          1