##TITLE=Library Entry 57922
##JCAMP-DX=Revision 4.10 
##DATA TYPE=MASS SPECTRUM
##SAMPLE DESCRIPTION=JACSAT, 99(13)4405(1977); 30; B. M. TROST
##NAMES=HP
##CAS NAME=Androst-5-en-17-one, 3-hydroxy-16,16-dimethoxy-, (3.beta.)-
##MOLFORM=C21H32O4
##CAS REGISTRY NO=63608-60-6
##MP= -300
##BP= -300
##MW= 348
##$RETENTION INDEX=0
##$CONDENSED SPECTRUM=NO
##NPOINTS= 18
##XYDATA=(XY..XY) 1 
    58        130
    61        110
    70         90
    79         60
    81         50
    88        999
    89        960
   105         50
   118        100
   143         20
   145         20
   159         20
   199         20
   203         20
   288         30
   317         20
   320         10
   348          1