##TITLE=Library Entry 45922
##JCAMP-DX=Revision 4.10 
##DATA TYPE=MASS SPECTRUM
##SAMPLE DESCRIPTION=Chuck Anderson, Aldrich Chemical Co.
##NAMES=HP
##CAS NAME=Benzaldehyde, 2-chloro-5-nitro-
##MOLFORM=C7H4ClNO3
##CAS REGISTRY NO=6361-21-3
##MP= -300
##BP= -300
##MW= 185
##$RETENTION INDEX=0
##$CONDENSED SPECTRUM=NO
##NPOINTS= 75
##XYDATA=(XY..XY) 1 
    17          8
    18         19
    26          8
    27          9
    28         17
    29         77
    30        104
    36         12
    37         47
    38         41
    39         20
    41          6
    44          6
    46         16
    47          0
    49         26
    50        163
    51         65
    52          7
    53         10
    60          9
    61         46
    62         41
    63         70
    64         13
    65         10
    72         11
    73         82
    74        264
    75        999
    76         95
    77          9
    84         45
    85         69
    86         26
    87         32
    88          6
    90         13
    91         13
    92          8
    97          0
    98          5
    99        133
   100          8
   101         50
   103         46
   104          6
   108          1
   109         28
   110        135
   111        285
   112         56
   113         87
   114          4
   121          3
   126         40
   127         17
   128         13
   129          2
   138        157
   139        169
   140         54
   141         49
   149          8
   154         29
   155         80
   156          8
   157         26
   169         16
   171          4
   184        658
   185        564
   186        236
   187        191
   188         13