##TITLE=Library Entry 53023
##JCAMP-DX=Revision 4.10 
##DATA TYPE=MASS SPECTRUM
##SAMPLE DESCRIPTION=M.UMEHARA, DEP. CHEM., KEIO UNIV., KOHOKU-KU, YOKOHAMA,
 JAPA
##NAMES=HP
##CAS NAME=4,4-Dimethyltricyclo(6.3.0.0(1,7))undecane-2,6-dione
##MOLFORM=C13H18O2
##CAS REGISTRY NO=63615-28-1
##MP= -300
##BP= -300
##MW= 206
##$RETENTION INDEX=0
##$CONDENSED SPECTRUM=NO
##NPOINTS= 57
##XYDATA=(XY..XY) 1 
    28         24
    29         22
    39         22
    40         10
    41        109
    43         66
    52         37
    53         31
    54         12
    55        181
    56         55
    57         16
    65         24
    66         48
    67         72
    68         16
    69         28
    77         83
    78         71
    79        300
    80        188
    81         45
    82         11
    83        999
    84         69
    91         67
    92         11
    93         40
    94        140
    95         45
    99         15
   104         18
   105         65
   106         30
   107        174
   108        614
   109         73
   121         49
   122        357
   123         58
   124         11
   131         12
   132         10
   133         32
   135         60
   136         11
   137         14
   148         26
   149         91
   150        317
   151         71
   163         28
   178         27
   188         16
   191         19
   206        273
   207         43