##TITLE=Library Entry 62586
##JCAMP-DX=Revision 4.10 
##DATA TYPE=MASS SPECTRUM
##SAMPLE DESCRIPTION=CARL DJERASSI DEPT OF CHEM STANFORD UNIV STANFORD CALIF
 94305
##NAMES=HP
##CAS NAME=Benzenesulfonamide, 4-methyl-N-[(phenylamino)thioxomethyl]-
##MOLFORM=C14H14N2O2S2
##CAS REGISTRY NO=6361-95-1
##MP= -300
##BP= -300
##MW= 306
##$RETENTION INDEX=0
##$CONDENSED SPECTRUM=NO
##NPOINTS= 62
##XYDATA=(XY..XY) 1 
    41         40
    42         10
    44         20
    45         10
    48         10
    50         40
    51        110
    52         30
    53         10
    54         10
    58         10
    59         10
    61         10
    62         20
    63         70
    64         40
    65        310
    66        160
    67         20
    69         10
    74         20
    75         10
    76         20
    77        150
    78         20
    79         10
    88         50
    89         20
    91        999
    92        170
    93        490
    94         40
   103         10
   107         20
   108         20
   109         10
   117         10
   118         30
   119         90
   120         10
   123         10
   124        220
   125         20
   126         10
   135        170
   136         20
   137         10
   139         10
   148         10
   150         10
   151         20
   155        560
   156         50
   157         30
   171         50
   213         20
   242         40
   243         20
   272         40
   273         20
   306          0
   307          0