##TITLE=Library Entry 79185
##JCAMP-DX=Revision 4.10 
##DATA TYPE=MASS SPECTRUM
##SAMPLE DESCRIPTION=S.A. Rang et al., IR & MS of Unsatd. Hydrocarbons, 1977
##NAMES=HP
##CAS NAME=2,4-Nonadiyne
##MOLFORM=C9H12
##CAS REGISTRY NO=63621-15-8
##MP= -300
##BP= -300
##MW= 120
##$RETENTION INDEX=0
##$CONDENSED SPECTRUM=NO
##NPOINTS= 34
##XYDATA=(XY..XY) 1 
    15         70
    26         15
    27        105
    29         25
    38         24
    39        177
    41         84
    50         60
    51        144
    52         41
    53         57
    62         49
    63        167
    64         30
    65        150
    66         17
    74         24
    75         34
    76         17
    77        366
    78         54
    79        209
    87         15
    89         49
    90          6
    91         95
    92         15
   103        101
   104         43
   105        999
   106         86
   119        103
   120        234
   121         17