##TITLE=Library Entry 59582
##JCAMP-DX=Revision 4.10 
##DATA TYPE=MASS SPECTRUM
##SAMPLE DESCRIPTION=Div. of Experiment Therapeutics WRAIR, WRAMC, Washingto
n DC 20307
##NAMES=HP
##CAS NAME=2-Benzylthio-6-methoxy-8-nitroquinoline
##MOLFORM=C17H14N2O3S
##CAS REGISTRY NO=63624-51-1
##MP= -300
##BP= -300
##MW= 326
##$RETENTION INDEX=0
##$CONDENSED SPECTRUM=NO
##NPOINTS= 205
##XYDATA=(XY..XY) 1 
    41         46
    42          5
    43         10
    45        190
    46          5
    47          8
    48          2
    49         22
    50         45
    51        149
    52         49
    53         60
    54          4
    55          3
    56          1
    57          5
    58          4
    59          2
    61          1
    62         74
    63        188
    64          1
    65        357
    66         18
    69         99
    70         19
    71         13
    72          2
    73          1
    74         13
    75         26
    76         25
    77         66
    78         32
    79         11
    80          4
    81          5
    82         13
    83          3
    84          9
    86         19
    87         42
    88         53
    89        129
    91        999
    92         50
    93         13
    94         11
    95         70
    96         12
    97          7
    98          5
    99          7
   100         14
   101          8
   102         46
   103         17
   104         10
   105         39
   106          7
   107          7
   108          7
   109          4
   110          1
   112          5
   113          2
   114         72
   115         37
   116         25
   117         16
   118          8
   119         18
   120         10
   121         78
   122         16
   123         18
   125          4
   126          4
   127         12
   128         10
   129         12
   130         19
   131          7
   132         13
   133         12
   134         24
   135          5
   136          2
   137          1
   139          3
   140          2
   142         12
   143         23
   144         16
   145         11
   146         80
   147         10
   148         11
   149          3
   150          3
   151          3
   152          4
   153          1
   154          1
   155          1
   156          2
   157         18
   158         11
   159         19
   160         12
   162         29
   163         28
   165          2
   167          2
   170          1
   171          2
   172          2
   173          1
   174         29
   175          8
   176          9
   177         12
   178          5
   179          2
   180          1
   184          1
   187         10
   188          5
   189         12
   190         24
   191          9
   192          3
   193          1
   196          1
   197          1
   198          0
   201          1
   202          4
   203         11
   204         32
   205         15
   206          3
   207          1
   208          2
   209          1
   210          2
   211          1
   214          1
   215          4
   216          5
   217          2
   219          3
   220          5
   221          2
   222          3
   223          1
   230          3
   231          4
   232          6
   233          2
   234         14
   235         45
   236         16
   237          6
   238          2
   245          6
   246         10
   247         26
   248         14
   249          8
   250          4
   251          1
   252          1
   253          4
   254          0
   259         11
   260          3
   262          7
   263          6
   264          9
   265         12
   266          3
   267          1
   275         14
   276          8
   278        100
   279         56
   280         11
   281          3
   290          3
   291          8
   292          2
   293          1
   294          3
   295          1
   296          1
   307          2
   308          5
   309         10
   310          2
   311          1
   326         74
   327         14
   328          5
   329          1