##TITLE=Library Entry 14474
##JCAMP-DX=Revision 4.10 
##DATA TYPE=MASS SPECTRUM
##SAMPLE DESCRIPTION=J. Klune, Insect Chem. Ecol. Lab., USDA, Beltsville, MD
 20705
##NAMES=HP
##CAS NAME=8-Acetoxyheneicosane
##MOLFORM=C23H46O2
##CAS REGISTRY NO=63623-48-3
##MP= -300
##BP= -300
##MW= 354
##$RETENTION INDEX=0
##$CONDENSED SPECTRUM=NO
##NPOINTS= 151
##XYDATA=(XY..XY) 1 
    41        175
    42         59
    43        999
    44         32
    45          6
    47          2
    49         10
    51          3
    53          9
    54         36
    55        218
    56         88
    57        239
    58         67
    59         33
    60          1
    61         41
    62          0
    65          2
    66          6
    67         57
    68         37
    69        182
    70         73
    71        119
    72         10
    73          0
    77          4
    78          0
    79          8
    80          4
    81         42
    82         68
    83        171
    84         63
    85         70
    86         14
    87          0
    91          1
    93          2
    94          1
    95         29
    96         45
    97        196
    98         39
    99         22
   100          7
   101          0
   102          7
   103          4
   107          0
   109         13
   110         34
   111        351
   112         47
   113         15
   114          3
   115          1
   117          0
   122          0
   123          7
   124         17
   125         78
   126         25
   127         30
   128         28
   129          9
   130          0
   137          4
   138         13
   139         35
   140         16
   141          5
   142         13
   143         21
   144          1
   149          0
   151          1
   152          9
   153         16
   154         11
   155          6
   156          0
   166         17
   167         13
   168         11
   169          4
   170          3
   171         27
   172          3
   180          8
   181         10
   182          7
   183          2
   184          0
   186          3
   187          1
   193          0
   194         22
   195         26
   196          9
   197          2
   208          6
   209          6
   210          6
   211         26
   212         10
   213          7
   214          3
   222          4
   223          4
   224          4
   225          1
   226         10
   227         13
   228          2
   236          2
   237          2
   238          2
   239          1
   250          2
   251          4
   252          2
   253          0
   255         26
   256          5
   257          0
   262          1
   264          0
   265          2
   266         14
   267          3
   280          1
   281          0
   283          0
   292          0
   293          0
   294        474
   295        127
   296         18
   297          1
   298          1
   308          2
   309          0
   310          2
   311          6
   312          1
   336          1
   337          1
   354          2
   355          0