##TITLE=Library Entry 31477
##JCAMP-DX=Revision 4.10 
##DATA TYPE=MASS SPECTRUM
##SAMPLE DESCRIPTION=Chemical Concepts
##NAMES=HP
##CAS NAME=2-Hexanol, 1,1'-thiobis-
##MOLFORM=C12H26O2S
##CAS REGISTRY NO=63634-39-9
##MP= -300
##BP= -300
##MW= 234
##$RETENTION INDEX=0
##$CONDENSED SPECTRUM=NO
##NPOINTS= 136
##XYDATA=(XY..XY) 1 
    26          3
    27         88
    28         10
    29        155
    30         27
    31         51
    33          0
    34          3
    35          9
    37          0
    38          0
    39         27
    40         12
    41        270
    42         36
    43         93
    44         30
    45         53
    46         47
    47         47
    48          7
    49          2
    50          0
    51          1
    52          0
    53         11
    54         15
    55        299
    56         68
    57         61
    58         52
    59         17
    60         22
    61         78
    62        999
    63        100
    64         40
    65          4
    66          2
    67         62
    68         10
    69        365
    70         17
    71          9
    72          2
    73         15
    74         12
    75         12
    76          4
    77         11
    78          0
    79          5
    80          1
    81         54
    82        389
    83        203
    84         28
    85         32
    86          9
    87        219
    88         16
    89         29
    90         10
    91         10
    92          0
    93          1
    95          4
    96          3
    97          2
    98          1
    99          4
   100         20
   101         20
   102          3
   103          4
   104          1
   105          0
   107          2
   111          0
   113          1
   114          5
   115         26
   116          5
   117        137
   118          8
   119          7
   120          0
   121          0
   125          0
   127          0
   129         11
   130         40
   131         23
   132          5
   133          6
   140          0
   141          5
   142          0
   143          0
   145          1
   146          0
   147          2
   148        261
   149         27
   150         13
   151          1
   155          0
   157          0
   158          0
   159         45
   160          4
   161          2
   162          0
   172          0
   173         35
   174          3
   175          0
   183          0
   185          9
   186          1
   187          2
   188          0
   197          0
   199          3
   200          0
   202          0
   203          3
   204          0
   205          0
   215          2
   216          6
   217          1
   218          0
   234         15
   235          2
   236          0