##TITLE=Library Entry 15341
##JCAMP-DX=Revision 4.10 
##DATA TYPE=MASS SPECTRUM
##SAMPLE DESCRIPTION=R.T. LOEFFLER,LONG ASHTON RES. STN.,LONG ASHTON,BRISTOL
,U.K.
##NAMES=HP
##CAS NAME=N'-Isopropylureidoacetic acid
##MOLFORM=C6H12N2O3
##CAS REGISTRY NO=63637-91-2
##MP= -300
##BP= -300
##MW= 160
##$RETENTION INDEX=0
##$CONDENSED SPECTRUM=NO
##NPOINTS= 94
##XYDATA=(XY..XY) 1 
    33          0
    34          1
    35          0
    36          1
    37          2
    38          9
    39         54
    40         53
    41        135
    42        155
    43        187
    44        999
    45         84
    46          6
    47          0
    48          1
    49          0
    50          2
    51          1
    52          1
    53          0
    54          5
    55         10
    56         86
    57         58
    58        118
    59          9
    60          9
    61          0
    62          0
    63          0
    64          0
    65          0
    67          0
    68          0
    69          2
    70         45
    71          2
    72          1
    73         10
    74         21
    75         10
    76         48
    77          1
    78          0
    79          0
    81          0
    82          0
    83          1
    84          2
    85         10
    86          5
    87          1
    88          0
    91          0
    95          0
    97          0
    98          0
    99          2
   100         12
   101         25
   102          2
   103          0
   105          0
   109          0
   110          0
   111          0
   112          0
   113          0
   114          1
   115          3
   116          7
   117          0
   118          0
   126          0
   127          0
   128          0
   129          0
   131          0
   132          0
   133          0
   135          0
   139          0
   141          0
   142          9
   143          0
   144          0
   145         92
   146          4
   147          0
   149          0
   160         13
   161          1
   162          0