##TITLE=Library Entry 65002
##JCAMP-DX=Revision 4.10 
##DATA TYPE=MASS SPECTRUM
##SAMPLE DESCRIPTION=Chemical Concepts
##NAMES=HP
##CAS NAME=2-Hexanol, 1-[(2-hydroxyethyl)thio]-
##MOLFORM=C8H18O2S
##CAS REGISTRY NO=63634-37-7
##MP= -300
##BP= -300
##MW= 178
##$RETENTION INDEX=0
##$CONDENSED SPECTRUM=NO
##NPOINTS= 106
##XYDATA=(XY..XY) 1 
    27        127
    29        120
    30          2
    31         77
    33          0
    34          2
    35         11
    36          0
    37          0
    38          1
    39         44
    41        333
    42         18
    43         74
    44        291
    45        469
    46        162
    47        106
    48        174
    49        329
    50         12
    51         15
    52          1
    53         16
    54          5
    55        135
    56         16
    57         68
    58         47
    59         63
    60         25
    61        585
    62        109
    63         29
    64          8
    65          3
    66          1
    67         41
    68          4
    69        359
    70         19
    71          9
    72          2
    73         16
    74        129
    75        111
    76         15
    77         18
    78          1
    79          7
    80          0
    81         21
    82         55
    83         49
    84          4
    85         54
    86          4
    87         37
    88          2
    89          6
    90          2
    91         36
    92        999
    93         97
    94         51
    95          4
    96          0
    97          0
    98          0
    99          3
   100          2
   101          4
   102          2
   103        118
   104          6
   105          7
   106          0
   107          0
   111          0
   113          0
   114          0
   115          9
   116          1
   117          9
   118          2
   119          1
   120          1
   121          0
   127          0
   129          7
   130          1
   131          1
   132          0
   133          0
   141          0
   143          0
   147         12
   148          2
   149          0
   159          3
   160         15
   161          6
   162          1
   178         35
   179          3
   180          1