##TITLE=Library Entry 72219
##JCAMP-DX=Revision 4.10 
##DATA TYPE=MASS SPECTRUM
##SAMPLE DESCRIPTION=V.G.Zaikin, TIPS, Russian Acad. Sci.
##NAMES=HP
##CAS NAME=1-Methyl-1-isobutyl-1-silacyclobutane
##MOLFORM=C8H18Si
##CAS REGISTRY NO=63647-90-5
##MP= -300
##BP= -300
##MW= 142
##$RETENTION INDEX=0
##$CONDENSED SPECTRUM=NO
##NPOINTS= 41
##XYDATA=(XY..XY) 1 
    53         30
    54         10
    55         80
    56         20
    57        120
    58        640
    59        940
    60        100
    61         30
    67         30
    68         10
    69         40
    70         30
    71         80
    72        995
    73        380
    74         50
    75         40
    83         40
    84         20
    85        290
    86        470
    87         80
    88         20
    97         20
    98         10
    99        999
   100         40
   101        120
   103         20
   104         10
   113         10
   114        400
   115         60
   116         20
   127         60
   128         10
   142        270
   143         38
   144         11
   145          1