##TITLE=Library Entry 39870
##JCAMP-DX=Revision 4.10 
##DATA TYPE=MASS SPECTRUM
##SAMPLE DESCRIPTION=V.G.Zaikin, TIPS, Russian Acad. Sci.
##NAMES=HP
##CAS NAME=1-Methyl-1-n-propyl-1-silacyclobutane
##MOLFORM=C7H16Si
##CAS REGISTRY NO=63647-86-9
##MP= -300
##BP= -300
##MW= 128
##$RETENTION INDEX=0
##$CONDENSED SPECTRUM=NO
##NPOINTS= 19
##XYDATA=(XY..XY) 1 
    58        690
    59        410
    60         90
    61         25
    70        110
    71         95
    72        999
    73        110
    74         40
    85        300
    86        110
    87         85
   100        490
   101         90
   102         30
   128        320
   129         41
   130         13
   131          1