##TITLE=Library Entry 99200
##JCAMP-DX=Revision 4.10 
##DATA TYPE=MASS SPECTRUM
##SAMPLE DESCRIPTION=A.A.Kutin, Moscow, Russia
##NAMES=HP
##CAS NAME=Pent-2-ene-1,5-dione, 1,5-bis(4-methylphenyl)-3-phenyl-
##MOLFORM=C25H22O2
##CAS REGISTRY NO=63688-23-3
##MP= -300
##BP= -300
##MW= 354
##$RETENTION INDEX=0
##$CONDENSED SPECTRUM=NO
##NPOINTS= 217
##XYDATA=(XY..XY) 1 
    33          0
    34          0
    37          0
    39         30
    40          5
    41         11
    42          0
    43          1
    44          2
    45          0
    50          5
    51         13
    52          2
    53          1
    54          0
    55          0
    56          0
    57          0
    62          3
    63         19
    65        132
    66          6
    67          0
    69          0
    71          0
    74          1
    75          3
    76          4
    77         15
    78          3
    79          2
    80          0
    81          0
    82          0
    83          0
    85          0
    86          0
    87          1
    89         36
    91        393
    92         28
    93          1
    94          0
    95          0
    96          0
    98          0
    99          0
   100          0
   101          1
   102          5
   103          4
   105         27
   106          2
   107          0
   109          0
   110          0
   111          0
   113          2
   115         56
   116         12
   119        999
   120         83
   121          5
   122          0
   125          0
   126          1
   127          3
   128          7
   129         13
   130          2
   131          2
   132          0
   133          0
   134          0
   135          0
   136          0
   137          0
   138          1
   139          2
   140          0
   141          1
   142          0
   143          2
   144          1
   145          0
   146          0
   148          0
   149          0
   150          0
   151          1
   152          2
   153          1
   154          0
   155          0
   157          4
   158          0
   159          0
   161          0
   162          0
   163          1
   164          1
   165          6
   166          1
   167          2
   168          5
   169          0
   171          0
   175          0
   176          1
   177          1
   178          4
   179          2
   180          0
   181          0
   185          0
   187          0
   188          1
   189          7
   190          4
   191         13
   192          8
   193          1
   194          0
   195          0
   200          1
   201          1
   202         11
   203          5
   204          2
   205          5
   206          4
   207          6
   208          1
   209          0
   213          0
   214          0
   215          2
   216          2
   217          6
   218         56
   219         18
   220          6
   221          4
   222          1
   223          0
   224          0
   226          0
   229          0
   231          1
   233          4
   234         46
   235        117
   236         21
   237          2
   238          0
   239          0
   244          0
   245          0
   246          0
   247          0
   248          0
   249          3
   250          0
   251          0
   252          0
   260          0
   261          2
   262          1
   263          4
   264          1
   265          0
   266          0
   267          0
   276          0
   277          0
   278          0
   279          0
   280          0
   281          0
   287          0
   289          0
   290          0
   291          0
   292          0
   293          0
   294          0
   295          0
   302          0
   305          0
   306          0
   307          0
   308          1
   309          1
   310          0
   311          0
   321          0
   322          0
   323          0
   324          0
   325          0
   326          1
   327          0
   331          0
   333          0
   334          0
   335          0
   337         36
   338         11
   339          4
   340          1
   341          0
   351          2
   352          2
   354         64
   355         16
   356          2
   357          0