##TITLE=Library Entry 16820
##JCAMP-DX=Revision 4.10 
##DATA TYPE=MASS SPECTRUM
##SAMPLE DESCRIPTION=Japan AIST/NIMC Database- Spectrum MS-NW-8515
##NAMES=HP
##CAS NAME=(S)-Isopropyl lactate
##MOLFORM=C6H12O3
##CAS REGISTRY NO=63697-00-7
##MP= -300
##BP= -300
##MW= 132
##$RETENTION INDEX=0
##$CONDENSED SPECTRUM=NO
##NPOINTS= 35
##XYDATA=(XY..XY) 1 
    14          3
    15         24
    16          1
    26          6
    27         98
    28         19
    29         33
    30          4
    31         12
    37          1
    38          3
    39         29
    40          6
    41        130
    42         24
    43        526
    44         34
    45        999
    46         22
    47          3
    55          4
    56          7
    57          1
    58          2
    59         39
    60          1
    63          3
    72          1
    73          3
    75          2
    87          1
    89         46
    90          5
    91          8
   117          3