##TITLE=Library Entry 75907
##JCAMP-DX=Revision 4.10 
##DATA TYPE=MASS SPECTRUM
##SAMPLE DESCRIPTION=Japan AIST/NIMC Database- Spectrum MS-NW-2601
##NAMES=HP
##CAS NAME=Phenylpropiolic acid
##MOLFORM=C9H6O2
##CAS REGISTRY NO=637-44-5
##MP= -300
##BP= -300
##MW= 146
##$RETENTION INDEX=0
##$CONDENSED SPECTRUM=NO
##NPOINTS= 44
##XYDATA=(XY..XY) 1 
    12          2
    16          7
    18          4
    22          1
    26          4
    27          4
    28          2
    36          2
    37          9
    38          9
    39         26
    40          1
    44        233
    45          2
    48          1
    49         10
    50         91
    51         75
    52         56
    53          2
    59          3
    60         11
    61         23
    62         56
    63          3
    73         10
    74         77
    75         67
    76        211
    77         14
    78          2
    85          2
    86          3
    87         10
    97          3
    98         13
    99          5
   100          2
   101         21
   102        999
   103         89
   104          4
   147          2
   148          2