##TITLE=Library Entry 97438
##JCAMP-DX=Revision 4.10 
##DATA TYPE=MASS SPECTRUM
##SAMPLE DESCRIPTION=Exported from NIST MS Search
##NAMES=HP
##CAS NAME=Benzene, 1-propenyl-
##MOLFORM=C9H10
##CAS REGISTRY NO=637-50-3
##MP= -300
##BP= -300
##MW= 118
##$RETENTION INDEX=1011
##$CONDENSED SPECTRUM=NO
##NPOINTS= 70
##XYDATA=(XY..XY) 1 
    15         46
    17          3
    25          3
    26         33
    27         98
    28          3
    29         21
    31          1
    36          1
    37         22
    38         46
    39        229
    40         27
    41         39
    42          5
    43         27
    44          7
    45          7
    49          8
    50         95
    51        215
    52         46
    53         21
    54          3
    55         11
    56          9
    58         92
    59         25
    61         22
    62         51
    63        128
    64         24
    65         97
    66         11
    67          2
    69          2
    73          6
    74         32
    75         28
    76         28
    77        100
    78         86
    79         18
    81          2
    82         10
    83         16
    84          2
    85          8
    86         16
    87         19
    88          9
    89         69
    90         31
    91        337
    92         38
    98          3
   101          5
   102         32
   103        100
   105         20
   106         10
   107         19
   109          2
   110          2
   115        331
   116        147
   117        999
   118        765
   119         70
   120          3