##TITLE=Library Entry 22736
##JCAMP-DX=Revision 4.10 
##DATA TYPE=MASS SPECTRUM
##SAMPLE DESCRIPTION=Chemical Concepts
##NAMES=HP
##CAS NAME=1,4-Cyclohexanedione
##MOLFORM=C6H8O2
##CAS REGISTRY NO=637-88-7
##MP= -300
##BP= -300
##MW= 112
##$RETENTION INDEX=1975
##$CONDENSED SPECTRUM=NO
##NPOINTS= 67
##XYDATA=(XY..XY) 1 
    26        299
    27        741
    28         55
    29         44
    30          6
    31         13
    33          0
    36          2
    37         20
    38         33
    39         97
    40         23
    41         62
    42        311
    43         50
    44          4
    45          0
    48          0
    49          7
    50         25
    51         20
    52          9
    53         40
    54         42
    55        457
    56        999
    57        292
    58         13
    59          0
    60          1
    61          4
    62          5
    63          6
    64          0
    65          5
    66         12
    67         27
    68          6
    69         32
    70         50
    71          3
    72          0
    73          1
    74          0
    77          0
    78          0
    79          1
    80          0
    81          1
    82          3
    83         76
    84         39
    85          8
    86          0
    93          1
    94          1
    95          1
    96          0
    97         20
    98          1
    99          0
   110          0
   111         18
   112        922
   113         57
   114          4
   115          0