##TITLE=Library Entry 84247
##JCAMP-DX=Revision 4.10 
##DATA TYPE=MASS SPECTRUM
##SAMPLE DESCRIPTION=Japan AIST/NIMC Database- Spectrum MS-NW-6557
##NAMES=HP
##CAS NAME=Hydrazine, 1-(3-hydroxybenzyl)-
##MOLFORM=C7H10N2O
##CAS REGISTRY NO=637-33-2
##MP= -300
##BP= -300
##MW= 138
##$RETENTION INDEX=0
##$CONDENSED SPECTRUM=NO
##NPOINTS= 79
##XYDATA=(XY..XY) 1 
    14          1
    15          1
    16          4
    17          5
    18         11
    26          4
    27         28
    28         39
    29         11
    30          9
    31         49
    32          4
    39         92
    40         11
    41          8
    42          4
    43         24
    44          5
    45         42
    46          1
    49          3
    50         20
    51         47
    52         26
    53         38
    54          5
    55         21
    56          1
    59          1
    60          1
    61          6
    62         12
    63         31
    64         12
    65         48
    66         13
    67          6
    68          5
    69          2
    73          1
    74          6
    75          5
    76          5
    77        248
    78         45
    79         81
    80         24
    81         12
    82          2
    84          1
    85          1
    86          1
    87          1
    89          9
    90         17
    91          9
    92          6
    93         13
    94         20
    95          6
   102          1
   104          1
   105          5
   106          4
   107        999
   108        287
   109         25
   110          2
   119          9
   120         21
   121          8
   122          6
   123          4
   135          2
   136          2
   137          8
   138        556
   139         50
   140          3