##TITLE=Library Entry 38334
##JCAMP-DX=Revision 4.10 
##DATA TYPE=MASS SPECTRUM
##SAMPLE DESCRIPTION=Japan AIST/NIMC Database- Spectrum MS-NW-1487
##NAMES=HP
##CAS NAME=2-Furanmethanol, tetrahydro-, acetate
##MOLFORM=C7H12O3
##CAS REGISTRY NO=637-64-9
##MP= -300
##BP= -300
##MW= 144
##$RETENTION INDEX=1098
##$CONDENSED SPECTRUM=NO
##NPOINTS= 49
##XYDATA=(XY..XY) 1 
    13          1
    14          8
    15         54
    17          1
    18          7
    26          7
    27         93
    28         21
    29         41
    30          3
    31         19
    32          5
    37          1
    38          4
    39         56
    40         10
    41        161
    42         78
    43        500
    44         19
    45          4
    50          1
    51          2
    52          1
    53          9
    54         24
    55         24
    56         11
    57          9
    58          4
    59          2
    60          3
    61          5
    67          4
    69          6
    70         17
    71        999
    72         50
    73         13
    74          7
    81          3
    82          2
    83          9
    84         90
    85         10
    86          5
   100          2
   101          2
   103          1