##TITLE=Library Entry 67004
##JCAMP-DX=Revision 4.10 
##DATA TYPE=MASS SPECTRUM
##SAMPLE DESCRIPTION=Japan AIST/NIMC Database- Spectrum MS-NW- 663
##NAMES=HP
##CAS NAME=Propanoic acid, phenyl ester
##MOLFORM=C9H10O2
##CAS REGISTRY NO=637-27-4
##MP= -300
##BP= -300
##MW= 150
##$RETENTION INDEX=1151
##$CONDENSED SPECTRUM=NO
##NPOINTS= 59
##XYDATA=(XY..XY) 1 
    14          1
    15          2
    17          3
    18         10
    25          1
    26         14
    27         64
    28         12
    29        286
    30          7
    37          7
    38         20
    39        102
    40         18
    41          5
    42          4
    43          4
    44          5
    47          1
    49          2
    50         17
    51         39
    52          3
    53          5
    54          3
    55         24
    56         31
    57        425
    58         13
    59          1
    61          4
    62          9
    63         23
    64          9
    65         85
    66         69
    67          4
    68          2
    69          1
    70          2
    71          1
    73          1
    74          5
    75          2
    76          3
    77         48
    78          6
    79          3
    83          1
    93          9
    94        999
    95         71
    96          4
   105          1
   107          2
   121          2
   150        195
   151         20
   152          2