##TITLE=Library Entry 38444
##JCAMP-DX=Revision 4.10 
##DATA TYPE=MASS SPECTRUM
##SAMPLE DESCRIPTION=Insect Chem. Ecol. Lab., USDA, Beltsville, MD 20705
##NAMES=HP
##CAS NAME=n-Butyric acid tetrahydrofurfuryl ester
##MOLFORM=C8H14O3
##CAS REGISTRY NO=637-65-0
##MP= -300
##BP= -300
##MW= 158
##$RETENTION INDEX=1153
##$CONDENSED SPECTRUM=NO
##NPOINTS= 66
##XYDATA=(XY..XY) 1 
    41        204
    42        112
    43        363
    45         30
    47          0
    48          1
    50          3
    51          5
    52          0
    53         21
    54         17
    55         55
    57        352
    58         11
    59          4
    60          0
    63          0
    65          2
    66          0
    67         12
    68          2
    69         15
    71        999
    72         40
    73          6
    74          3
    75          8
    77          1
    81          3
    82          0
    83         16
    84        243
    85         58
    86          7
    87         12
    88          9
    89          3
    90          0
    91          1
    95          3
    97          1
    98          3
    99          3
   100          4
   101          5
   103          3
   104          4
   105          0
   111          1
   112          0
   113          0
   114          7
   115         10
   116          0
   117          3
   128          2
   129         12
   139          0
   141          1
   142          4
   143          5
   144          1
   152          0
   157          6
   158         24
   159          1