##TITLE=Library Entry 30253
##JCAMP-DX=Revision 4.10 
##DATA TYPE=MASS SPECTRUM
##SAMPLE DESCRIPTION=NIST Mass Spectrometry Data Center, 1990.
##NAMES=HP
##CAS NAME=Propane, 2-ethoxy-2-methyl-
##MOLFORM=C6H14O
##CAS REGISTRY NO=637-92-3
##MP= -300
##BP= -300
##MW= 102
##$RETENTION INDEX=615
##$CONDENSED SPECTRUM=NO
##NPOINTS= 42
##XYDATA=(XY..XY) 1 
    13          1
    14         12
    15         69
    16          3
    17          0
    18          1
    19          3
    26         21
    27        135
    28         31
    29        195
    30         11
    31        121
    32          0
    37          3
    38         12
    39        107
    40         29
    41        241
    42         46
    43        137
    44          6
    45         23
    46          0
    49          0
    50          5
    51          4
    52          1
    53          7
    55         27
    56         55
    57        318
    58          0
    59        999
    60         36
    61          2
    71          1
    72          3
    73          2
    87        341
    88         19
    89          1