##TITLE=Library Entry 49446
##JCAMP-DX=Revision 4.10 
##DATA TYPE=MASS SPECTRUM
##SAMPLE DESCRIPTION=CARL DJERASSI DEPT OF CHEM STANFORD UNIV STANFORD CALIF
 94305
##NAMES=HP
##CAS NAME=9-Oxabicyclo[6.1.0]non-4-ene
##MOLFORM=C8H12O
##CAS REGISTRY NO=637-90-1
##MP= -300
##BP= -300
##MW= 124
##$RETENTION INDEX=0
##$CONDENSED SPECTRUM=NO
##NPOINTS= 39
##XYDATA=(XY..XY) 1 
    26         10
    27        150
    28         30
    29         70
    38         20
    39        250
    40         50
    41        290
    42         30
    43         20
    50         20
    51         50
    52         20
    53         80
    54         90
    55        100
    57         60
    63         20
    65         80
    66         90
    67        790
    68        140
    69         10
    70         10
    77         80
    78        130
    79        350
    80        999
    81        120
    82         30
    83         30
    91        100
    93         20
    95         80
    96         40
   105         20
   106         50
   109         20
   124         30