##TITLE=Library Entry 872
##JCAMP-DX=Revision 4.10 
##DATA TYPE=MASS SPECTRUM
##SAMPLE DESCRIPTION=Japan AIST/NIMC Database- Spectrum MS-NW-5034
##NAMES=HP
##CAS NAME=Glycylglycylglycylglycine
##MOLFORM=C8H14N4O5
##CAS REGISTRY NO=637-84-3
##MP= -300
##BP= -300
##MW= 246
##$RETENTION INDEX=0
##$CONDENSED SPECTRUM=NO
##NPOINTS= 175
##XYDATA=(XY..XY) 1 
    12         13
    13          8
    14         49
    15         26
    16         76
    17         45
    18        183
    21          1
    22          2
    24          6
    25         12
    26         67
    27        287
    28        384
    29        122
    30        999
    31         32
    32          7
    33          3
    34         10
    36          4
    37          6
    38         20
    39         35
    40         72
    41        110
    42        189
    43        112
    44        137
    45         23
    46          3
    47          3
    48          4
    50          8
    51         30
    52         19
    53         28
    54         41
    55         45
    56         64
    57         18
    58         34
    59         46
    60          7
    63          3
    64          5
    65          6
    66          9
    67         14
    68         21
    69         17
    70         10
    71        142
    72         22
    73          8
    74         11
    75         12
    76         42
    77          7
    78         11
    79          4
    80         14
    81          7
    82         10
    83         13
    84          9
    85         27
    86         24
    87         44
    88         26
    89          8
    91          4
    92          3
    93          2
    94          3
    95          4
    96         15
    97         13
    98         18
    99         21
   100          8
   101          3
   102          2
   104          9
   105          2
   106          2
   107          2
   108          3
   109          5
   110         11
   111         13
   112         13
   113         26
   114        253
   115         51
   116          9
   117         27
   118          4
   119          2
   121          2
   122          2
   123          4
   124          7
   125         27
   126          6
   127          8
   128          6
   129          2
   130          5
   131          3
   132         11
   133         10
   135          7
   136          3
   137          4
   138          6
   139          7
   140          2
   141          8
   142          2
   143          3
   144          2
   145          8
   146          4
   149          3
   150          2
   151          3
   152          4
   153         44
   154          8
   155          5
   156         12
   157          2
   159          7
   161          2
   163          2
   164          2
   165          4
   166          2
   167          4
   168          2
   169          2
   170          2
   171          8
   172          6
   173          5
   174         69
   175          7
   176          2
   178          2
   179          2
   180          2
   181          2
   182          2
   183          2
   185          1
   189          8
   190          3
   193          2
   194          3
   195          5
   196          2
   197          2
   198          2
   199          2
   202          3
   203          1
   210          2
   211          5
   212          2
   213          5
   216          5
   217          5
   228          3
   246          2