##TITLE=Library Entry 39224
##JCAMP-DX=Revision 4.10 
##DATA TYPE=MASS SPECTRUM
##SAMPLE DESCRIPTION=LDDRD, NCI, NIH-FCRDC, Frederick, MD 21702
##NAMES=HP
##CAS NAME=Musettamycin
##MOLFORM=C36H45NO14
##CAS REGISTRY NO=63710-09-8
##MP= -300
##BP= -300
##MW= 715
##$RETENTION INDEX=0
##$CONDENSED SPECTRUM=NO
##NPOINTS= 177
##XYDATA=(XY..XY) 1 
    41        146
    42        153
    43        287
    44        166
    45        652
    46        278
    47         24
    51          6
    52          2
    53         15
    54          8
    55         82
    56         97
    57        224
    58        165
    59        142
    60        103
    61          2
    65          9
    66          6
    67         68
    68         30
    69         79
    70        134
    71        999
    72        541
    73         94
    74         40
    75         31
    76          2
    77          5
    79          5
    81         20
    82         50
    83         32
    84         78
    85         94
    86        114
    87         71
    88         25
    89          7
    91          2
    94         11
    95         55
    96         38
    97         24
    98         33
    99         23
   100        872
   101         88
   102         22
   103         25
   104         14
   107          4
   108          5
   109          2
   110         11
   111         29
   112         45
   113        428
   114         77
   115         27
   116         57
   117          5
   118         12
   124          8
   125          2
   126          5
   127          2
   128          7
   129         12
   130         28
   131        185
   132         18
   137         12
   138          9
   139         40
   140         12
   141         36
   142         17
   143          5
   144          5
   145          8
   147          4
   150          5
   151         10
   152         16
   153          5
   156         11
   157         29
   158         60
   159         35
   160          6
   163         11
   164          4
   165         18
   166         23
   169          2
   172          2
   174        183
   175         21
   176         30
   177          2
   179          2
   180         39
   186          6
   187          5
   189         11
   191        210
   192         24
   193          5
   196          8
   197          2
   198          4
   200          9
   201          5
   202         22
   203          4
   204          5
   205          2
   217          2
   219          2
   221          5
   230         10
   231          6
   243         13
   244         34
   245          2
   246         17
   247          9
   259          2
   260          2
   261          5
   262          2
   275          2
   277          2
   287          5
   288         33
   289          9
   293          5
   294          5
   295          6
   303          4
   304          2
   305         10
   306         19
   314          2
   315         13
   319         10
   322          5
   323          6
   331         22
   332         30
   333         29
   334         21
   335         10
   343          2
   349         10
   353         17
   354         20
   355          8
   359         30
   360         38
   361         66
   362         20
   363          5
   377         59
   378         24
   379          2
   381          5
   391          5
   392        462
   393        124
   394         28
   395          2
   410          7
   412          4