##TITLE=Library Entry 99857
##JCAMP-DX=Revision 4.10 
##DATA TYPE=MASS SPECTRUM
##SAMPLE DESCRIPTION=Exported from NIST MS Search
##NAMES=HP
##CAS NAME=Methanone, (1-cyclohexyl-3-phenyl-2-aziridinyl)(4-methylphenyl)-,
 trans-
##MOLFORM=C22H25NO
##CAS REGISTRY NO=6372-29-8
##MP= -300
##BP= -300
##MW= 319
##$RETENTION INDEX=0
##$CONDENSED SPECTRUM=NO
##NPOINTS= 51
##XYDATA=(XY..XY) 1 
    39         56
    41        131
    51         42
    55        144
    65        105
    67         55
    77         88
    78         23
    83         52
    89         82
    90        121
    91        749
    92         50
   103         55
   104         65
   105         73
   106         23
   117        126
   118        335
   119        999
   120        102
   121         10
   159         13
   160        135
   161         13
   165         52
   166         56
   179         26
   180         17
   181        289
   182         35
   183          5
   200        407
   201         63
   202         65
   220        138
   221         72
   222         68
   223         10
   224         19
   235         98
   236        273
   237         65
   242        114
   243         23
   302         39
   303          9
   318         52
   319        723
   320        160
   321         22