##TITLE=Library Entry 35446
##JCAMP-DX=Revision 4.10 
##DATA TYPE=MASS SPECTRUM
##SAMPLE DESCRIPTION=Japan AIST/NIMC Database- Spectrum MS-IW-4050
##NAMES=HP
##CAS NAME=4-Pentenoic acid, 3,3-dimethyl-, methyl ester
##MOLFORM=C8H14O2
##CAS REGISTRY NO=63721-05-1
##MP= -300
##BP= -300
##MW= 142
##$RETENTION INDEX=0
##$CONDENSED SPECTRUM=NO
##NPOINTS= 91
##XYDATA=(XY..XY) 1 
    14          2
    15        100
    16          1
    26          5
    27         95
    28         24
    29         68
    30          3
    31         21
    32          6
    33          3
    34          1
    37          2
    38          6
    39        141
    40         36
    41        728
    42         59
    43        200
    44         10
    45         19
    47          2
    50          8
    51         20
    52          9
    53         91
    54         22
    55        396
    56         41
    57          9
    58          9
    59        212
    60          5
    61          3
    62          2
    63          4
    64          1
    65         25
    66          9
    67        312
    68        125
    69        999
    70         72
    71         15
    72          7
    73         70
    74        296
    75         14
    76          1
    77          5
    78          1
    79         18
    80          9
    81         35
    82        754
    83        395
    84         24
    85        324
    86         21
    87         34
    88          7
    89          1
    91          7
    92          1
    93          2
    95        137
    96          9
    97          3
    98          1
    99         17
   100          9
   101         21
   102          1
   109         18
   110        330
   111        280
   112         21
   113          9
   114          9
   115          5
   123          1
   125          3
   126          2
   127        104
   128          9
   129          1
   139          1
   140          7
   141          8
   142         49
   143          8