##TITLE=Library Entry 85405
##JCAMP-DX=Revision 4.10 
##DATA TYPE=MASS SPECTRUM
##SAMPLE DESCRIPTION=Japan AIST/NIMC Database- Spectrum MS-NW-6863
##NAMES=HP
##CAS NAME=4-Benzyloxyaniline
##MOLFORM=C13H13NO
##CAS REGISTRY NO=6373-46-2
##MP= -300
##BP= -300
##MW= 199
##$RETENTION INDEX=0
##$CONDENSED SPECTRUM=NO
##NPOINTS= 53
##XYDATA=(XY..XY) 1 
    26          2
    27          9
    28          8
    30          1
    39         30
    40          2
    41         10
    42          2
    50          5
    51         16
    52         19
    53         35
    54          9
    55          1
    61          1
    62          5
    63         14
    64          6
    65         70
    66          6
    74          1
    75          1
    76          1
    77          4
    78          3
    79          3
    80         86
    81          6
    86          1
    89         10
    90          5
    91        313
    92         26
    93          2
   105          1
   107          1
   108        999
   109         74
   110          5
   115          2
   128          2
   141          1
   152          1
   153          2
   167          1
   168          1
   170          1
   181          1
   196          1
   198          1
   199        347
   200         53
   201          4