##TITLE=Library Entry 48815
##JCAMP-DX=Revision 4.10 
##DATA TYPE=MASS SPECTRUM
##SAMPLE DESCRIPTION=Exported from NIST MS Search
##NAMES=HP
##CAS NAME=Silane, chloroethylmethyl-
##MOLFORM=C3H9ClSi
##CAS REGISTRY NO=6374-21-6
##MP= -300
##BP= -300
##MW= 108
##$RETENTION INDEX=0
##$CONDENSED SPECTRUM=NO
##NPOINTS= 76
##XYDATA=(XY..XY) 1 
    14          6
    15         18
    16          4
    24          3
    25          6
    26         44
    27        109
    28         74
    29         53
    30          7
    31         10
    32         10
    35          7
    36         37
    37          3
    38         12
    39         15
    40          4
    41         12
    42         71
    43        191
    44         82
    45        147
    46         15
    47         10
    49          6
    52          4
    53         49
    54         12
    55         29
    56          9
    57         18
    58          4
    59         27
    60          3
    61          9
    62          9
    63        221
    64         54
    65        206
    66         29
    67         78
    68          4
    69          6
    70         12
    71         15
    72         84
    73        206
    74         27
    75         12
    76          7
    77         27
    78        456
    79        999
    80        206
    81        338
    82         35
    83         16
    87          9
    88          3
    89          7
    90          4
    91         15
    92         38
    93        191
    94         31
    95         73
    96          7
    97          6
   105         29
   106          9
   107        353
   108        118
   109        132
   110         56
   111          9