##TITLE=Library Entry 49704
##JCAMP-DX=Revision 4.10 
##DATA TYPE=MASS SPECTRUM
##SAMPLE DESCRIPTION=HD Science, UK
##NAMES=HP
##CAS NAME=Phosphonic acid, isothiocyanato-, diethyl ester
##MOLFORM=C5H10NO3PS
##CAS REGISTRY NO=6374-26-1
##MP= -300
##BP= -300
##MW= 195
##$RETENTION INDEX=0
##$CONDENSED SPECTRUM=NO
##NPOINTS= 90
##XYDATA=(XY..XY) 1 
    13          5
    14         28
    15        129
    16          4
    19         17
    26        119
    27        578
    28        185
    29        840
    30         34
    31         43
    32         37
    33          5
    34          3
    39          2
    41         12
    42         30
    43        129
    45        180
    47        275
    48         16
    49          6
    54         11
    55          8
    56          2
    58         99
    59        357
    60         79
    61         21
    62         14
    63         32
    65        167
    66          1
    72         32
    73          5
    74          5
    77         15
    79         84
    81        999
    82          8
    83          7
    84          1
    86         15
    87          9
    88          2
    89          4
    91        345
    92         17
    93         96
    94          4
    95          2
    97          5
    98          2
   103          2
   105         11
   106          8
   107         10
   109        717
   110         19
   111          6
   114          3
   115          5
   122        435
   123         96
   124         33
   125          5
   134         34
   135          3
   137         38
   139        171
   140        503
   141         21
   142         27
   150         49
   151         46
   152         38
   153          3
   154          3
   162         13
   163          1
   166         61
   167        226
   168        261
   169         23
   170         15
   180         18
   181          1
   195        176
   196         15
   197          9