##TITLE=Library Entry 107196
##JCAMP-DX=Revision 4.10 
##DATA TYPE=MASS SPECTRUM
##SAMPLE DESCRIPTION=NIST Mass Spectrometry Data Center, 1990.
##NAMES=HP
##CAS NAME=2-Amino-4-acetamino anisole
##MOLFORM=C9H12N2O2
##CAS REGISTRY NO=6375-47-9
##MP= -300
##BP= -300
##MW= 180
##$RETENTION INDEX=0
##$CONDENSED SPECTRUM=NO
##NPOINTS= 85
##XYDATA=(XY..XY) 1 
    14          8
    15         40
    17          2
    18         11
    26          5
    27          9
    28         24
    29          5
    30          4
    31          2
    32          0
    37          5
    38         11
    39         29
    40         26
    41         55
    42         34
    43        156
    44          5
    49          1
    50         11
    51         27
    52         55
    53         49
    54         16
    55          6
    56          2
    61          2
    62          4
    63         11
    64          7
    65         16
    66         28
    67         80
    68         29
    69          3
    75          2
    76          6
    77          8
    78         32
    79         16
    80         29
    81          9
    82          3
    83          1
    90          4
    91          2
    92         14
    93         14
    94         19
    95        194
    96         65
    97          3
   104          1
   105          7
   106          6
   107         15
   108          7
   109         16
   110         64
   111          4
   119          3
   120          5
   121         23
   122          3
   123        999
   124         88
   125          5
   135          4
   136          3
   137         21
   138         55
   139          8
   147          4
   148          7
   149         25
   150          2
   163          2
   165        184
   166         16
   167          3
   178          2
   180        414
   181         41
   182          4