##TITLE=Library Entry 53773
##JCAMP-DX=Revision 4.10 
##DATA TYPE=MASS SPECTRUM
##SAMPLE DESCRIPTION=CARL DJERASSI DEPT OF CHEM STANFORD UNIV STANFORD CALIF
 94305
##NAMES=HP
##CAS NAME=Cyclopentanone, 2-(1-methylpropyl)-
##MOLFORM=C9H16O
##CAS REGISTRY NO=6376-92-7
##MP= -300
##BP= -300
##MW= 140
##$RETENTION INDEX=1128
##$CONDENSED SPECTRUM=NO
##NPOINTS= 34
##XYDATA=(XY..XY) 1 
    51         30
    52         20
    53         60
    54         30
    55        430
    56        130
    57         90
    65         20
    66         10
    67         60
    68         20
    69        150
    70         50
    71         20
    77         20
    78         10
    79         20
    81         60
    82         20
    83        190
    84        999
    85         60
    91         30
    93         10
    95         20
    96         30
    97         20
    98         10
   105         20
   106         10
   107         10
   109         10
   111         40
   140         30