##TITLE=Library Entry 16473
##JCAMP-DX=Revision 4.10 
##DATA TYPE=MASS SPECTRUM
##SAMPLE DESCRIPTION=Dr. Jiri Zamecnik, DCIEM, North York, Canada, GP Librar
y
##NAMES=HP
##CAS NAME=2,5-Dimethoxy-4-propylamphetamine
##MOLFORM=C14H23NO2
##CAS REGISTRY NO=63779-88-4
##MP= -300
##BP= -300
##MW= 237
##$RETENTION INDEX=0
##$CONDENSED SPECTRUM=NO
##NPOINTS= 31
##XYDATA=(XY..XY) 1 
    44        999
    45         36
    53         10
    65         14
    77         20
    79          9
    91         44
   103         14
   104         10
   105         23
   115          8
   121         17
   122          5
   134          7
   135         37
   137          7
   151         23
   163         11
   165        223
   166         20
   178          4
   179         42
   180          4
   194        753
   195         87
   196          5
   206          2
   221          3
   222          2
   237         27
   238          7