##TITLE=Library Entry 11444
##JCAMP-DX=Revision 4.10 
##DATA TYPE=MASS SPECTRUM
##SAMPLE DESCRIPTION=Chemical Concepts
##NAMES=HP
##CAS NAME=Hexanoic acid, hexyl ester
##MOLFORM=C12H24O2
##CAS REGISTRY NO=6378-65-0
##MP= -300
##BP= -300
##MW= 200
##$RETENTION INDEX=1384
##$CONDENSED SPECTRUM=NO
##NPOINTS= 86
##XYDATA=(XY..XY) 1 
    26         11
    27        163
    28         11
    29        226
    30          5
    31         13
    38          4
    39         82
    40         18
    41        361
    42        223
    43        999
    44         27
    45         18
    46          0
    47          0
    48          0
    49          0
    50          2
    51          5
    52          2
    53         19
    54         21
    55        259
    56        474
    57         81
    58          7
    59          9
    60        108
    61        162
    62          4
    63          1
    64          0
    65          1
    66          1
    67         13
    68         10
    69        168
    70         28
    71        176
    72         11
    73         88
    74         11
    75         15
    76          0
    77          0
    78          0
    79          1
    80          2
    81          6
    82          5
    83         26
    84        415
    85         73
    86          5
    87         58
    88          4
    89         29
    90          1
    91          0
    97          8
    98          9
    99        444
   100         30
   101         11
   102          1
   111          1
   114          5
   115          6
   116         31
   117        491
   118         32
   119          3
   126          0
   127          1
   128          0
   129         12
   130          1
   143          2
   144          8
   145          0
   157          4
   158          0
   171          0
   200          0
   201          0