##TITLE=Library Entry 7378
##JCAMP-DX=Revision 4.10 
##DATA TYPE=MASS SPECTRUM
##SAMPLE DESCRIPTION=NIST Mass Spectrometry Data Center
##NAMES=HP
##CAS NAME=1-Tetradecyl acetate
##MOLFORM=C16H32O2
##CAS REGISTRY NO=638-59-5
##MP= -300
##BP= -300
##MW= 256
##$RETENTION INDEX=1810
##$CONDENSED SPECTRUM=NO
##NPOINTS= 102
##XYDATA=(XY..XY) 1 
    15          6
    26          2
    27         35
    28         12
    29         98
    30          3
    31          3
    37          1
    39         45
    40         11
    41        341
    42        113
    43        999
    44         31
    45          6
    50          1
    51          2
    52          2
    53         27
    54         73
    55        507
    56        332
    57        394
    58         34
    59          8
    61        393
    62          9
    63          2
    65          4
    66          7
    67         87
    68        135
    69        407
    70        302
    71        167
    72         10
    73         45
    74          3
    75          1
    77          3
    78          1
    79          9
    80          3
    81         46
    82        221
    83        465
    84        206
    85         90
    86          7
    87          6
    88          2
    91          1
    93          1
    94          2
    95         21
    96         92
    97        381
    98        143
    99         19
   100          2
   101          9
   102          3
   108          1
   109          7
   110         38
   111        195
   112         81
   113         11
   114          1
   115          2
   116         43
   117          3
   123          2
   124         20
   125         82
   126         45
   127          7
   128          1
   129          2
   130          5
   137          1
   138         10
   139         22
   140         26
   141          4
   142          1
   152          4
   153          8
   154          9
   155          2
   156          1
   166          3
   167          4
   168         53
   169          8
   170          2
   184          2
   194          1
   196         26
   197          4
   198          1
   241          1