##TITLE=Library Entry 67710
##JCAMP-DX=Revision 4.10 
##DATA TYPE=MASS SPECTRUM
##SAMPLE DESCRIPTION=B. Derendyaev, Novosibirsk Institute of Organic Chemist
ry
##NAMES=HP
##CAS NAME=2-C14H26
##MOLFORM=C14H26
##CAS REGISTRY NO=638-60-8
##MP= -300
##BP= -300
##MW= 194
##$RETENTION INDEX=1451
##$CONDENSED SPECTRUM=NO
##NPOINTS= 109
##XYDATA=(XY..XY) 1 
    12          1
    13          1
    14          2
    15          8
    24          1
    25          3
    26         19
    27        325
    28         63
    29        484
    30          2
    32          2
    36          1
    37          3
    38          8
    39        241
    40         58
    41        972
    42        144
    43        756
    44         21
    45          6
    50          9
    51         37
    52         37
    53        307
    54        381
    55        701
    56        129
    57        269
    58         18
    59          3
    60          2
    62          1
    63          5
    64          3
    65         55
    66         80
    67        756
    68        605
    69        307
    70         70
    71         55
    72          5
    73          2
    74          1
    75          2
    77         55
    78         12
    79        144
    80         55
    81        729
    82        288
    83        167
    84         33
    85         21
    86          2
    87          1
    91         30
    92          5
    93         58
    94         43
    95        999
    96        344
    97         87
    98         12
    99          1
   103          1
   105          6
   106          2
   107         14
   108         11
   109        316
   110        114
   111         24
   112          5
   113          2
   115          1
   117          1
   119          2
   120          1
   121          5
   122          3
   123         42
   124         16
   125          4
   126          2
   127          1
   133          2
   135          3
   136          1
   138          6
   139          2
   140          1
   147          1
   149          2
   150          1
   151          6
   152          7
   153          2
   163          1
   165         11
   166          3
   177          1
   179          4
   180          1
   193          2
   194          2
   195          1