##TITLE=Library Entry 54935
##JCAMP-DX=Revision 4.10 
##DATA TYPE=MASS SPECTRUM
##SAMPLE DESCRIPTION=Japan AIST/NIMC Database- Spectrum MS-NW-5338
##NAMES=HP
##CAS NAME=Pentanoyl chloride
##MOLFORM=C5H9ClO
##CAS REGISTRY NO=638-29-9
##MP= -300
##BP= -300
##MW= 120
##$RETENTION INDEX=809
##$CONDENSED SPECTRUM=NO
##NPOINTS= 86
##XYDATA=(XY..XY) 1 
    12          1
    13          3
    14         14
    15         39
    16          1
    18          1
    24          1
    25          8
    26        108
    27        609
    28        284
    29        800
    30         20
    31          9
    32          5
    34          1
    35         16
    36         77
    37         23
    38         45
    39        304
    40         42
    41        801
    42        295
    43        250
    44          9
    45         31
    46          2
    47          3
    48          3
    49         18
    50         33
    51         30
    52          9
    53         34
    54         13
    55        438
    56        179
    57        937
    58         44
    59          6
    60          4
    61          1
    62          2
    63         57
    64          3
    65         19
    66          1
    67          7
    68          3
    69          8
    70          2
    71          3
    72          1
    73          3
    74          1
    75          4
    76          2
    77         10
    78        339
    79         28
    80        112
    81          9
    82          2
    83         11
    84        121
    85        999
    86         59
    87         13
    88          1
    91        104
    92         43
    93         36
    94         15
    95          1
    96          1
    97          1
    98          3
   101          2
   102          1
   103          2
   105          6
   107          2
   120          2
   121          1
   122          1