##TITLE=Library Entry 4848
##JCAMP-DX=Revision 4.10 
##DATA TYPE=MASS SPECTRUM
##SAMPLE DESCRIPTION=Japan AIST/NIMC Database- Spectrum MS-NW-1034
##NAMES=HP
##CAS NAME=Formic acid, pentyl ester
##MOLFORM=C6H12O2
##CAS REGISTRY NO=638-49-3
##MP= -300
##BP= -300
##MW= 116
##$RETENTION INDEX=796
##$CONDENSED SPECTRUM=NO
##NPOINTS= 53
##XYDATA=(XY..XY) 1 
    14          2
    15         13
    16          1
    17          6
    18         27
    19          6
    26         15
    27        176
    28         68
    29        263
    30          8
    31        318
    32         11
    33          1
    37          4
    38          8
    39        109
    40         21
    41        396
    42        999
    43        192
    44         20
    45         38
    46          2
    47         81
    48          1
    49          1
    50          9
    51         11
    52          8
    53         16
    54         12
    55        692
    56         55
    57         65
    58          5
    59         21
    60          9
    61          2
    62          1
    63          2
    65          1
    67          8
    68          5
    69         41
    70        702
    71         41
    72          2
    73         32
    74          6
    75          1
    87         53
    88          9