##TITLE=Library Entry 69815
##JCAMP-DX=Revision 4.10 
##DATA TYPE=MASS SPECTRUM
##SAMPLE DESCRIPTION=Japan AIST/NIMC Database- Spectrum MS-NW-4269
##NAMES=HP
##CAS NAME=Cyclohexane, 1,3-dimethyl-, cis-
##MOLFORM=C8H16
##CAS REGISTRY NO=638-04-0
##MP= -300
##BP= -300
##MW= 112
##$RETENTION INDEX=785
##$CONDENSED SPECTRUM=NO
##NPOINTS= 62
##XYDATA=(XY..XY) 1 
    15          9
    26          5
    27         91
    28         11
    29         88
    30          2
    31          1
    37          2
    38          6
    39        109
    40         20
    41        287
    42        155
    43        115
    44          3
    45          3
    46          1
    50          5
    51          9
    52          4
    53         34
    54         18
    55        916
    56        216
    57         44
    58         10
    59          2
    62          1
    63          3
    65          7
    66          3
    67         34
    68         23
    69        208
    70        103
    71         25
    72          2
    74          2
    77          6
    78          1
    79          6
    80          1
    81         18
    82         13
    83         63
    84         33
    85         11
    86          1
    91          2
    93          2
    95         12
    96         28
    97        999
    98         80
    99          4
   108          1
   109          1
   110          3
   111         14
   112        244
   113         22
   114          1