##TITLE=Library Entry 88453
##JCAMP-DX=Revision 4.10 
##DATA TYPE=MASS SPECTRUM
##SAMPLE DESCRIPTION=NIST Mass Spectrometry Data Center, 1992
##NAMES=HP
##CAS NAME=Thiophene, 2,5-dimethyl-
##MOLFORM=C6H8S
##CAS REGISTRY NO=638-02-8
##MP= -300
##BP= -300
##MW= 112
##$RETENTION INDEX=878
##$CONDENSED SPECTRUM=NO
##NPOINTS= 86
##XYDATA=(XY..XY) 1 
    11          0
    12          0
    13          1
    14          4
    15         28
    16          0
    17          0
    18          3
    24          0
    25          3
    26         29
    27        120
    28         19
    29          0
    32          9
    33          7
    34          4
    35          1
    36          4
    37         29
    38         49
    39        142
    40         10
    41         23
    42          1
    45        160
    46         10
    47         15
    49         19
    50         98
    51        128
    52         39
    53         90
    54          9
    55         12
    56          4
    57         29
    58         84
    59        196
    60         13
    61         19
    62         16
    63         23
    64          3
    65         24
    66         18
    67         82
    68         13
    69         77
    70         23
    71         65
    72         13
    73         11
    74         22
    75          7
    76          3
    77        186
    78         72
    79         22
    80          1
    81          8
    82         12
    83          6
    84         12
    85         26
    86          2
    87          1
    91          1
    92          2
    93         12
    94          3
    95         22
    96          1
    97        622
    98         40
    99         30
   100          1
   105          0
   106          0
   107          0
   109         16
   111        999
   112        788
   113         95
   114         33
   115          2