##TITLE=Library Entry 53172
##JCAMP-DX=Revision 4.10 
##DATA TYPE=MASS SPECTRUM
##SAMPLE DESCRIPTION=Japan AIST/NIMC Database- Spectrum MS-IW-1259
##NAMES=HP
##CAS NAME=2-Butenoic acid, 3-methyl-, ethyl ester
##MOLFORM=C7H12O2
##CAS REGISTRY NO=638-10-8
##MP= -300
##BP= -300
##MW= 128
##$RETENTION INDEX=924
##$CONDENSED SPECTRUM=NO
##NPOINTS= 54
##XYDATA=(XY..XY) 1 
    14          1
    15          5
    26          7
    27         91
    28         19
    29        175
    30          4
    31          2
    37          2
    38          6
    39         93
    40         10
    41         31
    42         13
    43         29
    44          2
    45          9
    50          5
    51          9
    52          4
    53         45
    54         54
    55        332
    56         31
    57         13
    58          8
    59         27
    60          5
    66          1
    67         10
    68          1
    69          6
    70          5
    71          5
    72          4
    73          1
    81          2
    82        266
    83        999
    84         64
    85        147
    86          6
    87          2
    95          2
    97          1
    99          9
   100        245
   101         15
   102          1
   113         51
   114          3
   128        397
   129         39
   130          3