##TITLE=Library Entry 91361
##JCAMP-DX=Revision 4.10 
##DATA TYPE=MASS SPECTRUM
##SAMPLE DESCRIPTION=RADIAN CORP
##NAMES=HP
##CAS NAME=Butanoic acid, 4-chloro-3-oxo-, ethyl ester
##MOLFORM=C6H9ClO3
##CAS REGISTRY NO=638-07-3
##MP= -300
##BP= -300
##MW= 164
##$RETENTION INDEX=0
##$CONDENSED SPECTRUM=NO
##NPOINTS= 88
##XYDATA=(XY..XY) 1 
    13          2
    14          6
    15          6
    19          1
    24          2
    25         10
    26         54
    27        215
    28         39
    29        471
    30         22
    31         77
    35         11
    36          9
    37         15
    38         17
    39         24
    40          9
    41        119
    42        432
    43        671
    44         31
    45        103
    46         21
    47         15
    48         25
    49        278
    50         14
    51         86
    52          5
    53         14
    54          4
    55         42
    56         19
    57          3
    58          2
    60         42
    61         24
    62         12
    63         11
    64          4
    65          5
    66          2
    67          4
    68          6
    69        550
    70         28
    71          9
    72          3
    73         49
    74          3
    75          3
    76         45
    77        490
    78         26
    79        157
    80          5
    83         18
    84          6
    85          3
    86          5
    87        139
    88         13
    89          4
    90          6
    91          4
    92         40
    93          3
    94         13
    95          1
   100          4
   115        999
   116         58
   117         10
   118        107
   119        369
   120         53
   121        122
   122          7
   128          6
   129          2
   136         23
   137          2
   138          8
   149          2
   164         52
   165          4
   166         17