##TITLE=Library Entry 25381
##JCAMP-DX=Revision 4.10 
##DATA TYPE=MASS SPECTRUM
##SAMPLE DESCRIPTION=O A MAMER, MCGILL UNIVERSITY, MONTREAL, CANAad
##NAMES=HP
##CAS NAME=Hexadecane, 2,6,10,14-tetramethyl-
##MOLFORM=C20H42
##CAS REGISTRY NO=638-36-8
##MP= -300
##BP= -300
##MW= 282
##$RETENTION INDEX=1792
##$CONDENSED SPECTRUM=NO
##NPOINTS= 77
##XYDATA=(XY..XY) 1 
    18          4
    26          6
    27         59
    28          3
    29        179
    30          2
    39         33
    40          8
    41        313
    42         64
    43        612
    44         19
    51          1
    53         17
    54          9
    55        234
    56        199
    57        999
    58         58
    59          4
    65          1
    67         11
    68         14
    69        108
    70        123
    71        712
    72         37
    81          3
    82          7
    83         38
    84         43
    85        349
    86         23
    95          1
    96         17
    97         59
    98         23
    99        103
   100          6
   109          0
   110          5
   111         13
   112         72
   113        125
   114          9
   123          2
   124          4
   125         10
   126         62
   127        119
   128         10
   139          2
   140         10
   141         40
   142          3
   154         10
   155         27
   168          7
   169         21
   170          1
   182         25
   183         62
   184          8
   196         20
   197         49
   198          6
   210          2
   211          3
   225          4
   239          1
   250          3
   252          3
   253         10
   254          1
   267          4
   268          1
   282          7