##TITLE=Library Entry 30118
##JCAMP-DX=Revision 4.10 
##DATA TYPE=MASS SPECTRUM
##SAMPLE DESCRIPTION=NIST Mass Spectrometry Data Center, 1994
##NAMES=HP
##CAS NAME=Tetradecanamide
##MOLFORM=C14H29NO
##CAS REGISTRY NO=638-58-4
##MP= -300
##BP= -300
##MW= 227
##$RETENTION INDEX=1921
##$CONDENSED SPECTRUM=NO
##NPOINTS= 98
##XYDATA=(XY..XY) 1 
    15          2
    16          0
    17          2
    18          7
    27         61
    28         25
    29        110
    30          9
    31          3
    39         41
    41        220
    42         51
    43        215
    44        166
    45          5
    46          2
    51          1
    53         14
    54         14
    55        127
    56         28
    57         77
    58          1
    59        999
    60         76
    61          3
    65          2
    66          1
    67         12
    68          5
    69         44
    70         10
    71          1
    72        388
    73         53
    74          2
    77          2
    78          0
    79          4
    80          0
    81          8
    82          3
    83         24
    84         14
    85         10
    86         70
    87          7
    91          0
    93          3
    94          0
    95          5
    96          2
    97         19
    98         23
    99          3
   100         20
   101         10
   102          1
   107          2
   109          2
   110          2
   111          7
   112          2
   113          1
   114         51
   115         17
   116          1
   121          2
   123          1
   124          0
   125          4
   126          1
   128         66
   129          7
   135          1
   138          1
   139          2
   140          1
   142         19
   143          2
   149          1
   152          1
   153          1
   154          1
   156          9
   157          1
   166          1
   167          1
   170         17
   171          2
   181          0
   184         57
   185          7
   198         22
   199          4
   210          1
   227         18
   228          4