##TITLE=Library Entry 25531
##JCAMP-DX=Revision 4.10 
##DATA TYPE=MASS SPECTRUM
##SAMPLE DESCRIPTION=Japan AIST/NIMC Database- Spectrum MS-NW-2836
##NAMES=HP
##CAS NAME=Triacontane
##MOLFORM=C30H62
##CAS REGISTRY NO=638-68-6
##MP= -300
##BP= -300
##MW= 422
##$RETENTION INDEX=3000
##$CONDENSED SPECTRUM=NO
##NPOINTS= 134
##XYDATA=(XY..XY) 1 
    26          1
    27         18
    28          4
    29         75
    30          2
    39         10
    40          3
    41        146
    42         42
    43        525
    44         17
    53          6
    54         15
    55        171
    56        111
    57        999
    58         43
    65          1
    66          2
    67         17
    68         25
    69        128
    70         98
    71        720
    72         39
    73          1
    79          2
    80          1
    81          9
    82         34
    83        125
    84         76
    85        534
    86         35
    87          1
    95          6
    96         21
    97        108
    98         62
    99        209
   100         15
   109          2
   110         11
   111         60
   112         55
   113        152
   114         12
   123          1
   124          7
   125         35
   126         48
   127        121
   128         11
   137          1
   138          6
   139         18
   140         44
   141         99
   142          9
   152          4
   153         11
   154         39
   155         84
   156          9
   166          3
   167          8
   168         35
   169         75
   170          9
   180          2
   181          6
   182         31
   183         68
   184          9
   194          2
   195          5
   196         28
   197         60
   198          9
   208          1
   209          3
   210         25
   211         54
   212          9
   222          1
   223          2
   224         22
   225         49
   226          9
   227          1
   236          1
   237          2
   238         18
   239         42
   240          7
   241          1
   250          1
   251          1
   252         15
   253         36
   254          7
   265          1
   266         12
   267         31
   268          6
   280         10
   281         27
   282          5
   294          9
   295         22
   296          5
   308          7
   309         20
   310          5
   322          6
   323         17
   324          4
   336          5
   337         14
   338          4
   350          3
   351         12
   352          3
   364          3
   365          9
   366          3
   378          1
   379          6
   380          2
   393          3
   394          1
   422         23
   423          7
   424          1