##TITLE=Library Entry 8988
##JCAMP-DX=Revision 4.10 
##DATA TYPE=MASS SPECTRUM
##SAMPLE DESCRIPTION=Japan AIST/NIMC Database- Spectrum MS-NW-8679
##NAMES=HP
##CAS NAME=Isopropyl butyrate
##MOLFORM=C7H14O2
##CAS REGISTRY NO=638-11-9
##MP= -300
##BP= -300
##MW= 130
##$RETENTION INDEX=842
##$CONDENSED SPECTRUM=NO
##NPOINTS= 43
##XYDATA=(XY..XY) 1 
    14          2
    15         15
    18          3
    19          2
    26          7
    27        116
    28         19
    29         17
    31         10
    37          2
    38          5
    39         55
    40         11
    41        191
    42        109
    43        999
    44         35
    45         30
    47          1
    55         12
    56          2
    57          3
    58          2
    59        131
    60        148
    61          7
    69          3
    70          7
    71        760
    72         34
    73         72
    74          3
    87          5
    88        120
    89        281
    90         12
    91          2
   102         26
   103          1
   115         41
   116          3
   130          2
   131          2