##TITLE=Library Entry 41104
##JCAMP-DX=Revision 4.10 
##DATA TYPE=MASS SPECTRUM
##SAMPLE DESCRIPTION=NIST Mass Spectrometry Data Center
##NAMES=HP
##CAS NAME=Tridecanoic acid
##MOLFORM=C13H26O2
##CAS REGISTRY NO=638-53-9
##MP= -300
##BP= -300
##MW= 214
##$RETENTION INDEX=1666
##$CONDENSED SPECTRUM=NO
##NPOINTS= 139
##XYDATA=(XY..XY) 1 
    15          2
    19          1
    26          6
    27        131
    28         34
    29        265
    30          8
    31         15
    37          1
    38          2
    39        144
    40         29
    41        772
    42        177
    43        821
    44         31
    45        137
    46          4
    47          3
    50          3
    51          8
    52          5
    53         63
    54         56
    55        707
    56        161
    57        632
    58         32
    59         52
    60        965
    61        192
    62          8
    63          2
    64          1
    65         10
    66          7
    67         61
    68         45
    69        308
    70         89
    71        274
    73        999
    74         90
    75          8
    76          1
    77          8
    78          3
    79         21
    80          7
    81         39
    82         44
    83        192
    84        104
    85        236
    86         25
    87        184
    88         18
    89          3
    90          1
    91          4
    92          1
    93         13
    94          6
    95         24
    96         37
    97        142
    98         94
    99         92
   100         11
   101         77
   102         31
   103          3
   104          1
   105          2
   106          1
   107          8
   108          3
   109         10
   110         21
   111         64
   112         31
   113         35
   114          6
   115        224
   116         37
   117          4
   118          1
   119          1
   120          1
   121          9
   122          2
   123          6
   124         17
   125         31
   126         20
   127          3
   129        454
   130         40
   131          3
   135          5
   136          1
   137          1
   138          2
   139          5
   140          2
   141          1
   143         66
   144          8
   145          1
   149          3
   150          1
   152         30
   153          6
   154         19
   155          6
   157         67
   158         10
   159          1
   163          1
   167          1
   168          1
   169          1
   171        258
   172         27
   173          3
   177          2
   178          4
   179          1
   185         93
   186         13
   187          1
   195          1
   197          6
   198          1
   199          1
   213          1
   214        102
   215         15
   216          1