##TITLE=Library Entry 45176
##JCAMP-DX=Revision 4.10 
##DATA TYPE=MASS SPECTRUM
##SAMPLE DESCRIPTION=Japan AIST/NIMC Database- Spectrum MS-NW-1480
##NAMES=HP
##CAS NAME=Butane, 1-(ethylthio)-
##MOLFORM=C6H14S
##CAS REGISTRY NO=638-46-0
##MP= -300
##BP= -300
##MW= 118
##$RETENTION INDEX=893
##$CONDENSED SPECTRUM=NO
##NPOINTS= 73
##XYDATA=(XY..XY) 1 
    14          1
    15          9
    25          1
    26         32
    27        355
    28         53
    29        494
    30         11
    32          2
    33          2
    34         11
    35         91
    36          1
    37          5
    38          7
    39        108
    40         19
    41        490
    42         35
    43         42
    44          6
    45        117
    46        117
    47        478
    48         63
    49         23
    50          8
    51          8
    52          2
    53         18
    54          9
    55        168
    56        681
    57        170
    58         30
    59         56
    60         60
    61        374
    62        469
    63        195
    64         23
    65          8
    66         13
    67          1
    68          1
    69          2
    71          4
    73          9
    74          2
    75        999
    76         82
    77         47
    78          3
    79          1
    84          1
    85          2
    87          2
    88          4
    89        245
    90         27
    91         12
    92          1
   103         18
   104          2
   105          1
   108          2
   109          1
   110          1
   117          7
   118        563
   119         43
   120         26
   121          2