##TITLE=Library Entry 88452
##JCAMP-DX=Revision 4.10 
##DATA TYPE=MASS SPECTRUM
##SAMPLE DESCRIPTION=Exported from NIST MS Search
##NAMES=HP
##CAS NAME=Thiophene, 2,4-dimethyl-
##MOLFORM=C6H8S
##CAS REGISTRY NO=638-00-6
##MP= -300
##BP= -300
##MW= 112
##$RETENTION INDEX=878
##$CONDENSED SPECTRUM=NO
##NPOINTS= 89
##XYDATA=(XY..XY) 1 
    12          2
    13          3
    14          4
    15         33
    16          1
    24          1
    25          2
    26         17
    27         93
    28          8
    29          6
    30          1
    31          1
    32          3
    33          4
    34          2
    35          1
    36          3
    37         27
    38         49
    39        192
    40         22
    41         65
    42          3
    44          5
    45        258
    46         14
    47         21
    48          2
    49          8
    50         36
    51         61
    52         18
    53         58
    54          8
    55         24
    56          4
    57         15
    58         36
    59         70
    60          7
    61         15
    62         17
    63         28
    64          5
    65         32
    66         18
    67         57
    68         10
    69         66
    70         20
    71         70
    72         18
    73          7
    74          7
    75          2
    76          1
    77         89
    78         41
    79         33
    80          3
    81          6
    82          7
    83          6
    84          9
    85         20
    86          2
    87          1
    92          1
    93          8
    94          3
    95         10
    96          3
    97        485
    98         36
    99         23
   100          1
   101          1
   105          1
   106          1
   107          1
   108          1
   109          9
   110         11
   111        999
   112        728
   113         92
   114         33
   115          2