##TITLE=Library Entry 26173
##JCAMP-DX=Revision 4.10 
##DATA TYPE=MASS SPECTRUM
##SAMPLE DESCRIPTION=Japan AIST/NIMC Database- Spectrum MS-IW- 901
##NAMES=HP
##CAS NAME=Octadecanenitrile
##MOLFORM=C18H35N
##CAS REGISTRY NO=638-65-3
##MP= -300
##BP= -300
##MW= 265
##$RETENTION INDEX=0
##$CONDENSED SPECTRUM=NO
##NPOINTS= 150
##XYDATA=(XY..XY) 1 
    26          1
    27         27
    28         13
    29         90
    30         20
    39         26
    40          6
    41        254
    42         69
    43        411
    44         37
    45          1
    51          1
    52          1
    53         16
    54         75
    55        251
    56        148
    57        999
    58         75
    59          2
    65          4
    66          4
    67         60
    68         39
    69        194
    70        486
    71        455
    72         37
    73          1
    77          5
    78          1
    79         46
    80         22
    81         65
    82        241
    83        305
    84        242
    85        353
    86         31
    87          1
    91          9
    92          1
    93         53
    94         30
    95         51
    96        543
    97        915
    98        231
    99        227
   100         23
   101          1
   105          5
   106          1
   107         36
   108         23
   109         27
   110        725
   111        451
   112        177
   113        170
   114         20
   115          1
   119          2
   120          2
   121         29
   122         40
   123         18
   124        508
   125        256
   126        179
   127        123
   128         18
   129          1
   133          1
   134          2
   135         23
   136         32
   137         10
   138        288
   139        123
   140        112
   141         74
   142         12
   143          1
   147          1
   148          1
   149         13
   150         15
   151          6
   152        223
   153         76
   154         87
   155         33
   156          5
   163          6
   164         15
   165          4
   166        202
   167         71
   168         69
   169         20
   170          4
   177          3
   178         14
   179          4
   180        213
   181         98
   182         66
   183         13
   184          2
   191          2
   192         16
   193          4
   194        262
   195        141
   196         50
   197          9
   198          1
   205          2
   206         10
   207          3
   208        310
   209        173
   210         55
   211          8
   219          1
   220          6
   221          2
   222        357
   223        158
   224         61
   225          9
   234          3
   235          2
   236        259
   237         81
   238         11
   239          1
   248          4
   249          2
   250         47
   251         13
   252          2
   262          1
   263          4
   264         16
   265        128
   266         31
   267          4