##TITLE=Library Entry 37249
##JCAMP-DX=Revision 4.10 
##DATA TYPE=MASS SPECTRUM
##SAMPLE DESCRIPTION=V.G.Zaikin, Petrochem. Synth. Inst., Moscow
##NAMES=HP
##CAS NAME=Pentyl octanoate
##MOLFORM=C13H26O2
##CAS REGISTRY NO=638-25-5
##MP= -300
##BP= -300
##MW= 214
##$RETENTION INDEX=1470
##$CONDENSED SPECTRUM=NO
##NPOINTS= 71
##XYDATA=(XY..XY) 1 
    26         12
    27        119
    28         49
    29        188
    30          9
    31         10
    36          7
    38         12
    39        105
    40         26
    41        365
    42        266
    43        687
    44         71
    45         38
    53         30
    54         19
    55        393
    56        142
    57        499
    58         35
    59         17
    60        329
    61        171
    62          3
    67         31
    68         18
    69        119
    70        999
    71        195
    72         13
    73        243
    74         29
    75          7
    77          5
    79          7
    81         15
    82         29
    83         77
    84         71
    85         59
    86          7
    87         71
    88         12
    89         31
    95          6
    97         39
    98         36
    99          6
   100          6
   101         81
   102         28
   103         15
   109         17
   111         10
   115         49
   116         10
   125         18
   126         12
   127        393
   128         38
   129          7
   130         39
   131          8
   143         16
   144         58
   145        549
   146         47
   185          4
   214          4
   215          1