##TITLE=Library Entry 4704
##JCAMP-DX=Revision 4.10 
##DATA TYPE=MASS SPECTRUM
##SAMPLE DESCRIPTION=Japan AIST/NIMC Database- Spectrum MS-NW-1575
##NAMES=HP
##CAS NAME=Carbonochloridic acid, pentyl ester
##MOLFORM=C6H11ClO2
##CAS REGISTRY NO=638-41-5
##MP= -300
##BP= -300
##MW= 150
##$RETENTION INDEX=926
##$CONDENSED SPECTRUM=NO
##NPOINTS= 53
##XYDATA=(XY..XY) 1 
    14          1
    15         13
    16          2
    18          2
    26         17
    27        178
    28         54
    29        272
    30          7
    31         10
    32          2
    35          5
    36         10
    37          3
    38          9
    39        105
    40         26
    41        384
    42        999
    43        417
    44         52
    45          3
    49          1
    50          4
    51          5
    52          2
    53         15
    54         14
    55        717
    56         44
    57         62
    58          3
    63        185
    64          2
    65         60
    66          6
    67          6
    68          3
    69         38
    70        559
    71        112
    72          5
    77          1
    81          5
    83          2
    93         19
    94          1
    95          7
   107          9
   109          3
   121         25
   122          2
   123          8