##TITLE=Library Entry 6105
##JCAMP-DX=Revision 4.10 
##DATA TYPE=MASS SPECTRUM
##SAMPLE DESCRIPTION=R.T.HOLMAN,UNIVERSITY OF MINNESOTA
##NAMES=HP
##CAS NAME=Octadecanal
##MOLFORM=C18H36O
##CAS REGISTRY NO=638-66-4
##MP= -300
##BP= -300
##MW= 268
##$RETENTION INDEX=2021
##$CONDENSED SPECTRUM=NO
##NPOINTS= 100
##XYDATA=(XY..XY) 1 
    15          8
    16          4
    17         15
    18         55
    26          7
    27        150
    28         56
    29        420
    30         13
    31         13
    32          7
    39        110
    40         24
    41        860
    42        180
    43        999
    44        260
    45         97
    53         52
    54        130
    55        740
    56        240
    57        800
    58         53
    59         10
    60          5
    65         10
    66         63
    67        330
    68        390
    69        430
    70        180
    71        330
    72         54
    73         18
    77          9
    79         31
    80         28
    81        310
    82        630
    83        400
    84        120
    85        180
    86         25
    87          5
    91          7
    93         15
    94         21
    95        270
    96        400
    97        270
    98         69
    99         45
   100          9
   107          6
   108          9
   109        130
   110        130
   111        110
   112         37
   113         21
   114          5
   121          5
   122          9
   123         72
   124         77
   125         43
   126         22
   127         12
   136          6
   137         46
   138         45
   139         18
   140         13
   141          8
   149          5
   151         14
   152         22
   153          9
   154         11
   155          5
   165          8
   166         17
   167          6
   168          9
   179          5
   180         15
   181          5
   182          9
   193          9
   194         18
   196          7
   207          5
   208         10
   222         30
   223          5
   224         23
   250         36
   251          8
   268          4