##TITLE=Library Entry 22322
##JCAMP-DX=Revision 4.10 
##DATA TYPE=MASS SPECTRUM
##SAMPLE DESCRIPTION=Japan AIST/NIMC Database- Spectrum MS-NW-3058
##NAMES=HP
##CAS NAME=Hexane, 2-chloro-
##MOLFORM=C6H13Cl
##CAS REGISTRY NO=638-28-8
##MP= -300
##BP= -300
##MW= 120
##$RETENTION INDEX=809
##$CONDENSED SPECTRUM=NO
##NPOINTS= 58
##XYDATA=(XY..XY) 1 
    14          1
    15         15
    26         23
    27        300
    28         33
    29        404
    30          9
    31          1
    35          5
    36         39
    37          7
    38         16
    39        208
    40         38
    41        795
    42        833
    43        711
    44         22
    45          1
    49         12
    50         13
    51         19
    52          7
    53         47
    54         55
    55        834
    56        999
    57        380
    58         14
    61          6
    62         12
    63         82
    64          5
    65         25
    66          2
    67         15
    68          8
    69        559
    70         33
    71          8
    73          1
    74          1
    75          7
    76         12
    77         23
    78          4
    79          7
    80          1
    81          1
    82          1
    83         12
    84        615
    85         98
    86          5
    89          3
    90          1
    91          5
    93          1