##TITLE=Library Entry 24366
##JCAMP-DX=Revision 4.10 
##DATA TYPE=MASS SPECTRUM
##SAMPLE DESCRIPTION=Japan AIST/NIMC Database- Spectrum MS-NW-5921
##NAMES=HP
##CAS NAME=Tricosane
##MOLFORM=C23H48
##CAS REGISTRY NO=638-67-5
##MP= -300
##BP= -300
##MW= 324
##$RETENTION INDEX=2300
##$CONDENSED SPECTRUM=NO
##NPOINTS= 100
##XYDATA=(XY..XY) 1 
    26          1
    27         38
    28          9
    29        142
    30          3
    39         20
    40          5
    41        257
    42         67
    43        696
    44         22
    53          9
    54         20
    55        216
    56        121
    57        999
    58         43
    65          1
    66          1
    67         20
    68         21
    69        121
    70         99
    71        671
    72         38
    73          1
    77          1
    79          2
    81          9
    82         25
    83         94
    84         68
    85        461
    86         30
    87          1
    95          3
    96         14
    97         72
    98         54
    99        172
   100         12
   109          1
   110          8
   111         36
   112         47
   113        118
   114         10
   124          4
   125         19
   126         42
   127         94
   128          9
   138          3
   139          9
   140         36
   141         77
   142          9
   152          2
   153          5
   154         31
   155         67
   156          8
   166          1
   167          3
   168         27
   169         57
   170          7
   181          2
   182         23
   183         53
   184          8
   195          1
   196         20
   197         47
   198          7
   210         17
   211         41
   212          7
   224         14
   225         38
   226          6
   238         12
   239         34
   240          6
   252          9
   253         30
   254          6
   266          8
   267         26
   268          6
   280          4
   281         15
   282          3
   294          3
   295          9
   296          2
   323          2
   324        134
   325         34
   326          4