##TITLE=Library Entry 62650
##JCAMP-DX=Revision 4.10 
##DATA TYPE=MASS SPECTRUM
##SAMPLE DESCRIPTION=Japan AIST/NIMC Database- Spectrum MS-IW-3774
##NAMES=HP
##CAS NAME=Benzenesulfonamide, N-(2-chlorophenyl)-4-methyl-
##MOLFORM=C13H12ClNO2S
##CAS REGISTRY NO=6380-05-8
##MP= -300
##BP= -300
##MW= 281
##$RETENTION INDEX=0
##$CONDENSED SPECTRUM=NO
##NPOINTS= 124
##XYDATA=(XY..XY) 1 
    26          1
    27          4
    28          6
    36          1
    37          3
    38         12
    39         70
    40          6
    41         19
    42          1
    44          2
    45          4
    47          1
    48          1
    49          3
    50         11
    51         26
    52         15
    53          5
    54          1
    61          4
    62         16
    63         80
    64         36
    65        188
    66         11
    67          4
    69          2
    71          1
    72          2
    73         31
    74          5
    75         14
    76          4
    77         18
    78          8
    79          6
    80          1
    85          1
    86          2
    87          3
    88          2
    89         49
    90         65
    91        999
    92        106
    93          5
    95          1
    97          2
    98          2
    99        166
   100         11
   101         53
   102          4
   106          2
   107          4
   108          4
   109          1
   110          1
   111          5
   112          1
   113          1
   115          3
   116          1
   121          2
   122          2
   123          3
   124          2
   125          6
   126        276
   127         53
   128         93
   129         16
   130          1
   138          2
   139         46
   140          8
   141          3
   142          1
   150          1
   151          2
   152          6
   153          5
   154          3
   155        907
   156         78
   157         46
   158          3
   164          1
   165          2
   166          6
   167         29
   168          7
   169          1
   177          1
   178          3
   179          3
   180         29
   181         21
   182         35
   183          6
   201          3
   202         27
   203          5
   204          9
   205          1
   208          1
   214          2
   215          1
   216         31
   217         10
   218         10
   219          3
   246          9
   247         16
   248          3
   249          1
   279          1
   281        631
   282         97
   283        237
   284         35
   285         11
   286          1