##TITLE=Library Entry 7658
##JCAMP-DX=Revision 4.10 
##DATA TYPE=MASS SPECTRUM
##SAMPLE DESCRIPTION=NIST Mass Spectrometry Data Center, 1994
##NAMES=HP
##CAS NAME=Propanoic acid, 3-mercapto-, dodecyl ester
##MOLFORM=C15H30O2S
##CAS REGISTRY NO=6380-71-8
##MP= -300
##BP= -300
##MW= 274
##$RETENTION INDEX=0
##$CONDENSED SPECTRUM=NO
##NPOINTS= 103
##XYDATA=(XY..XY) 1 
    15          8
    18          4
    26         18
    27        266
    28        187
    29        396
    30         11
    31         16
    33          6
    34          7
    35         58
    39        102
    41        741
    42        195
    43        999
    44         39
    45         42
    46         24
    47         79
    49          4
    51          4
    53         38
    54         64
    55        609
    56        258
    57        892
    58         58
    59         47
    60        135
    61        431
    62         19
    63         28
    65          5
    66          7
    67         72
    68         55
    69        306
    70        189
    71        396
    72         24
    73         29
    74          4
    75          5
    77          9
    79          9
    80          3
    81         27
    82         61
    83        181
    84        100
    85        187
    86         17
    87          3
    88        299
    89        244
    90         26
    91         13
    95          8
    96         36
    97        123
    98         57
    99         30
   100          3
   101          4
   104          4
   106        379
   107        183
   108         28
   109         11
   110         16
   111         65
   112         26
   113         17
   115          3
   119          4
   124          8
   125         29
   126         11
   127          6
   129          6
   133          4
   138          2
   139          8
   140         18
   141          3
   143          5
   144          3
   147          3
   157          6
   161          4
   168         26
   169          8
   189          3
   201         44
   202          7
   203          4
   213          3
   223          4
   241         28
   242          5
   245          2
   256          6
   274          4