##TITLE=Library Entry 1670
##JCAMP-DX=Revision 4.10 
##DATA TYPE=MASS SPECTRUM
##SAMPLE DESCRIPTION=D.HENNEBERG, MAX-PLANCK INSTITUTE, MULHEIM, WEST GERMAN
Y
##NAMES=HP
##CAS NAME=Palladium, bis[(1,2,3-.eta.)-2-butenyl]-
##MOLFORM=C8H14Pd
##CAS REGISTRY NO=63817-37-8
##MP= -300
##BP= -300
##MW= 216
##$RETENTION INDEX=0
##$CONDENSED SPECTRUM=NO
##NPOINTS= 82
##XYDATA=(XY..XY) 1 
    26        285
    27        723
    28        488
    29        174
    30          5
    31         11
    36          9
    37         60
    38         85
    39        999
    40         89
    41        842
    42         34
    43          5
    44         26
    45          4
    48         11
    49         75
    50        232
    51        190
    52         91
    53        481
    54        647
    55        259
    56        402
    57         18
    59          4
    67          2
    68          1
    69          2
    74          1
    78          3
    81          2
    91          5
    92          1
    93          2
   104         14
   105         28
   106         32
   107          3
   108         34
   109          2
   110         15
   111          2
   121          1
   130          2
   131         15
   132         27
   133         29
   134          8
   135         33
   136          3
   137         18
   139          3
   143          2
   144          3
   145         10
   146         15
   147         15
   148          1
   149         12
   151          5
   154          1
   156          4
   157          5
   158         33
   159         84
   160        116
   161         64
   162         78
   163         52
   164         35
   165         17
   166          4
   214         12
   215         23
   216         29
   217          3
   218         25
   219          2
   220         14
   221          1