##TITLE=Library Entry 61218
##JCAMP-DX=Revision 4.10 
##DATA TYPE=MASS SPECTRUM
##SAMPLE DESCRIPTION=Chemical Concepts
##NAMES=HP
##CAS NAME=Benzene, (3-nitrobutyl)-
##MOLFORM=C10H13NO2
##CAS REGISTRY NO=63819-79-4
##MP= -300
##BP= -300
##MW= 179
##$RETENTION INDEX=0
##$CONDENSED SPECTRUM=NO
##NPOINTS= 99
##XYDATA=(XY..XY) 1 
    26          3
    27         27
    28          3
    29         19
    30          9
    31          1
    37          1
    38          6
    39         69
    40          7
    41         33
    42         12
    43         21
    44          6
    45          7
    46          1
    50         18
    51         54
    52         16
    53         13
    54          5
    55         31
    56          4
    57         29
    58          4
    59          2
    61          1
    62          8
    63         36
    64         13
    65        156
    66         10
    67          2
    68          1
    69          4
    70          3
    71         19
    72          2
    73          1
    74          6
    75          8
    76          8
    77         63
    78         37
    79        101
    80          7
    81          1
    82          1
    83          6
    84          2
    85          3
    86          1
    87          2
    88          1
    89         33
    90         17
    91        999
    92        111
    93          6
    94          0
    95          1
    97          2
    98          1
    99          2
   101          2
   102          8
   103         30
   104        248
   105        131
   106         14
   107        384
   108         31
   109          2
   111          1
   112          1
   113          1
   115         41
   116         16
   117        177
   118         20
   119          3
   120          3
   121          2
   127          3
   128          6
   129          7
   130          2
   131         66
   132         25
   133         34
   134         18
   135          2
   141          1
   142          0
   145          2
   146          2
   147          2
   148          1
   179          0