##TITLE=Library Entry 32790
##JCAMP-DX=Revision 4.10 
##DATA TYPE=MASS SPECTRUM
##SAMPLE DESCRIPTION=Chemical Concepts
##NAMES=HP
##CAS NAME=9-Oxabicyclo[3.3.1]non-6-en-2-one, oxime
##MOLFORM=C8H11NO2
##CAS REGISTRY NO=63827-16-7
##MP= -300
##BP= -300
##MW= 153
##$RETENTION INDEX=0
##$CONDENSED SPECTRUM=NO
##NPOINTS= 89
##XYDATA=(XY..XY) 1 
    26         82
    27        335
    28        377
    29        159
    30         42
    36         17
    37         22
    38         46
    39        472
    40         97
    41        728
    42        156
    43        115
    44        266
    45         23
    46         23
    50         70
    51        159
    52        144
    53        434
    54        268
    55        280
    56         66
    57         89
    59         25
    60         22
    62         20
    63         41
    64         21
    65        196
    66        162
    67        999
    68        208
    69        159
    70         72
    71         84
    72         43
    73         19
    76         24
    77        219
    78        108
    79        526
    80        402
    81        744
    82        231
    83        163
    84         76
    86         20
    87         23
    89         17
    90         22
    91        222
    92         75
    93        101
    94        169
    95        129
    96        108
    97         90
    98         31
    99         36
   103         29
   105         52
   106        242
   107        270
   108        456
   109        152
   111         19
   112         27
   115         18
   116         23
   117         77
   118         46
   119         65
   120         30
   121         38
   122         48
   123         41
   124        507
   125        138
   126         23
   133         23
   134         89
   135         95
   136        220
   137         56
   138         29
   152         25
   153        157
   154         24