##TITLE=Library Entry 8699
##JCAMP-DX=Revision 4.10 
##DATA TYPE=MASS SPECTRUM
##SAMPLE DESCRIPTION=Exported from NIST MS Search
##NAMES=HP
##CAS NAME=Propanoic acid, 2-hydroxy-, pentyl ester
##MOLFORM=C8H16O3
##CAS REGISTRY NO=6382-06-5
##MP= -300
##BP= -300
##MW= 160
##$RETENTION INDEX=1075
##$CONDENSED SPECTRUM=NO
##NPOINTS= 43
##XYDATA=(XY..XY) 1 
    15         45
    17         15
    19         46
    26         16
    27        151
    29        195
    30         13
    31         36
    36          7
    39         56
    40         21
    41        221
    42         88
    43        999
    44         65
    45        123
    46         32
    50          6
    51          8
    53         23
    54          7
    55        276
    56         57
    57         66
    59         16
    63         17
    69         35
    70        436
    71        317
    72         25
    73         20
    75         42
    77         15
    85          9
    87         11
    88          7
    90          6
   115          6
   122         19
   133          3
   135          8
   141          4
   145          6