##TITLE=Library Entry 46332
##JCAMP-DX=Revision 4.10 
##DATA TYPE=MASS SPECTRUM
##SAMPLE DESCRIPTION=Chemical Concepts
##NAMES=HP
##CAS NAME=Bicyclo[4.2.0]octa-1,3,5-triene-7,8-dione
##MOLFORM=C8H4O2
##CAS REGISTRY NO=6383-11-5
##MP= -300
##BP= -300
##MW= 132
##$RETENTION INDEX=0
##$CONDENSED SPECTRUM=NO
##NPOINTS= 33
##XYDATA=(XY..XY) 1 
    25          6
    26         11
    27          3
    36          7
    37         73
    38        114
    39         27
    48          3
    49         68
    50        545
    51         44
    52         30
    53         23
    60          3
    61         22
    62         14
    66          0
    72          0
    73         47
    74        197
    75        108
    76        999
    77         94
    78          0
    84          1
    85          9
    86          6
    87          0
   104        796
   105         60
   106          4
   132        152
   133         14