##TITLE=Library Entry 34918
##JCAMP-DX=Revision 4.10 
##DATA TYPE=MASS SPECTRUM
##SAMPLE DESCRIPTION=GCITA9,106(9-10)879(1976);Z1B; A. M. CAPORUSSO, UNIVERS
ITA DI PISA, ITALY
##NAMES=HP
##CAS NAME=4-Octene, 2,3,6-trimethyl-
##MOLFORM=C11H22
##CAS REGISTRY NO=63830-65-9
##MP= -300
##BP= -300
##MW= 154
##$RETENTION INDEX=0
##$CONDENSED SPECTRUM=NO
##NPOINTS= 21
##XYDATA=(XY..XY) 1 
    27         80
    29        120
    39         60
    41        270
    43        180
    53         50
    55        660
    56         60
    57         70
    67         70
    69        999
    70        220
    71         70
    81         40
    83        120
    84        140
    95         30
    97         60
   111        180
   125         10
   154        110