##TITLE=Library Entry 34197
##JCAMP-DX=Revision 4.10 
##DATA TYPE=MASS SPECTRUM
##SAMPLE DESCRIPTION=GCITA9,106(9-10)879(1976);E5 ; A. M. CAPORUSSO, UNIVERS
ITA DI PISA, ITALY
##NAMES=HP
##CAS NAME=4-Nonene, 2,3,3-trimethyl-, (E)-
##MOLFORM=C12H24
##CAS REGISTRY NO=63830-67-1
##MP= -300
##BP= -300
##MW= 168
##$RETENTION INDEX=0
##$CONDENSED SPECTRUM=NO
##NPOINTS= 15
##XYDATA=(XY..XY) 1 
    27        240
    29        170
    39        150
    41        890
    43        350
    53        130
    55        440
    57        100
    67        300
    69        999
    70         90
    83        190
    95         90
   125        200
   168         30