##TITLE=Library Entry 12348
##JCAMP-DX=Revision 4.10 
##DATA TYPE=MASS SPECTRUM
##SAMPLE DESCRIPTION=HCACAV,60(3)1073(1977);4B; M. NEVENSCHWANDER, UNIVERSIT
AT BERN, SWITZERLAND
##NAMES=HP
##CAS NAME=1H-Indene-1-methanol, .alpha.-methyl-, acetate
##MOLFORM=C13H14O2
##CAS REGISTRY NO=63839-85-0
##MP= -300
##BP= -300
##MW= 202
##$RETENTION INDEX=0
##$CONDENSED SPECTRUM=NO
##NPOINTS= 14
##XYDATA=(XY..XY) 1 
    42         50
    43        999
    44         40
    63         30
    89         50
   115        240
   116         90
   128         75
   139         20
   141        370
   142        720
   143        100
   158         10
   202          2