##TITLE=Library Entry 52210
##JCAMP-DX=Revision 4.10 
##DATA TYPE=MASS SPECTRUM
##SAMPLE DESCRIPTION=Chemical Concepts
##NAMES=HP
##CAS NAME=2,6-Octadiene, 2,4-dimethyl-
##MOLFORM=C10H18
##CAS REGISTRY NO=63843-03-8
##MP= -300
##BP= -300
##MW= 138
##$RETENTION INDEX=0
##$CONDENSED SPECTRUM=NO
##NPOINTS= 71
##XYDATA=(XY..XY) 1 
    25          0
    26          8
    27        115
    28         18
    29        107
    30          2
    32          0
    37          3
    38          6
    39        125
    40         20
    41        262
    42         17
    43         93
    44          2
    50          7
    51         20
    52          7
    53         53
    54         13
    55        605
    56         31
    57          5
    58          1
    59          1
    62          1
    63          4
    64          1
    65         17
    66          7
    67         67
    68         10
    69         11
    70          1
    74          0
    75          0
    77         21
    78          5
    79         18
    80          4
    81         32
    82         28
    83        999
    84         70
    85          2
    87          0
    89          0
    90          0
    91         11
    92          1
    93          4
    94          6
    95         15
    96         11
    97          1
    98          0
    99          0
   103          0
   105          8
   106          0
   107          3
   108          0
   109          3
   110          0
   111          0
   121          0
   122          0
   123          3
   137          0
   138         25
   139          2