##TITLE=Library Entry 35519
##JCAMP-DX=Revision 4.10 
##DATA TYPE=MASS SPECTRUM
##SAMPLE DESCRIPTION=O A MAMER, MCGILL UNIVERSITY, MONTRE
##NAMES=HP
##CAS NAME=1,9-Nonanediol, 2TMS derivative
##MOLFORM=C15H36O2Si2
##CAS REGISTRY NO=6385-16-6
##MP= -300
##BP= -300
##MW= 304
##$RETENTION INDEX=1620
##$CONDENSED SPECTRUM=NO
##NPOINTS= 170
##XYDATA=(XY..XY) 1 
    20         11
    25          5
    29         37
    37         14
    38          9
    41        115
    43         21
    48          6
    53          7
    54          3
    55        477
    56          9
    57        133
    58         12
    59         53
    61         58
    62          7
    63          7
    65          4
    67         64
    68         18
    69        999
    70         49
    71          2
    72          5
    73        440
    74         36
    75         10
    76          5
    80          8
    81         81
    82         48
    83        577
    84         27
    85         26
    86          6
    87         30
    88         15
    89         29
    91         19
    92          7
    93          4
    94          7
    95         23
    96         31
    97         35
    99          5
   101         30
   102         15
   103        313
   104         34
   105         10
   106          5
   107         16
   108          5
   109          8
   110          9
   112          5
   113         14
   115         18
   120          4
   121         13
   122         14
   123         21
   124         74
   125         38
   126          7
   127          8
   128          5
   129          4
   131         27
   132          1
   133         45
   134         15
   136          5
   137         57
   138         33
   139         15
   140          4
   141          8
   142          6
   145         16
   147        495
   148         76
   149        188
   150         32
   151         21
   152          4
   153          5
   155          6
   156          5
   158          4
   159         13
   160          4
   161          9
   164          3
   165         20
   166          4
   167          4
   168          3
   171         29
   174          9
   175          4
   176          3
   177         82
   178         21
   179         15
   181          3
   183          4
   184          3
   185          0
   186          6
   187         17
   188          3
   189          3
   193          5
   197          9
   199         64
   200         18
   202          3
   203          4
   204          4
   205          4
   206          3
   207         20
   208         19
   209          7
   213          6
   214         10
   215         14
   216          5
   217          5
   218          4
   219          3
   220          3
   222         10
   223          6
   225          6
   226          5
   229         18
   230          4
   231          8
   239          3
   241         15
   242          4
   243          4
   245         11
   246          3
   257          4
   258          4
   259         17
   260          4
   261          4
   262         13
   263          5
   265          3
   267          4
   269          4
   273          9
   274          4
   279          5
   280          4
   282          9
   283          5
   289         36
   290         22
   291          5
   296          4
   297          3
   304          4