##TITLE=Library Entry 53453
##JCAMP-DX=Revision 4.10 
##DATA TYPE=MASS SPECTRUM
##SAMPLE DESCRIPTION=Humboldt-Universitat zu Berlin, Department of Chemistry
, Analytical Group
##NAMES=HP
##CAS NAME=5-Methoxypyrrolidin-2-one
##MOLFORM=C5H9NO2
##CAS REGISTRY NO=63853-74-7
##MP= -300
##BP= -300
##MW= 115
##$RETENTION INDEX=0
##$CONDENSED SPECTRUM=NO
##NPOINTS= 68
##XYDATA=(XY..XY) 1 
    12          3
    13          5
    14         26
    15        155
    16         14
    17         31
    18        121
    19          1
    24          1
    25          7
    26         85
    27        219
    28        850
    29        369
    30         81
    31         38
    32         13
    33         74
    34          1
    36          1
    37          6
    38         10
    39         50
    40         19
    41        445
    42        102
    43         39
    44         53
    45         38
    46          4
    50          2
    51          4
    52         16
    53         13
    54         57
    55         81
    56        184
    57         67
    58         23
    59         18
    60        300
    61          8
    62          0
    66          7
    67          1
    68          1
    69          2
    70          5
    71         76
    72         32
    73          1
    74          0
    80          1
    82         35
    83         15
    84        999
    85         51
    86         20
    87          5
    97          0
   100          1
   101          1
   112          0
   113          0
   114         16
   115         98
   116          9
   117          1