##TITLE=Library Entry 24098
##JCAMP-DX=Revision 4.10 
##DATA TYPE=MASS SPECTRUM
##SAMPLE DESCRIPTION=NIST Mass Spectrometry Data Center
##NAMES=HP
##CAS NAME=Heptafluorobutyric acid, hexadecyl ester
##MOLFORM=C20H33F7O2
##CAS REGISTRY NO=6385-15-5
##MP= -300
##BP= -300
##MW= 438
##$RETENTION INDEX=1847
##$CONDENSED SPECTRUM=NO
##NPOINTS= 115
##XYDATA=(XY..XY) 1 
    26          2
    27         42
    28         15
    29        134
    30          4
    31          2
    33          1
    37          1
    39         55
    41        518
    42        146
    43        861
    44         32
    45          4
    47          2
    50          3
    51          4
    52          2
    53         35
    54         92
    55        825
    56        371
    57        999
    58         45
    59          2
    61          1
    65          6
    66         10
    67        114
    68        142
    69        687
    70        323
    71        468
    72         25
    73          1
    77          4
    78          2
    79         13
    80          5
    81         74
    82        303
    83        639
    84        245
    85        300
    86         19
    87          1
    91          2
    93          4
    95         39
    96        146
    97        641
    98        172
    99         74
   100         25
   101          1
   107          1
   109         21
   110         70
   111        385
   112        121
   113         41
   114          3
   119         16
   122          1
   123          7
   124         41
   125        183
   126         80
   127         23
   128          2
   131          3
   137          4
   138         26
   139         58
   140         54
   141         16
   142          2
   147          1
   150          7
   151          1
   152         14
   153         23
   154         29
   155         10
   156          1
   159          1
   166          8
   167         12
   169        101
   170          4
   180          4
   181          6
   182          7
   183          2
   194          2
   195          4
   196         33
   197         12
   198          1
   199          1
   215          2
   221          1
   222          1
   224         49
   225          8
   226          1
   227          1
   241          1
   251          1
   252          1
   255          1
   269         13
   270          2
   420          5
   421          1