##TITLE=Library Entry 31796
##JCAMP-DX=Revision 4.10 
##DATA TYPE=MASS SPECTRUM
##SAMPLE DESCRIPTION=Div. of Experiment Therapeutics WRAIR, WRAMC, Washingto
n DC 20307
##NAMES=HP
##CAS NAME=Thiosulfuric acid (H2S2O3), S-(((((3,4-dimethylphenyl)methyl)amin
o)imino)methyl) ester
##MOLFORM=C11H16N2O3S2
##CAS REGISTRY NO=63869-36-3
##MP= -300
##BP= -300
##MW= 288
##$RETENTION INDEX=0
##$CONDENSED SPECTRUM=NO
##NPOINTS= 69
##XYDATA=(XY..XY) 1 
    41         88
    42         54
    43         56
    45         44
    48        370
    50         34
    51         47
    52          8
    53         35
    60         19
    63         32
    64        999
    65         71
    66         71
    67          8
    72         20
    73         20
    76         27
    77        147
    78         55
    79         70
    88          9
    89         34
    91        300
    92         31
    93         55
    96         37
   102          9
   103         86
   104         64
   105         87
   106         16
   107        129
   115         78
   116         34
   117        113
   118        159
   119        834
   120        227
   121         19
   128         57
   130         33
   131          9
   132         71
   133         49
   134        619
   135        132
   143          9
   144        101
   145         35
   146         18
   158         24
   159         39
   160         74
   161         32
   162          9
   171         19
   173         37
   175         96
   176         72
   192         62
   194         19
   203          8
   204         55
   205          8
   212         47
   224         10
   288         18
   289          5