##TITLE=Library Entry 18533
##JCAMP-DX=Revision 4.10 
##DATA TYPE=MASS SPECTRUM
##SAMPLE DESCRIPTION=S.A.M. METWALLY, DEP. CHEM., ASSIUT UNIV., EGYPT
##NAMES=HP
##CAS NAME=3-Methyl-4-oximido-2-pyrazolin-5-one
##MOLFORM=C4H5N3O2
##CAS REGISTRY NO=6386-15-8
##MP= -300
##BP= -300
##MW= 127
##$RETENTION INDEX=0
##$CONDENSED SPECTRUM=NO
##NPOINTS= 30
##XYDATA=(XY..XY) 1 
    26        350
    27        650
    28        650
    29        360
    30        120
    37         90
    38        170
    39        350
    40        180
    41        130
    42        230
    43        180
    44        260
    51        180
    52        700
    53        999
    54        260
    55         80
    56        200
    66         70
    67        400
    68         70
    69         60
    70         50
    71         30
    81        100
    82        640
    83        220
   110         70
   127        930