##TITLE=Library Entry 5569
##JCAMP-DX=Revision 4.10 
##DATA TYPE=MASS SPECTRUM
##SAMPLE DESCRIPTION=Chemical Concepts
##NAMES=HP
##CAS NAME=1,2-Epoxy-3-propyl acetate
##MOLFORM=C5H8O3
##CAS REGISTRY NO=6387-89-9
##MP= -300
##BP= -300
##MW= 116
##$RETENTION INDEX=0
##$CONDENSED SPECTRUM=NO
##NPOINTS= 38
##XYDATA=(XY..XY) 1 
    26         12
    27         47
    28         41
    29         58
    30          4
    31         45
    38          3
    39          9
    40         16
    41          9
    42         35
    43        999
    44         55
    45         21
    51          2
    55         10
    56         55
    57         10
    58          8
    59          2
    60          5
    61         17
    65          4
    69          2
    70          2
    71          4
    73         36
    74         24
    76          2
    77          3
    83          2
    85          2
    86         38
    87         10
    88          3
    91          3
   115          6
   116          2