##TITLE=Library Entry 109387
##JCAMP-DX=Revision 4.10 
##DATA TYPE=MASS SPECTRUM
##SAMPLE DESCRIPTION=NIST Mass Spectrometry Data Center
##NAMES=HP
##CAS NAME=2-Fluoro-5-nitrobenzyl alcohol
##MOLFORM=C7H6FNO3
##CAS REGISTRY NO=63878-73-9
##MP= -300
##BP= -300
##MW= 171
##$RETENTION INDEX=0
##$CONDENSED SPECTRUM=NO
##NPOINTS= 119
##XYDATA=(XY..XY) 1 
    16          2
    17          3
    18          7
    26          8
    27         27
    28         21
    29         80
    30         96
    31        140
    32          8
    33          6
    36          4
    37         19
    38         37
    39         80
    40          8
    41          5
    42          3
    44          7
    45         14
    46         44
    47          6
    48          2
    49         19
    50        175
    51        269
    52         32
    53         18
    54          2
    55         12
    56         27
    57        132
    58         10
    59         29
    60          3
    61         35
    62         71
    63         94
    64         20
    65         75
    66          9
    67          2
    68         66
    69         64
    70         74
    71         40
    72          4
    73         29
    74        135
    75        378
    76         91
    77        273
    78         27
    79          7
    80         16
    81        121
    82         43
    83         54
    84         30
    85         27
    86         18
    87         19
    88          8
    89         13
    90          3
    91          1
    92         30
    93         58
    94        166
    95        750
    96        413
    97        106
    98          7
    99          4
   100          1
   101          2
   103          9
   104         14
   105         49
   107        967
   108        165
   109         32
   110         23
   111          9
   112         29
   113         11
   114          1
   115          1
   120          5
   121          7
   122         49
   123        341
   124        297
   125        999
   126        201
   127         17
   128          2
   135          1
   136          1
   137          1
   138          6
   139         47
   140          8
   141         28
   142        164
   143         14
   144          1
   150         45
   151          7
   153         47
   154        138
   155         77
   156          5
   168         46
   169         40
   170        100
   171        418
   172         35
   173          3