##TITLE=Library Entry 57012
##JCAMP-DX=Revision 4.10 
##DATA TYPE=MASS SPECTRUM
##SAMPLE DESCRIPTION=ASES Database, Dalian Institute, P.R. China
##NAMES=HP
##CAS NAME=Allyl dithioisobutyrate
##MOLFORM=C7H12S2
##CAS REGISTRY NO=63881-54-9
##MP= -300
##BP= -300
##MW= 160
##$RETENTION INDEX=0
##$CONDENSED SPECTRUM=NO
##NPOINTS= 19
##XYDATA=(XY..XY) 1 
    39        219
    41        525
    43        349
    45        279
    53        177
    55        109
    59         89
    71        120
    73        158
    74         39
    76        109
    77         39
    85        110
    86        120
    87        999
    88         29
   117         20
   145        298
   160        208