##TITLE=Library Entry 3856
##JCAMP-DX=Revision 4.10 
##DATA TYPE=MASS SPECTRUM
##SAMPLE DESCRIPTION=Chuck Anderson, Aldrich Chemical Co.
##NAMES=HP
##CAS NAME=2-Ethyl-trans-2-butenal
##MOLFORM=C6H10O
##CAS REGISTRY NO=63883-69-2
##MP= -300
##BP= -300
##MW= 98
##$RETENTION INDEX=819
##$CONDENSED SPECTRUM=NO
##NPOINTS= 66
##XYDATA=(XY..XY) 1 
    14          1
    15         11
    16          0
    25          1
    26         18
    27        156
    28         26
    29        157
    30          5
    31          9
    32          1
    33          0
    36          1
    37         19
    38         48
    39        396
    40         59
    41        999
    42        161
    43        141
    44         17
    45          8
    46          0
    47          2
    48          2
    49          6
    50         44
    51         61
    52         25
    53        132
    54         43
    55        360
    56         51
    57         25
    58         15
    59          1
    60          1
    61          6
    62         12
    63         16
    64          2
    65         34
    66          9
    67         63
    68         10
    69        382
    70         50
    71          9
    72          0
    73          0
    74          1
    77         19
    78          2
    79         77
    80         11
    81          6
    82          0
    83        243
    84         12
    85          0
    95          2
    96          1
    97         62
    98        617
    99         42
   100          2