##TITLE=Library Entry 77255
##JCAMP-DX=Revision 4.10 
##DATA TYPE=MASS SPECTRUM
##SAMPLE DESCRIPTION=Japan AIST/NIMC Database- Spectrum MS-IW- 963
##NAMES=HP
##CAS NAME=1-Benzoyl-4-phenyl-2-pyrrolidone
##MOLFORM=C17H15NO2
##CAS REGISTRY NO=63897-32-5
##MP= -300
##BP= -300
##MW= 265
##$RETENTION INDEX=0
##$CONDENSED SPECTRUM=NO
##NPOINTS= 136
##XYDATA=(XY..XY) 1 
    26          2
    27         15
    28         17
    29          2
    30          8
    31          1
    36          1
    37          2
    38          6
    39         25
    40          2
    41          6
    42          2
    43         13
    44         14
    45          8
    49          2
    50         29
    51        120
    52         30
    53          6
    54          1
    55          8
    56          7
    57          9
    58          2
    60          1
    61          2
    62          6
    63         18
    64          4
    65         14
    66          5
    67          2
    68          1
    69          4
    70          2
    71          6
    73          2
    74          9
    75          9
    76         17
    77        302
    78        133
    79         72
    80          5
    81          3
    82          2
    83          5
    84          2
    85          5
    86          1
    87          2
    89          9
    90          4
    91        144
    92         12
    93          1
    94          3
    95          3
    96          2
    97          5
    98          1
    99          2
   101          2
   102         21
   103        144
   104        999
   105        722
   106         67
   107         97
   108          8
   109          2
   110          1
   111          3
   112          1
   113          2
   115          8
   116          4
   117         14
   118        203
   119         21
   120          3
   121          3
   122         19
   123          3
   124          1
   125          2
   127          1
   128          2
   129          1
   130          3
   131         19
   132         11
   133         41
   134         18
   135          4
   137          1
   139          1
   141          1
   143          4
   144          3
   145          1
   146          5
   147          5
   148        183
   149         26
   150         96
   151          9
   152          1
   159          2
   160         37
   161         34
   162          4
   169          1
   174          3
   176        120
   177         13
   178          2
   187          3
   194          4
   195          1
   204          3
   205          5
   207          1
   209          1
   223          7
   224          1
   235          2
   236          2
   237         28
   238          5
   264         13
   265        144
   266         27
   267          3