##TITLE=Library Entry 10319
##JCAMP-DX=Revision 4.10 
##DATA TYPE=MASS SPECTRUM
##SAMPLE DESCRIPTION=Philip Morris R&D
##NAMES=HP
##CAS NAME=Ethyl-6-isopropyl-3-methyl-9-oxo-2E,4E-decadienoate
##MOLFORM=C16H26O3
##CAS REGISTRY NO=63896-58-2
##MP= -300
##BP= -300
##MW= 266
##$RETENTION INDEX=0
##$CONDENSED SPECTRUM=NO
##NPOINTS= 123
##XYDATA=(XY..XY) 1 
    37          5
    38         22
    39         56
    40         51
    41        172
    42         27
    43        999
    44         58
    45         21
    47         22
    48         12
    49        212
    50          9
    51         80
    52          8
    53         35
    55         85
    56         10
    57         26
    58         22
    59          8
    60          4
    63          5
    65         31
    66         11
    67         53
    68         13
    69         70
    70          9
    71         56
    73          4
    77         73
    78         11
    79         59
    80         10
    81         39
    82         23
    83         44
    84        177
    85         12
    86        119
    87          6
    88         20
    91        102
    92         37
    93        515
    94         49
    95         73
    96         50
    97         29
    98         15
    99         10
   100          5
   103          6
   105         46
   106         13
   107        102
   108         72
   109         43
   110          6
   111         84
   112         11
   113         14
   115          6
   117          6
   119        199
   120         39
   121        117
   122         18
   123         36
   124         16
   125         57
   126         20
   127          7
   128         13
   129          4
   131         10
   132          3
   133         27
   134         47
   135        251
   136         31
   137         33
   139        270
   140         25
   141          9
   145         19
   147         15
   148          3
   149         43
   150         16
   151         19
   153          9
   155          7
   159         46
   160         15
   161         28
   162         26
   163         49
   164          7
   165         24
   167          9
   173          3
   175          7
   177         75
   178         26
   179         19
   181          4
   187         15
   193          8
   202         16
   203         24
   204          5
   205         13
   208          5
   209         10
   210         30
   211          5
   220         64
   221         34
   223          6
   249         23
   267         28