##TITLE=Library Entry 82649
##JCAMP-DX=Revision 4.10 
##DATA TYPE=MASS SPECTRUM
##SAMPLE DESCRIPTION=Patti Price, Georgia Bureau of Investigation, Decatur,
 Georgia
##NAMES=HP
##CAS NAME=Nicomorphine
##MOLFORM=C29H25N3O5
##CAS REGISTRY NO=639-48-5
##MP= -300
##BP= -300
##MW= 495
##$RETENTION INDEX=0
##$CONDENSED SPECTRUM=NO
##NPOINTS= 150
##XYDATA=(XY..XY) 1 
    39          8
    41          9
    42         74
    44         33
    50         19
    51        137
    52         17
    53         13
    55         15
    56          9
    58         18
    63          3
    64          3
    65         10
    67          7
    68          6
    69          6
    70         52
    71          6
    77         38
    78        668
    79         81
    80         13
    81         83
    82         20
    83          8
    89          4
    91         23
    94         50
    95          9
    96          9
    98          4
   103         10
   104          7
   105         22
   106        999
   107         86
   108         12
   115         40
   122          7
   123          8
   124         52
   127         16
   128         20
   129         10
   131         12
   132          7
   133          7
   134         19
   135          4
   139         10
   141         17
   142          4
   143          7
   144         26
   145          7
   146         41
   147         10
   148          5
   151          9
   152         41
   153         25
   154         11
   155         12
   156          6
   157          6
   158         10
   162         12
   163          4
   165         24
   167         18
   168         12
   171          5
   173          6
   174          5
   175          5
   176          5
   181         21
   182         16
   183         11
   184          9
   186          8
   191          5
   194         12
   195         13
   196         13
   198          8
   202          6
   204          4
   205          4
   206          6
   207          9
   210         23
   211         14
   214        136
   215         23
   216          2
   220          6
   221          5
   222          7
   223         10
   227          4
   229         18
   234          5
   237          4
   238         28
   239         12
   248          7
   249          5
   250         18
   251          8
   254          8
   265         12
   266        104
   267        445
   268         85
   269         12
   270          4
   280         11
   281         20
   282          7
   307          3
   314         17
   315         11
   316         38
   317         10
   320         87
   321         26
   322          3
   330          9
   331          2
   332          6
   333          3
   345          6
   346          5
   357          4
   361          5
   371         28
   372         45
   373        307
   374         76
   375          9
   389        144
   390         39
   391          6
   437          3
   494         24
   495        152
   496         50
   497          8