##TITLE=Library Entry 30321
##JCAMP-DX=Revision 4.10 
##DATA TYPE=MASS SPECTRUM
##SAMPLE DESCRIPTION=Exported from NIST MS Search
##NAMES=HP
##CAS NAME=Cyclohexanemethanol, 4-ethenyl-.alpha.,.alpha.,4-trimethyl-3-(1-m
ethylethenyl)-, [1R-(1.alpha.,3.alpha.,4.beta.)]-
##MOLFORM=C15H26O
##CAS REGISTRY NO=639-99-6
##MP= -300
##BP= -300
##MW= 222
##$RETENTION INDEX=1549
##$CONDENSED SPECTRUM=NO
##NPOINTS= 102
##XYDATA=(XY..XY) 1 
    27        100
    28         21
    29        121
    31         95
    39        133
    40         43
    41        410
    42         33
    43        405
    44         33
    45         21
    50          5
    51         24
    52         14
    53        167
    54         24
    55        264
    56         21
    57         50
    58         10
    59        999
    60         33
    63          5
    64          2
    65         50
    66         31
    67        271
    68        231
    69        257
    70         38
    71        136
    72         17
    77        119
    78         26
    79        252
    80        160
    81        419
    82        124
    83         76
    84         52
    85         19
    86          5
    89          5
    90          5
    91        157
    92         98
    93        657
    94        198
    95        262
    96         88
    97         24
    98          5
   103          7
   104          5
   105        176
   106         50
   107        367
   108        160
   109        164
   110         29
   111         17
   117          7
   118          5
   119        164
   120         55
   121        319
   122         90
   123        119
   124         19
   125          7
   127          5
   128          5
   129          5
   131          7
   132          5
   133        110
   134         67
   135        245
   136        102
   137         31
   138          5
   139          7
   145          7
   146          5
   147        102
   148         55
   149        119
   150         19
   151         12
   160          5
   161        400
   162        100
   163        110
   164         43
   165          7
   175         29
   176         14
   189        167
   190         24
   204         95
   205         17
   207          5