##TITLE=Library Entry 58962
##JCAMP-DX=Revision 4.10 
##DATA TYPE=MASS SPECTRUM
##SAMPLE DESCRIPTION=A.A.Kutin, Moscow, Russia
##NAMES=HP
##CAS NAME=Benzene, 2-benzyloxy-1-methoxy-4-(2-nitroethenyl)-
##MOLFORM=C16H15NO4
##CAS REGISTRY NO=63909-29-5
##MP= -300
##BP= -300
##MW= 285
##$RETENTION INDEX=0
##$CONDENSED SPECTRUM=NO
##NPOINTS= 40
##XYDATA=(XY..XY) 1 
    34          4
    38          3
    39         33
    40         82
    41         12
    44         29
    50         10
    51         33
    52          5
    55          2
    57          1
    62          1
    63         19
    65         72
    66          4
    75          0
    76          7
    77         24
    78          3
    79          8
    89         19
    91        999
    92         79
    93          2
    95          3
   102          1
   105         10
   106          1
   117          3
   118          1
   119          5
   120          1
   121          0
   134          1
   147          1
   168          1
   196          1
   207          2
   285         20
   286          3