##TITLE=Library Entry 57135
##JCAMP-DX=Revision 4.10 
##DATA TYPE=MASS SPECTRUM
##SAMPLE DESCRIPTION=LAC, NIDDK, NIH, Bethesda, MD 20892
##NAMES=HP
##CAS NAME=3-Deoxy-d-mannitol
##MOLFORM=C6H14O5
##CAS REGISTRY NO=63902-18-1
##MP= -300
##BP= -300
##MW= 166
##$RETENTION INDEX=0
##$CONDENSED SPECTRUM=NO
##NPOINTS= 88
##XYDATA=(XY..XY) 1 
    41        399
    42        179
    43        700
    44        355
    45        339
    47         39
    48          2
    49          6
    50          1
    51          5
    53         62
    54         51
    55         93
    56         36
    57        243
    58         86
    59         47
    60         98
    61        346
    62         19
    63          3
    65          3
    66          1
    67         23
    69        421
    70         91
    71        138
    72         27
    73        137
    74         20
    75         13
    76          0
    77         15
    78          3
    79          7
    80          1
    81         31
    82         22
    83         19
    84          8
    85         22
    87        999
    88         60
    89         10
    90          4
    91         23
    92          0
    93          2
    94          0
    95         18
    96          1
    97         13
    98         12
    99        212
   100         52
   101         13
   102          2
   103          7
   104          2
   105         74
   106          8
   107          0
   111          4
   112          2
   113         32
   114          2
   115          9
   117        514
   118         30
   119          4
   128          1
   129          4
   130          3
   131         28
   133          7
   134          0
   135          0
   136          3
   140         12
   141          2
   145          0
   147          4
   149         16
   150          0
   165          0
   166         34
   167          2
   168          0