##TITLE=Library Entry 71382
##JCAMP-DX=Revision 4.10 
##DATA TYPE=MASS SPECTRUM
##SAMPLE DESCRIPTION=HCACAV,60(4)1203(1977);3; W. VETTER, HOFFMAN LA ROCHE &
 CO., BASEL, SWITZERLAND
##NAMES=HP
##CAS NAME=2-Pyrrolidinone, 1-(3,7,11,15-tetramethylhexadecyl)-
##MOLFORM=C24H47NO
##CAS REGISTRY NO=63913-38-2
##MP= -300
##BP= -300
##MW= 365
##$RETENTION INDEX=0
##$CONDENSED SPECTRUM=NO
##NPOINTS= 99
##XYDATA=(XY..XY) 1 
    39         20
    40         10
    41        150
    42         40
    43        220
    44         30
    53         10
    54         10
    55        120
    56         50
    57        130
    58         10
    67         10
    68         20
    69        100
    70        160
    71         50
    73         20
    82         20
    83         30
    84         30
    85         20
    86        130
    87         10
    95         10
    96         10
    97         20
    98        999
    99        620
   100         90
   111         10
   112        250
   113         60
   114         40
   115         10
   132          1
   133          2
   134          1
   135          2
   136          1
   137          2
   138         11
   139          4
   140        100
   141         28
   142          2
   148          2
   149          2
   150          2
   151          1
   152          2
   153          1
   154         30
   155          6
   166          1
   167          1
   168         11
   169          9
   170          1
   180          1
   181          4
   182         34
   183          5
   184          1
   208          4
   209          2
   210         13
   211          5
   212          1
   219          1
   222          1
   223          1
   224         20
   225          4
   238          4
   239          3
   252         15
   253          3
   254          1
   280          8
   282          1
   283          1
   294         12
   295          4
   296          1
   308          3
   309          2
   322          8
   323          2
   348          3
   349          1
   350         20
   351          5
   352          1
   363          1
   364          5
   365         27
   366          9
   367          2