##TITLE=Library Entry 10572
##JCAMP-DX=Revision 4.10 
##DATA TYPE=MASS SPECTRUM
##SAMPLE DESCRIPTION=Chemical Concepts
##NAMES=HP
##CAS NAME=2-Propen-1-ol, 2-bromo-, acetate
##MOLFORM=C5H7BrO2
##CAS REGISTRY NO=63915-88-8
##MP= -300
##BP= -300
##MW= 178
##$RETENTION INDEX=0
##$CONDENSED SPECTRUM=NO
##NPOINTS= 53
##XYDATA=(XY..XY) 1 
    25          7
    26         50
    27         75
    28          6
    29         52
    30          5
    31         13
    36          2
    37         22
    38         55
    39        317
    40         54
    41         12
    42         47
    43        999
    44         32
    45          8
    53          8
    54          3
    55         12
    56          6
    57         31
    58          2
    61         10
    67          2
    69          3
    70          2
    71          3
    73          9
    79          9
    80          6
    81          8
    82          6
    83          2
    93         13
    95         12
    99        552
   100         37
   101          5
   104          3
   105         20
   106          5
   107         22
   108          3
   109          4
   118          3
   119         24
   120          3
   121         23
   135          4
   136          4
   137          3
   138          3