##TITLE=Library Entry 14232
##JCAMP-DX=Revision 4.10 
##DATA TYPE=MASS SPECTRUM
##SAMPLE DESCRIPTION=H. Fales, LC, NHLBI, NIH, Bethesda, MD 20892
##NAMES=HP
##CAS NAME=Diacetyl lycorine lactam
##MOLFORM=C20H19NO7
##CAS REGISTRY NO=6391-78-2
##MP= -300
##BP= -300
##MW= 385
##$RETENTION INDEX=0
##$CONDENSED SPECTRUM=NO
##NPOINTS= 232
##XYDATA=(XY..XY) 1 
    41         28
    43        999
    44         46
    45         34
    47          2
    48          0
    49          3
    50         20
    51         31
    53         47
    54          4
    55         26
    56          3
    57         10
    58          0
    60         19
    61          0
    62         20
    63         33
    65         35
    66          5
    67          9
    68          3
    69          7
    70          1
    71          5
    72          0
    73          1
    74          9
    75         26
    76         38
    77         40
    78         13
    79          7
    80         12
    81          8
    82         10
    83          8
    84          3
    85          1
    86          5
    87          9
    88          3
    89         42
    90         20
    91         13
    92          5
    93          2
    94          2
    95          5
    96          0
    97          9
    98          3
    99          3
   100          2
   101         10
   102         10
   103          7
   104         23
   105         12
   106          3
   107          1
   108          1
   109          1
   110          4
   111         11
   112          0
   113         11
   114          1
   115         31
   116          8
   117          9
   118          7
   119         17
   120          1
   121          4
   122          1
   123          0
   124          1
   125          6
   126         11
   127         16
   128         12
   129          5
   130          4
   131          4
   133         67
   134         18
   135          6
   136          1
   137          1
   139         22
   140         15
   141         13
   142          6
   143          4
   144          2
   145          3
   146          2
   147          5
   149         15
   150          7
   151         12
   152         26
   153         15
   154         19
   155          6
   156          4
   157          2
   158          1
   159          3
   160          1
   161          2
   162         31
   163          6
   164          6
   165          6
   166         10
   167         17
   168         12
   169          7
   170          6
   171          3
   172         10
   173          6
   174          3
   175          3
   176          2
   177          3
   178         28
   179         12
   180         35
   181          8
   182          6
   183          6
   184          5
   185          2
   186          1
   187          1
   188          2
   189          4
   190         16
   191         22
   192          6
   193          2
   194          7
   195          4
   196         12
   197          5
   198          4
   199          2
   200          1
   201          0
   202          4
   203          1
   206         25
   207         13
   208         44
   209          9
   210          5
   211          5
   212          5
   213          2
   214          2
   215          0
   218          1
   219          0
   220          2
   222         10
   223          4
   224         18
   225          6
   226         29
   227         11
   228         12
   229          6
   230          0
   234         10
   235          1
   236         22
   237          8
   238          7
   239          8
   240         26
   241         30
   242         27
   243          4
   244          0
   248          3
   249          0
   250         17
   251          5
   252         41
   253         11
   254         21
   255         10
   256          1
   257         13
   258          1
   262          1
   264        283
   265        283
   266        322
   267         55
   268         13
   269          2
   270          3
   271          2
   272          2
   278          0
   280          6
   281          7
   282         43
   283        190
   284         37
   285          5
   286          0
   297          0
   300          1
   310          1
   311          2
   312          1
   325         86
   326         17
   327          4
   328          0
   341          0
   371          1
   372          0
   385         18
   386          4
   387          0