##TITLE=Library Entry 72376
##JCAMP-DX=Revision 4.10 
##DATA TYPE=MASS SPECTRUM
##SAMPLE DESCRIPTION=HCACAV,60(4)1203(1977);2; W. VETTER, HOFFMAN LA ROCHE &
 CO., BASEL, SWITZERLAND
##NAMES=HP
##CAS NAME=2-Pyrrolidinone, 1-(3,7,11-trimethyldodecyl)-
##MOLFORM=C19H37NO
##CAS REGISTRY NO=63913-37-1
##MP= -300
##BP= -300
##MW= 295
##$RETENTION INDEX=0
##$CONDENSED SPECTRUM=NO
##NPOINTS= 60
##XYDATA=(XY..XY) 1 
    39         20
    41        170
    42         50
    43        180
    44         30
    53         10
    54         10
    55        150
    56         70
    57        110
    58         10
    67         10
    68         20
    69        140
    70        170
    71         70
    81         10
    82         10
    83         50
    84         30
    85         30
    86        300
    87         20
    97         30
    98        810
    99        999
   100         90
   111         10
   112        220
   113         80
   138          9
   139          3
   140         38
   141         26
   142          3
   149          5
   152          1
   154         25
   155          6
   168         13
   169          7
   182         33
   183          6
   210         18
   211          6
   224         20
   225          5
   238          7
   239          2
   252         12
   253          3
   278          8
   279          1
   280         31
   281          9
   282          1
   294          7
   295         38
   296         12
   297          5