##TITLE=Library Entry 13755
##JCAMP-DX=Revision 4.10 
##DATA TYPE=MASS SPECTRUM
##SAMPLE DESCRIPTION=HCACAV,60(3)743(1977);19; H. EICHENBERGER
##NAMES=HP
##CAS NAME=3,4-Heptadien-2-one, 3,5-dicyclopentyl-6-methyl-
##MOLFORM=C18H28O
##CAS REGISTRY NO=63922-51-0
##MP= -300
##BP= -300
##MW= 260
##$RETENTION INDEX=0
##$CONDENSED SPECTRUM=NO
##NPOINTS= 28
##XYDATA=(XY..XY) 1 
    41        680
    43        999
    55        250
    67        500
    69        430
    77        180
    79        350
    81        340
    91        270
    93        320
    95        360
   105        160
   107        230
   109        180
   121        180
   123        120
   135        340
   149        340
   161        180
   175        100
   191        430
   192        140
   193        110
   217        930
   218        180
   231         60
   245        110
   260        360