##TITLE=Library Entry 11703
##JCAMP-DX=Revision 4.10 
##DATA TYPE=MASS SPECTRUM
##SAMPLE DESCRIPTION=Chemical Concepts
##NAMES=HP
##CAS NAME=3-Heptyne-2,6-dione, 5-methyl-5-(1-methylethyl)-
##MOLFORM=C11H16O2
##CAS REGISTRY NO=63922-44-1
##MP= -300
##BP= -300
##MW= 180
##$RETENTION INDEX=0
##$CONDENSED SPECTRUM=NO
##NPOINTS= 66
##XYDATA=(XY..XY) 1 
    26          3
    27         64
    28          8
    29         18
    38          6
    39         79
    40         11
    41        102
    42         13
    43        999
    44         25
    45          6
    50         17
    51         47
    52         20
    53         51
    54          4
    55         44
    56          4
    57         12
    61          2
    62          5
    63         14
    64          3
    65         23
    66          8
    67         66
    68          6
    69          8
    70          3
    71          7
    74          3
    75          3
    77         63
    78         16
    79         36
    80         10
    81         35
    82          6
    83          4
    85          3
    91         18
    92          3
    93         18
    94         13
    95        146
    96         36
    97          3
   105         10
   107         33
   108          5
   109         13
   119          2
   120          2
   121          9
   122          7
   123        933
   124         88
   125          5
   137         21
   138        724
   139         66
   140          4
   149          1
   165          4
   181          2