##TITLE=Library Entry 10323
##JCAMP-DX=Revision 4.10 
##DATA TYPE=MASS SPECTRUM
##SAMPLE DESCRIPTION=HCACAV,60(3)743(1977);18; H. EICHENBERGER
##NAMES=HP
##CAS NAME=3,4-Heptadien-2-one, 3-cyclopentyl-6-methyl-
##MOLFORM=C13H20O
##CAS REGISTRY NO=63922-50-9
##MP= -300
##BP= -300
##MW= 192
##$RETENTION INDEX=0
##$CONDENSED SPECTRUM=NO
##NPOINTS= 17
##XYDATA=(XY..XY) 1 
    41        250
    43        999
    55        150
    67        150
    69        150
    77        140
    79        200
    81        180
    91        180
    93        300
   105        100
   107        210
   109        110
   121        100
   149        300
   177        250
   192        210