##TITLE=Library Entry 37066
##JCAMP-DX=Revision 4.10 
##DATA TYPE=MASS SPECTRUM
##SAMPLE DESCRIPTION=Chemical Concepts
##NAMES=HP
##CAS NAME=9-Borabicyclo[3.3.1]nonane, 9-(1,2-dimethylpropyl)-
##MOLFORM=C13H25B
##CAS REGISTRY NO=63942-78-9
##MP= -300
##BP= -300
##MW= 192
##$RETENTION INDEX=0
##$CONDENSED SPECTRUM=NO
##NPOINTS= 95
##XYDATA=(XY..XY) 1 
    26         34
    27        116
    28          1
    29         82
    36          6
    37         25
    38         22
    39        124
    40        102
    41        353
    42         33
    43        165
    44          4
    45         18
    49          3
    50         19
    51         71
    52         66
    53        210
    54         64
    55        115
    56         16
    57          3
    61          2
    62          3
    63         20
    64         46
    65        121
    66         87
    67        212
    68         30
    69         14
    70        999
    71         70
    72          1
    73          3
    75          4
    76         22
    77         77
    78         50
    79        170
    80         87
    81        121
    82         64
    83         11
    84          2
    87          2
    88          3
    89         22
    90         32
    91        114
    92         92
    93        254
    94        170
    95         94
    96          8
    97          2
    98          2
    99          1
   103          6
   104          3
   105         15
   106         19
   107         79
   108         65
   109         16
   110         11
   111          0
   115          2
   118          4
   119         19
   120         29
   121         96
   122         68
   123          8
   125          1
   126          2
   134          3
   135         30
   136         55
   137          7
   138          1
   139          1
   148          2
   149         10
   150          3
   153          1
   154          1
   162          2
   163          4
   164          1
   191         62
   192        258
   193         39
   194          2