##TITLE=Library Entry 50133
##JCAMP-DX=Revision 4.10 
##DATA TYPE=MASS SPECTRUM
##SAMPLE DESCRIPTION=NIST Mass Spectrometry Data Center, 2010
##NAMES=HP
##CAS NAME=(Z)-Oxacyclopentadec-6-en-2-one
##MOLFORM=C14H24O2
##CAS REGISTRY NO=63958-52-1
##MP= -300
##BP= -300
##MW= 224
##$RETENTION INDEX=0
##$CONDENSED SPECTRUM=NO
##NPOINTS= 121
##XYDATA=(XY..XY) 1 
    39         71
    40         24
    41        377
    42         77
    43         88
    45         11
    46          3
    47          3
    50          5
    51         20
    52         19
    53        155
    54        307
    55        605
    56         69
    57         54
    58          8
    59          4
    60         30
    61          4
    63          6
    65         76
    66         86
    67        942
    68        399
    69        213
    70         72
    71         81
    72          5
    73         20
    74          5
    77         93
    78         32
    79        432
    80        486
    81        999
    82        782
    83        190
    84        372
    85         84
    86         14
    87          9
    89          4
    91         70
    92         22
    93        227
    94        234
    95        462
    96        736
    97        219
    98        143
    99         31
   100         22
   101         12
   104          9
   105         17
   106         13
   107        104
   108        127
   109        222
   110        177
   111         94
   112         95
   113         40
   114         15
   115         10
   117          7
   118          6
   119         26
   120         18
   121        190
   122        142
   123        154
   124         88
   125         35
   126        294
   127         49
   128          8
   129          6
   131         19
   132          7
   133         16
   134          9
   135        146
   136         76
   137         56
   138         45
   139         22
   140         78
   141         15
   142          4
   143         11
   145         14
   146          5
   147          9
   149         62
   150         48
   151         27
   152         11
   153         16
   154         16
   159         11
   162          6
   163         31
   164         70
   165         14
   167         21
   168         19
   177         17
   178         10
   179          3
   181         19
   182         13
   188          5
   195         13
   196         14
   206         39
   207          6
   224        158
   225         24
   226          2