##TITLE=Library Entry 23689
##JCAMP-DX=Revision 4.10 
##DATA TYPE=MASS SPECTRUM
##SAMPLE DESCRIPTION=Chemical Concepts
##NAMES=HP
##CAS NAME=Hexanoic acid, 2-oxo-, methyl ester
##MOLFORM=C7H12O3
##CAS REGISTRY NO=6395-83-1
##MP= -300
##BP= -300
##MW= 144
##$RETENTION INDEX=1010
##$CONDENSED SPECTRUM=NO
##NPOINTS= 54
##XYDATA=(XY..XY) 1 
    30         23
    31         66
    33          3
    34          0
    37          1
    38          6
    39         97
    40         18
    41        655
    42         80
    43         57
    44         14
    45         15
    46          0
    49          0
    50          2
    51          4
    52          1
    53          9
    54          2
    55        105
    56         31
    57        999
    58         53
    59         87
    60          4
    61          2
    65          0
    66          0
    67          2
    68          0
    69          4
    70          0
    71          1
    74          5
    75          0
    77          0
    78          0
    82          0
    83          6
    84          6
    85        569
    86         41
    87          3
    88          1
    95          0
    97          0
   102          3
   103          0
   112          6
   113          0
   115          0
   144         14
   145          1