##TITLE=Library Entry 11715
##JCAMP-DX=Revision 4.10 
##DATA TYPE=MASS SPECTRUM
##SAMPLE DESCRIPTION=HCACAV,60(3)743(1977);17; H. EICHENBERGER
##NAMES=HP
##CAS NAME=Cyclopentanemethanol, .alpha.-[[3,3-dimethyl-2-(1-methylethyl)oxi
ranyl]ethynyl]-.alpha.-methyl-
##MOLFORM=C16H26O2
##CAS REGISTRY NO=63954-68-7
##MP= -300
##BP= -300
##MW= 250
##$RETENTION INDEX=0
##$CONDENSED SPECTRUM=NO
##NPOINTS= 16
##XYDATA=(XY..XY) 1 
    41        250
    43        999
    55        100
    67        120
    69        150
    79        100
    81        100
    93        120
    95        100
   107        120
   123        380
   124        100
   149        130
   177        300
   192        100
   207         20