##TITLE=Library Entry 28748
##JCAMP-DX=Revision 4.10 
##DATA TYPE=MASS SPECTRUM
##SAMPLE DESCRIPTION=Dr. Jiri Zamecnik, DCIEM, North York, Canada, GP Librar
y
##NAMES=HP
##CAS NAME=Propylamine, N,.alpha.-dimethyl-.gamma.-phenyl-
##MOLFORM=C11H17N
##CAS REGISTRY NO=63957-19-7
##MP= -300
##BP= -300
##MW= 163
##$RETENTION INDEX=0
##$CONDENSED SPECTRUM=NO
##NPOINTS= 24
##XYDATA=(XY..XY) 1 
    41         48
    42         64
    56         85
    58        999
    59         54
    65         60
    77         43
    78         21
    90         89
    91        293
    92         25
   103         22
   104         16
   105         16
   115         18
   116         12
   117         54
   131          8
   132          9
   146          7
   148         84
   149          9
   162         15
   163         44