##TITLE=Library Entry 52608
##JCAMP-DX=Revision 4.10 
##DATA TYPE=MASS SPECTRUM
##SAMPLE DESCRIPTION=Zaikin V.G., TIPS RAS, Moscow, Russia
##NAMES=HP
##CAS NAME=2- Bromopropionic acid, hexadecyl ester
##MOLFORM=C19H37BrO2
##CAS REGISTRY NO=63966-83-6
##MP= -300
##BP= -300
##MW= 376
##$RETENTION INDEX=2344
##$CONDENSED SPECTRUM=NO
##NPOINTS= 136
##XYDATA=(XY..XY) 1 
    26         14
    27         53
    28          2
    29         98
    31          3
    35          9
    36         62
    37          3
    38         20
    39         48
    40         11
    41        324
    42        102
    43        523
    44         51
    45         10
    50          4
    51          5
    52          4
    53         29
    54         96
    55        748
    56        470
    57        993
    58         45
    65          5
    66         13
    67        167
    68        231
    69        767
    70        442
    71        523
    72         36
    73         59
    74        575
    75        359
    76         17
    77         12
    78          4
    79         32
    80         67
    81        126
    82        423
    83        999
    84        357
    85        381
    86         29
    87          9
    91          7
    93          6
    94          7
    95         98
    96        282
    97        976
    98        262
    99         99
   100         12
   101          6
   105          3
   106          3
   107        155
   108         16
   109        190
   110        143
   111        580
   112        192
   113         73
   114         13
   115          7
   121          3
   122          8
   123         52
   124        103
   125        299
   126        126
   127         57
   128          8
   130         16
   133          4
   134          6
   135        113
   136         13
   137        134
   138         84
   139        136
   140         94
   141         36
   142          4
   148          4
   150          6
   151         19
   152         75
   153        301
   154         69
   155        245
   156          9
   162          2
   163          3
   164          2
   165         24
   166         48
   167         48
   168         47
   169         13
   177          3
   179         13
   180         31
   181         20
   182         22
   183          6
   191          6
   193         18
   194         59
   195         20
   196        161
   197         28
   221          4
   222        228
   223         67
   224        154
   225         30
   226          3
   238          3
   239          7
   241          7
   267         13
   269         74
   270         13
   274          6
   276          6
   296          3
   297          3
   303          3
   304          3
   347          5
   349          6