##TITLE=Library Entry 42692
##JCAMP-DX=Revision 4.10 
##DATA TYPE=MASS SPECTRUM
##SAMPLE DESCRIPTION=O A MAMER, MCGILL UNIVERSITY, MONTREj A k
##NAMES=HP
##CAS NAME=Mercaptoacetic acid, 2TMS derivative
##MOLFORM=C8H20O2SSi2
##CAS REGISTRY NO=6398-62-5
##MP= -300
##BP= -300
##MW= 236
##$RETENTION INDEX=0
##$CONDENSED SPECTRUM=NO
##NPOINTS= 87
##XYDATA=(XY..XY) 1 
     3          4
    13          9
    16          0
    26          3
    27          7
    28          8
    29         17
    31         10
    41          3
    42         12
    43         62
    44         31
    45        146
    46         13
    47         35
    48          2
    52          4
    53          3
    55          8
    56          3
    57         11
    58         26
    59         53
    60          8
    61         23
    66         39
    67         10
    70          3
    71          5
    72         31
    73        999
    74         95
    75        156
    76         16
    77         15
    78          2
    87          3
    88          6
    89         10
    90         13
    91          7
    93          2
   101         10
   102          3
   103          6
   104         35
   105         16
   106          5
   112          3
   115          3
   116          5
   117          8
   119         10
   131         12
   132          2
   133         14
   134          3
   135          4
   144          2
   145          3
   146          7
   147        782
   148        126
   149         71
   150          8
   151          3
   163         20
   164          3
   165          2
   169          6
   170          3
   177         48
   178          9
   179          7
   193         85
   194         16
   195         11
   197          3
   207          4
   221        224
   222         44
   223         31
   224          5
   236         46
   237         10
   238          7
   239          2