##TITLE=Library Entry 69552
##JCAMP-DX=Revision 4.10 
##DATA TYPE=MASS SPECTRUM
##SAMPLE DESCRIPTION=J. Daly, M. Garraffo, T. Spande, LBC, NIDDK, NIH, Bethe
sda, MD 20892
##NAMES=HP
##CAS NAME=1-Azaspiro[5.5]undecan-8-ol, 7-(1-buten-3-ynyl)-2-(4-pentynyl)-,
 [6R-[6.alpha.(R*),7.beta.(Z),8.alpha.]]-
##MOLFORM=C19H27NO
##CAS REGISTRY NO=63983-63-1
##MP= -300
##BP= -300
##MW= 285
##$RETENTION INDEX=0
##$CONDENSED SPECTRUM=NO
##NPOINTS= 164
##XYDATA=(XY..XY) 1 
    51         47
    52         27
    53        112
    54         74
    55        195
    56        199
    57         96
    58         18
    62          7
    63         36
    64         21
    65        136
    66         48
    67        165
    68         69
    69         60
    70         61
    71         18
    75          8
    77        244
    78         87
    79        258
    80        187
    81        189
    82        172
    83         39
    84         24
    89         39
    91        350
    92         66
    93        170
    94        200
    95        168
    96        999
    97         92
    98         26
   102         23
   103         82
   104         62
   105        150
   106        327
   107        163
   108        220
   109        199
   110        109
   111         42
   112         10
   115        133
   116         55
   117        163
   118         92
   119         71
   120        258
   121        121
   122        224
   123         49
   124         88
   125         26
   127         23
   128         86
   129        107
   130        133
   131        113
   132         77
   133         62
   134        408
   135        123
   136        130
   137         24
   138         17
   141         43
   142         31
   143         78
   144        179
   145        100
   146        110
   147         45
   148        141
   149         33
   150         56
   152         38
   153         15
   154         12
   155         33
   156         29
   157         40
   158         71
   159         56
   161         36
   162        418
   163         93
   164         26
   165         10
   169         23
   170         36
   171         16
   172         59
   173         30
   174        147
   176        378
   177         60
   178         27
   179         13
   180         13
   181         12
   182         13
   183         20
   184         41
   185         30
   186         70
   187         36
   188         38
   190        355
   191         63
   192        166
   193         28
   196         13
   197         14
   198         43
   200        194
   201         44
   202        147
   203         31
   204         33
   205         11
   210         18
   211         14
   212         33
   213         19
   214        105
   215         23
   216         50
   218        314
   219         58
   220        171
   221         28
   224         30
   226         69
   227         15
   228        111
   229         41
   230         48
   231         19
   232         21
   233         34
   238         83
   239         26
   240         19
   242        125
   243         20
   244         19
   246        123
   247         24
   253         23
   256         97
   257         32
   266        118
   268        229
   269         51
   270         47
   271         10
   284        153
   285        238
   286         56