##TITLE=Library Entry 480
##JCAMP-DX=Revision 4.10 
##DATA TYPE=MASS SPECTRUM
##SAMPLE DESCRIPTION=H.J. MOECKEL & J. WEISS, HAHN-MEITNER-INST. BERLIN, W.
 G
##NAMES=HP
##CAS NAME=Ethyl n-butyl disulphide
##MOLFORM=C6H14S2
##CAS REGISTRY NO=63986-03-8
##MP= -300
##BP= -300
##MW= 150
##$RETENTION INDEX=1120
##$CONDENSED SPECTRUM=NO
##NPOINTS= 86
##XYDATA=(XY..XY) 1 
    15         10
    24          0
    25          1
    26         33
    27        357
    29        999
    30         32
    33          3
    34          5
    35         34
    36          0
    37          2
    38          6
    39         97
    40         16
    41        648
    42         29
    43         18
    44          6
    45         84
    46         43
    47         63
    48          3
    49          3
    50          2
    51          4
    52          1
    53         16
    54         16
    55         73
    56         30
    57        388
    58         36
    59         46
    60         36
    61         21
    62          4
    63          2
    64         21
    65         16
    66        197
    67          7
    68         17
    69          1
    70          0
    71          2
    72          0
    73          4
    74          0
    75          2
    76          1
    77          0
    78          4
    79         37
    80          2
    81          3
    82          0
    83          0
    84          0
    85          2
    86          0
    87         12
    88         13
    89          5
    90          1
    91          0
    92          2
    93         39
    94        433
    95         22
    96         40
    97          1
    98          0
   103          0
   106          0
   107          4
   109          0
   117          0
   121          0
   148          0
   149          7
   150        243
   151         23
   152         21
   153          1
   154          0