##TITLE=Library Entry 60927
##JCAMP-DX=Revision 4.10 
##DATA TYPE=MASS SPECTRUM
##SAMPLE DESCRIPTION=A.A.Kutin, Moscow, Russia
##NAMES=HP
##CAS NAME=Piperazine, 1-benzoyl-4-benzyl-
##MOLFORM=C18H20N2O
##CAS REGISTRY NO=63991-67-3
##MP= -300
##BP= -300
##MW= 280
##$RETENTION INDEX=0
##$CONDENSED SPECTRUM=NO
##NPOINTS= 57
##XYDATA=(XY..XY) 1 
    35          6
    36         39
    38         17
    39         34
    40         11
    41         34
    42        129
    50         50
    51        170
    52         12
    54         22
    55         19
    56         39
    57          4
    62          4
    63         27
    64          8
    65        165
    66          2
    72         12
    74         28
    75         10
    77        669
    78         44
    83          5
    89         32
    90         32
    91        999
    92         75
   104         33
   105        684
   106         59
   117         38
   118         36
   131          9
   132        241
   133         21
   134        216
   135         27
   144          5
   146        479
   147         62
   148         48
   158          8
   159         74
   160         45
   161          9
   162         12
   174         10
   175         51
   188          6
   189         15
   203          3
   278          3
   279          9
   280        143
   281         22