##TITLE=Library Entry 64804
##JCAMP-DX=Revision 4.10 
##DATA TYPE=MASS SPECTRUM
##SAMPLE DESCRIPTION=Humboldt-Universitat zu Berlin, Department of Chemistry
, Analytical Group
##NAMES=HP
##CAS NAME=3H-1,4-Benzodiazepin-2-amine, 7-chloro-N-methyl-5-phenyl-N-(pheny
lmethyl)-, 4-oxide
##MOLFORM=C23H20ClN3O
##CAS REGISTRY NO=63991-69-5
##MP= -300
##BP= -300
##MW= 389
##$RETENTION INDEX=0
##$CONDENSED SPECTRUM=NO
##NPOINTS= 328
##XYDATA=(XY..XY) 1 
    12          5
    13          2
    14          5
    15         33
    16         13
    17         66
    18        250
    26          6
    27         36
    28         56
    29         27
    30         13
    31         10
    32          6
    35          5
    36         10
    37          3
    38         10
    39         76
    40         10
    41         61
    42        139
    43         46
    44         62
    45         10
    46          2
    47          7
    48          3
    49         31
    50         21
    51         81
    52         18
    53          8
    54         30
    55         70
    56         20
    57         33
    58          3
    59          1
    60          6
    61          3
    62         10
    63         40
    64         14
    65        199
    66         15
    67          7
    68          5
    69         16
    70          8
    71         14
    72          2
    73         10
    74         10
    75         34
    76         24
    77        192
    78         28
    79         12
    80          3
    81          9
    82          7
    83         13
    84         20
    85          9
    86         13
    87         11
    88         15
    89         55
    90         27
    91        999
    92         81
    93          7
    94          2
    95          7
    96          5
    97         12
    98          7
    99         13
   100         16
   101         10
   102         26
   103         27
   104         62
   105         76
   106         27
   107          7
   108          3
   109          7
   110         13
   111         25
   112         14
   113         17
   114         16
   115         16
   116         28
   117         23
   118         62
   119         15
   120        260
   121         36
   122          9
   123         15
   124         38
   125         19
   126         30
   127         20
   128         11
   129          8
   130         10
   131          7
   132         18
   133          8
   134          3
   135          4
   136         14
   137         14
   138         24
   139         20
   140         14
   141         10
   142          5
   143          3
   144         13
   145          4
   146          7
   147         11
   149         11
   150         35
   151         60
   152         41
   153         18
   154          5
   155          4
   156          2
   157          2
   159          3
   160          4
   161          5
   162         13
   163         54
   164         36
   165         50
   166         22
   167         13
   168          4
   169          3
   171          2
   173          2
   174          4
   175          8
   176         25
   177         46
   178         29
   179         28
   180         12
   181          7
   182          1
   183          1
   185          2
   186          4
   187          5
   188          7
   189          8
   190         30
   191         19
   192         18
   193         31
   194         11
   195          8
   197          1
   198          2
   199         10
   200          4
   201         11
   202         10
   203         27
   204         30
   205         34
   206         15
   207          7
   208          2
   209          2
   210          1
   211          1
   212          3
   213          5
   214         13
   215          8
   216         11
   217         17
   218         60
   219         25
   220         11
   221          3
   222          1
   223          1
   224          4
   225          2
   226          6
   227         43
   228         51
   229         30
   230         20
   231          9
   232          5
   233          5
   234         14
   235          5
   236          1
   237          2
   238          7
   239         21
   240         18
   241         58
   242         21
   243         19
   244          7
   245          2
   246          5
   247          8
   248          2
   249          1
   250          0
   251          7
   252         16
   253         59
   254         34
   255         43
   256         16
   257         11
   258          2
   259          1
   262          0
   263          1
   264          1
   265          3
   266          3
   267         12
   268         15
   269         65
   270         19
   271         19
   272          4
   273          1
   278          1
   279          2
   280         10
   281          8
   282         65
   283         24
   284         31
   285          9
   286          3
   287          0
   290          0
   291          0
   292          1
   293          2
   294          3
   295          4
   296          8
   297          2
   298          4
   299          9
   300          3
   301          3
   302          1
   303          2
   304         11
   305          3
   306          4
   307          1
   308          0
   309          1
   310          0
   312          2
   313          0
   314          5
   315          7
   316          5
   317          5
   318          1
   319          1
   320          0
   321          0
   322          1
   323          1
   327          1
   328         10
   329          9
   331        295
   332         73
   333        102
   334         25
   335          2
   336          1
   337          2
   338          1
   339          0
   341          9
   342          3
   343         11
   344          6
   345          4
   346          1
   347          1
   355          0
   356          2
   357          2
   358         38
   359         12
   360         15
   361          4
   362          1
   370          1
   372        335
   373        169
   374        138
   375         59
   376         11
   377          1
   387          0
   389         48
   390         13
   391         17
   392          4
   393          0