##TITLE=Library Entry 1240
##JCAMP-DX=Revision 4.10 
##DATA TYPE=MASS SPECTRUM
##SAMPLE DESCRIPTION=Japan AIST/NIMC Database- Spectrum MS-NW- 761
##NAMES=HP
##CAS NAME=Benzeneethanamine
##MOLFORM=C8H11N
##CAS REGISTRY NO=64-04-0
##MP= -300
##BP= -300
##MW= 121
##$RETENTION INDEX=1102
##$CONDENSED SPECTRUM=NO
##NPOINTS= 59
##XYDATA=(XY..XY) 1 
    15          2
    18          4
    26          1
    27          7
    28         22
    29          2
    30        999
    31         12
    32          1
    37          2
    38          6
    39         31
    40          3
    41          9
    42          9
    43          4
    44          1
    49          1
    50         12
    51         26
    52          8
    53          3
    54          1
    56          2
    59          4
    60          3
    61          3
    62          7
    63         20
    64          5
    65         54
    66          4
    74          4
    75          3
    76          3
    77         23
    78          8
    79          2
    86          1
    87          1
    89         13
    90          9
    91        150
    92         64
    93          7
    99          2
   102          3
   103         15
   104          8
   105          2
   106          1
   107          1
   116          2
   117          8
   118          9
   119          7
   120          9
   121         59
   122          6