##TITLE=Library Entry 15953
##JCAMP-DX=Revision 4.10 
##DATA TYPE=MASS SPECTRUM
##SAMPLE DESCRIPTION=Finnigan MAT: Toxicological Library (LIBR-TX)
##NAMES=HP
##CAS NAME=Phenethylamine, p,.alpha.-dimethyl-
##MOLFORM=C10H15N
##CAS REGISTRY NO=64-11-9
##MP= -300
##BP= -300
##MW= 149
##$RETENTION INDEX=0
##$CONDENSED SPECTRUM=NO
##NPOINTS= 21
##XYDATA=(XY..XY) 1 
    42         31
    44        999
    45         29
    51         17
    53         11
    65         18
    66         11
    77         37
    78         12
    79         18
    89          4
    91         45
   103         15
   104          8
   105         34
   106         17
   115          8
   117          7
   118          3
   132          2
   134          6