##TITLE=Library Entry 15939
##JCAMP-DX=Revision 4.10 
##DATA TYPE=MASS SPECTRUM
##SAMPLE DESCRIPTION=AAFS Toxicology Section MS DB Committee, U. Alberta, Ca
nada
##NAMES=HP
##CAS NAME=Benzeneethanamine, 4-chloro-.alpha.-methyl-
##MOLFORM=C9H12ClN
##CAS REGISTRY NO=64-12-0
##MP= -300
##BP= -300
##MW= 169
##$RETENTION INDEX=0
##$CONDENSED SPECTRUM=NO
##NPOINTS= 77
##XYDATA=(XY..XY) 1 
    35          2
    38          5
    39         17
    40          3
    41         10
    42         43
    43         13
    44        999
    45         29
    46          3
    49          2
    50         10
    51         16
    52          3
    53          1
    54          3
    55          2
    56         15
    57          6
    58         26
    59         18
    61          4
    62         11
    63         36
    64          8
    65         16
    66          3
    69          2
    71          2
    73         12
    74          9
    75         18
    76          5
    77         13
    78          6
    80          2
    84          2
    85          3
    86          6
    87          5
    89         66
    90         19
    91         37
    92          4
    97          3
    98          2
    99         22
   100          2
   101         13
   102          4
   103          3
   112          2
   113          2
   114          2
   115         19
   116          9
   117         12
   118         13
   119         17
   120          3
   123          2
   125         66
   126         10
   127         23
   128          4
   129          2
   132          2
   138          2
   139          2
   152          3
   153          3
   154         15
   155          2
   156          5
   168          4
   169          2
   170          2