##TITLE=Library Entry 6869
##JCAMP-DX=Revision 4.10 
##DATA TYPE=MASS SPECTRUM
##SAMPLE DESCRIPTION=Japan AIST/NIMC Database- Spectrum MS-NW- 80
##NAMES=HP
##CAS NAME=Acetic acid
##MOLFORM=C2H4O2
##CAS REGISTRY NO=64-19-7
##MP= -300
##BP= -300
##MW= 60
##$RETENTION INDEX=610
##$CONDENSED SPECTRUM=NO
##NPOINTS= 30
##XYDATA=(XY..XY) 1 
     2          2
    12          6
    13         20
    14         48
    15        170
    16         23
    17          9
    18         27
    24          2
    25          4
    26          5
    27          1
    28         40
    29         84
    30          4
    31         24
    32          1
    40          8
    41         35
    42        130
    43        999
    44         24
    45        903
    46         10
    47          2
    55          1
    57          2
    60        747
    61         19
    62          2