##TITLE=Library Entry 519
##JCAMP-DX=Revision 4.10 
##DATA TYPE=MASS SPECTRUM
##SAMPLE DESCRIPTION=Exported from NIST MS Search
##NAMES=HP
##CAS NAME=Formic acid
##MOLFORM=CH2O2
##CAS REGISTRY NO=64-18-6
##MP= -300
##BP= -300
##MW= 46
##$RETENTION INDEX=526
##$CONDENSED SPECTRUM=NO
##NPOINTS= 16
##XYDATA=(XY..XY) 1 
    12         33
    13         29
    14          4
    16         52
    17        171
    19          2
    28        172
    29        999
    30         17
    31          6
    32          2
    44        100
    45        476
    46        609
    47         10
    48          3