##TITLE=Library Entry 70087
##JCAMP-DX=Revision 4.10 
##DATA TYPE=MASS SPECTRUM
##SAMPLE DESCRIPTION=MI-0061
##NAMES=HP
##CAS NAME=Mebutamate
##MOLFORM=C10H20N2O4
##CAS REGISTRY NO=64-55-1
##MP= -300
##BP= -300
##MW= 232
##$RETENTION INDEX=0
##$CONDENSED SPECTRUM=NO
##NPOINTS= 99
##XYDATA=(XY..XY) 1 
    26          9
    27         77
    28         74
    29        159
    30         13
    31         79
    32          9
    39         70
    40         19
    41        294
    42         49
    43        214
    44        249
    45         64
    46         17
    47          6
    51          7
    52          5
    53         49
    54         47
    55        624
    56        115
    57        245
    58         38
    59         70
    60          8
    61          8
    62        409
    63          9
    64          4
    65         10
    66          9
    67         61
    68         34
    69        344
    70        125
    71        421
    72        640
    73        149
    74         23
    75        169
    76         16
    77         10
    78          1
    79         18
    80          3
    81         84
    82         59
    83         89
    84        129
    85         57
    86         13
    87          4
    88         13
    89         18
    91          7
    92         19
    93          6
    94          7
    95        159
    96         29
    97        999
    98        179
    99         79
   100         24
   101         10
   102          9
   103          1
   104         25
   105         13
   106          1
   109         14
   110        349
   111         39
   112         10
   113         19
   114         52
   115        204
   116         50
   117          7
   118          6
   119          5
   120          1
   126          1
   127          3
   128        159
   129         19
   130          1
   131          3
   132         39
   133          9
   134          7
   135         11
   136          9
   158        309
   159         29
   160          4
   175         44
   176          9