##TITLE=Library Entry 20826
##JCAMP-DX=Revision 4.10 
##DATA TYPE=MASS SPECTRUM
##SAMPLE DESCRIPTION=Japan AIST/NIMC Database- Spectrum MS-NW-3564
##NAMES=HP
##CAS NAME=Bemegride
##MOLFORM=C8H13NO2
##CAS REGISTRY NO=64-65-3
##MP= -300
##BP= -300
##MW= 155
##$RETENTION INDEX=1314
##$CONDENSED SPECTRUM=NO
##NPOINTS= 80
##XYDATA=(XY..XY) 1 
    14          6
    15         12
    16          1
    17          9
    18         38
    26         10
    27        136
    28         35
    29        173
    30         11
    31          2
    33          1
    34          1
    37          4
    38         13
    39        156
    40         33
    41        223
    42         93
    43         25
    44         20
    49          1
    50          9
    51         15
    52         12
    53         53
    54         49
    55        999
    56         61
    57         21
    58          2
    59         39
    60         19
    61          1
    62          1
    63          2
    64          1
    65          5
    66          4
    67         20
    68         13
    69        179
    70        202
    71         15
    72          2
    73          1
    79          2
    80          1
    81          4
    82        375
    83        450
    84         63
    85          4
    86          3
    94          9
    95          4
    96        104
    97        156
    98         40
    99          6
   100          6
   108          1
   109          3
   110          5
   111          2
   112         36
   113        222
   114         16
   115          1
   125         32
   126         63
   127        150
   128         12
   137          2
   138          4
   139          2
   140          9
   155        150
   156         14
   157          1