##TITLE=Library Entry 58917
##JCAMP-DX=Revision 4.10 
##DATA TYPE=MASS SPECTRUM
##SAMPLE DESCRIPTION=Japan AIST/NIMC Database- Spectrum MS-IW-6771
##NAMES=HP
##CAS NAME=Tolbutamide
##MOLFORM=C12H18N2O3S
##CAS REGISTRY NO=64-77-7
##MP= -300
##BP= -300
##MW= 270
##$RETENTION INDEX=1665
##$CONDENSED SPECTRUM=NO
##NPOINTS= 131
##XYDATA=(XY..XY) 1 
    15          4
    17          1
    18         20
    26          3
    27         27
    28         32
    29         26
    30        717
    31         14
    37          2
    38          9
    39         72
    40          8
    41         54
    42         12
    43         34
    44         24
    45          4
    46          1
    48          2
    49          1
    50         18
    51         31
    52         10
    53          7
    54          2
    55          9
    56         19
    57         13
    58          5
    61          4
    62         14
    63         50
    64         14
    65        178
    66         10
    67          3
    69          3
    70          4
    71          3
    72         40
    73        101
    74         11
    75          6
    76          4
    77         26
    78         10
    79         13
    80          2
    82          1
    84          1
    85          2
    86          4
    87          4
    88          1
    89         61
    90         35
    91        999
    92         83
    93          4
    95          1
    97          1
    98          5
    99         51
   100          5
   101          1
   104          5
   105          2
   106         22
   107        114
   108        259
   109         20
   110          1
   111          1
   113          1
   115         27
   116          2
   120          2
   121          2
   122          1
   123          2
   124          4
   125         42
   126          4
   127         12
   128          1
   132          3
   133          1
   137          1
   139          9
   140          2
   141         16
   142         12
   143          6
   144          4
   149          1
   154          2
   155        598
   156         51
   157         30
   158          2
   163          2
   171         27
   172          6
   173          2
   184          1
   189         44
   190          4
   191         15
   192          1
   196          1
   197        256
   198         28
   199         13
   200          1
   205          2
   206         35
   207          5
   215          4
   227          9
   228          6
   229          1
   231         20
   232          2
   233          8
   241          1
   255          1
   269          1
   270          9
   271          7
   272          1