##TITLE=Library Entry 56509
##JCAMP-DX=Revision 4.10 
##DATA TYPE=MASS SPECTRUM
##SAMPLE DESCRIPTION=Tox21 Consortium/NIST Mass Spectrometry Data Center, 20
12
##NAMES=HP
##CAS NAME=Benzeneacetic acid, .alpha.-phenyl-, 2-(diethylamino)ethyl ester
##MOLFORM=C20H25NO2
##CAS REGISTRY NO=64-95-9
##MP= -300
##BP= -300
##MW= 311
##$RETENTION INDEX=2202
##$CONDENSED SPECTRUM=NO
##NPOINTS= 90
##XYDATA=(XY..XY) 1 
    18          1
    27          4
    28          8
    29         12
    30         21
    39          3
    41          3
    42         26
    43          7
    44         23
    45          1
    50          2
    51          4
    52          1
    54          3
    55          2
    56         30
    57         18
    58         48
    59          2
    62          1
    63          5
    64          1
    65          3
    68          1
    69          1
    70         13
    71         21
    72         10
    73          1
    74          1
    75          1
    76          2
    77          5
    78          1
    79          1
    82          3
    83          2
    84         20
    86        999
    87         73
    88          3
    89          6
    90          3
    91          3
    97          1
    99        134
   100         20
   101          2
   102          5
   103          1
   105          2
   106          1
   113          2
   114          2
   115         12
   116          3
   118          1
   126          2
   127          2
   128          7
   129          1
   137          1
   138          1
   139         10
   140          1
   141          3
   148          1
   150          1
   151          6
   152         59
   153          8
   154          1
   162          1
   163          8
   164         13
   165        130
   166         43
   167        131
   168         19
   169          1
   179          1
   194          1
   239         17
   240          3
   296          6
   297          1
   309          1
   310          1
   311          2