##TITLE=Library Entry 62547
##JCAMP-DX=Revision 4.10 
##DATA TYPE=MASS SPECTRUM
##SAMPLE DESCRIPTION=Japan AIST/NIMC Database- Spectrum MS-NW-4547
##NAMES=HP
##CAS NAME=Phenyl para-toluenesulfonate
##MOLFORM=C13H12O3S
##CAS REGISTRY NO=640-60-8
##MP= -300
##BP= -300
##MW= 248
##$RETENTION INDEX=0
##$CONDENSED SPECTRUM=NO
##NPOINTS= 77
##XYDATA=(XY..XY) 1 
    17          1
    18          3
    26          2
    27          7
    28          6
    29          1
    31          1
    32          1
    37          2
    38         12
    39        122
    40          7
    41         18
    44          1
    45          3
    48          1
    50         11
    51         30
    52          7
    53          5
    55          2
    61          2
    62          9
    63         41
    64         14
    65        212
    66         14
    67          2
    69          1
    71          1
    74          2
    75          2
    76          2
    77         25
    78          7
    79          4
    86          1
    87          1
    89         29
    90         17
    91        999
    92         79
    93         12
    94          9
    95          1
   107          5
   108          2
   109          1
   111          1
   115          7
   116          1
   121          1
   127          2
   128          4
   129          3
   139         10
   140          1
   141          9
   142          1
   152          1
   153          3
   154          2
   155        451
   156         39
   157         22
   158          1
   165          1
   168          2
   169          1
   181          1
   182          1
   183          5
   184          5
   248        188
   249         28
   250         10
   251          1