##TITLE=Library Entry 39976
##JCAMP-DX=Revision 4.10 
##DATA TYPE=MASS SPECTRUM
##SAMPLE DESCRIPTION=Japan AIST/NIMC Database- Spectrum MS-NW-1903
##NAMES=HP
##CAS NAME=D-Valine
##MOLFORM=C5H11NO2
##CAS REGISTRY NO=640-68-6
##MP= -300
##BP= -300
##MW= 117
##$RETENTION INDEX=0
##$CONDENSED SPECTRUM=NO
##NPOINTS= 55
##XYDATA=(XY..XY) 1 
    14          1
    15         11
    17          5
    18         12
    26          7
    27         73
    28        246
    29        141
    30        104
    31          2
    32          3
    34          1
    36          4
    37          5
    38          9
    39         71
    40          9
    41         86
    42         30
    43         66
    44         15
    45         20
    46         63
    47          2
    50          2
    51          4
    52          6
    53         11
    54         18
    55        313
    56        119
    57        244
    58         32
    59          2
    60          1
    67          2
    68          3
    69          4
    70         20
    71          6
    72        999
    73         49
    74        339
    75        152
    76          6
    77          1
    81          1
    82          3
    83          2
    84          8
    85          3
    97          1
    98          2
   100          1
   102          2