##TITLE=Library Entry 62549
##JCAMP-DX=Revision 4.10 
##DATA TYPE=MASS SPECTRUM
##SAMPLE DESCRIPTION=NIST Mass Spectrometry Data Center, 2010
##NAMES=HP
##CAS NAME=Benzenesulfonamide, N,4-dimethyl-
##MOLFORM=C8H11NO2S
##CAS REGISTRY NO=640-61-9
##MP= -300
##BP= -300
##MW= 185
##$RETENTION INDEX=1705
##$CONDENSED SPECTRUM=NO
##NPOINTS= 98
##XYDATA=(XY..XY) 1 
    15          1
    26          1
    27          6
    28         21
    29          3
    30         46
    31          1
    32          3
    36          1
    37          2
    38          9
    39         67
    40          6
    41         18
    42          3
    43          3
    44          8
    45          5
    46          2
    47          2
    48          5
    49          2
    50         23
    51         40
    52         12
    53         10
    55          1
    57          1
    58          1
    59          3
    60          6
    61          9
    62         23
    63         80
    64         29
    65        230
    66         16
    67          4
    69          5
    70          1
    71          2
    74          8
    75          7
    76          5
    77         43
    78         20
    79         18
    80         11
    81          1
    82          2
    83          1
    84          1
    85          3
    86          6
    87          6
    89         79
    90         34
    91        999
    92        149
    93         10
    94          5
    95          2
    96          1
    97          1
   103          2
   104         10
   105          7
   106         39
   107         86
   108         63
   109          5
   111          2
   117          1
   118          1
   119          1
   120         26
   121         59
   122          7
   123          3
   124          2
   126          1
   138          1
   139         12
   140          1
   141          1
   148          1
   153          1
   155        256
   156         25
   157         15
   158          1
   173          6
   174          1
   184          1
   185        143
   186         14
   187          7
   188          1