##TITLE=Library Entry 15793
##JCAMP-DX=Revision 4.10 
##DATA TYPE=MASS SPECTRUM
##SAMPLE DESCRIPTION=Japan AIST/NIMC Database- Spectrum MS-NW-2989
##NAMES=HP
##CAS NAME=Acetamide, 2-fluoro-
##MOLFORM=C2H4FNO
##CAS REGISTRY NO=640-19-7
##MP= -300
##BP= -300
##MW= 77
##$RETENTION INDEX=0
##$CONDENSED SPECTRUM=NO
##NPOINTS= 35
##XYDATA=(XY..XY) 1 
    12          2
    13          5
    14         12
    15          3
    16         26
    17          3
    18          1
    20          1
    26          2
    27         10
    28         47
    29         10
    30         21
    31         13
    32         18
    33        135
    34          1
    38          4
    39          4
    40          7
    41          6
    42         38
    43         29
    44        999
    45         14
    46          4
    47          2
    48         14
    58          3
    59          6
    60         24
    61          9
    77        418
    78         11
    79          1