##TITLE=Library Entry 58089
##JCAMP-DX=Revision 4.10 
##DATA TYPE=MASS SPECTRUM
##SAMPLE DESCRIPTION=NIST Mass Spectrometry Data Center, 1998.
##NAMES=HP
##CAS NAME=Thiometon
##MOLFORM=C6H15O2PS3
##CAS REGISTRY NO=640-15-3
##MP= -300
##BP= -300
##MW= 246
##$RETENTION INDEX=1705
##$CONDENSED SPECTRUM=NO
##NPOINTS= 85
##XYDATA=(XY..XY) 1 
    14          1
    15         15
    26          9
    27         77
    28         13
    29        113
    30          5
    31         14
    32          3
    33          3
    34          3
    35         29
    39          1
    41          9
    45         95
    46         34
    47        179
    48          7
    49          9
    54          2
    55         20
    56          1
    57          6
    58         37
    59        107
    60        327
    61        275
    62         59
    63        160
    64         48
    65         11
    66          5
    73         23
    74          4
    75         53
    76          5
    77         10
    78          5
    79        109
    80          6
    81          1
    85          1
    86          1
    88        999
    89        311
    90         62
    91         19
    92         14
    93        332
    94         18
    95         41
    96         21
    97          4
    98          3
   105          4
   110          3
   111          5
   112          2
   121         12
   122          1
   123          5
   124          1
   125        500
   126         23
   127         37
   128          9
   129          1
   140          1
   153          3
   155          1
   157         58
   158         64
   159         25
   160          7
   161          1
   171          1
   184          5
   185         24
   186          2
   187          3
   189          6
   217         10
   246         57
   247          6
   248          8