##TITLE=Library Entry 6333
##JCAMP-DX=Revision 4.10 
##DATA TYPE=MASS SPECTRUM
##SAMPLE DESCRIPTION=Institute of Organic Chemistry, Novosibirsk, USSR 1988
##NAMES=HP
##CAS NAME=Bis(sec-butoxo)(methyl)oxovanadium
##MOLFORM=C9H21O3V
##CAS REGISTRY NO=64001-76-9
##MP= -300
##BP= -300
##MW= 228
##$RETENTION INDEX=0
##$CONDENSED SPECTRUM=NO
##NPOINTS= 63
##XYDATA=(XY..XY) 1 
    27        499
    28        332
    29        554
    39        304
    41        860
    42        110
    43        999
    44         82
    45        415
    55        387
    56         82
    57        193
    58         27
    59        110
    67        221
    68         82
    69        165
    70         27
    71         27
    72        110
    73         54
    79        193
    80         27
    81         82
    82         54
    83        110
    84        110
    85         27
    94         82
    95         54
    96         54
    97        721
    98         54
    99         27
   110        110
   111        165
   112         26
   124         82
   125        193
   126        193
   127         54
   128        110
   138        110
   139        221
   140         27
   141         27
   142         27
   143        276
   144         27
   157        110
   158         27
   183        276
   184         26
   197        110
   198         26
   199        304
   200         26
   201         26
   211         54
   212         27
   213         82
   227         18
   228         12