##TITLE=Library Entry 12747
##JCAMP-DX=Revision 4.10 
##DATA TYPE=MASS SPECTRUM
##SAMPLE DESCRIPTION=HCACAV,60(4)1273(1977);25; A. VASELLA, EIDGENOSSISCHEN
 TECHNISCHEN HOCHSCHULE, ZURICH, SWITZERLAND
##NAMES=HP
##CAS NAME=5-Isoxazolidinemethanol, 2-acetyl-5-methyl-, acetate (ester), (R)
-
##MOLFORM=C9H15NO4
##CAS REGISTRY NO=64018-47-9
##MP= -300
##BP= -300
##MW= 201
##$RETENTION INDEX=0
##$CONDENSED SPECTRUM=NO
##NPOINTS= 27
##XYDATA=(XY..XY) 1 
    41         60
    43        999
    44         90
    46        100
    54         40
    56         30
    57         30
    58         20
    61         20
    68         50
    69         80
    72        300
    76         20
    84        160
    86         80
    88         40
    98         30
    99        400
   100         50
   114         50
   117         30
   128         20
   141         10
   159        450
   160         30
   201        100
   202         30