##TITLE=Library Entry 29871
##JCAMP-DX=Revision 4.10 
##DATA TYPE=MASS SPECTRUM
##SAMPLE DESCRIPTION=HCACAV,60(4)1273(1977);35; A. VASELLA, EIDGENOSSISCHEN
 TECHNISCHEN HOCHSCHULE, ZURICH, SWITZERLAND
##NAMES=HP
##CAS NAME=D-Ribose, 5-O-methyl-2,3-O-(1-methylethylidene)-
##MOLFORM=C9H16O5
##CAS REGISTRY NO=64018-53-7
##MP= -300
##BP= -300
##MW= 204
##$RETENTION INDEX=0
##$CONDENSED SPECTRUM=NO
##NPOINTS= 23
##XYDATA=(XY..XY) 1 
    29        120
    31        100
    39         90
    41        210
    43        600
    45        660
    55        130
    57        140
    59        999
    68        480
    69        220
    71        410
    73        380
    85        200
    97        100
   100        380
   101        250
   113        130
   114        100
   129        130
   146        140
   159        200
   189        370