##TITLE=Library Entry 22231
##JCAMP-DX=Revision 4.10 
##DATA TYPE=MASS SPECTRUM
##SAMPLE DESCRIPTION=Chemical Concepts
##NAMES=HP
##CAS NAME=5-Isoxazolecarboxylic acid, 4,5-dihydro-3,5-dimethyl-, methyl est
er, (S)-
##MOLFORM=C7H11NO3
##CAS REGISTRY NO=64018-37-7
##MP= -300
##BP= -300
##MW= 157
##$RETENTION INDEX=0
##$CONDENSED SPECTRUM=NO
##NPOINTS= 71
##XYDATA=(XY..XY) 1 
    25          1
    26         14
    27         61
    28         47
    29         64
    30          9
    31          9
    33          2
    36          1
    37          4
    38          9
    39         87
    40         28
    41        125
    42         52
    43        588
    44         16
    45         13
    50          5
    51          8
    52          7
    53         18
    54         36
    55         52
    56        999
    57         71
    58         11
    59         43
    60          2
    61          4
    62          2
    63          4
    64          1
    65         11
    66          5
    67         29
    68         14
    69         37
    70          7
    71          3
    72          4
    73          2
    74          3
    76          2
    77          1
    78          1
    79          4
    80          3
    81          5
    82         22
    83          6
    84          4
    85          6
    86          4
    87          4
    88          1
    89          1
    90          4
    91          2
    92          3
    93          3
    94          4
    95          7
    96          3
    97         57
    98        586
    99         48
   100          6
   157         14
   158          3
   159          1