##TITLE=Library Entry 114552
##JCAMP-DX=Revision 4.10 
##DATA TYPE=MASS SPECTRUM
##SAMPLE DESCRIPTION=Chemical Concepts
##NAMES=HP
##CAS NAME=Acetamide, N-[3-hydroxy-3-methyl-4-[(4-nitrobenzoyl)oxy]butyl]-,
 (R)-
##MOLFORM=C14H18N2O6
##CAS REGISTRY NO=64018-50-4
##MP= -300
##BP= -300
##MW= 310
##$RETENTION INDEX=0
##$CONDENSED SPECTRUM=NO
##NPOINTS= 192
##XYDATA=(XY..XY) 1 
    27         48
    28         36
    29         81
    30        617
    31         29
    37          9
    38         10
    39         69
    40         14
    41        162
    42         78
    43        689
    44        287
    45         56
    46         10
    50         71
    51         25
    52          6
    53         24
    54         17
    55        123
    56         40
    57        125
    58         58
    59         42
    60        608
    61         28
    62          5
    63         16
    64         18
    65         50
    66          8
    67         40
    68         49
    69        104
    70         66
    71        190
    72        310
    73         99
    74         33
    75         84
    76        214
    77         50
    78          8
    79         23
    80          8
    81         71
    82         57
    83        249
    84        137
    85         53
    86        453
    87        214
    88        464
    89         27
    90          5
    91         30
    92        120
    93         44
    94         10
    95         44
    96         22
    97         43
    98         22
    99         15
   100         29
   101         17
   102          6
   103         35
   104        289
   105         76
   106         10
   107         25
   108          7
   109         31
   110         22
   111         27
   112         68
   113         25
   114         10
   115         21
   116          7
   117         10
   118          6
   119         34
   120        126
   121         39
   122         21
   123         26
   124         10
   125        313
   126        103
   127         16
   128         44
   129         36
   130        999
   131         85
   132         12
   133         17
   134         53
   135         33
   136         16
   137         58
   138         13
   139         30
   140          7
   141         12
   142         12
   143         52
   144         18
   145         24
   146          6
   147         17
   148          5
   149         41
   150        637
   151        104
   152         13
   153          7
   155          7
   157         18
   158          6
   159         13
   160         24
   161         14
   163         12
   165          7
   166         12
   167         42
   168          6
   171          8
   173          9
   175         10
   177          9
   179          8
   183          6
   185         18
   186          6
   187         10
   189          9
   191          7
   193          6
   199          7
   200          8
   201         16
   202          5
   203         12
   205          8
   207          9
   209          7
   210          8
   211          6
   213          8
   215          8
   217          9
   218          7
   219          7
   221         17
   222          5
   224         40
   225          9
   227          7
   228          7
   229          9
   230          5
   231          7
   233         26
   234          6
   236          8
   237         19
   239          6
   243          6
   245          5
   249         17
   250         11
   255          7
   256          8
   257          7
   259          7
   267         60
   268         10
   270          5
   271         29
   273         33
   274          7
   279          8
   292         31
   293         19
   295         26
   310         41
   311         32
   312          8