##TITLE=Library Entry 9777
##JCAMP-DX=Revision 4.10 
##DATA TYPE=MASS SPECTRUM
##SAMPLE DESCRIPTION=HCACAV,60(4)1273(1977);30; A. VASELLA, EIDGENOSSISCHEN
 TECHNISCHEN HOCHSCHULE, ZURICH, SWITZERLAND
##NAMES=HP
##CAS NAME=Acetamide, N-[2-(2,2,4-trimethyl-1,3-dioxolan-4-yl)ethyl]-, (S)-
##MOLFORM=C10H19NO3
##CAS REGISTRY NO=64018-46-8
##MP= -300
##BP= -300
##MW= 201
##$RETENTION INDEX=0
##$CONDENSED SPECTRUM=NO
##NPOINTS= 31
##XYDATA=(XY..XY) 1 
    30        600
    39         90
    42        350
    43        999
    55        140
    56         50
    57        230
    58         80
    59        130
    60        230
    72        610
    73         60
    83         60
    84        830
    85        110
    86         80
    87         30
    88         70
    97         70
   100         30
   102         50
   113         40
   115        230
   126        300
   127         30
   128         80
   130         80
   143        100
   144        240
   186        620
   187         50