##TITLE=Library Entry 28007
##JCAMP-DX=Revision 4.10 
##DATA TYPE=MASS SPECTRUM
##SAMPLE DESCRIPTION=HCACAV,60(4)1273(1977);19; A. VASELLA, EIDGENOSSISCHEN
 TECHNISCHEN HOCHSCHULE, ZURICH, SWITZERLAND
##NAMES=HP
##CAS NAME=5-Isoxazolidinecarboxylic acid, 3,5-dimethyl-, methyl ester, (3S-
trans)-
##MOLFORM=C7H13NO3
##CAS REGISTRY NO=64018-39-9
##MP= -300
##BP= -300
##MW= 159
##$RETENTION INDEX=0
##$CONDENSED SPECTRUM=NO
##NPOINTS= 27
##XYDATA=(XY..XY) 1 
    28        140
    39        110
    41        370
    42        290
    43        950
    44         50
    56         70
    57        120
    58        999
    59        330
    60        150
    67         50
    69        200
    73        120
    84        160
    95         20
    99         30
   100        700
   101        340
   102         30
   110         50
   112         60
   127         20
   142         70
   144         30
   159        170
   160         30