##TITLE=Library Entry 27504
##JCAMP-DX=Revision 4.10 
##DATA TYPE=MASS SPECTRUM
##SAMPLE DESCRIPTION=Chemical Concepts
##NAMES=HP
##CAS NAME=9,12-Octadecadienoic acid (Z,Z)-, octyl ester
##MOLFORM=C26H48O2
##CAS REGISTRY NO=64022-34-0
##MP= -300
##BP= -300
##MW= 392
##$RETENTION INDEX=0
##$CONDENSED SPECTRUM=NO
##NPOINTS= 215
##XYDATA=(XY..XY) 1 
    27         58
    29        182
    30         10
    31         10
    39         52
    40         16
    41        429
    42         91
    43        511
    44         46
    45         26
    53         43
    54        160
    55        601
    56        168
    57        999
    58         72
    59         34
    60         96
    61         42
    64         17
    65         23
    66         38
    67        514
    68        221
    69        423
    70        243
    71        837
    72         78
    73         77
    74         24
    75         13
    77         49
    78         26
    79        185
    80        163
    81        463
    82        333
    83        326
    84        117
    85        103
    86         15
    87         38
    90         19
    91         63
    92         21
    93        116
    94         81
    95        412
    96        298
    97        215
    98         84
    99         55
   100         17
   101         68
   102        135
   103         26
   104         14
   105         44
   106         20
   107         71
   108         63
   109        238
   110        226
   111        141
   112        257
   113        500
   114         68
   115         29
   116         14
   117         18
   119         36
   120         20
   121         72
   122         56
   123        194
   124        153
   125         75
   126         38
   127         47
   128         21
   129         58
   130         12
   131         23
   132         11
   133         38
   134         18
   135         71
   136         68
   137        137
   138        109
   139         56
   140         40
   141         30
   143         23
   145         18
   147         34
   148         16
   149          8
   150          4
   151        102
   152         79
   153         52
   154         46
   155         26
   157         29
   158         10
   159         28
   160         11
   161         25
   162         14
   163         40
   164         43
   165         61
   166         47
   167         60
   168         73
   169         29
   170         13
   171         30
   172         10
   173         25
   175         31
   176         14
   177         33
   178         69
   179         47
   180         30
   181         59
   182         85
   183         30
   184         11
   185         38
   186         10
   187         15
   189         18
   191         36
   192         23
   193         33
   194         20
   195         65
   196         78
   197         23
   198         10
   199         32
   200         19
   201         19
   202         22
   203         19
   204         10
   205         31
   206         18
   207         21
   208         18
   209         62
   210         62
   211         69
   212         23
   213         74
   214         16
   217         13
   218         10
   219         17
   220         38
   221         27
   222         17
   223         62
   224         45
   225         23
   226         15
   227         22
   230         11
   231         11
   233         10
   234         19
   235         14
   236         15
   237         31
   238         22
   239         23
   240         13
   241         17
   243         13
   245         18
   246         12
   250         17
   251         15
   252         10
   253         13
   254         10
   261         32
   262        194
   263        247
   264        100
   265         34
   266         15
   267         12
   270         21
   271         38
   272         15
   273         16
   277         24
   278         57
   279        604
   280        848
   282         38
   284         10
   294         11
   308         10
   335         11
   390         22
   391         15
   392        326
   393        121
   394         28