##TITLE=Library Entry 72881
##JCAMP-DX=Revision 4.10 
##DATA TYPE=MASS SPECTRUM
##SAMPLE DESCRIPTION=O A MAMER, MCGILL UNIVERSITY, MONTREAL
##NAMES=HP
##CAS NAME=Heptadecane-2,4-dione
##MOLFORM=C17H32O2
##CAS REGISTRY NO=64042-18-8
##MP= -300
##BP= -300
##MW= 268
##$RETENTION INDEX=1874
##$CONDENSED SPECTRUM=NO
##NPOINTS= 101
##XYDATA=(XY..XY) 1 
    13          3
    16          8
    17         33
    26          7
    27         70
    28         12
    29        155
    30          5
    31         13
    38          3
    39         48
    40         14
    41        296
    42         57
    43        768
    44         21
    45          7
    51          3
    52          3
    53         22
    54         21
    55        191
    56         41
    57        151
    58        101
    59         20
    65          4
    66          5
    67         37
    68         18
    69         87
    70         24
    71         89
    72        135
    73          6
    77          5
    79         12
    80         17
    81         35
    82         19
    83         43
    84         54
    85        700
    86         37
    87         12
    91          3
    93          8
    94         16
    95         40
    96         17
    97         44
    98         58
    99         14
   100        999
   101        136
   102         12
   107          5
   108          5
   109         22
   110          9
   111         19
   112         16
   113        192
   114         20
   115          3
   121          6
   122          3
   123         12
   124         31
   125          8
   126          5
   127         11
   128          4
   135          5
   137         18
   138         25
   139          6
   140          4
   141          4
   142         21
   151          6
   152          3
   154          9
   155          5
   156          7
   166          4
   168          4
   180          3
   184          3
   192         21
   193          5
   210          9
   211         26
   212          4
   225          3
   250         18
   251          4
   253         11
   267          3
   268         17
   269         11