##TITLE=Library Entry 98314
##JCAMP-DX=Revision 4.10 
##DATA TYPE=MASS SPECTRUM
##SAMPLE DESCRIPTION=V.Zaikin,Topchiev Inst.Petrochem.Synth.,Moscow
##NAMES=HP
##CAS NAME=Acetic acid, chloro-, 3-phenylpropyl ester
##MOLFORM=C11H13ClO2
##CAS REGISTRY NO=64046-48-6
##MP= -300
##BP= -300
##MW= 212
##$RETENTION INDEX=0
##$CONDENSED SPECTRUM=NO
##NPOINTS= 59
##XYDATA=(XY..XY) 1 
    26          4
    27          7
    28          1
    29          3
    31          2
    36          5
    38          2
    39         21
    40          2
    41         16
    42          6
    43          3
    45          1
    48          1
    49         26
    50         10
    51         26
    52          8
    53          4
    57          8
    58          4
    60          3
    62          3
    63         14
    64          4
    65         50
    66          4
    74          3
    75          3
    76          4
    77         44
    78         33
    79         23
    80          2
    82          2
    87          1
    89         15
    90          9
    91        491
    92         52
    93          4
   102          6
   103         44
   104         23
   105         53
   106          5
   107          3
   115         35
   116         12
   117        831
   118        999
   119         97
   120          5
   121          2
   125          2
   133          1
   134          1
   135          2
   212          2