##TITLE=Library Entry 20375
##JCAMP-DX=Revision 4.10 
##DATA TYPE=MASS SPECTRUM
##SAMPLE DESCRIPTION=Japan AIST/NIMC Database- Spectrum MS-IW-2403
##NAMES=HP
##CAS NAME=Bis(2-methylallyl) carbonate
##MOLFORM=C9H14O3
##CAS REGISTRY NO=64057-79-0
##MP= -300
##BP= -300
##MW= 170
##$RETENTION INDEX=0
##$CONDENSED SPECTRUM=NO
##NPOINTS= 61
##XYDATA=(XY..XY) 1 
    15          6
    26          9
    27        152
    28         41
    29        255
    30          8
    31         12
    32          1
    37          4
    38         12
    39        223
    40         40
    41        218
    42         25
    43        295
    44         14
    45          7
    50          7
    51         11
    52          7
    53         96
    54         63
    55        999
    56        262
    57         58
    58          9
    63          2
    66          1
    67         11
    68         12
    69         20
    70         38
    71        515
    72         42
    73          3
    77          8
    78          3
    79         27
    80         12
    81          4
    82          4
    83          9
    84          5
    85          1
    91          8
    92          1
    93        178
    94         14
    95         11
    96          1
    97          4
    98          2
   101          2
   107          6
   108        114
   109         11
   111         15
   112          1
   115         65
   116          4
   170          4