##TITLE=Library Entry 45438
##JCAMP-DX=Revision 4.10 
##DATA TYPE=MASS SPECTRUM
##SAMPLE DESCRIPTION=Chemical Concepts
##NAMES=HP
##CAS NAME=Bis(dimethylphosphino)methane
##MOLFORM=C5H14P2
##CAS REGISTRY NO=64065-08-3
##MP= -300
##BP= -300
##MW= 136
##$RETENTION INDEX=0
##$CONDENSED SPECTRUM=NO
##NPOINTS= 115
##XYDATA=(XY..XY) 1 
    21          0
    22          0
    23          0
    25          2
    26         11
    27         45
    28          0
    29         39
    30          0
    31         14
    33          4
    34          2
    35          3
    37          1
    38          1
    39         14
    40          2
    41        274
    42         13
    43         15
    44         26
    45        191
    46         52
    47        249
    48         12
    49          2
    50          2
    51          2
    52          1
    53          2
    54          1
    55          9
    56         10
    57        110
    58         44
    59        136
    60         17
    61        179
    62         35
    63         13
    64          0
    65          6
    66          2
    67          5
    68          2
    69          6
    70          1
    71         14
    72          3
    73        115
    74         14
    75        999
    76        421
    77         24
    78          5
    79         14
    80          0
    81          4
    82          3
    83          5
    84          1
    85          2
    86          0
    87          2
    88          3
    89          5
    90         22
    91         17
    92          9
    93         59
    94          2
    95          3
    96          0
    97          2
    98          0
    99          0
   100          0
   101          0
   102          0
   103          5
   104          1
   105         14
   106          8
   107          9
   108          1
   109          1
   110          0
   111          0
   112          0
   113          0
   115          0
   116          0
   117          2
   118          0
   119          7
   120          2
   121        209
   122         18
   123          1
   124          0
   125          0
   126          0
   127          0
   128          0
   129          0
   130          0
   131          2
   132          1
   133          2
   134          2
   135          1
   136        395
   137         25
   138          1
   139          0