##TITLE=Library Entry 33374
##JCAMP-DX=Revision 4.10 
##DATA TYPE=MASS SPECTRUM
##SAMPLE DESCRIPTION=CARL DJERASSI DEPT OF CHEM STANFORD UNIV STANFORD CALIF
 94305
##NAMES=HP
##CAS NAME=Methanamine, N-cyclohexylidene-
##MOLFORM=C7H13N
##CAS REGISTRY NO=6407-35-8
##MP= -300
##BP= -300
##MW= 111
##$RETENTION INDEX=0
##$CONDENSED SPECTRUM=NO
##NPOINTS= 35
##XYDATA=(XY..XY) 1 
    41        280
    42        310
    43         50
    44         50
    45         10
    50         20
    51         40
    52         30
    53         50
    54        100
    55        580
    56         50
    57         30
    65         20
    66         20
    67         20
    68        999
    69        110
    70         20
    77         10
    79         20
    80         10
    81         30
    82        270
    83        180
    84         20
    94         10
    95         10
    96         60
    98         10
   108         20
   109         20
   110        150
   111        300
   112         20