##TITLE=Library Entry 87863
##JCAMP-DX=Revision 4.10 
##DATA TYPE=MASS SPECTRUM
##SAMPLE DESCRIPTION=ASES Database, Dalian Institute, P.R. China
##NAMES=HP
##CAS NAME=N-(4-Bromophenyl)-2-furancarbothioamide
##MOLFORM=C11H8BrNOS
##CAS REGISTRY NO=64078-19-9
##MP= -300
##BP= -300
##MW= 281
##$RETENTION INDEX=0
##$CONDENSED SPECTRUM=NO
##NPOINTS= 36
##XYDATA=(XY..XY) 1 
    39        370
    41        399
    42         58
    43        260
    50         69
    51         40
    56         79
    57        150
    63         50
    64         30
    65         39
    69         30
    74         29
    75         79
    76         70
    80         29
    82         30
    83         59
    86         49
    94        211
   100         19
   101        179
   109         60
   111        999
   117         29
   155         49
   157         50
   173         29
   188        209
   190        210
   248        158
   250        159
   280        119
   281        288
   282        139
   283        288