##TITLE=Library Entry 51855
##JCAMP-DX=Revision 4.10 
##DATA TYPE=MASS SPECTRUM
##SAMPLE DESCRIPTION=Patti Price, Georgia Bureau of Investigation, Decatur,
 Georgia
##NAMES=HP
##CAS NAME=Propylbenzoylecgonine
##MOLFORM=C19H25NO4
##CAS REGISTRY NO=64091-46-9
##MP= -300
##BP= -300
##MW= 331
##$RETENTION INDEX=0
##$CONDENSED SPECTRUM=NO
##NPOINTS= 112
##XYDATA=(XY..XY) 1 
    41         52
    42        153
    43         35
    44          3
    47          1
    50          7
    51         41
    52          3
    53         18
    54         14
    55         56
    56         22
    57         42
    58         11
    59          1
    60          1
    63          1
    65         12
    66          3
    67         35
    68         35
    69         11
    70         18
    71          3
    75          1
    76         12
    77        236
    78         25
    79         17
    80         18
    81        115
    82        999
    83        461
    84         41
    85          1
    86          3
    87          1
    88          1
    91         21
    92          4
    93         19
    94        273
    95         32
    96        216
    97        125
    98          5
    99          1
   100          1
   101          1
   102          1
   104          1
   105        292
   106         26
   107         10
   108         37
   109          5
   110         13
   111          6
   117          1
   118          1
   119          4
   120         12
   121          4
   122         66
   123         12
   124         20
   126          3
   128         11
   129          1
   131          1
   133          1
   134          1
   135          4
   136          1
   137          3
   138         11
   139          1
   140         14
   144          4
   145          1
   148          1
   150         22
   151          1
   152          1
   166         30
   167          3
   168         15
   169          1
   180         20
   181          5
   182          8
   183         10
   207          1
   208         16
   209         31
   210        650
   211         92
   212          5
   213          1
   226         90
   227         11
   228          1
   244          4
   250          1
   272        143
   273         21
   274          1
   287          1
   330          1
   331        141
   332         26
   333          2