##TITLE=Library Entry 10603
##JCAMP-DX=Revision 4.10 
##DATA TYPE=MASS SPECTRUM
##SAMPLE DESCRIPTION=A.A.Kutin, Moscow, Russia
##NAMES=HP
##CAS NAME=Propanoic acid, 2-acetylhydrazono-
##MOLFORM=C5H8N2O3
##CAS REGISTRY NO=64096-81-7
##MP= -300
##BP= -300
##MW= 144
##$RETENTION INDEX=0
##$CONDENSED SPECTRUM=NO
##NPOINTS= 34
##XYDATA=(XY..XY) 1 
    33         11
    34          0
    37          0
    38          2
    40         35
    43        999
    45         52
    46          2
    47          0
    50          1
    51          2
    52          5
    55         30
    57        339
    59          5
    61          9
    65          0
    69          0
    70          0
    71          1
    72          1
    73          1
    74          1
    75          0
    77          8
    78          0
    83          2
    84          7
    85          1
    91          0
    99        359
   100         14
   102         27
   103          1