##TITLE=Library Entry 82616
##JCAMP-DX=Revision 4.10 
##DATA TYPE=MASS SPECTRUM
##SAMPLE DESCRIPTION=NIST Mass Spectrometry Data Center, 1998.
##NAMES=HP
##CAS NAME=4-(N-Nitroso-N-methylamino)-1-(3-pyridyl)-1-butanone
##MOLFORM=C10H13N3O2
##CAS REGISTRY NO=64091-91-4
##MP= -300
##BP= -300
##MW= 207
##$RETENTION INDEX=1935
##$CONDENSED SPECTRUM=NO
##NPOINTS= 121
##XYDATA=(XY..XY) 1 
    14          1
    15         19
    26          9
    27         39
    28         43
    29         12
    30         60
    31          1
    32         18
    37          4
    38         11
    39         63
    40         14
    41         70
    42        495
    43        262
    44        140
    45          5
    49          7
    50        112
    51        437
    52         78
    53         36
    54         20
    55         56
    56         69
    57         79
    58         20
    59          6
    60          1
    61          2
    62          7
    63         18
    64          7
    65         28
    66          7
    67          4
    68         19
    69          6
    70         69
    71         12
    72          1
    73        153
    74         10
    75         10
    76         20
    77         41
    78        809
    79        127
    80        107
    81          9
    82          3
    83          4
    84         10
    85          4
    86          1
    87          2
    89          8
    90          6
    91         56
    92         51
    93         20
    94         12
    95          1
    96          8
    98         22
    99          4
   100          1
   101          5
   102          3
   103          5
   104         28
   105         16
   106        999
   107         83
   108         23
   109          4
   115          3
   116         14
   117        107
   118        203
   119         48
   120         23
   121         27
   122         21
   123          2
   128          4
   129          2
   130         28
   131         13
   132         16
   133         18
   134         60
   135         10
   136          5
   142          4
   143          7
   144         61
   145         17
   146        316
   147         56
   148        162
   149         25
   150          5
   156          1
   157          9
   158         11
   159         85
   160         32
   161         12
   162          4
   163          2
   164          5
   172          4
   173          2
   174          2
   175          4
   177        790
   178         92
   179          6
   190          3