##TITLE=Library Entry 45792
##JCAMP-DX=Revision 4.10 
##DATA TYPE=MASS SPECTRUM
##SAMPLE DESCRIPTION=MASS SPECTROMETRY CENTER, UNIV. OF UTAH ALDRICH 15688-4
##NAMES=HP
##CAS NAME=1,3-Isobenzofurandione, 4-nitro-
##MOLFORM=C8H3NO5
##CAS REGISTRY NO=641-70-3
##MP= -300
##BP= -300
##MW= 193
##$RETENTION INDEX=0
##$CONDENSED SPECTRUM=NO
##NPOINTS= 52
##XYDATA=(XY..XY) 1 
    12          8
    16          4
    25          9
    26         21
    27          9
    29          3
    30        200
    31          6
    36         19
    37        187
    38         76
    39         34
    44         38
    45          4
    46         31
    48         11
    49         82
    50         50
    51         18
    52         10
    53         26
    60         17
    61         61
    62         63
    63         59
    65         22
    72         10
    73        120
    74        576
    75        999
    76        141
    77         33
    78          0
    86          2
    87          8
    88          7
    89          6
    90          1
    91         20
    92          3
   101          0
   102          2
   103        255
   104         22
   105         51
   106          0
   149        835
   150         99
   151         12
   163          4
   177          7
   193         12