##TITLE=Library Entry 10953
##JCAMP-DX=Revision 4.10 
##DATA TYPE=MASS SPECTRUM
##SAMPLE DESCRIPTION=NIST Mass Spectrometry Data Center, 1998.
##NAMES=HP
##CAS NAME=Androstane-3,17-diol, 17-methyl-, (3.alpha.,5.alpha.,17.beta.)-
##MOLFORM=C20H34O2
##CAS REGISTRY NO=641-82-7
##MP= -300
##BP= -300
##MW= 306
##$RETENTION INDEX=2566
##$CONDENSED SPECTRUM=NO
##NPOINTS= 192
##XYDATA=(XY..XY) 1 
    27         35
    29        144
    30          6
    31         26
    38          6
    39         84
    40         27
    41        511
    42         45
    43        999
    44         43
    45         42
    51         19
    52         15
    53        199
    54         51
    55        621
    56         48
    57        253
    58        150
    59         59
    60          3
    61          2
    65         91
    66         32
    67        627
    68        150
    69        250
    70         36
    71        260
    72         75
    73         13
    74          4
    76         24
    77        255
    78         53
    79        629
    80        122
    81        637
    82        102
    83        187
    84         23
    85         53
    86          3
    88          9
    89         13
    91        529
    92        109
    93        634
    94        186
    95        503
    96         69
    97        116
    98         24
    99         11
   101          7
   102          7
   103         22
   104         27
   105        386
   106        193
   107        729
   108        334
   109        383
   110         73
   111         81
   112         12
   113          6
   115         27
   116         17
   117         72
   118         34
   119        235
   120        175
   121        478
   122        245
   123        247
   124         92
   125         57
   126          7
   127         12
   128         17
   129         31
   130         16
   131         97
   132         31
   133        225
   134        127
   135        432
   136        103
   137         63
   138         26
   139         13
   141          8
   142          7
   143         20
   144         16
   145        146
   146         50
   147        357
   148        244
   149        257
   150         44
   151         31
   152         10
   155          3
   157         21
   158         14
   159        116
   160         67
   161        231
   162        159
   163        176
   164         56
   165        544
   166        149
   167         23
   171         21
   172         12
   173        100
   174         48
   175        109
   176         77
   177         36
   178         23
   179         11
   180         29
   181          5
   185         17
   186          8
   187         53
   188         42
   189         50
   190         25
   191         34
   192         18
   193         10
   194          5
   199         43
   200         13
   201         99
   202         32
   203         65
   204         24
   205         20
   206         24
   213         76
   214         24
   215        483
   216        129
   217        348
   218         82
   219         88
   220         23
   221          4
   227          8
   228         19
   229         16
   230        574
   231        389
   232        113
   233        380
   234         88
   235         10
   241          6
   242          2
   244          7
   245         11
   246         68
   247         19
   248        110
   249         29
   255        192
   256         43
   257          8
   259          7
   269          3
   270        132
   271         36
   272          3
   273        262
   274         46
   275          5
   288        107
   289         32
   290          5
   291        372
   292         74
   293          8
   304          2
   306        115
   307         22