##TITLE=Library Entry 10957
##JCAMP-DX=Revision 4.10 
##DATA TYPE=MASS SPECTRUM
##SAMPLE DESCRIPTION=Drug Lab
##NAMES=HP
##CAS NAME=Androstane-3,17-diol, 17-methyl-, (3.beta.,5.alpha.,17.beta.)-
##MOLFORM=C20H34O2
##CAS REGISTRY NO=641-83-8
##MP= -300
##BP= -300
##MW= 306
##$RETENTION INDEX=0
##$CONDENSED SPECTRUM=NO
##NPOINTS= 228
##XYDATA=(XY..XY) 1 
    38          1
    39         84
    40         25
    41        522
    42         43
    43        999
    44         45
    45         43
    46          1
    50          3
    51         18
    52         13
    53        223
    54         63
    55        750
    56         53
    57        342
    58        190
    59         69
    60          3
    61          2
    62          1
    63          4
    64          3
    65        116
    66         49
    67        748
    68        181
    69        292
    70         59
    71        393
    72        113
    73         11
    74          4
    75          3
    76          4
    77        317
    78         74
    79        766
    80        143
    81        783
    82        125
    83        210
    84         30
    85         71
    86          6
    87          3
    88          7
    89          8
    90          4
    91        693
    92        145
    93        826
    94        232
    95        650
    96        107
    97        178
    98         28
    99         14
   100          3
   101          5
   102          6
   103         38
   104         29
   105        494
   106        231
   107        919
   108        387
   109        447
   110         86
   111        118
   112         16
   113          7
   114          2
   115         50
   116         22
   117        113
   118         53
   119        328
   120        206
   121        619
   122        317
   123        477
   124        137
   125         74
   126         11
   127          9
   128         31
   129         44
   130         20
   131        140
   132         44
   133        283
   134        129
   135        427
   136        145
   137         97
   138         42
   139         14
   140          1
   141         12
   142         10
   143         33
   144         17
   145        186
   146         60
   147        416
   148        201
   149        285
   150         53
   151         39
   152         14
   153          7
   154          3
   155          5
   156          4
   157         25
   158         14
   159        145
   160         78
   161        285
   162        215
   163        255
   164         74
   165        557
   166        210
   167         45
   168          5
   169          3
   170          1
   171         21
   172         10
   173        103
   174         56
   175        126
   176         82
   177         46
   178         42
   179         18
   180         25
   181          6
   182          1
   183          3
   184          1
   185         18
   186          8
   187         57
   188         52
   189         62
   190         34
   191         49
   192         19
   193          9
   194          4
   195          1
   197          2
   198          1
   199         35
   200         10
   201        103
   202         33
   203         49
   204         21
   205         16
   206         36
   207          9
   208          1
   211          1
   212          1
   213         53
   214         17
   215        370
   216        102
   217        266
   218         65
   219         60
   220         17
   221          4
   227          6
   228         12
   229         13
   230        101
   231        211
   232         72
   233        350
   234         75
   235         10
   236          2
   241          4
   242          1
   244          3
   245          5
   246        106
   247         26
   248        100
   249         37
   250          5
   251          1
   253          1
   254          1
   255        154
   256         32
   257          6
   258          1
   259          8
   260          2
   262          1
   269          3
   270         33
   271         14
   272          3
   273        249
   274         51
   275          6
   277          1
   286          3
   287          2
   288        100
   289         24
   290          4
   291        407
   292         91
   293         11
   304          1
   305          2
   306        174
   307         39
   308          4