##TITLE=Library Entry 7169
##JCAMP-DX=Revision 4.10 
##DATA TYPE=MASS SPECTRUM
##SAMPLE DESCRIPTION=LAC, NIDDK, NIH, Bethesda, MD 20892
##NAMES=HP
##CAS NAME=Anthiaergosta-5,7,9-trien-3-one
##MOLFORM=C28H42O
##CAS REGISTRY NO=64110-57-2
##MP= -300
##BP= -300
##MW= 394
##$RETENTION INDEX=0
##$CONDENSED SPECTRUM=NO
##NPOINTS= 231
##XYDATA=(XY..XY) 1 
    41        277
    42         73
    43        999
    44         53
    45         38
    47         20
    48         10
    49          0
    50          8
    51          0
    53         39
    54         20
    55        291
    56         34
    57        132
    58         23
    59         60
    60          7
    65         15
    67         64
    68          8
    69        143
    70         30
    71        125
    72         12
    73         13
    74          8
    77         28
    78         16
    79         29
    81         41
    82         22
    83         71
    84         86
    85         47
    86         44
    87         20
    88          9
    91         37
    93         22
    95         40
    96          9
    97        114
    98         15
    99         17
   103         11
   105         19
   106          9
   107         16
   109         24
   110          9
   111         21
   113         14
   115         34
   116         10
   117         11
   119         11
   121         14
   123         20
   124         13
   125         13
   127         18
   128         41
   129         34
   130         11
   131         16
   133          9
   135         10
   137         12
   139         11
   140          7
   141         45
   142         29
   143         34
   144          9
   145         18
   147         11
   149         10
   151         10
   152         21
   153         34
   154         22
   155         51
   156         20
   157         43
   158         14
   159         20
   160          8
   161         11
   163         11
   165         35
   166         16
   167         27
   168         17
   169         64
   170         20
   171         38
   172         13
   173         28
   174         10
   175         15
   176         10
   177         11
   178         18
   179         21
   180         11
   181         29
   182         18
   183         51
   184         20
   185         41
   186         18
   187         22
   188          8
   189         23
   190         11
   191         17
   192         10
   193         15
   194         11
   195         28
   196         15
   197         40
   198         22
   199         66
   200         26
   201         31
   202         18
   203         18
   204         12
   205         14
   206          7
   207         17
   208         12
   209         27
   210         18
   211         58
   212         44
   213        109
   214         43
   215         53
   216         20
   217         20
   218         10
   219         10
   221         13
   222         10
   223         39
   224         25
   225        128
   226         63
   227        100
   228         56
   229         50
   230         19
   231         16
   232          8
   233          8
   235         10
   236          8
   237         23
   238         25
   239         42
   240         75
   241         49
   242         56
   243         39
   244         32
   245         20
   246          8
   249         11
   251         23
   252         11
   253         42
   254         19
   255         27
   256         17
   257         21
   258         15
   259         11
   260          9
   261          9
   263         10
   265         25
   266         12
   267         49
   268         24
   269         27
   270         20
   271         17
   272          7
   273         11
   279         13
   280          7
   281         29
   282         12
   283         22
   284          8
   285          8
   286          8
   293         11
   295         15
   296          8
   297         19
   298          7
   299          7
   309          9
   311         11
   313          8
   352         22
   353          7
   354          2
   355          1
   366         22
   367          2
   368          1
   369          1
   378          7
   379         23
   380          3
   381          2
   382          3
   383          1
   384          1
   390          9
   392         62
   393         24
   394        156
   395         56
   396          8
   397          2