##TITLE=Library Entry 14943
##JCAMP-DX=Revision 4.10 
##DATA TYPE=MASS SPECTRUM
##SAMPLE DESCRIPTION=LAC, NIDDK, NIH, Bethesda, MD 20892
##NAMES=HP
##CAS NAME=7-Dehydrodiosgenin 3-acetate
##MOLFORM=C29H42O4
##CAS REGISTRY NO=64110-65-2
##MP= -300
##BP= -300
##MW= 454
##$RETENTION INDEX=0
##$CONDENSED SPECTRUM=NO
##NPOINTS= 221
##XYDATA=(XY..XY) 1 
    41        268
    43        999
    44          6
    45         24
    47          1
    49          8
    51          5
    53         58
    55        523
    56         23
    57        139
    58          1
    59          9
    60          1
    61          2
    65         24
    67        177
    69        427
    70         18
    71         43
    73         28
    74          1
    77         67
    79        119
    81        273
    82         11
    83         57
    84          8
    85         42
    86          6
    87          3
    89          2
    91        156
    93        166
    95        174
    97        133
    99         49
   100          3
   101          5
   103         20
   105        207
   107        151
   108         26
   109         82
   111         43
   113         48
   115         98
   117        104
   119        122
   121        132
   123         46
   125         63
   126        127
   128         86
   129         69
   131        110
   132         20
   133         74
   134         21
   135         46
   136          4
   137         24
   139        533
   141        140
   143        338
   145        285
   146         18
   147         85
   148          4
   149         18
   151         12
   153         29
   154          6
   155         83
   157        186
   158        354
   159        103
   160         28
   161         50
   162         37
   163          7
   165         35
   166         11
   167         54
   168         11
   169         89
   171         70
   172         22
   173         33
   174         23
   175         32
   176         10
   177         11
   178          5
   179         26
   180          3
   181         40
   182         10
   183         58
   184          5
   185         34
   186         10
   187         11
   188          4
   189          5
   191          6
   192          1
   193         18
   194          2
   195         52
   196          5
   197         77
   198         18
   199         24
   200          5
   201          7
   202          1
   203          5
   205          6
   206          1
   207         17
   209         37
   211         53
   212         43
   213         27
   214         21
   215          5
   217          4
   219          7
   220          2
   221         10
   222          4
   223         20
   224          3
   225         32
   226         85
   227         35
   228          7
   229          1
   231          3
   233          9
   235         64
   236         13
   237         17
   238          5
   239         18
   240          7
   241          3
   246          0
   247          5
   248          2
   249         16
   250        103
   251         97
   252         24
   253         45
   254         11
   255          4
   257          1
   259          0
   261          1
   263          7
   264          1
   265        128
   266         27
   267         50
   268         20
   269          7
   271          1
   275          2
   277          3
   278          1
   279         23
   280         49
   281          5
   282        182
   283         46
   284          3
   285          2
   287          4
   289          2
   296          3
   298          6
   299          3
   305          0
   307         15
   309         23
   310          4
   311          3
   313          4
   322         66
   323         13
   324         64
   325         17
   326         19
   327         13
   328          3
   335          4
   337          6
   340          1
   361          6
   368          3
   377          3
   379         67
   380         16
   381          4
   391          1
   392         11
   393         13
   394        807
   395        245
   396        118
   397         33
   398          6
   410          6
   412          5
   413          1
   426          3
   453          1
   454          4
   455          1