##TITLE=Library Entry 14953
##JCAMP-DX=Revision 4.10 
##DATA TYPE=MASS SPECTRUM
##SAMPLE DESCRIPTION=H. Fales, LC, NHLBI, NIH, Bethesda, MD 20892
##NAMES=HP
##CAS NAME=14.alpha.-anthiaergosta-5,7,9-trien-3-ol
##MOLFORM=C28H44O
##CAS REGISTRY NO=64110-71-0
##MP= -300
##BP= -300
##MW= 396
##$RETENTION INDEX=0
##$CONDENSED SPECTRUM=NO
##NPOINTS= 219
##XYDATA=(XY..XY) 1 
    41        331
    43        999
    44         29
    45          2
    47          5
    48          2
    49         31
    50          1
    51         15
    52          0
    53         30
    54          2
    55        326
    56         27
    57        161
    58          6
    59          0
    63          1
    65          9
    66          1
    67         41
    69        155
    70          4
    71        118
    72          5
    76          1
    77         18
    78          4
    79         23
    80          0
    81         33
    82          4
    83         66
    84         21
    85         20
    86         10
    88          2
    89          4
    90          0
    91         32
    92          4
    93         17
    94          3
    95         26
    96          5
    97         39
    98          4
    99          1
   102          1
   103          4
   104          2
   105         18
   106          1
   107          8
   108          1
   109          8
   110          1
   111         12
   112          1
   113          0
   115         21
   116          6
   117          9
   118          2
   119          8
   120          1
   121          4
   122          1
   123          3
   124          1
   125          3
   127          9
   128         26
   129         30
   130          8
   131         12
   132          4
   133          7
   134          0
   135          1
   137          1
   139          3
   141         48
   142         40
   143         31
   144          8
   145         16
   146          2
   147          6
   149          1
   151          2
   152         12
   153         32
   154         20
   155         62
   156         37
   157         65
   158         14
   159          9
   160          1
   161          1
   163          0
   165         38
   166         19
   167         49
   168         34
   169         48
   170         19
   171         24
   172          7
   173         28
   174          6
   175         17
   176          3
   177          1
   178         15
   179         43
   180         23
   181         49
   182         36
   183         57
   184         23
   185         17
   186          6
   187          4
   188          1
   189          4
   190          2
   191          7
   192          8
   193         25
   194         34
   195         66
   196         42
   197        387
   198         74
   199         17
   200          3
   201         23
   202          5
   203          3
   204          2
   205          5
   206          4
   207         14
   208         16
   209        149
   210         45
   211         41
   212         12
   213         16
   214         24
   215        174
   216         27
   217          3
   218          1
   219          4
   220          3
   221         12
   222          6
   223         26
   224         70
   225         44
   227        241
   228         63
   229         18
   230          2
   233          2
   234          2
   235         10
   236         14
   237         16
   238          4
   239          4
   240          1
   241         23
   242         54
   243         10
   244          1
   247          0
   248          0
   249          6
   251        242
   252         47
   253         14
   254          3
   255          3
   263          3
   264          1
   265          2
   267          6
   268          2
   269          8
   270          1
   278          0
   279          6
   280          2
   281          1
   283          0
   293          1
   297          1
   335          2
   352          3
   353          7
   354          3
   363         31
   364          8
   365          0
   367          0
   378         97
   379         28
   380          5
   381          5
   382          1
   394          6
   396        400
   397        120
   398         18
   399          2