##TITLE=Library Entry 19719
##JCAMP-DX=Revision 4.10 
##DATA TYPE=MASS SPECTRUM
##SAMPLE DESCRIPTION=V.Zaikin,Topchiev Inst.Petrochem.Synth.,Moscow
##NAMES=HP
##CAS NAME=3-Chloropropionic acid, tetradecyl ester
##MOLFORM=C17H33ClO2
##CAS REGISTRY NO=64120-16-7
##MP= -300
##BP= -300
##MW= 304
##$RETENTION INDEX=2105
##$CONDENSED SPECTRUM=NO
##NPOINTS= 121
##XYDATA=(XY..XY) 1 
    27        133
    28         18
    29        340
    30          7
    31          6
    35          3
    36         20
    37          5
    38          7
    39        111
    40         31
    41        679
    42        233
    43        918
    44         96
    45         13
    47          3
    49          4
    50          7
    51          5
    52          4
    53         44
    54        137
    55        999
    56        592
    57        711
    58         32
    59          2
    60          4
    61          3
    62          8
    63        229
    64          5
    65         85
    66         13
    67        116
    68        228
    69        710
    70        560
    71        300
    72         14
    73        157
    74         13
    75          4
    77          5
    78          3
    79          8
    80          3
    81         70
    82        313
    83        745
    84        352
    85        158
    86          6
    87          4
    90          4
    91        301
    92         12
    93         90
    94          7
    95         27
    96        100
    97        463
    98        189
    99         39
   100          6
   101          6
   103          4
   106          4
   108          8
   109        435
   110         64
   111        379
   112        141
   113         45
   114         13
   115          6
   119          5
   121          5
   122          3
   123          7
   124         27
   125        104
   126         85
   127         49
   128          7
   129         12
   134          2
   135          5
   136          2
   137          5
   138         14
   139         37
   140         47
   141         19
   142          6
   143          4
   145          3
   146          5
   148          3
   149          4
   151          2
   152          7
   153         18
   154         27
   155          8
   159          3
   164          4
   165          2
   166          8
   167          8
   168        102
   169         11
   196         71
   197         21
   198          2
   207          5
   208          2
   241          4
   269         25
   270          5