##TITLE=Library Entry 25724
##JCAMP-DX=Revision 4.10 
##DATA TYPE=MASS SPECTRUM
##SAMPLE DESCRIPTION=OGDEN BioServices Corp., NCI, Rockville, MD 20852
##NAMES=HP
##CAS NAME=Methanol, (1,3,5-triazine-2,4,6-triyltris(methylimino))tris-
##MOLFORM=C9H18N6O3
##CAS REGISTRY NO=64124-21-6
##MP= -300
##BP= -300
##MW= 258
##$RETENTION INDEX=0
##$CONDENSED SPECTRUM=NO
##NPOINTS= 138
##XYDATA=(XY..XY) 1 
    42        328
    43        137
    44        248
    45         12
    46          2
    47          7
    48          3
    53         51
    54         29
    55        361
    56        127
    57        999
    58         45
    59         12
    60         35
    61          4
    66          1
    67         69
    68        100
    69        139
    70         45
    71         47
    72         15
    73          7
    74          7
    76          7
    77          5
    78          7
    80         48
    81         17
    82        866
    83        133
    84         97
    85         24
    86         33
    87          8
    88          3
    89          5
    90         19
    91         16
    92          6
    93         14
    94          6
    95         27
    96        399
    97         74
    98         51
    99         49
   100          8
   102          3
   104          1
   106          6
   107         89
   108         21
   109         42
   110         31
   111         59
   112         29
   113         67
   114          6
   116          1
   119          1
   121          4
   122         18
   123         16
   124        102
   125         56
   126         24
   127          9
   128          1
   135          0
   136         24
   137         32
   138        158
   139        269
   140         61
   141         11
   148          1
   149          6
   150         55
   151        169
   152         64
   153         55
   154         10
   155         67
   156          6
   163          8
   164          5
   165         57
   166         16
   167        219
   168        282
   169        262
   170         22
   177         22
   178          5
   179        169
   180         56
   181        583
   182         84
   183         43
   184          3
   191          3
   192         79
   193         27
   194         15
   195        101
   196         11
   197         77
   198        113
   199         86
   200          8
   207         31
   208          6
   209        137
   210         91
   211        129
   212         16
   213         12
   222        278
   223         34
   224          5
   225         33
   226          4
   227         41
   228        113
   229         97
   230         11
   237          1
   239         88
   240         23
   241        113
   242         20
   243          7
   257         50
   258        161
   259         24
   260          3