##TITLE=Library Entry 57041
##JCAMP-DX=Revision 4.10 
##DATA TYPE=MASS SPECTRUM
##SAMPLE DESCRIPTION=Chemical Concepts
##NAMES=HP
##CAS NAME=Ethyl acetoacetate ethylene acetal
##MOLFORM=C8H14O4
##CAS REGISTRY NO=6413-10-1
##MP= -300
##BP= -300
##MW= 174
##$RETENTION INDEX=1123
##$CONDENSED SPECTRUM=NO
##NPOINTS= 35
##XYDATA=(XY..XY) 1 
    26         11
    27         64
    28         32
    29        167
    31         27
    39         39
    40         16
    41         65
    42         67
    43        681
    44         31
    45         45
    55          7
    57          9
    58         21
    59         41
    60          6
    61          7
    69         15
    71         13
    72         18
    84          6
    85         32
    86         23
    87        999
    88         46
    89         63
    99         12
   101          3
   113          4
   117         33
   131         12
   144          3
   159        125
   160         10