##TITLE=Library Entry 81855
##JCAMP-DX=Revision 4.10 
##DATA TYPE=MASS SPECTRUM
##SAMPLE DESCRIPTION=Japan AIST/NIMC Database- Spectrum MS-NW-9426
##NAMES=HP
##CAS NAME=R-(+)-2-(.alpha.-Methylbenzylamino)-5-nitropyridine
##MOLFORM=C13H13N3O2
##CAS REGISTRY NO=64138-65-4
##MP= -300
##BP= -300
##MW= 243
##$RETENTION INDEX=0
##$CONDENSED SPECTRUM=NO
##NPOINTS= 128
##XYDATA=(XY..XY) 1 
    15          2
    26          2
    27         34
    28          2
    30          6
    37          2
    38         11
    39         30
    40          7
    41          6
    42         41
    43         10
    44          2
    46          3
    50         18
    51         72
    52         25
    53         12
    54          4
    55          1
    58          1
    59         11
    60          1
    62          2
    63         14
    64         11
    65         17
    66         26
    67          6
    68          1
    69          1
    70          1
    74          2
    75          5
    76         12
    77        201
    78        112
    79        181
    80         13
    81          5
    82          3
    83          2
    84          1
    85          1
    89          9
    90         10
    91         23
    92          5
    93         17
    94          6
    95          2
    97          2
    98         13
    99          2
   101          3
   102          9
   103        118
   104        172
   105        999
   106         89
   107          5
   108          2
   109          9
   110          1
   113          7
   114          3
   115          5
   116          2
   117          4
   118         12
   119         19
   120        255
   121         24
   122          2
   123         38
   124         12
   125          2
   126          2
   127          9
   128          6
   129          2
   130          3
   131          1
   139         36
   140          9
   141          2
   142          2
   143          1
   150         15
   151          1
   152          7
   153          3
   154         16
   155          5
   156          1
   164          9
   165          1
   166         36
   167          5
   168          3
   169          7
   170          4
   171          1
   179          3
   180          4
   181         42
   182        163
   183         22
   184          2
   193          1
   194          1
   195         13
   196         21
   197          6
   198          6
   199          1
   212          1
   213          3
   214          2
   226          2
   227          5
   228        599
   229         85
   230          8
   242         34
   243        493
   244         84
   245          9