##TITLE=Library Entry 34752
##JCAMP-DX=Revision 4.10 
##DATA TYPE=MASS SPECTRUM
##SAMPLE DESCRIPTION=V.Zaikin,Topchiev Inst.Petrochem.Synth.,Moscow
##NAMES=HP
##CAS NAME=6-Bromohexanoic acid, isopropyl ester
##MOLFORM=C9H17BrO2
##CAS REGISTRY NO=64135-07-5
##MP= -300
##BP= -300
##MW= 236
##$RETENTION INDEX=0
##$CONDENSED SPECTRUM=NO
##NPOINTS= 120
##XYDATA=(XY..XY) 1 
    24          1
    25          4
    26         32
    27        204
    28         18
    29         76
    30          4
    31         12
    34          2
    35          5
    36         29
    37         16
    38         37
    39        219
    40         66
    41        658
    42        366
    43        878
    44         78
    45         52
    46          2
    48         17
    49          7
    50          6
    51          9
    52          7
    53         37
    54         55
    55        384
    56         32
    57         16
    58         10
    59        281
    60        830
    61         52
    62          5
    63          3
    65          8
    66          6
    67         46
    68         59
    69        999
    70         72
    71         41
    72          4
    73        194
    74         13
    75          2
    77          2
    78          1
    79         23
    80         29
    81         22
    82         31
    83         13
    84         20
    85         15
    86          6
    87         42
    88          4
    93         13
    94          3
    95         11
    96         24
    97        248
    98         24
    99         13
   100          1
   101          3
   102        558
   103         28
   104          2
   105          2
   106          5
   107         35
   108          6
   109         33
   110          2
   111          2
   112          2
   113         14
   114         62
   115        286
   116         18
   119          3
   120          2
   121          6
   122          2
   123          4
   124          1
   126          1
   131          1
   132          4
   134          6
   135          7
   136          2
   137          4
   139          1
   141          1
   148         11
   149         21
   150         12
   151         20
   152          2
   154          2
   159          1
   176          4
   177        397
   178         27
   179        392
   180         22
   181          2
   193          2
   194         98
   195        183
   196        106
   197        172
   198         10
   221          4
   223          4