##TITLE=Library Entry 22546
##JCAMP-DX=Revision 4.10 
##DATA TYPE=MASS SPECTRUM
##SAMPLE DESCRIPTION=B. Derendyaev, Novosibirsk Institute of Organic Chemist
ry
##NAMES=HP
##CAS NAME=2,4-Dipropyl-5-ethyl-1,3-dioxane
##MOLFORM=C12H24O2
##CAS REGISTRY NO=6413-83-8
##MP= -300
##BP= -300
##MW= 200
##$RETENTION INDEX=0
##$CONDENSED SPECTRUM=NO
##NPOINTS= 124
##XYDATA=(XY..XY) 1 
    13          1
    14          3
    15         12
    16          5
    17          5
    18         22
    19          4
    24          1
    25          3
    26         15
    27        146
    28         89
    29        181
    30          6
    31         49
    32          2
    33          3
    37          2
    38          5
    39         98
    40         22
    41        386
    42         38
    43        271
    44         53
    45         19
    46          1
    49          1
    51          6
    52          3
    53         30
    54         11
    55        339
    56        999
    57        394
    58         18
    59          8
    60          1
    61          4
    62          1
    63          1
    65          4
    66          2
    67         18
    68         10
    69        313
    70         72
    71        405
    72         53
    73        238
    74         10
    75          1
    77          4
    78          1
    79          5
    80          1
    81         13
    82          8
    83         21
    84          7
    85         58
    86          6
    87          4
    88          3
    89          3
    91          3
    92          1
    93          2
    95          9
    96          3
    97         11
    98         27
    99         18
   100          2
   101          2
   103          1
   104          1
   105          1
   107          1
   109          3
   110          7
   111        199
   112         21
   113          7
   114          2
   115          1
   116          1
   117          1
   119          2
   123          2
   124          1
   125          4
   126          2
   127          7
   128         25
   129         36
   130          3
   133          1
   137          1
   139          3
   140          1
   141          6
   142          1
   143          4
   144          1
   145         97
   146          9
   147          1
   151          1
   153          2
   154          1
   155          3
   156          1
   157         83
   158          8
   159          1
   168          1
   170          2
   173          1
   182          1
   184          4
   185          1
   198          1
   199         24