##TITLE=Library Entry 8919
##JCAMP-DX=Revision 4.10 
##DATA TYPE=MASS SPECTRUM
##SAMPLE DESCRIPTION=Insect Chem. Ecol. Lab., USDA, Beltsville, MD 20705
##NAMES=HP
##CAS NAME=2,7-Octadiene-1,6-diol, 2,6-dimethyl-
##MOLFORM=C10H18O2
##CAS REGISTRY NO=64142-78-5
##MP= -300
##BP= -300
##MW= 170
##$RETENTION INDEX=1361
##$CONDENSED SPECTRUM=NO
##NPOINTS= 94
##XYDATA=(XY..XY) 1 
    41        369
    42         79
    43        999
    44         43
    45         47
    46          2
    47          2
    48          1
    50         10
    51         30
    52         17
    53        136
    54         45
    55        352
    56         56
    57        107
    58         35
    59         12
    60          2
    61          2
    62          1
    63          7
    64          4
    65         40
    66         24
    67        527
    68        226
    69        116
    70         62
    71        714
    72         57
    73          6
    74          1
    75          6
    76          0
    77         47
    78         14
    79        176
    80         94
    81        146
    82        185
    83         80
    84        127
    85         17
    86          1
    87          8
    88          4
    89          2
    91         62
    92         50
    93        129
    94         80
    95         79
    96        118
    97         54
    98         13
    99          3
   100          2
   101          1
   102          3
   103          4
   104          1
   105         39
   106         34
   107         33
   108         18
   109         79
   110        102
   111         21
   112          2
   113          1
   115          2
   117          6
   118          1
   119        122
   120         13
   121         61
   122          8
   123         43
   124         14
   125         27
   126          2
   131          1
   133          4
   134         21
   135          5
   137         99
   138         10
   139          2
   141          1
   149          1
   151          1
   152         18
   153          2