##TITLE=Library Entry 33157
##JCAMP-DX=Revision 4.10 
##DATA TYPE=MASS SPECTRUM
##SAMPLE DESCRIPTION=Chemical Concepts
##NAMES=HP
##CAS NAME=3-Isopropylidene-5-methyl-hex-4-en-2-one
##MOLFORM=C10H16O
##CAS REGISTRY NO=64149-32-2
##MP= -300
##BP= -300
##MW= 152
##$RETENTION INDEX=0
##$CONDENSED SPECTRUM=NO
##NPOINTS= 119
##XYDATA=(XY..XY) 1 
    26          5
    27        112
    28         10
    29         82
    30          0
    31          2
    37          3
    38         15
    39        232
    40         34
    41        483
    42         32
    43        894
    44         28
    45         11
    46          2
    50         28
    51         91
    52         35
    53        162
    54         19
    55        439
    56         27
    57         44
    58          5
    59          7
    60          3
    61          2
    62         12
    63         34
    64         10
    65        119
    66         35
    67        999
    68         70
    69        155
    70         32
    71         32
    72         10
    73          4
    74          7
    75          9
    76          9
    77        227
    78         42
    79        259
    80         33
    81        421
    82         33
    83         43
    84          8
    85         15
    86         12
    87          3
    88          2
    89          9
    90          4
    91        210
    92         32
    93        136
    94        147
    95        278
    96         28
    97         11
    98          5
    99          9
   100          3
   101          2
   102          2
   103          9
   104          6
   105         47
   106         24
   107         77
   108         43
   109        727
   110         66
   111         14
   112          3
   113          5
   114          1
   115          7
   116          3
   117          8
   118          7
   119        152
   120         21
   121         15
   122         37
   123         44
   124          9
   125          5
   126          4
   127          3
   128          4
   129          3
   130          2
   131          5
   132          2
   133         10
   134        243
   135         39
   136         12
   137        964
   138         90
   139          8
   140          3
   141          8
   142          2
   143          2
   144          2
   145          3
   146          2
   147          2
   150          2
   151         17
   152        759
   153         93
   154          8