##TITLE=Library Entry 71526
##JCAMP-DX=Revision 4.10 
##DATA TYPE=MASS SPECTRUM
##SAMPLE DESCRIPTION=Exported from NIST MS Search
##NAMES=HP
##CAS NAME=Phosphoramidic acid, bis(1-methylethyl) ester
##MOLFORM=C6H16NO3P
##CAS REGISTRY NO=6415-20-9
##MP= -300
##BP= -300
##MW= 181
##$RETENTION INDEX=0
##$CONDENSED SPECTRUM=NO
##NPOINTS= 20
##XYDATA=(XY..XY) 1 
    41        261
    42        154
    43        162
    44         25
    45        223
    59         59
    64         15
    80        202
    81         85
    87         19
    98        999
   122         71
   124        392
   125         19
   138         35
   139         55
   140        138
   166         17
   181         33
   182         13