##TITLE=Library Entry 95375
##JCAMP-DX=Revision 4.10 
##DATA TYPE=MASS SPECTRUM
##SAMPLE DESCRIPTION=A.A.Kutin, Moscow, Russia
##NAMES=HP
##CAS NAME=Cyclopropanecarboxylic acid, 2,3-diphenyl-, methyl ester
##MOLFORM=C17H16O2
##CAS REGISTRY NO=64162-51-2
##MP= -300
##BP= -300
##MW= 252
##$RETENTION INDEX=0
##$CONDENSED SPECTRUM=NO
##NPOINTS= 131
##XYDATA=(XY..XY) 1 
    37          1
    38         16
    39        104
    40         24
    41         19
    42          4
    43         24
    44         42
    45          8
    50         48
    51        119
    52         24
    53          6
    55          3
    57          5
    59         82
    60          2
    61          4
    62         27
    63         99
    64         22
    65        113
    66          5
    69          5
    70          4
    73          0
    74         20
    75         28
    76         40
    77        100
    78         35
    79          6
    81          4
    82         22
    83         23
    84          0
    85          2
    86          7
    87         15
    88         15
    89        117
    90         25
    91        286
    92         22
    94         32
    96         23
    97          1
    98          4
    99          2
   100          0
   101          6
   102         37
   103         44
   104          6
   105         30
   106          2
   110          0
   111          1
   112          0
   113         11
   115        999
   116        106
   117          7
   118         10
   119          1
   121         44
   122          4
   125          0
   126          8
   127          7
   128         12
   129          8
   130          1
   131         25
   132          1
   134          2
   137          0
   138          1
   139         21
   140          2
   141          4
   143          8
   144          1
   145          2
   146         12
   147          1
   150          6
   151         14
   152         40
   153          8
   154          0
   159          3
   161         12
   162          2
   163         15
   164         15
   165        123
   166         21
   167          4
   171          0
   173          0
   174          4
   175          1
   176         15
   177         16
   178        237
   179         44
   180          4
   184          1
   187          4
   188          5
   189         84
   190         46
   191        231
   192        669
   193        736
   194        115
   195          7
   202          5
   203          9
   204          0
   219         12
   220         41
   221         68
   222         10
   223          3
   224          1
   237          3
   252         90
   253         15
   254          0