##TITLE=Library Entry 7373
##JCAMP-DX=Revision 4.10 
##DATA TYPE=MASS SPECTRUM
##SAMPLE DESCRIPTION=H. Fales, LC, NHLBI, NIH, Bethesda, MD 20892
##NAMES=HP
##CAS NAME=5-Octen-2-one, 3,6-dimethyl-
##MOLFORM=C10H18O
##CAS REGISTRY NO=64165-21-5
##MP= -300
##BP= -300
##MW= 154
##$RETENTION INDEX=0
##$CONDENSED SPECTRUM=NO
##NPOINTS= 98
##XYDATA=(XY..XY) 1 
    41        133
    42         43
    43        999
    44         39
    45         50
    46          2
    47          1
    48          0
    49          1
    50         12
    51         24
    52         11
    53         82
    54         34
    55        640
    56         63
    57         78
    58         69
    59         23
    60          7
    61         13
    62          2
    63          3
    64          1
    65         12
    66          6
    67         88
    68         15
    69         47
    70         20
    71        119
    72         26
    73         58
    74          4
    75          1
    76          0
    77         17
    78          3
    79         26
    80          5
    81         52
    82         81
    83        454
    84         72
    85         52
    86         19
    87         11
    88          4
    89          1
    90          0
    91         10
    92          3
    93         32
    94          8
    95         77
    96         39
    97         74
    98         34
    99         88
   100         10
   101         17
   102          2
   103          2
   104          0
   105          3
   106          1
   107          8
   108          3
   109         24
   110          5
   111        140
   112         20
   113          7
   114          7
   115          6
   116          1
   117          1
   118          0
   119          1
   120          1
   121         39
   122         12
   123          9
   124          3
   125         21
   126          8
   136          5
   137          6
   138         11
   139         65
   140          8
   141          5
   151          2
   152          2
   153          1
   154         14
   155          5
   156          0