##TITLE=Library Entry 24383
##JCAMP-DX=Revision 4.10 
##DATA TYPE=MASS SPECTRUM
##SAMPLE DESCRIPTION=Chemical Concepts
##NAMES=HP
##CAS NAME=Tridecane, 3-methyl-
##MOLFORM=C14H30
##CAS REGISTRY NO=6418-41-3
##MP= -300
##BP= -300
##MW= 198
##$RETENTION INDEX=1371
##$CONDENSED SPECTRUM=NO
##NPOINTS= 79
##XYDATA=(XY..XY) 1 
    26          3
    27         60
    28         25
    29        258
    30          4
    33          2
    36          0
    37          0
    38          1
    39         29
    40          5
    41        253
    42         65
    43        554
    44         16
    50          0
    51          1
    52          0
    53         11
    54         11
    55        115
    56        261
    57        999
    58         40
    59          0
    63          0
    65          1
    66          1
    67          8
    68          6
    69         40
    70         35
    71        347
    72         16
    73          0
    76          0
    77          1
    79          1
    81          2
    82          5
    83         19
    84         17
    85        161
    86         12
    87          0
    91          0
    93          0
    95          0
    96          3
    97         16
    98         10
    99         66
   100          4
   110          1
   111          8
   112          5
   113         42
   114          4
   115          0
   124          0
   125          3
   126          4
   127         18
   128          1
   139          1
   140         11
   141          8
   142          0
   154          1
   155          1
   168         41
   169         70
   170          8
   171          0
   182          0
   183          2
   184          0
   198          2
   199          0