##TITLE=Library Entry 23991
##JCAMP-DX=Revision 4.10 
##DATA TYPE=MASS SPECTRUM
##SAMPLE DESCRIPTION=Exported from NIST MS Search
##NAMES=HP
##CAS NAME=Eicosane, 3-methyl-
##MOLFORM=C21H44
##CAS REGISTRY NO=6418-46-8
##MP= -300
##BP= -300
##MW= 296
##$RETENTION INDEX=2068
##$CONDENSED SPECTRUM=NO
##NPOINTS= 144
##XYDATA=(XY..XY) 1 
    36          1
    37          1
    38          2
    39         63
    40         16
    41        488
    42        107
    43        767
    44         26
    45          1
    49          1
    50          1
    51          2
    52          2
    53         22
    54         27
    55        288
    56        369
    57        999
    58         44
    59          1
    62          1
    63          1
    64          1
    65          2
    66          2
    67         25
    68         20
    69        119
    70         83
    71        388
    72         23
    73          1
    77          2
    78          1
    79          3
    80          1
    81          9
    82         15
    83         76
    84         30
    85        251
    86         17
    87          1
    91          1
    92          1
    93          1
    94          1
    95          3
    96          7
    97         46
    98         15
    99         63
   100          4
   101          1
   105          1
   106          1
   107          1
   108          1
   109          1
   110          3
   111         20
   112          9
   113         43
   114          4
   115          1
   119          1
   120          1
   121          1
   122          1
   123          1
   124          2
   125          9
   126          5
   127         30
   128          3
   129          1
   137          1
   138          1
   139          3
   140          3
   141         23
   142          2
   143          1
   151          1
   152          1
   153          2
   154          3
   155         18
   156          2
   157          1
   165          1
   166          1
   167          2
   168          2
   169         15
   170          2
   171          1
   179          1
   180          1
   181          1
   182          1
   183         12
   184          2
   185          1
   193          1
   194          1
   195          1
   196          1
   197         10
   198          1
   208          1
   209          1
   210          1
   211          7
   212          1
   213          1
   222          1
   223          1
   224          1
   225          4
   226          1
   236          1
   237          1
   238          6
   239          8
   240          1
   241          1
   252          1
   253          1
   254          1
   266         30
   267         79
   268         16
   269          2
   270          1
   280          1
   281          5
   282          1
   283          1
   294          1
   295          1
   296          1
   297          1