##TITLE=Library Entry 24262
##JCAMP-DX=Revision 4.10 
##DATA TYPE=MASS SPECTRUM
##SAMPLE DESCRIPTION=W.L.MEAD BRITISH PETROLEUM CO. LTD., SUNBURY-ON-THAMES,
 UK
##NAMES=HP
##CAS NAME=Heneicosane, 3-methyl-
##MOLFORM=C22H46
##CAS REGISTRY NO=6418-47-9
##MP= -300
##BP= -300
##MW= 310
##$RETENTION INDEX=2171
##$CONDENSED SPECTRUM=NO
##NPOINTS= 79
##XYDATA=(XY..XY) 1 
    39         86
    40         24
    41        472
    42         85
    43        645
    44         30
    53         23
    54         36
    55        336
    56        357
    57        999
    58         42
    67         59
    68         23
    69        181
    70        131
    71        540
    72         26
    81         35
    82         25
    83        126
    84         50
    85        399
    86         28
    95         16
    96         25
    97         81
    98         20
    99        178
   100         12
   109          8
   110         12
   111         44
   112         18
   113        142
   114         15
   123          6
   124          8
   125         25
   126         10
   127         94
   128         10
   139         20
   140         13
   141         94
   142         11
   153         13
   154          4
   155         76
   156          7
   167         10
   168          7
   169         74
   170         12
   182          5
   183         64
   184          8
   197         50
   198          6
   211         55
   212          8
   213          3
   225         34
   226          4
   239         20
   240          1
   252         23
   253         27
   254          6
   267          5
   268          1
   280        126
   281        357
   282         70
   283          7
   295         17
   296          4
   310          7
   311          2