##TITLE=Library Entry 114769
##JCAMP-DX=Revision 4.10 
##DATA TYPE=MASS SPECTRUM
##SAMPLE DESCRIPTION=Japan AIST/NIMC Database- Spectrum MS-NW-7628
##NAMES=HP
##CAS NAME=2,3-Difluorophenol
##MOLFORM=C6H4F2O
##CAS REGISTRY NO=6418-38-8
##MP= -300
##BP= -300
##MW= 130
##$RETENTION INDEX=0
##$CONDENSED SPECTRUM=NO
##NPOINTS= 79
##XYDATA=(XY..XY) 1 
    14          1
    25          1
    26          6
    27          5
    28          9
    29          6
    31         51
    32          2
    33          2
    36          4
    37         20
    38         17
    39         15
    40          1
    41          4
    42          2
    43          2
    44          6
    45          4
    48          2
    49          9
    50         32
    51         58
    52         23
    53         20
    54          1
    55          9
    56         34
    57         47
    58          3
    60          4
    61         22
    62         23
    63         91
    64          7
    65         25
    66          3
    67          2
    68         13
    69          9
    70          5
    71          8
    72          1
    73          7
    74          9
    75         69
    76         19
    77          3
    79          6
    80         11
    81        104
    82        350
    83         39
    84          3
    86          1
    87          3
    88          4
    91         26
    92          4
    93          4
    94          1
    98          1
    99         16
   100          9
   101        204
   102         75
   103          4
   104          3
   108          1
   109          1
   110         44
   111          7
   112          6
   113          3
   128          3
   129         14
   130        999
   131         67
   132          4