##TITLE=Library Entry 23989
##JCAMP-DX=Revision 4.10 
##DATA TYPE=MASS SPECTRUM
##SAMPLE DESCRIPTION=W.L.MEAD BRITISH PETROLEUM CO. LTD., SUNBURY-ON-THAMES,
 UK
##NAMES=HP
##CAS NAME=Nonadecane, 3-methyl-
##MOLFORM=C20H42
##CAS REGISTRY NO=6418-45-7
##MP= -300
##BP= -300
##MW= 282
##$RETENTION INDEX=1970
##$CONDENSED SPECTRUM=NO
##NPOINTS= 66
##XYDATA=(XY..XY) 1 
    39         93
    40         20
    41        554
    42        111
    43        771
    44         24
    53         31
    54         38
    55        344
    56        347
    57        999
    58         44
    67         41
    68         22
    69        144
    70        111
    71        466
    72         20
    79         14
    81         22
    82         24
    83         92
    84         33
    85        316
    86         16
    96         18
    97         48
    98         20
    99        102
   100          9
   111         20
   112          8
   113         90
   114          9
   125         18
   126          6
   127         64
   128          7
   139          5
   140          6
   141         64
   142          4
   153          7
   154          4
   155         51
   156          7
   167          6
   168          7
   169         47
   170          5
   181          5
   182          3
   183         34
   184          3
   196          3
   197         28
   198          4
   209          4
   211         14
   224          9
   225         17
   252         60
   253        158
   254         33
   267          5
   282          3