##TITLE=Library Entry 45433
##JCAMP-DX=Revision 4.10 
##DATA TYPE=MASS SPECTRUM
##SAMPLE DESCRIPTION=Chemical Concepts
##NAMES=HP
##CAS NAME=Silanol, allyldimethyl-
##MOLFORM=C5H12OSi
##CAS REGISTRY NO=64185-05-3
##MP= -300
##BP= -300
##MW= 116
##$RETENTION INDEX=0
##$CONDENSED SPECTRUM=NO
##NPOINTS= 57
##XYDATA=(XY..XY) 1 
    27          1
    29         62
    30          0
    33          5
    34          0
    37          0
    38          0
    39          9
    40          4
    41          8
    42          1
    43          2
    44          0
    45         29
    46          1
    47         23
    48          1
    49          0
    51          0
    53          0
    55          1
    56          0
    57          1
    58          0
    59          6
    60          6
    61         69
    62          3
    63          1
    66          0
    68          0
    69          0
    70          0
    71          1
    72          1
    73          6
    74          7
    75        999
    76         82
    77         37
    78          0
    79          0
    83          6
    84          0
    85          3
    86          0
    87          1
    97          0
    99          2
   100          0
   101         43
   102          4
   103          1
   116         35
   117          3
   118          1
   119          0