##TITLE=Library Entry 25321
##JCAMP-DX=Revision 4.10 
##DATA TYPE=MASS SPECTRUM
##SAMPLE DESCRIPTION=Chemical Concepts
##NAMES=HP
##CAS NAME=Heptadecane, 3-methyl-
##MOLFORM=C18H38
##CAS REGISTRY NO=6418-44-6
##MP= -300
##BP= -300
##MW= 254
##$RETENTION INDEX=1770
##$CONDENSED SPECTRUM=NO
##NPOINTS= 99
##XYDATA=(XY..XY) 1 
    27         32
    28         12
    29        132
    30          3
    39         28
    40          6
    41        266
    42         53
    43        499
    44         23
    45          2
    50          2
    51          3
    53         15
    54         21
    55        218
    56        351
    57        999
    58        111
    59         44
    60          2
    65          5
    66          4
    67         28
    68         21
    69        111
    70        124
    71        572
    72         44
    73          3
    76          5
    78          2
    79          7
    80          3
    81         17
    82         26
    83         98
    84         39
    85        431
    86         29
    90          4
    92          2
    93          4
    94          9
    95         19
    97         60
    98         20
    99        158
   100         15
   105          3
   107          2
   109          4
   110         12
   111         36
   112         15
   113        127
   114         10
   115          2
   123          3
   124          9
   125         21
   126          9
   127         92
   128         11
   137          2
   138          6
   139         13
   140          8
   141         77
   142          9
   152          4
   153          9
   154          5
   155         67
   156          8
   165          2
   166          7
   167          6
   169         45
   170          6
   180          3
   181          4
   182          6
   183         20
   184          4
   186          2
   194          3
   196         19
   197         21
   198          3
   210          2
   211          3
   224         65
   225        149
   226         25
   227          2
   239          7
   240          2
   254          3