##TITLE=Library Entry 7546
##JCAMP-DX=Revision 4.10 
##DATA TYPE=MASS SPECTRUM
##SAMPLE DESCRIPTION=J. Klune, Insect Chem. Ecol. Lab., USDA, Beltsville, MD
 20705
##NAMES=HP
##CAS NAME=2-Methyl-E-7-hexadecene
##MOLFORM=C17H34
##CAS REGISTRY NO=64183-52-4
##MP= -300
##BP= -300
##MW= 238
##$RETENTION INDEX=0
##$CONDENSED SPECTRUM=NO
##NPOINTS= 76
##XYDATA=(XY..XY) 1 
    41        782
    42        117
    43        999
    44         33
    51          7
    53         66
    54        191
    55        676
    56        850
    57        839
    58         37
    65         25
    66         18
    67        222
    68        127
    69        648
    70        327
    71        222
    72         12
    77         19
    78          6
    79         45
    80         17
    81        115
    82        148
    83        470
    84        190
    85        144
    86         10
    91          8
    93          8
    94          3
    95         66
    96         85
    97        383
    98         97
    99         30
   109         39
   110         50
   111        245
   112         68
   113         18
   123         16
   124         22
   125         94
   126         56
   127         13
   137          7
   138         13
   139         36
   140         22
   141          9
   152         10
   153         23
   154         16
   155          7
   166          7
   167         13
   168         10
   169          6
   180          6
   181          9
   182         14
   183          6
   185          1
   194          2
   195          7
   196          6
   208          8
   210         42
   211          8
   222          7
   223         26
   224          7
   238         69
   239         17