##TITLE=Library Entry 23980
##JCAMP-DX=Revision 4.10 
##DATA TYPE=MASS SPECTRUM
##SAMPLE DESCRIPTION=W.L.MEAD BRITISH PETROLEUM CO. LTD., SUNBURY-ON-THAMES,
 UK
##NAMES=HP
##CAS NAME=Hexadecane, 3-methyl-
##MOLFORM=C17H36
##CAS REGISTRY NO=6418-43-5
##MP= -300
##BP= -300
##MW= 240
##$RETENTION INDEX=1671
##$CONDENSED SPECTRUM=NO
##NPOINTS= 65
##XYDATA=(XY..XY) 1 
    39         86
    40         18
    41        533
    42        110
    43        667
    44         23
    53          4
    54          4
    55        267
    56        318
    57        999
    58         41
    67         24
    68         16
    69         99
    70         72
    71        415
    72         22
    81          8
    82         13
    83         53
    84         26
    85        236
    86         17
    96          8
    97         31
    98         13
    99         81
   100          7
   110          4
   111         15
   112          7
   113         52
   114          5
   124          2
   125          8
   126          5
   127         40
   128          3
   138          2
   139          4
   140          3
   141         28
   142          3
   153          2
   154          2
   155         19
   156          2
   167          2
   168          1
   169          7
   170          1
   181          1
   182          8
   183          9
   184          2
   197          1
   210         30
   211         64
   212          9
   213          1
   224          1
   225          2
   240          2
   241          1