##TITLE=Library Entry 31975
##JCAMP-DX=Revision 4.10 
##DATA TYPE=MASS SPECTRUM
##SAMPLE DESCRIPTION=Chemical Concepts
##NAMES=HP
##CAS NAME=3-Oxabicyclo[3.2.0]hept-6-ene-2,4-dione, 1-methyl-
##MOLFORM=C7H6O3
##CAS REGISTRY NO=64197-88-2
##MP= -300
##BP= -300
##MW= 138
##$RETENTION INDEX=0
##$CONDENSED SPECTRUM=NO
##NPOINTS= 39
##XYDATA=(XY..XY) 1 
    25          5
    26         22
    27         32
    28         48
    29          6
    33          7
    36          3
    37         40
    38        100
    39        329
    40        300
    41         16
    42          2
    43          5
    44         14
    45          3
    49         11
    50         40
    51         45
    52          3
    53         12
    54          2
    55          4
    56          2
    57          2
    60          4
    61         19
    62         33
    63         34
    64         11
    65        277
    66        999
    67         54
    68          3
    69          2
    79          9
    93          4
    94         99
    95          8