##TITLE=Library Entry 55037
##JCAMP-DX=Revision 4.10 
##DATA TYPE=MASS SPECTRUM
##SAMPLE DESCRIPTION=Tox21 Consortium/NIST Mass Spectrometry Data Center, 20
12
##NAMES=HP
##CAS NAME=1-Propanamine, N,N-dimethyl-3-[[1-(phenylmethyl)-1H-indazol-3-yl]
oxy]-
##MOLFORM=C19H23N3O
##CAS REGISTRY NO=642-72-8
##MP= -300
##BP= -300
##MW= 309
##$RETENTION INDEX=2390
##$CONDENSED SPECTRUM=NO
##NPOINTS= 138
##XYDATA=(XY..XY) 1 
    15          2
    18          1
    26          1
    27          4
    28          7
    29          6
    30         20
    31          1
    36          1
    38          2
    39         16
    40          2
    41         22
    42         84
    43         27
    44         26
    45          4
    46          1
    50         12
    51         14
    52          3
    53          1
    54          1
    55          3
    56         21
    57         54
    58        860
    59         32
    62          2
    63         11
    64          5
    65         62
    66          4
    67          1
    68          6
    69          3
    70        191
    71         42
    72          8
    73          2
    74          4
    75          9
    76         65
    77         25
    78          5
    79          1
    82          5
    84        211
    85        999
    86        506
    87         27
    88          5
    89         21
    90         18
    91        407
    92         36
    93          2
   100          1
   101          1
   102         11
   103          5
   104         69
   105         12
   106          1
   115          3
   116          1
   117          2
   118          4
   119          4
   120          2
   126          1
   127          1
   128          1
   129          4
   130          2
   131          5
   132          3
   133          2
   134          2
   139          2
   140          1
   145          5
   146          8
   147         14
   148          1
   150          1
   151          3
   152          6
   153          1
   160          4
   161          1
   163          1
   164          2
   165          9
   166          4
   167          2
   168          1
   173          2
   174          7
   175          2
   176          1
   177          1
   178          2
   179          2
   180          5
   181          1
   186          1
   192          1
   193          1
   194          3
   195          3
   196          1
   205          2
   206          1
   207          2
   208          2
   218         10
   219          1
   221          4
   222          7
   223          7
   224          5
   225         34
   226          5
   227          1
   234          3
   235          2
   236          2
   237          1
   238          2
   250          1
   251          3
   252          1
   264         17
   265          6
   266          3
   309         10
   310          2