##TITLE=Library Entry 54416
##JCAMP-DX=Revision 4.10 
##DATA TYPE=MASS SPECTRUM
##SAMPLE DESCRIPTION=V.G.Zaikin, TIPS, Russian Acad. Sci.
##NAMES=HP
##CAS NAME=Aphyllinic acid
##MOLFORM=C15H26N2O2
##CAS REGISTRY NO=642-67-1
##MP= -300
##BP= -300
##MW= 266
##$RETENTION INDEX=0
##$CONDENSED SPECTRUM=NO
##NPOINTS= 91
##XYDATA=(XY..XY) 1 
    54         20
    55        120
    56        150
    57         80
    58         20
    67         40
    68         50
    69         70
    70         40
    71         50
    79         20
    80         25
    81         60
    82         90
    83        150
    84        999
    85        110
    93         20
    94         30
    95         80
    96        120
    97        320
    98        220
    99         40
   107         20
   108         30
   109         70
   110        190
   111        150
   112         40
   113         20
   121         20
   122         50
   123         90
   124        120
   125         90
   126         20
   127         20
   128         20
   134         30
   135         30
   136        200
   137        120
   138        100
   139         50
   140         10
   141         30
   148         10
   149         40
   150         40
   151         30
   152         30
   153         20
   154         10
   164         30
   165         40
   166         30
   167         20
   168         20
   169         30
   177         20
   178         20
   179         40
   180         30
   181         40
   182        240
   183        180
   184         30
   191         40
   192         40
   193         80
   194        410
   195         70
   206         20
   207         20
   208         70
   209         20
   219         30
   220        295
   221        280
   222         70
   223         20
   235         20
   236         20
   247         40
   248         40
   249         30
   265         20
   266        130
   267         22
   268          2