##TITLE=Library Entry 53322
##JCAMP-DX=Revision 4.10 
##DATA TYPE=MASS SPECTRUM
##SAMPLE DESCRIPTION=NIST Mass Spectrometry Data Center
##NAMES=HP
##CAS NAME=(R,Z)-3-Hydroxy-3-methyl-1-((7-oxo-7H-furo[3,2-g]chromen-4-yl)oxy
)butan-2-yl 2-methylbut-2-enoate
##MOLFORM=C21H22O7
##CAS REGISTRY NO=642-08-0
##MP= -300
##BP= -300
##MW= 386
##$RETENTION INDEX=3049
##$CONDENSED SPECTRUM=NO
##NPOINTS= 110
##XYDATA=(XY..XY) 1 
    18          3
    25          1
    27         17
    28          5
    29         40
    31         25
    38          8
    39         32
    41         72
    42          1
    43        162
    44          8
    45         10
    46          1
    50         18
    51         46
    52          7
    53         30
    54         16
    55        194
    57         44
    58          4
    59        168
    60         10
    61          7
    62         18
    63         45
    65          7
    66          3
    67         27
    68          5
    69         24
    70         13
    71         18
    73          6
    74         21
    75         35
    79         10
    80          2
    83        999
    84         17
    85         87
    86          7
    87         20
    88          7
    89         81
    90         17
    95          2
    97          4
    99          4
   100         16
   101         84
   107          4
   110          1
   113         13
   114          3
   115         11
   116          4
   117          9
   118         22
   119          3
   121          5
   122          1
   123          1
   126          9
   127         13
   134          5
   135         12
   136          5
   137          3
   138          1
   139          9
   140          4
   141          7
   144          8
   145         63
   146         16
   150          3
   152          2
   153          3
   155         12
   157         19
   168          2
   169         12
   170          3
   172          2
   173         41
   174         43
   177          1
   183         10
   185        324
   186         51
   201         67
   202        150
   203         35
   204          5
   207          6
   215          7
   216          1
   218          2
   239          4
   269          6
   271          8
   286         11
   287          3
   304          2
   371          1
   386         32
   387          8
   388          2