##TITLE=Library Entry 25942
##JCAMP-DX=Revision 4.10 
##DATA TYPE=MASS SPECTRUM
##SAMPLE DESCRIPTION=NIST Mass Spectrometry Data Center, 2012
##NAMES=HP
##CAS NAME=Salicylic acid, valerate
##MOLFORM=C12H14O4
##CAS REGISTRY NO=64206-54-8
##MP= -300
##BP= -300
##MW= 222
##$RETENTION INDEX=0
##$CONDENSED SPECTRUM=NO
##NPOINTS= 98
##XYDATA=(XY..XY) 1 
    15          5
    25          2
    26         20
    27        143
    28         58
    29        249
    30          6
    36          3
    37          7
    38         16
    39        124
    40         16
    41        355
    42         60
    43         46
    44         17
    45         43
    47          2
    50         24
    51         23
    52          3
    53         38
    54         15
    55        492
    56         73
    57        999
    58         49
    59          1
    60        157
    61         11
    62         10
    63         45
    64         48
    65         60
    66         13
    67          2
    68          1
    69         12
    70          1
    73         48
    74         13
    75          7
    76         11
    77          7
    78          4
    79          3
    81         11
    83         16
    84         96
    85        984
    86         67
    87         11
    90          1
    91          7
    92        166
    93         52
    94         21
    95          1
   100          5
   102          2
   104          5
   105          1
   107          1
   113          1
   119          7
   120        916
   121        790
   122         72
   123          5
   131          7
   133          1
   134          1
   135         17
   136          3
   137          3
   138        406
   139         57
   140          4
   147          4
   149          1
   151          1
   155          1
   159          1
   162         21
   168          1
   169          8
   175         43
   176          9
   177          1
   179          3
   189          4
   194          2
   195          2
   204         46
   205        229
   206         33
   222         43
   223          6