##TITLE=Library Entry 71496
##JCAMP-DX=Revision 4.10 
##DATA TYPE=MASS SPECTRUM
##SAMPLE DESCRIPTION=James Little,Eastman Chem.Co.,Kingsport,TN
##NAMES=HP
##CAS NAME=4-Amino-5-hydrazino-1,2,4-triazole
##MOLFORM=C2H6N6
##CAS REGISTRY NO=6421-06-3
##MP= -300
##BP= -300
##MW= 114
##$RETENTION INDEX=0
##$CONDENSED SPECTRUM=NO
##NPOINTS= 25
##XYDATA=(XY..XY) 1 
    27        324
    29        631
    30        397
    31        684
    37         80
    41        191
    42        969
    43        983
    44         44
    53        117
    54         73
    55         15
    56         95
    57        199
    58         43
    68        118
    69         68
    70         25
    84        108
    85         14
    98        999
    99        160
   100          8
   114        990
   115         90