##TITLE=Library Entry 54882
##JCAMP-DX=Revision 4.10 
##DATA TYPE=MASS SPECTRUM
##SAMPLE DESCRIPTION=Chemical Concepts
##NAMES=HP
##CAS NAME=4-Methyl-6-(tetrahydropyran-2-yloxy)hex-4-enal
##MOLFORM=C12H20O3
##CAS REGISTRY NO=64218-01-5
##MP= -300
##BP= -300
##MW= 212
##$RETENTION INDEX=0
##$CONDENSED SPECTRUM=NO
##NPOINTS= 101
##XYDATA=(XY..XY) 1 
    25          0
    26          4
    27         84
    28        180
    29        153
    30          3
    31         24
    36          1
    38          2
    39         77
    40         14
    41        296
    42         19
    43        242
    44         30
    45          6
    47          1
    49          0
    50          2
    51          7
    52          5
    53         41
    54         16
    55        332
    56         38
    57        151
    58          7
    59          5
    60          1
    61          0
    63          1
    64          1
    65          9
    66          6
    67        193
    68         71
    69        120
    70         10
    71          8
    72          1
    73          1
    74          1
    75          0
    77         24
    78          7
    79         19
    80          5
    81        121
    82         22
    83        101
    84         95
    85        999
    86         79
    87          4
    91         19
    92          4
    93        304
    94         22
    95         13
    96          3
    97          8
    98          2
    99          1
   100          1
   101         32
   102          2
   103          1
   107          2
   108          1
   109          4
   110         27
   111        321
   112         39
   113          3
   114          0
   115          0
   116          0
   117          0
   119          0
   121          1
   122          0
   123          3
   124          0
   125          1
   126          0
   127          2
   128          8
   129          3
   135          1
   136          1
   137          1
   138          0
   139          0
   153          0
   154          1
   155          0
   156          1
   168         11
   169          2
   197          2
   212          0