##TITLE=Library Entry 17882
##JCAMP-DX=Revision 4.10 
##DATA TYPE=MASS SPECTRUM
##SAMPLE DESCRIPTION=MINISTRY OF TECH. E.R.D.E., WALTHAM ABBEY, UK
##NAMES=HP
##CAS NAME=2,3-Butanediol, dinitrate
##MOLFORM=C4H8N2O6
##CAS REGISTRY NO=6423-45-6
##MP= -300
##BP= -300
##MW= 180
##$RETENTION INDEX=0
##$CONDENSED SPECTRUM=NO
##NPOINTS= 37
##XYDATA=(XY..XY) 1 
    12          2
    13          3
    14         24
    15         92
    25          2
    26         10
    27         38
    28         52
    29        141
    30        112
    31          6
    37          2
    38          3
    39         10
    40          5
    41         21
    42         23
    43        363
    44         12
    45         27
    46        999
    47          5
    53          3
    54          2
    55          6
    56          4
    57         10
    58          3
    69          1
    71          4
    72         12
    73          1
    76          1
    83          2
    90          7
   118          3
   165          1