##TITLE=Library Entry 90696
##JCAMP-DX=Revision 4.10 
##DATA TYPE=MASS SPECTRUM
##SAMPLE DESCRIPTION=NIST Mass Spectrometry Data Center
##NAMES=HP
##CAS NAME=1,2-Difluoro-4-iodobenzene
##MOLFORM=C6H3F2I
##CAS REGISTRY NO=64248-58-4
##MP= -300
##BP= -300
##MW= 240
##$RETENTION INDEX=0
##$CONDENSED SPECTRUM=NO
##NPOINTS= 61
##XYDATA=(XY..XY) 1 
    25          1
    26          1
    31         35
    36          5
    37         37
    38         17
    39          7
    44          3
    45          3
    48          3
    49         18
    50         73
    51          9
    55          6
    56         24
    57         30
    60          7
    61         71
    62        142
    63        561
    64         29
    67          3
    68         90
    69         34
    70          1
    72          3
    73         21
    74         72
    75         34
    76          1
    79          7
    80         16
    81         49
    82          3
    86          9
    87         34
    88          2
    91          2
    92         39
    93        103
    94         51
    95          3
   110          2
   111         10
   112         71
   113        999
   114         67
   115          1
   120         68
   127        106
   128          3
   139          1
   152          2
   163          1
   164          1
   176          1
   194          1
   221          2
   240        775
   241         52
   242          1