##TITLE=Library Entry 55687
##JCAMP-DX=Revision 4.10 
##DATA TYPE=MASS SPECTRUM
##SAMPLE DESCRIPTION=Tox21 Consortium/NIST Mass Spectrometry Data Center, 20
12
##NAMES=HP
##CAS NAME=Mabuterol, trimethylsilyl ether
##MOLFORM=C16H26ClF3N2OSi
##CAS REGISTRY NO=642478-53-3
##MP= -300
##BP= -300
##MW= 382
##$RETENTION INDEX=0
##$CONDENSED SPECTRUM=NO
##NPOINTS= 246
##XYDATA=(XY..XY) 1 
    15          1
    27          3
    28          5
    29         34
    30        527
    31          8
    39          8
    40          2
    41         64
    42         20
    43         14
    44         10
    45         46
    46          4
    47         14
    48          1
    49          2
    50          1
    51          2
    52          3
    53          2
    54          2
    55         12
    56         16
    57        165
    58         18
    59         10
    60          3
    61          5
    62          1
    63          3
    64          1
    65          1
    66          1
    67          1
    68          2
    69          2
    70         17
    71         16
    72         10
    73        239
    74         31
    75         51
    76          5
    77         18
    78          2
    79          2
    80          1
    81          3
    82          2
    83          1
    84          3
    85          5
    86        999
    87         64
    88          6
    89          4
    90          2
    91          1
    92          1
    93          2
    94          1
    95          2
    96          1
    97          1
    99          2
   100          3
   101          3
   102          3
   103          2
   104          2
   105          1
   106          1
   107          1
   108          1
   109          1
   111          1
   112          1
   113          2
   114          5
   115          2
   116          9
   117          3
   118          1
   119          3
   120          2
   121          1
   122          1
   123          2
   124          1
   125          4
   126          3
   127          3
   128          1
   129          2
   130          3
   131          3
   132          5
   133          2
   134          3
   135          2
   136          3
   137          2
   138          6
   139          5
   140          5
   141          3
   142          1
   143          2
   144          2
   145          2
   146          2
   147          1
   148          1
   149          1
   150          3
   151          3
   152          5
   153          4
   154          3
   155          2
   156          2
   157          1
   158          2
   159          1
   160          1
   161          6
   162          2
   163          2
   164          2
   165          5
   166         11
   167          2
   168          4
   169          4
   170          4
   171          1
   172          3
   173          1
   174          4
   175          3
   176          2
   177          1
   178          1
   179          2
   180          5
   181          5
   182          3
   183          1
   184          4
   185          2
   186          3
   187          2
   188         10
   189          3
   190          6
   191          1
   192          2
   193          2
   194          1
   195          2
   196          1
   197          2
   198          1
   199          5
   200         12
   201         20
   202         11
   203          8
   204         38
   205          3
   206         11
   207          2
   208          8
   209          1
   210          3
   211          1
   212          5
   213          1
   214          3
   215          2
   216          3
   217          9
   218         10
   219          4
   220          6
   221         11
   222          5
   223          4
   224          2
   225          1
   226          3
   227          1
   230          1
   232          1
   235          4
   236          3
   237          5
   238          2
   239          1
   240          1
   241          1
   242          1
   246          4
   247          1
   252          1
   254          1
   257          1
   260          2
   261          2
   262          1
   266          2
   267          1
   268          1
   273          2
   274          1
   275          1
   277         40
   278          7
   279         14
   280          6
   281          3
   282          2
   283          1
   290          1
   291          3
   292          1
   293          2
   294          3
   295          1
   296         37
   297          8
   298         13
   299          2
   308          1
   309          1
   311          9
   312          2
   313          3
   314          1
   363          4
   364          1
   365          2
   367          5
   368          1
   369          2