##TITLE=Library Entry 12113
##JCAMP-DX=Revision 4.10 
##DATA TYPE=MASS SPECTRUM
##SAMPLE DESCRIPTION=Mark Whitten, Florida Museum of Natural History, U. of
 Florida
##NAMES=HP
##CAS NAME=7,11-Epoxymegastigma-5(6)-en-9-one
##MOLFORM=C13H20O2
##CAS REGISTRY NO=64243-62-5
##MP= -300
##BP= -300
##MW= 208
##$RETENTION INDEX=0
##$CONDENSED SPECTRUM=NO
##NPOINTS= 125
##XYDATA=(XY..XY) 1 
    41        320
    43        999
    44         29
    45         10
    46          1
    47          0
    50          9
    51         49
    52         24
    53        102
    55        169
    56         10
    57         52
    58          7
    59          7
    60          1
    61          1
    62          3
    63         15
    64          6
    65         73
    66         20
    67        124
    68         15
    69        123
    70         11
    71         36
    72          2
    73          1
    74          1
    75          2
    77        116
    78         29
    79        172
    81        410
    82         44
    83         28
    85         31
    86          2
    87          1
    88          0
    89          4
    91        156
    92         22
    93        143
    94         45
    95        192
    96         25
    97         13
    98          1
    99          1
   101          0
   103         12
   105         87
   106         21
   107        168
   108         32
   109        107
   110         15
   111          4
   112          1
   113          0
   114          0
   115          9
   116          3
   117         14
   118          3
   119         22
   121         45
   122         37
   123        102
   124         12
   125          6
   126          0
   127          1
   128          1
   129          2
   131         10
   132          5
   133         86
   135        655
   136         65
   137         15
   138         43
   139          6
   140          1
   142          1
   143          0
   144          0
   145          2
   147         17
   148          8
   150        655
   151        270
   152         30
   153          2
   157          1
   159          1
   160          0
   161          1
   162          2
   163         12
   164          5
   165         31
   166          6
   167          0
   173          0
   175          8
   176          1
   177          6
   178          1
   179          0
   180          5
   181          0
   189          0
   190          8
   191          6
   193        151
   194         22
   195          2
   206          1
   207          8
   208         62
   209         10
   210          1