##TITLE=Library Entry 85165
##JCAMP-DX=Revision 4.10 
##DATA TYPE=MASS SPECTRUM
##SAMPLE DESCRIPTION=D.Brewster,Biomed.Mass Spectrom.,6,447(1979)
##NAMES=HP
##CAS NAME=1-Cyclohexenecarboxamide, N-carboxymethyl-
##MOLFORM=C9H13NO3
##CAS REGISTRY NO=64253-92-5
##MP= -300
##BP= -300
##MW= 183
##$RETENTION INDEX=0
##$CONDENSED SPECTRUM=NO
##NPOINTS= 26
##XYDATA=(XY..XY) 1 
    39        204
    41        319
    43        126
    45        208
    51         90
    52         83
    53        309
    55        126
    56         95
    57        131
    65         53
    66         50
    67        110
    69        148
    77        218
    79        508
    81        794
    82         93
   108        999
   109        920
   110        110
   137         45
   138        116
   139        136
   183        216
   184         35