##TITLE=Library Entry 71567
##JCAMP-DX=Revision 4.10 
##DATA TYPE=MASS SPECTRUM
##SAMPLE DESCRIPTION=Chemical Concepts
##NAMES=HP
##CAS NAME=Undecanedioic acid, 4-oxo-, dimethyl ester
##MOLFORM=C13H22O5
##CAS REGISTRY NO=64268-98-0
##MP= -300
##BP= -300
##MW= 258
##$RETENTION INDEX=0
##$CONDENSED SPECTRUM=NO
##NPOINTS= 151
##XYDATA=(XY..XY) 1 
    38          2
    39         42
    40         27
    41        251
    42         46
    43        143
    44         45
    45         60
    46          0
    47          0
    48          0
    49          0
    50          1
    51          3
    52          2
    53         23
    54         15
    55        698
    56        119
    57         44
    58          6
    59        281
    60          7
    61          9
    65          9
    66          4
    67         67
    68         39
    69        364
    70         71
    71         42
    72          5
    73         14
    74         43
    75          3
    77          9
    78          1
    79         33
    80          8
    81         26
    82         10
    83        446
    84         59
    85         45
    86          4
    87        226
    88         23
    89          3
    91         17
    92          3
    93         54
    94          9
    95         31
    96         11
    97        126
    98        999
    99        106
   100          9
   101         37
   102          3
   103          2
   104          0
   105         11
   106          5
   107         38
   108          5
   109          9
   110         10
   111        549
   112         52
   113          7
   114          4
   115        712
   116         42
   117         11
   118          0
   119          4
   120          3
   121         46
   122          8
   123          7
   124          7
   125         31
   126          4
   127          2
   128          3
   129         27
   130        969
   131         90
   132         10
   133          7
   134          3
   135         24
   136          2
   137          9
   138         10
   139        264
   140         25
   141          3
   142          1
   143         54
   144          9
   145          2
   147          4
   148          9
   149         48
   150         24
   151          6
   152          4
   153         24
   154          2
   155          0
   157          2
   159          0
   164          3
   165          6
   166         56
   167        183
   168         20
   169          2
   170          2
   171        222
   172         22
   173          1
   176          3
   177         21
   178          3
   180          2
   181         40
   182          6
   183          1
   184          2
   185         14
   186          1
   191          4
   192          2
   193          1
   194         55
   195        292
   196         33
   197          5
   198          4
   199          2
   208          2
   209         22
   210          3
   216          0
   226         34
   227         31
   228          3
   231          4