##TITLE=Library Entry 46414
##JCAMP-DX=Revision 4.10 
##DATA TYPE=MASS SPECTRUM
##SAMPLE DESCRIPTION=A.A.Kutin, Moscow, Russia
##NAMES=HP
##CAS NAME=2H-Benzotriazole, 5-nitro-2-phenyl-
##MOLFORM=C12H8N4O2
##CAS REGISTRY NO=64264-33-1
##MP= -300
##BP= -300
##MW= 240
##$RETENTION INDEX=0
##$CONDENSED SPECTRUM=NO
##NPOINTS= 73
##XYDATA=(XY..XY) 1 
    44         16
    45         72
    46          5
    47          8
    50         64
    51        398
    52         86
    53          8
    54         11
    55          8
    57         17
    58         28
    59         28
    62         41
    63        265
    64        330
    65         90
    66          6
    69          7
    74         10
    75         40
    76        999
    77         84
    78          7
    79        125
    88         20
    89         28
    90         25
    91        311
    92         51
    93         13
    96         21
   101          6
   102         17
   103          9
   104         16
   105         28
   112          8
   114         73
   115         29
   117          7
   119          1
   127         65
   128         31
   130          7
   132          1
   138          5
   139        151
   140        213
   141         38
   143          2
   148         70
   149         11
   152          4
   153          6
   154         18
   155         36
   156          5
   164          5
   165         13
   166         50
   167         12
   182         11
   193         11
   194         52
   210        197
   211         18
   221         40
   224         10
   239          9
   240        900
   241        123
   242         18