##TITLE=Library Entry 16067
##JCAMP-DX=Revision 4.10 
##DATA TYPE=MASS SPECTRUM
##SAMPLE DESCRIPTION=Chemical Concepts
##NAMES=HP
##CAS NAME=Cyclohexanamine, N-methyl-n-propyl-
##MOLFORM=C10H21N
##CAS REGISTRY NO=64260-65-7
##MP= -300
##BP= -300
##MW= 155
##$RETENTION INDEX=1199
##$CONDENSED SPECTRUM=NO
##NPOINTS= 93
##XYDATA=(XY..XY) 1 
    27        143
    28         37
    29         90
    30         56
    31          1
    36          0
    37          2
    38          4
    39         94
    40         14
    41        267
    42        327
    43         90
    44        999
    45         25
    46          0
    49          0
    50          3
    51          8
    52          5
    53         33
    54         31
    55        188
    56         46
    57        137
    58         40
    59          1
    62          0
    63          2
    64          0
    65          7
    66          6
    67         22
    68         30
    69          9
    70        265
    71         42
    72         53
    73          3
    74          1
    77          9
    78          2
    79         12
    80          5
    81         25
    82         39
    83         67
    84         91
    85          7
    86         20
    87          1
    91          5
    92          3
    93          1
    94          4
    95          2
    96         22
    97         13
    98         23
    99         26
   100          2
   103          1
   105          0
   106          0
   107          0
   108          2
   109          1
   110         16
   111          6
   112        953
   113         75
   114          4
   120          2
   122          0
   124         11
   125          4
   126        776
   127         65
   128          3
   137          1
   138          3
   139          1
   140          3
   141          0
   148          0
   150          1
   151          0
   152          4
   153          4
   154         22
   155        150
   156         18
   157          1