##TITLE=Library Entry 3653
##JCAMP-DX=Revision 4.10 
##DATA TYPE=MASS SPECTRUM
##SAMPLE DESCRIPTION=HCACAV,60(4)1161(1977);40; G. OHLOFF
##NAMES=HP
##CAS NAME=5,10-Pentadecadienoic acid, (Z,Z)-
##MOLFORM=C15H26O2
##CAS REGISTRY NO=64275-69-0
##MP= -300
##BP= -300
##MW= 238
##$RETENTION INDEX=0
##$CONDENSED SPECTRUM=NO
##NPOINTS= 14
##XYDATA=(XY..XY) 1 
    29        350
    41        999
    55        960
    67        870
    81        999
    95        460
   110        240
   121         80
   140        190
   149         60
   168         30
   178         20
   205         20
   238         50