##TITLE=Library Entry 49424
##JCAMP-DX=Revision 4.10 
##DATA TYPE=MASS SPECTRUM
##SAMPLE DESCRIPTION=HCACAV,60(4)1161(1977); 3; G. OHLOFF
##NAMES=HP
##CAS NAME=5,10-Pentadecadienal, (E,Z)-
##MOLFORM=C15H26O
##CAS REGISTRY NO=64275-54-3
##MP= -300
##BP= -300
##MW= 222
##$RETENTION INDEX=0
##$CONDENSED SPECTRUM=NO
##NPOINTS= 14
##XYDATA=(XY..XY) 1 
    29        290
    41        910
    55        950
    67        900
    80        999
    95        430
   110        290
   124        160
   135         70
   148         30
   161         20
   178         50
   204         10
   222         10