##TITLE=Library Entry 19308
##JCAMP-DX=Revision 4.10 
##DATA TYPE=MASS SPECTRUM
##SAMPLE DESCRIPTION=HCACAV,60(4)1161(1977);37; G. OHLOFF
##NAMES=HP
##CAS NAME=5-Decene, 1-bromo-, (E)-
##MOLFORM=C10H19Br
##CAS REGISTRY NO=64275-66-7
##MP= -300
##BP= -300
##MW= 218
##$RETENTION INDEX=0
##$CONDENSED SPECTRUM=NO
##NPOINTS= 14
##XYDATA=(XY..XY) 1 
    27        170
    41        590
    55        999
    69        500
    83        350
    97        260
   109         40
   135         80
   148        150
   150        150
   162         60
   164         60
   218         60
   220         60