##TITLE=Library Entry 2492
##JCAMP-DX=Revision 4.10 
##DATA TYPE=MASS SPECTRUM
##SAMPLE DESCRIPTION=Chemical Concepts
##NAMES=HP
##CAS NAME=Cycloheptanone imine, 2,2,7,7-tetramethyl-
##MOLFORM=C11H21N
##CAS REGISTRY NO=64273-90-1
##MP= -300
##BP= -300
##MW= 167
##$RETENTION INDEX=0
##$CONDENSED SPECTRUM=NO
##NPOINTS= 87
##XYDATA=(XY..XY) 1 
    26          9
    27        351
    28         65
    29        346
    30         49
    31          2
    37          1
    38          8
    39        237
    40         47
    41        999
    42        240
    43        905
    44         57
    45          1
    50          4
    51         11
    52         19
    53         82
    54        146
    55        457
    56        316
    57        677
    58         72
    59          8
    63          3
    64          3
    65         10
    66         20
    67         69
    68        130
    69        844
    70        182
    71        208
    72         34
    77          6
    78          2
    79         23
    80         13
    81         62
    82        298
    83        226
    84         85
    85         58
    86          3
    87          5
    91          7
    93         58
    94         31
    95         45
    96        495
    97        197
    98         87
    99         39
   105          1
   106          4
   107        112
   108         24
   109         23
   110        817
   111        432
   112         51
   113          9
   121          9
   122          8
   123          6
   124        466
   125        384
   126         44
   127          2
   135        112
   136         21
   137          7
   138         18
   139          8
   140         10
   141          2
   149          1
   150         51
   151          6
   152        406
   153         50
   154          1
   166         33
   167         21
   168          7
   169          1