##TITLE=Library Entry 32426
##JCAMP-DX=Revision 4.10 
##DATA TYPE=MASS SPECTRUM
##SAMPLE DESCRIPTION=Insect Chem. Ecol. Lab., USDA, Beltsville, MD 20705
##NAMES=HP
##CAS NAME=5-Octen-1-ol, (Z)-
##MOLFORM=C8H16O
##CAS REGISTRY NO=64275-73-6
##MP= -300
##BP= -300
##MW= 128
##$RETENTION INDEX=1074
##$CONDENSED SPECTRUM=NO
##NPOINTS= 73
##XYDATA=(XY..XY) 1 
    41        861
    42        186
    43        292
    44        131
    45         43
    46          3
    47          3
    48          1
    49         11
    50         19
    51         43
    52         22
    53        177
    54        199
    55        516
    56        147
    57        280
    58         31
    59         11
    60          6
    61         33
    62          7
    63         11
    64          3
    65         47
    66         85
    67        999
    68        650
    69        250
    70         41
    71         48
    72         16
    73          7
    74         12
    75          4
    76          1
    77         40
    78          7
    79        135
    80         28
    81        626
    82        580
    83         73
    84         38
    85         47
    86         19
    87          4
    88          2
    89          3
    90          0
    91         17
    92          3
    93         21
    94          6
    95        229
    96         25
    97         15
    98          5
    99         24
   100         21
   101          3
   108          5
   109         20
   110        201
   111         27
   112          3
   113          3
   114          1
   125          0
   126          2
   127          3
   128          9
   129          3