##TITLE=Library Entry 32596
##JCAMP-DX=Revision 4.10 
##DATA TYPE=MASS SPECTRUM
##SAMPLE DESCRIPTION=HCACAV,60(4)1161(1977);13; G. OHLOFF
##NAMES=HP
##CAS NAME=5,10-Pentadecadien-1-ol, (Z,Z)-
##MOLFORM=C15H28O
##CAS REGISTRY NO=64275-51-0
##MP= -300
##BP= -300
##MW= 224
##$RETENTION INDEX=0
##$CONDENSED SPECTRUM=NO
##NPOINTS= 15
##XYDATA=(XY..XY) 1 
    29        280
    41        880
    55        930
    67        999
    81        760
    95        440
   110        190
   121         80
   135        100
   149         30
   163         10
   178         10
   192         10
   206         10
   224         10