##TITLE=Library Entry 49767
##JCAMP-DX=Revision 4.10 
##DATA TYPE=MASS SPECTRUM
##SAMPLE DESCRIPTION=HCACAV,60(4)1161(1977);39; G. OHLOFF
##NAMES=HP
##CAS NAME=5,10-Pentadecadienoic acid, (E,E)-
##MOLFORM=C15H26O2
##CAS REGISTRY NO=64275-68-9
##MP= -300
##BP= -300
##MW= 238
##$RETENTION INDEX=0
##$CONDENSED SPECTRUM=NO
##NPOINTS= 14
##XYDATA=(XY..XY) 1 
    29        310
    41        980
    55        930
    67        860
    81        999
    95        440
   110        300
   121        100
   140        240
   149         70
   168         40
   181         20
   205         70
   238         70