##TITLE=Library Entry 61270
##JCAMP-DX=Revision 4.10 
##DATA TYPE=MASS SPECTRUM
##SAMPLE DESCRIPTION=G.GERCKEN UNIV. HAMBURG, 2 HAMBURG 13, GERMANY, F.R.G.
##NAMES=HP
##CAS NAME=Undecanoic acid, phenylmethyl ester
##MOLFORM=C18H28O2
##CAS REGISTRY NO=64273-11-6
##MP= -300
##BP= -300
##MW= 276
##$RETENTION INDEX=2013
##$CONDENSED SPECTRUM=NO
##NPOINTS= 91
##XYDATA=(XY..XY) 1 
    27         78
    29        148
    32        259
    39         59
    40         22
    41        211
    42         78
    43        371
    44         74
    45         11
    50         19
    51         33
    52         11
    53         19
    54         19
    55        174
    56         56
    57        296
    58         15
    59         11
    60         37
    61         19
    62         11
    63         15
    64         15
    65        100
    66         11
    67         48
    68         19
    69        137
    70         33
    71        122
    72         15
    73         37
    74         11
    77         45
    78         26
    79         71
    80         15
    81         48
    82         26
    83        126
    84         48
    85         89
    87         15
    89         37
    90         74
    91        999
    92        278
    93         45
    95         74
    96         22
    97         85
    98         37
    99         15
   101         26
   104         22
   105         37
   106         15
   107         67
   108        741
   109         71
   110         11
   111         48
   112         11
   115         22
   116         11
   117         11
   123         15
   124         22
   125         37
   129         19
   143         11
   148         15
   149         82
   150         15
   165         19
   166         85
   167         15
   168         63
   169         11
   176         11
   178         15
   185         70
   186         11
   201          7
   206         26
   207          7
   258          7
   259          7
   276          7