##TITLE=Library Entry 20484
##JCAMP-DX=Revision 4.10 
##DATA TYPE=MASS SPECTRUM
##SAMPLE DESCRIPTION=HCACAV,60(4)1161(1977); 4; G. OHLOFF
##NAMES=HP
##CAS NAME=5,10-Pentadecadienal, (Z,E)-
##MOLFORM=C15H26O
##CAS REGISTRY NO=64275-58-7
##MP= -300
##BP= -300
##MW= 222
##$RETENTION INDEX=0
##$CONDENSED SPECTRUM=NO
##NPOINTS= 14
##XYDATA=(XY..XY) 1 
    29        270
    41        870
    55        999
    67        880
    80        910
    95        470
   110        270
   124        150
   135         70
   147         40
   161         30
   178         40
   205         20
   222         10