##TITLE=Library Entry 19299
##JCAMP-DX=Revision 4.10 
##DATA TYPE=MASS SPECTRUM
##SAMPLE DESCRIPTION=HCACAV,60(4)1161(1977);31; G. OHLOFF
##NAMES=HP
##CAS NAME=5-Decene, 1-bromo-, (Z)-
##MOLFORM=C10H19Br
##CAS REGISTRY NO=64275-63-4
##MP= -300
##BP= -300
##MW= 218
##$RETENTION INDEX=0
##$CONDENSED SPECTRUM=NO
##NPOINTS= 14
##XYDATA=(XY..XY) 1 
    27        160
    41        550
    55        999
    69        460
    83        330
    97        240
   109         40
   135         80
   148        130
   150        130
   162         50
   164         50
   218         50
   220         50