##TITLE=Library Entry 100731
##JCAMP-DX=Revision 4.10 
##DATA TYPE=MASS SPECTRUM
##SAMPLE DESCRIPTION=Japan AIST/NIMC Database- Spectrum MS-NW-5463
##NAMES=HP
##CAS NAME=Methanone, (3-methylphenyl)phenyl-
##MOLFORM=C14H12O
##CAS REGISTRY NO=643-65-2
##MP= -300
##BP= -300
##MW= 196
##$RETENTION INDEX=1694
##$CONDENSED SPECTRUM=NO
##NPOINTS= 112
##XYDATA=(XY..XY) 1 
    14          1
    26          2
    27         13
    28          2
    29          1
    37          3
    38          9
    39         68
    40          7
    41         18
    42          1
    43          1
    44          1
    46          1
    49          2
    50         40
    51        136
    52         11
    53          4
    57          1
    61          5
    62         15
    63         45
    64         12
    65        151
    66          9
    67          1
    69          3
    70          3
    71          3
    73          2
    74         15
    75         14
    76         26
    77        377
    78         28
    79          3
    81          2
    82          8
    83         11
    84         17
    85          3
    86          6
    87          6
    88          3
    89         38
    90         21
    91        375
    92         30
    93          1
    97          7
    98          7
    99          2
   100          1
   101          2
   102          4
   103          2
   104          4
   105        626
   106         47
   107          3
   110          1
   111          1
   113          3
   114          1
   115          9
   116          1
   117          1
   118          5
   119        999
   120         89
   121          7
   126          4
   127          4
   128          4
   129          1
   133          9
   134          2
   135          1
   136          7
   137          1
   139          7
   140          2
   141          3
   142          1
   150          3
   151          8
   152         28
   153         13
   154          1
   163          5
   164          5
   165         33
   166          9
   167         21
   168         19
   169          3
   170          1
   176          2
   177          1
   178          3
   179          3
   180          1
   181        109
   182         19
   183          2
   193          1
   194          4
   195         43
   196        737
   197        119
   198         11