##TITLE=Library Entry 52842
##JCAMP-DX=Revision 4.10 
##DATA TYPE=MASS SPECTRUM
##SAMPLE DESCRIPTION=A.E.FONTAINE DYESTUFFS DIV., I.C.I., MANCHESTER
##NAMES=HP
##CAS NAME=1H-Pyrrolizine, hexahydro-
##MOLFORM=C7H13N
##CAS REGISTRY NO=643-20-9
##MP= -300
##BP= -300
##MW= 111
##$RETENTION INDEX=0
##$CONDENSED SPECTRUM=NO
##NPOINTS= 97
##XYDATA=(XY..XY) 1 
    12          0
    13          0
    14          1
    15         20
    16          0
    17          4
    18         23
    19          0
    24          0
    25          0
    26         11
    27         92
    28        100
    29         43
    30         32
    31          6
    32          0
    33          0
    35          0
    36          1
    37          1
    38          6
    39        103
    40         23
    41        233
    42        266
    43         44
    44         27
    45          5
    46          0
    47          1
    48          0
    49          0
    50          5
    51         13
    52         13
    53         44
    54         66
    55        550
    56         63
    57         11
    58        107
    59          0
    60          0
    61          0
    62          0
    63          2
    64          1
    65         10
    66          8
    67         40
    68         77
    69         54
    70         53
    71          8
    72          2
    73          0
    74          1
    75          0
    76          0
    77         10
    78          5
    79         11
    80         47
    81         34
    82        174
    83        999
    84        722
    85         40
    86          2
    87          5
    88          0
    89          0
    90          0
    91          4
    92          2
    93         14
    94         10
    95          5
    96         28
    97         32
    98         32
    99          3
   100          1
   101          0
   102          0
   103          0
   104          1
   105          1
   106         10
   107          6
   108         55
   109         15
   110        274
   111        327
   112         37
   113          2