##TITLE=Library Entry 78774
##JCAMP-DX=Revision 4.10 
##DATA TYPE=MASS SPECTRUM
##SAMPLE DESCRIPTION=Japan AIST/NIMC Database- Spectrum MS-NW-4256
##NAMES=HP
##CAS NAME=1,2-Benzenedicarboxaldehyde
##MOLFORM=C8H6O2
##CAS REGISTRY NO=643-79-8
##MP= -300
##BP= -300
##MW= 134
##$RETENTION INDEX=0
##$CONDENSED SPECTRUM=NO
##NPOINTS= 57
##XYDATA=(XY..XY) 1 
    18          3
    25          2
    26          9
    27         38
    28         15
    29         52
    30          1
    36          4
    37         24
    38         29
    39         63
    40          3
    43          4
    44          1
    48          2
    49         16
    50        166
    51        384
    52         95
    53         23
    54          1
    55          3
    60          3
    61         12
    62         21
    63         32
    64          4
    65          1
    66          3
    72          1
    73         11
    74         56
    75         38
    76         84
    77        761
    78        163
    79         10
    84          3
    85          4
    86          5
    87          4
    88          1
    89         10
    90          3
    91          6
    92          2
   103          1
   104         22
   105        999
   106        364
   107         25
   108          1
   118          2
   133         70
   134        350
   135         33
   136          2