##TITLE=Library Entry 78742
##JCAMP-DX=Revision 4.10 
##DATA TYPE=MASS SPECTRUM
##SAMPLE DESCRIPTION=Frank Antolasic, RMIT Applied Chemistry Department, Vic
toria Australia 3001
##NAMES=HP
##CAS NAME=Propanetrione, diphenyl-
##MOLFORM=C15H10O3
##CAS REGISTRY NO=643-75-4
##MP= -300
##BP= -300
##MW= 238
##$RETENTION INDEX=0
##$CONDENSED SPECTRUM=NO
##NPOINTS= 73
##XYDATA=(XY..XY) 1 
    17          0
    27         38
    28          6
    29          1
    35          0
    36          0
    37          1
    38          5
    39         27
    40          2
    41          3
    42          1
    43          3
    44          1
    50         40
    51        135
    52         14
    53          7
    54          1
    55          2
    56          1
    57          3
    61          1
    62          4
    63         13
    64          3
    65          6
    66          1
    67          0
    69          0
    70          0
    71          2
    72          0
    74          7
    75          8
    77        349
    78         45
    79         57
    80          4
    85          1
    86          1
    87          1
    89          6
    90          2
    91          1
    97          0
    98          1
    99          1
   103         41
   105        999
   106         83
   107          5
   113          0
   115          2
   127          0
   132          5
   133          6
   134          1
   152          1
   165          1
   166          0
   167          0
   178          0
   179          0
   191          0
   209          0
   210          1
   211          0
   219          0
   220          0
   238         32
   239          6
   240          0