##TITLE=Library Entry 78672
##JCAMP-DX=Revision 4.10 
##DATA TYPE=MASS SPECTRUM
##SAMPLE DESCRIPTION=W. ADAM, INST. ORG. CHEM., UNIV. WURZBURG, WURZBURG, W.
 GER.
##NAMES=HP
##CAS NAME=1,2-Bis(benzoyloxy)benzene
##MOLFORM=C20H14O4
##CAS REGISTRY NO=643-94-7
##MP= -300
##BP= -300
##MW= 318
##$RETENTION INDEX=0
##$CONDENSED SPECTRUM=NO
##NPOINTS= 40
##XYDATA=(XY..XY) 1 
    39          9
    40          6
    41          8
    43          9
    44         14
    45          1
    49          3
    50         16
    51         86
    52         29
    53          4
    55          4
    57         10
    63          3
    65          4
    67          2
    69          9
    71          4
    74          2
    75          3
    76         13
    77        398
    78         27
    79          4
    80         11
    81          2
    85          1
   104          4
   105        999
   106         79
   107          5
   115          2
   119          3
   121          3
   137          3
   149          2
   197          8
   213          3
   318         29
   319          6