##TITLE=Library Entry 19304
##JCAMP-DX=Revision 4.10 
##DATA TYPE=MASS SPECTRUM
##SAMPLE DESCRIPTION=S.A. Rang et al., IR & MS of Unsatd. Hydrocarbons, 1977
##NAMES=HP
##CAS NAME=6-Tridecene, (E)-
##MOLFORM=C13H26
##CAS REGISTRY NO=6434-76-0
##MP= -300
##BP= -300
##MW= 182
##$RETENTION INDEX=1277
##$CONDENSED SPECTRUM=NO
##NPOINTS= 86
##XYDATA=(XY..XY) 1 
    15          6
    24          0
    25          2
    26         17
    27        253
    28         37
    29        546
    30         11
    31          0
    32          1
    37          1
    38          3
    39        204
    40         35
    41        950
    42        242
    43        640
    44         15
    45          0
    49          0
    50          3
    51          9
    52          9
    53        103
    54        291
    55        999
    56        625
    57        406
    58         17
    59          0
    60          0
    63          1
    64          0
    65         23
    66         18
    67        188
    68         95
    69        921
    70        531
    71        145
    72          7
    77         17
    78          4
    79         30
    80          7
    81         63
    82         82
    83        437
    84        237
    85         63
    86          3
    91          6
    92          1
    93          3
    94          1
    95         20
    96         36
    97        231
    98        107
    99          1
   105          0
   107          0
   108          0
   109          5
   110         15
   111         89
   112         48
   113          4
   123          1
   124          5
   125         22
   126         19
   127          2
   137          0
   138          1
   139          7
   140          7
   141          1
   151          0
   152          1
   153          3
   154         11
   155          1
   182        123
   183         16
   184          1