##TITLE=Library Entry 61620
##JCAMP-DX=Revision 4.10 
##DATA TYPE=MASS SPECTRUM
##SAMPLE DESCRIPTION=Chemical Concepts
##NAMES=HP
##CAS NAME=Benzene, [1-(chloromethyl)propyl]-
##MOLFORM=C10H13Cl
##CAS REGISTRY NO=64343-08-4
##MP= -300
##BP= -300
##MW= 168
##$RETENTION INDEX=0
##$CONDENSED SPECTRUM=NO
##NPOINTS= 105
##XYDATA=(XY..XY) 1 
    25          0
    26         10
    27        104
    28          9
    29         40
    30          0
    33          0
    34          0
    35          1
    36          1
    37          2
    38         13
    39        122
    40          7
    41         95
    42          1
    46          0
    47          0
    48          1
    49         24
    50         57
    51        160
    52         33
    53         23
    54          4
    55         14
    56          0
    60          0
    61          5
    62         15
    63         53
    64         15
    65         72
    66          5
    67          0
    69          0
    71          0
    72          0
    73          3
    74         18
    75         25
    76         25
    77        198
    78         99
    79         28
    80          1
    85          1
    86          3
    87          4
    88          1
    89         25
    91        999
    92         86
    93          3
    98          2
    99          2
   100          0
   101          6
   102         31
   103        318
   104         96
   105         24
   106          2
   107          0
   110          0
   111          0
   112          0
   113          1
   114          0
   115         62
   116         14
   117         60
   118          4
   119        476
   120         53
   121          2
   123          0
   125          7
   126          1
   127          5
   128          5
   129          4
   130          1
   131          6
   132         18
   133          3
   134          2
   135          0
   136          0
   138          3
   139         83
   140          8
   141         26
   142          2
   144          0
   147          0
   151          0
   152          0
   155          0
   160          0
   165          0
   168         84
   169         10
   170         28
   171          3