##TITLE=Library Entry 1318
##JCAMP-DX=Revision 4.10 
##DATA TYPE=MASS SPECTRUM
##SAMPLE DESCRIPTION=NIST Mass Spectrometry Data Center, 1994
##NAMES=HP
##CAS NAME=4-Ethylphenethylamine
##MOLFORM=C10H15N
##CAS REGISTRY NO=64353-29-3
##MP= -300
##BP= -300
##MW= 149
##$RETENTION INDEX=0
##$CONDENSED SPECTRUM=NO
##NPOINTS= 63
##XYDATA=(XY..XY) 1 
     4          3
    14          0
    15          4
    17          1
    18          2
    26          1
    27         22
    28         33
    29          0
    30        999
    31         14
    32          2
    38          4
    39         36
    40          5
    41         23
    42          7
    43          4
    50         13
    51         29
    52         11
    53         10
    58          1
    61          1
    62          5
    63         20
    64          6
    65         28
    66          5
    74          4
    75          4
    76          6
    77         45
    78         29
    79         17
    80          1
    86          0
    87          1
    89         12
    91         78
    92          9
    93          4
   102          6
   103         27
   104         38
   105        122
   106         11
   115         17
   116          5
   117         22
   118         15
   119         31
   120        147
   121         14
   128          1
   129          0
   130          1
   131          1
   132          4
   133          1
   147          2
   149         25
   150          3