##TITLE=Library Entry 66540
##JCAMP-DX=Revision 4.10 
##DATA TYPE=MASS SPECTRUM
##SAMPLE DESCRIPTION=Chemical Concepts
##NAMES=HP
##CAS NAME=2-Pyridineethanol, 1-oxide
##MOLFORM=C7H9NO2
##CAS REGISTRY NO=64364-85-8
##MP= -300
##BP= -300
##MW= 139
##$RETENTION INDEX=0
##$CONDENSED SPECTRUM=NO
##NPOINTS= 76
##XYDATA=(XY..XY) 1 
    26         20
    27         72
    28         31
    29         62
    30         20
    31         58
    37         15
    38         40
    39        192
    40         32
    41         34
    42         19
    43         19
    44         24
    45          4
    46          6
    47         13
    49          8
    50         76
    51        160
    52        115
    53         81
    54         14
    55         10
    57          3
    58          3
    59          3
    61          9
    62         25
    63         62
    64         42
    65        336
    66        136
    67         42
    68          9
    69          3
    73          4
    74         15
    75         11
    76         17
    77         53
    78        317
    79        143
    80         32
    81          4
    83          3
    86          3
    87          2
    89          5
    90          5
    91         22
    92        582
    93        999
    94        193
    95         22
    96         16
    97          2
   103          5
   104         64
   105         81
   106         98
   107         11
   108         24
   109        189
   110         16
   119          6
   120        101
   121        122
   122        670
   123         67
   124         14
   125          3
   138         35
   139        307
   140         30
   141          4