##TITLE=Library Entry 85960
##JCAMP-DX=Revision 4.10 
##DATA TYPE=MASS SPECTRUM
##SAMPLE DESCRIPTION=NIST Mass Spectrometry Data Center, 1994
##NAMES=HP
##CAS NAME=2-Fluorobenzyl isothiocyanate
##MOLFORM=C8H6FNS
##CAS REGISTRY NO=64382-80-5
##MP= -300
##BP= -300
##MW= 167
##$RETENTION INDEX=0
##$CONDENSED SPECTRUM=NO
##NPOINTS= 78
##XYDATA=(XY..XY) 1 
     4          2
    14          2
    26          6
    27         10
    28          9
    31         21
    32         20
    33          6
    34          1
    37          9
    38         21
    39         55
    40          4
    41          1
    44         17
    45         24
    46          3
    47          1
    49          7
    50         43
    51         32
    52          6
    55          1
    56         12
    57         90
    58         26
    59         22
    60          5
    61         16
    62         31
    63         64
    64          9
    65          3
    68         13
    69         18
    70         20
    71         12
    72         14
    74         18
    75         28
    76          7
    77          3
    78          1
    80          5
    81         32
    83        237
    84         15
    85          5
    86          5
    87          8
    88          5
    89         31
    90          3
    92          1
    93          4
    94          8
    95         10
    96          6
   100          1
   102          2
   103          1
   105          3
   107         63
   109        999
   110         75
   111          3
   115          2
   119          2
   120          1
   121          3
   122          2
   134          7
   135          4
   139         16
   140          1
   167        188
   168         19
   169          8