##TITLE=Library Entry 62593
##JCAMP-DX=Revision 4.10 
##DATA TYPE=MASS SPECTRUM
##SAMPLE DESCRIPTION=MASS SPECTROMETRY CENTER, UNIV. OF UTAH ALDRICH 13961-0
##NAMES=HP
##CAS NAME=Benzene, 1-methyl-4-[[(methylsulfonyl)methyl]sulfonyl]-
##MOLFORM=C9H12O4S2
##CAS REGISTRY NO=64399-25-3
##MP= -300
##BP= -300
##MW= 248
##$RETENTION INDEX=0
##$CONDENSED SPECTRUM=NO
##NPOINTS= 81
##XYDATA=(XY..XY) 1 
    14         14
    15        217
    16          2
    26          9
    27         90
    28         25
    29        203
    31         12
    33         10
    34         19
    35          6
    38         28
    39        305
    40         25
    41        102
    42          1
    43         25
    44         11
    45         73
    46         16
    47         16
    48         32
    49          8
    50         62
    51        135
    52         44
    53         37
    55         14
    57          9
    59          2
    61         33
    62         52
    63        285
    64         80
    65        601
    66         39
    67         26
    69         13
    71          4
    74         12
    75         14
    76         20
    77        216
    78         66
    79        135
    80          5
    81          1
    85          0
    86          7
    87          9
    88          0
    89        148
    90         77
    91        999
    92        225
    93         76
    94          5
    95          4
   103         23
   104         18
   105        240
   106         24
   107         72
   108         14
   109          5
   111         16
   121        679
   122         73
   123          8
   124          1
   139        122
   140         13
   141          3
   155        799
   156        108
   157         67
   158          1
   170          6
   248        152
   249         17
   250         14