##TITLE=Library Entry 17575
##JCAMP-DX=Revision 4.10 
##DATA TYPE=MASS SPECTRUM
##SAMPLE DESCRIPTION=MASS SPECTROMETRY CENTER, UNIV. OF UTAH ALDRICH 14084-8
##NAMES=HP
##CAS NAME=Benzoic acid, 4-(methylthio)-3-nitro-
##MOLFORM=C8H7NO4S
##CAS REGISTRY NO=64399-24-2
##MP= -300
##BP= -300
##MW= 213
##$RETENTION INDEX=0
##$CONDENSED SPECTRUM=NO
##NPOINTS= 146
##XYDATA=(XY..XY) 1 
    12          6
    15         82
    16          6
    17         26
    18          8
    26         22
    27         79
    28         25
    29         49
    30        247
    31         26
    32          6
    34         12
    36          8
    37         75
    38        104
    39        303
    40         18
    41         38
    42          5
    43         28
    44         70
    45        999
    46        186
    47        117
    48         30
    49         29
    50        253
    51        295
    52         92
    53        152
    54         45
    55        100
    57         52
    58         58
    59         45
    60         19
    61        114
    62        215
    63        812
    64        126
    65        396
    66        175
    67        118
    68         38
    69        336
    70        102
    71        126
    72         30
    73         70
    74        287
    75        317
    76        169
    77        508
    78        511
    79        251
    80         89
    81        161
    82         76
    83         72
    84        155
    85        111
    86         27
    87         50
    88         16
    89         44
    90         30
    91         54
    92         55
    93        103
    94        300
    95        337
    96        155
    97         81
    98         41
    99         56
   100          2
   101         29
   102         15
   103         74
   104         65
   105        111
   106        183
   107        309
   108        151
   109        228
   110         84
   111        185
   112        132
   113         19
   114         44
   115         14
   117         14
   118         14
   119         52
   120         57
   121        407
   122        867
   123        285
   124         85
   125         37
   126         14
   127         89
   128          7
   132         27
   133          6
   134         83
   135        522
   136         86
   137        218
   138         84
   139         47
   140        101
   141          4
   142         66
   143          2
   148         30
   149         48
   150        455
   151         64
   152         95
   153         27
   154         45
   155         33
   156          2
   162         25
   165         91
   166         57
   167         19
   168         71
   169         15
   170         15
   171         13
   179         29
   180         23
   181          6
   182        154
   183        301
   184         69
   185         18
   196         46
   197         15
   198         27
   213        602
   214         60
   215         35