##TITLE=Library Entry 90033
##JCAMP-DX=Revision 4.10 
##DATA TYPE=MASS SPECTRUM
##SAMPLE DESCRIPTION=Japan AIST/NIMC Database- Spectrum MS-NW-8308
##NAMES=HP
##CAS NAME=Mono-butyl itaconate
##MOLFORM=C9H14O4
##CAS REGISTRY NO=6439-57-2
##MP= -300
##BP= -300
##MW= 186
##$RETENTION INDEX=0
##$CONDENSED SPECTRUM=NO
##NPOINTS= 98
##XYDATA=(XY..XY) 1 
    14          2
    15         11
    16          1
    17          6
    18         19
    25          1
    26         12
    27        124
    28         80
    29        650
    30         19
    31        111
    32          4
    33          9
    34          1
    36          2
    37          9
    38         19
    39        228
    40        144
    41        686
    42         91
    43        108
    44         18
    45         46
    46          1
    50          2
    51          2
    52          1
    53         10
    54          6
    55         87
    56        312
    57        740
    58         57
    59          5
    60          3
    61          1
    66          2
    67         20
    68        114
    69         20
    70          2
    71          8
    72          2
    73         10
    74          1
    75          1
    79          1
    80          1
    81          1
    82          1
    83          3
    84         22
    85        364
    86        428
    87         35
    88          3
    91          1
    94          1
    95          5
    96          1
    97          1
    98          1
    99          2
   100          1
   101          3
   102          1
   108          1
   109          1
   110          1
   111          4
   112         47
   113        999
   114         67
   115          9
   122          1
   123          1
   126          1
   127          3
   129          3
   130        102
   131         75
   132          5
   133          1
   139          1
   140          4
   141          3
   142          7
   143          2
   150          2
   157          2
   168          5
   169         29
   170          3
   186          5
   187          9
   188          1