##TITLE=Library Entry 81293
##JCAMP-DX=Revision 4.10 
##DATA TYPE=MASS SPECTRUM
##SAMPLE DESCRIPTION=NIST Mass Spectrometry Data Center, 1994
##NAMES=HP
##CAS NAME=o-Tolylacetic acid
##MOLFORM=C9H10O2
##CAS REGISTRY NO=644-36-0
##MP= -300
##BP= -300
##MW= 150
##$RETENTION INDEX=0
##$CONDENSED SPECTRUM=NO
##NPOINTS= 61
##XYDATA=(XY..XY) 1 
    15          8
    18          1
    26         11
    27         56
    29          8
    31          2
    37          7
    38         18
    39         79
    40          8
    41          9
    42          3
    43          4
    44          2
    45         74
    46          1
    50         44
    51        100
    52         32
    53         26
    54          1
    55          3
    59          1
    60          1
    61          8
    62         19
    63         56
    64         11
    65         35
    66          6
    67          1
    74         15
    75         13
    77        205
    78         79
    79        158
    80         10
    85          1
    86          4
    87          4
    89         19
    91        175
    92         14
    93          6
    94          1
    98          3
   102         26
   103        137
   104        314
   105        999
   106         96
   107          9
   108          2
   119          2
   120          0
   121          2
   132         21
   133          3
   150        461
   151         46
   152          2