##TITLE=Library Entry 8734
##JCAMP-DX=Revision 4.10 
##DATA TYPE=MASS SPECTRUM
##SAMPLE DESCRIPTION=Exported from NIST MS Search
##NAMES=HP
##CAS NAME=Propanoic acid, 2-methyl-, propyl ester
##MOLFORM=C7H14O2
##CAS REGISTRY NO=644-49-5
##MP= -300
##BP= -300
##MW= 130
##$RETENTION INDEX=842
##$CONDENSED SPECTRUM=NO
##NPOINTS= 42
##XYDATA=(XY..XY) 1 
    27        347
    28         76
    29         91
    30         15
    31         34
    32          1
    33          1
    40         24
    41        285
    42        124
    43        999
    44         34
    45         16
    46          1
    47          1
    55         16
    56         10
    57         28
    58          4
    59         36
    60          3
    61          1
    69          2
    70          6
    71        443
    72         20
    73         33
    74          3
    75          1
    83          1
    85          1
    86          1
    87          5
    88         14
    89        306
    99          1
   100          2
   101         24
   102          2
   103          1
   115          2
   130          1