##TITLE=Library Entry 84227
##JCAMP-DX=Revision 4.10 
##DATA TYPE=MASS SPECTRUM
##SAMPLE DESCRIPTION=Japan AIST/NIMC Database- Spectrum MS-NW-3401
##NAMES=HP
##CAS NAME=Phenol, 2-propyl-
##MOLFORM=C9H12O
##CAS REGISTRY NO=644-35-9
##MP= -300
##BP= -300
##MW= 136
##$RETENTION INDEX=1224
##$CONDENSED SPECTRUM=NO
##NPOINTS= 66
##XYDATA=(XY..XY) 1 
    15          2
    26          4
    27         30
    28          3
    29          9
    37          3
    38          8
    39         47
    40          5
    41          9
    42          1
    43          2
    49          1
    50         16
    51         35
    52         17
    53         23
    54          1
    55          6
    61          3
    62          6
    63         18
    64          6
    65         23
    66          7
    67          2
    74          5
    75          5
    76          4
    77        159
    78         35
    79         73
    80          5
    81          2
    86          1
    87          2
    89          8
    90          4
    91         35
    92          6
    93          1
    94         13
    95          2
   101          1
   102          2
   103          6
   104          1
   105          5
   106          2
   107        999
   108         76
   109          5
   115         17
   116          3
   117          6
   118          1
   119          5
   120          5
   121          8
   131          2
   133          3
   134          2
   135          2
   136        255
   137         25
   138          2