##TITLE=Library Entry 90829
##JCAMP-DX=Revision 4.10 
##DATA TYPE=MASS SPECTRUM
##SAMPLE DESCRIPTION=NIST Mass Spectrometry Data Center
##NAMES=HP
##CAS NAME=dl-2-Aminocaprylic acid
##MOLFORM=C8H17NO2
##CAS REGISTRY NO=644-90-6
##MP= -300
##BP= -300
##MW= 159
##$RETENTION INDEX=0
##$CONDENSED SPECTRUM=NO
##NPOINTS= 33
##XYDATA=(XY..XY) 1 
    18          6
    27         33
    29         45
    30        195
    32          1
    39         37
    40          4
    41        112
    42         53
    43        200
    44         96
    45         16
    46         25
    53         16
    54         18
    55        232
    56        139
    57         48
    67         11
    69         25
    70         20
    71         11
    74        159
    75         25
    82          8
    84         15
    88          9
    89          8
    97         11
   112          7
   114        999
   115         80
   159          7