##TITLE=Library Entry 4625
##JCAMP-DX=Revision 4.10 
##DATA TYPE=MASS SPECTRUM
##SAMPLE DESCRIPTION=LAC, NIDDK, NIH, Bethesda, MD 20892
##NAMES=HP
##CAS NAME=Methylene asparagine
##MOLFORM=C5H8N2O3
##CAS REGISTRY NO=64414-81-9
##MP= -300
##BP= -300
##MW= 144
##$RETENTION INDEX=0
##$CONDENSED SPECTRUM=NO
##NPOINTS= 63
##XYDATA=(XY..XY) 1 
    42        999
    43        863
    44        925
    45        639
    46         92
    47         10
    52         38
    53         53
    54        166
    55        369
    56        910
    57        191
    58         47
    59         88
    60         28
    65          7
    66          4
    67         12
    68         43
    69         80
    70        799
    71        104
    72         87
    73         78
    74         80
    75          6
    77          5
    78         15
    79          1
    80          1
    81         13
    82         26
    83         34
    85         16
    86         55
    87        184
    88         42
    89          3
    91          4
    95          7
    96          4
    97         67
    98         52
    99        799
   100         92
   101         37
   102          8
   110          4
   111          5
   112         37
   113         43
   114         21
   115         10
   116         33
   117          1
   125          8
   126        266
   127         24
   128         11
   129          4
   143         13
   144         26
   145          3