##TITLE=Library Entry 89034
##JCAMP-DX=Revision 4.10 
##DATA TYPE=MASS SPECTRUM
##SAMPLE DESCRIPTION=Zaikin V.G., TIPS RAS, Moscow, Russia
##NAMES=HP
##CAS NAME=N-(4-Methoxyphenyl)-thiophene-2-carboxamide
##MOLFORM=C12H11NO2S
##CAS REGISTRY NO=64419-14-3
##MP= -300
##BP= -300
##MW= 233
##$RETENTION INDEX=2217
##$CONDENSED SPECTRUM=NO
##NPOINTS= 41
##XYDATA=(XY..XY) 1 
    28          1
    38          3
    39         48
    41          9
    45          4
    50          3
    51          6
    52         16
    53         11
    57          4
    58          3
    63          5
    64          5
    65          6
    77          5
    78          5
    79          7
    80         10
    81          5
    82          4
    83         36
    84          4
    92          3
    95         25
   106          5
   107          6
   108         11
   109          8
   111        999
   112         55
   113         41
   122         43
   123         11
   124         21
   134          5
   205          3
   232          3
   233        630
   234         83
   235         34
   236          4