##TITLE=Library Entry 15870
##JCAMP-DX=Revision 4.10 
##DATA TYPE=MASS SPECTRUM
##SAMPLE DESCRIPTION=NIST Mass Spectrometry Data Center
##NAMES=HP
##CAS NAME=4-Ethylamino-n-butylamine
##MOLFORM=C6H16N2
##CAS REGISTRY NO=64429-16-9
##MP= -300
##BP= -300
##MW= 116
##$RETENTION INDEX=0
##$CONDENSED SPECTRUM=NO
##NPOINTS= 48
##XYDATA=(XY..XY) 1 
    15         13
    17          2
    18         36
    26          7
    27         83
    28         58
    29        202
    30        688
    31         15
    32          2
    36          1
    37          1
    38          3
    39         48
    40          9
    41        223
    42        118
    43         99
    44        999
    45         33
    50          2
    51          3
    52          2
    53          8
    54          9
    55         28
    56         55
    57        124
    58         10
    59          5
    67          1
    68          5
    69          5
    70         11
    71          6
    72         14
    73         49
    74          3
    80          1
    82          1
    84         13
    86        694
    87         52
    88          1
    98          2
    99          3
   116         30
   117          3