##TITLE=Library Entry 97978
##JCAMP-DX=Revision 4.10 
##DATA TYPE=MASS SPECTRUM
##SAMPLE DESCRIPTION=Japan AIST/NIMC Database- Spectrum MS-IW-7449
##NAMES=HP
##CAS NAME=3-Pyridineacetonitrile
##MOLFORM=C7H6N2
##CAS REGISTRY NO=6443-85-2
##MP= -300
##BP= -300
##MW= 118
##$RETENTION INDEX=0
##$CONDENSED SPECTRUM=NO
##NPOINTS= 54
##XYDATA=(XY..XY) 1 
    15          1
    26          9
    27          9
    28         19
    31          2
    36          1
    37         25
    38         40
    39         63
    40         15
    41         36
    42          2
    43          1
    44          4
    45          9
    46          1
    48          1
    49          6
    50         30
    51         85
    52         28
    53          6
    54          3
    58          1
    60          2
    61         13
    62         27
    63        100
    64        207
    65         56
    66          6
    67         23
    68          1
    70          1
    74          2
    75          7
    76          8
    77          5
    78         91
    79         10
    86          2
    87          4
    88          8
    89          7
    90         56
    91        589
    92         65
    93          3
    94          1
   116          5
   117         62
   118        999
   119         98
   120          4