##TITLE=Library Entry 77883
##JCAMP-DX=Revision 4.10 
##DATA TYPE=MASS SPECTRUM
##SAMPLE DESCRIPTION=Japan AIST/NIMC Database- Spectrum MS-NW-4277
##NAMES=HP
##CAS NAME=1,3-Bis(tris(hydroxymethyl)methylamino)propane
##MOLFORM=C11H26N2O6
##CAS REGISTRY NO=64431-96-5
##MP= -300
##BP= -300
##MW= 282
##$RETENTION INDEX=0
##$CONDENSED SPECTRUM=NO
##NPOINTS= 229
##XYDATA=(XY..XY) 1 
    12          1
    13          1
    14          3
    15         28
    16          3
    17         42
    18        180
    19          2
    25          1
    26          9
    27         55
    28        140
    29        100
    30        646
    31        206
    32          6
    33          1
    36          1
    37          1
    38          3
    39         45
    40         24
    41        255
    42        195
    43         59
    44        369
    45         31
    46         15
    47          2
    48          2
    49          4
    50         11
    51          2
    52          4
    53         10
    54         61
    55         46
    56        263
    57        195
    58        417
    59         29
    60         75
    61          4
    62          3
    63          4
    64          9
    65         21
    66          3
    67         17
    68         71
    69         37
    70        138
    71         56
    72        118
    73         29
    74        141
    75          9
    76          2
    77          7
    78          9
    79          5
    80         41
    81          9
    82         42
    83         25
    84        112
    85         75
    86        208
    87        135
    88        138
    89          9
    90         78
    91          4
    92          9
    93          3
    94         14
    95         27
    96         30
    97         11
    98         49
    99         44
   100        144
   101         19
   102         72
   103         24
   104        999
   105         51
   106          7
   107          2
   108          3
   109          4
   110         50
   111         21
   112         98
   113         44
   114         45
   115         12
   116         74
   117          7
   118          9
   119          1
   120          1
   121          1
   122         25
   123          5
   124          8
   125          5
   126          7
   127          8
   128         74
   129         39
   130        589
   131         51
   132         41
   133          4
   134        518
   135         32
   136          7
   137          7
   138          2
   139          3
   140          4
   141          8
   142         28
   143          6
   144         13
   145         10
   146        237
   147         48
   148        847
   149         62
   150          9
   151          1
   152          1
   153         11
   154          3
   155         13
   156          3
   157          5
   158         17
   159         63
   160         24
   161         41
   162        126
   163         10
   164          2
   165          2
   166          1
   167          3
   168          4
   169          3
   170          2
   171         13
   172          5
   173          8
   174          3
   175          1
   176          2
   177         31
   178          3
   179          7
   180          1
   181          1
   182          1
   183          4
   184          7
   185         28
   186         17
   187          7
   188          2
   189          3
   190          2
   191          1
   193          1
   194          1
   197          2
   198          1
   199          3
   200          2
   201         22
   202         11
   203        132
   204         14
   205          3
   212          1
   213          2
   214          3
   215         16
   216          9
   217          5
   218          2
   219          7
   220          2
   221          8
   222          1
   223          1
   224          1
   225          1
   226          1
   227          1
   228          1
   229          1
   230          2
   231          2
   232          2
   233         48
   234         58
   235          9
   236          2
   237          1
   238          1
   239          1
   240          1
   242          1
   243          1
   244          2
   245          3
   246          1
   247          1
   248          2
   249          7
   250          4
   251        952
   252        118
   253         17
   254          2
   281          2
   282          1
   283          1