##TITLE=Library Entry 46365
##JCAMP-DX=Revision 4.10 
##DATA TYPE=MASS SPECTRUM
##SAMPLE DESCRIPTION=A.A.Kutin, Moscow, Russia
##NAMES=HP
##CAS NAME=(1,3)Dithiolo[4,5-d]-1,3-dithiol-2-one, 5-thioxo-
##MOLFORM=C4OS5
##CAS REGISTRY NO=64433-03-0
##MP= -300
##BP= -300
##MW= 224
##$RETENTION INDEX=0
##$CONDENSED SPECTRUM=NO
##NPOINTS= 64
##XYDATA=(XY..XY) 1 
    33         10
    34          8
    36          0
    38          0
    40          7
    41          0
    44        232
    46         12
    48          0
    56         47
    58          2
    60         13
    64        116
    66         10
    68          3
    69          0
    70          0
    72          0
    76        999
    78        100
    80          2
    82          5
    83          0
    88        510
    90         41
    92          1
    96          1
    98          0
   100         14
   101          0
   102          1
   108         10
   110          1
   112          4
   113          1
   120        546
   122         86
   124          4
   132         10
   133          0
   134          1
   152          9
   153          1
   164          0
   169          0
   180          3
   181          0
   182          0
   192          0
   196        262
   197         72
   199          7
   208          2
   209          0
   210          0
   219          0
   221          7
   224        421
   225         38
   226         85
   227          7
   228          8
   229          0
   230          0