##TITLE=Library Entry 80432
##JCAMP-DX=Revision 4.10 
##DATA TYPE=MASS SPECTRUM
##SAMPLE DESCRIPTION=Chemical Concepts
##NAMES=HP
##CAS NAME=Pentane, 1,4-diphenyl-
##MOLFORM=C17H20
##CAS REGISTRY NO=6443-80-7
##MP= -300
##BP= -300
##MW= 224
##$RETENTION INDEX=0
##$CONDENSED SPECTRUM=NO
##NPOINTS= 121
##XYDATA=(XY..XY) 1 
    25          0
    26          2
    27         39
    28         14
    29          4
    31          0
    32          3
    36          0
    37          1
    38          4
    39         62
    40          0
    41         33
    42          1
    43          0
    44          0
    47          0
    48          0
    49          1
    50         19
    51         60
    52         17
    53         13
    54          1
    55          5
    56          1
    57          1
    58          0
    59          1
    61          0
    62          6
    63         26
    64          7
    65         93
    66          7
    67          1
    68          0
    69          0
    70          0
    74          4
    75          7
    76          9
    77        140
    78         55
    79        117
    80          7
    86          0
    87          2
    88          1
    89         18
    90          6
    91        311
    92         40
    93          5
    94          0
    95          0
    96          0
    98          0
   101          3
   102          9
   103         70
   104         77
   105        999
   106        110
   107         10
   108          0
   112          0
   113          0
   114          1
   115         32
   116         10
   117         42
   118         23
   119          8
   120         29
   121          2
   126          0
   127          2
   128          4
   129          4
   130          0
   131         54
   132          8
   133          7
   134          1
   137          0
   139          0
   141          0
   142          0
   143          0
   144          1
   145          2
   146          0
   150          0
   151          0
   152          1
   154          0
   157          0
   163          0
   165          3
   166          2
   167          5
   168          0
   178          0
   179          0
   180          0
   181          1
   182          0
   189          0
   193          0
   195          0
   196          0
   199          0
   202          0
   209          0
   213          0
   221          0
   224        200
   225         35
   226          3
   228          0