##TITLE=Library Entry 66692
##JCAMP-DX=Revision 4.10 
##DATA TYPE=MASS SPECTRUM
##SAMPLE DESCRIPTION=Japan AIST/NIMC Database- Spectrum MS-NW-2425
##NAMES=HP
##CAS NAME=1-Phenylthiosemicarbazide
##MOLFORM=C7H9N3S
##CAS REGISTRY NO=645-48-7
##MP= -300
##BP= -300
##MW= 167
##$RETENTION INDEX=0
##$CONDENSED SPECTRUM=NO
##NPOINTS= 120
##XYDATA=(XY..XY) 1 
    12          5
    13         18
    14          6
    15          4
    16         10
    17          4
    18          9
    25          2
    26         17
    27         53
    28        139
    29         31
    30          7
    31          6
    32         90
    33         44
    34         97
    35          3
    36          8
    37         30
    38         64
    39        204
    40         48
    41         67
    42        282
    43        113
    44          7
    45         10
    46         26
    47          7
    48         10
    49          8
    50         69
    51        185
    52         72
    53         29
    54         34
    55          3
    56          1
    57          3
    58         14
    59        118
    60        249
    61         25
    62         42
    63         72
    64         73
    65        380
    66        324
    67         41
    68          2
    69          9
    70          3
    71          2
    72          1
    73          5
    74         20
    75         15
    76         54
    77        415
    78        172
    79         71
    80         48
    81         21
    82          3
    83          2
    84          8
    85          1
    86          1
    87          2
    88          2
    89          2
    90          9
    91        190
    92        416
    93        999
    94         75
    95          3
    96          7
    97         10
    98          6
    99          2
   101          1
   103          5
   104          6
   105         65
   106         45
   107        111
   108        610
   109         46
   110         50
   111          4
   112          2
   118          6
   119          1
   121          4
   122          2
   123          8
   124         11
   125         61
   126          5
   127          2
   128          2
   131         26
   132          4
   133         51
   134          8
   135          3
   136          3
   137          1
   149          1
   150         67
   151          7
   152          4
   165          5
   166          2
   167        666
   168         62
   169         33
   170          3