##TITLE=Library Entry 19003
##JCAMP-DX=Revision 4.10 
##DATA TYPE=MASS SPECTRUM
##SAMPLE DESCRIPTION=NIST Mass Spectrometry Data Center, 1990.
##NAMES=HP
##CAS NAME=2-Hexenal, 2-ethyl-
##MOLFORM=C8H14O
##CAS REGISTRY NO=645-62-5
##MP= -300
##BP= -300
##MW= 126
##$RETENTION INDEX=999
##$CONDENSED SPECTRUM=NO
##NPOINTS= 64
##XYDATA=(XY..XY) 1 
    14          9
    15         30
    18          6
    26         54
    27        444
    28         56
    29        384
    30         10
    31         13
    37         12
    38         53
    39        479
    40        106
    41        843
    42        123
    43        364
    44         22
    45         14
    50         49
    51         88
    52         35
    53        183
    54         12
    55        999
    56        144
    57        134
    58         10
    61          5
    62         12
    63         21
    64          5
    65         52
    66         29
    67        206
    68         50
    69        232
    70         57
    71         46
    72         15
    74          4
    77         73
    78         15
    79         96
    80         11
    81         53
    82         15
    83        140
    84         48
    85         60
    86          5
    91         45
    93        129
    94         12
    95         38
    96          5
    97        349
    98         39
   107          5
   109          4
   111        140
   112          9
   125         28
   126        232
   127         19