##TITLE=Library Entry 48132
##JCAMP-DX=Revision 4.10 
##DATA TYPE=MASS SPECTRUM
##SAMPLE DESCRIPTION=NIST Mass Spectrometry Data Center, 1994
##NAMES=HP
##CAS NAME=Benzeneselenol
##MOLFORM=C6H6Se
##CAS REGISTRY NO=645-96-5
##MP= -300
##BP= -300
##MW= 158
##$RETENTION INDEX=0
##$CONDENSED SPECTRUM=NO
##NPOINTS= 87
##XYDATA=(XY..XY) 1 
    12          2
    13          2
    15          8
    16          1
    17          1
    18          4
    24          2
    25          7
    26         32
    27         61
    36          6
    37         60
    38         57
    39        156
    40          4
    48          4
    49         42
    50        302
    51        397
    52         37
    53          4
    60          4
    61         18
    62         19
    63         29
    64          3
    65         40
    66          9
    72          3
    73         26
    74         96
    75         58
    76         67
    77        463
    78        999
    79         97
    80         71
    81         34
    82         13
    83          5
    89          7
    90          7
    91         18
    92          4
    93         38
    94          3
    95          6
   101          7
   102         10
   103         20
   104         13
   105         39
   106         19
   107         16
   108          4
   113         17
   114         15
   115         40
   116          8
   117         73
   118         10
   119         18
   120          1
   125          6
   126         10
   127         18
   128         15
   129         27
   130         24
   131         16
   132         13
   133          3
   139          2
   141          5
   143          3
   150          2
   151          5
   152         13
   153         39
   154        110
   155        123
   156        187
   157        152
   158        377
   159         48
   160         66
   161          4