##TITLE=Library Entry 10632
##JCAMP-DX=Revision 4.10 
##DATA TYPE=MASS SPECTRUM
##SAMPLE DESCRIPTION=W.Jennings, T.Shibamoto
##NAMES=HP
##CAS NAME=Pentanoic acid, 4-oxo-, propyl ester
##MOLFORM=C8H14O3
##CAS REGISTRY NO=645-67-0
##MP= -300
##BP= -300
##MW= 158
##$RETENTION INDEX=1064
##$CONDENSED SPECTRUM=NO
##NPOINTS= 26
##XYDATA=(XY..XY) 1 
    27         18
    28          7
    29         27
    30          7
    41         45
    42         26
    43        999
    44         18
    55         38
    56         38
    57         26
    58          7
    59          7
    61          7
    71         88
    72         18
    73         43
    74        279
    75        106
    98         45
    99        632
   100         37
   101        131
   116         68
   117         59
   143         37