##TITLE=Library Entry 18009
##JCAMP-DX=Revision 4.10 
##DATA TYPE=MASS SPECTRUM
##SAMPLE DESCRIPTION=RADIAN CORP
##NAMES=HP
##CAS NAME=Ethanamine, 2,2-diethoxy-
##MOLFORM=C6H15NO2
##CAS REGISTRY NO=645-36-3
##MP= -300
##BP= -300
##MW= 133
##$RETENTION INDEX=0
##$CONDENSED SPECTRUM=NO
##NPOINTS= 31
##XYDATA=(XY..XY) 1 
    15          2
    26         14
    27         76
    28         72
    29        170
    30        296
    31         40
    40          3
    41         19
    42        141
    43         60
    44        173
    45         54
    47        999
    49          5
    57          3
    58         49
    59         30
    60        317
    61         17
    70          5
    72          4
    75        491
    76         20
    86          3
    87         13
    88        253
    89         16
   103        945
   104         62
   105          4