##TITLE=Library Entry 24165
##JCAMP-DX=Revision 4.10 
##DATA TYPE=MASS SPECTRUM
##SAMPLE DESCRIPTION=Exported from NIST MS Search
##NAMES=HP
##CAS NAME=1-Hexadecanol, 3,7,11,15-tetramethyl-
##MOLFORM=C20H42O
##CAS REGISTRY NO=645-72-7
##MP= -300
##BP= -300
##MW= 298
##$RETENTION INDEX=2074
##$CONDENSED SPECTRUM=NO
##NPOINTS= 140
##XYDATA=(XY..XY) 1 
    15          2
    19          2
    26          2
    27         49
    29        125
    30          6
    31         65
    38          2
    39         28
    40          8
    41        402
    42        105
    43        781
    44         30
    45         27
    46          4
    47          2
    50          2
    52          2
    53         28
    54         16
    55        667
    56        465
    57        999
    58         54
    59         30
    61          4
    63          2
    66          4
    67         68
    68         67
    69        731
    70        459
    71        611
    72         44
    73         20
    74          4
    75          2
    77          4
    78          4
    79          7
    80         10
    81        115
    82         85
    83        414
    84        167
    85        273
    86         16
    87         12
    88          4
    89          6
    91          2
    92          2
    93          1
    94          6
    95         58
    96        192
    97        371
    98         81
    99         87
   100         14
   101          8
   102          2
   105          2
   106          4
   107          2
   109         26
   110         26
   111        260
   112        144
   113         99
   114          6
   115         10
   117          4
   121          3
   122          4
   123         26
   124         87
   125        311
   126        285
   127         79
   128          4
   137          2
   138          4
   139         32
   140        150
   141         53
   142          8
   143          8
   144          7
   145          1
   151          2
   152          2
   153         18
   154         36
   155         18
   156          4
   157          4
   161          2
   162          6
   163          6
   165          1
   166          4
   167         38
   168         11
   169         12
   170          4
   172          2
   179          6
   180          8
   181         20
   182         65
   183         61
   184          7
   185          4
   186          2
   189          6
   190          4
   193          6
   194         12
   195         27
   196         77
   197         18
   198          6
   201          4
   202          2
   209          1
   210         36
   211          4
   223          2
   224          2
   229          6
   252         43
   253         14
   254          6
   265         10
   280         93
   281         25
   282          8
   298          6