##TITLE=Library Entry 84228
##JCAMP-DX=Revision 4.10 
##DATA TYPE=MASS SPECTRUM
##SAMPLE DESCRIPTION=Japan AIST/NIMC Database- Spectrum MS-NW-1571
##NAMES=HP
##CAS NAME=Phenol, 4-propyl-
##MOLFORM=C9H12O
##CAS REGISTRY NO=645-56-7
##MP= -300
##BP= -300
##MW= 136
##$RETENTION INDEX=1260
##$CONDENSED SPECTRUM=NO
##NPOINTS= 65
##XYDATA=(XY..XY) 1 
    15          1
    26          3
    27         26
    28          3
    29          9
    37          1
    38          5
    39         41
    40          4
    41         14
    42          1
    43          3
    45          1
    50          9
    51         27
    52         12
    53         18
    54          1
    55         12
    57          1
    59          1
    61          1
    62          5
    63         12
    64          3
    65         20
    66          7
    67          2
    68          1
    74          2
    75          2
    76          1
    77         85
    78         21
    79         17
    80          1
    81          4
    89          4
    90          1
    91         14
    92          2
    93          6
    94          9
    95          2
   102          1
   103          3
   105          5
   106          3
   107        999
   108         74
   109          5
   115          3
   116          1
   117          1
   118          1
   119          3
   120          4
   121          3
   131          2
   133          3
   134          2
   135          3
   136        247
   137         24
   138          1