##TITLE=Library Entry 20306
##JCAMP-DX=Revision 4.10 
##DATA TYPE=MASS SPECTRUM
##SAMPLE DESCRIPTION=TNO Volatile Compounds in Food - Chemical Concepts
##NAMES=HP
##CAS NAME=1,7-Dimethyl-4-(1-methylethyl)cyclodecane
##MOLFORM=C15H30
##CAS REGISTRY NO=645-10-3
##MP= -300
##BP= -300
##MW= 210
##$RETENTION INDEX=0
##$CONDENSED SPECTRUM=NO
##NPOINTS= 46
##XYDATA=(XY..XY) 1 
    27        100
    29        220
    39         88
    41        717
    42         79
    43        615
    53         55
    54         42
    55        999
    56        260
    57        536
    58         15
    65          9
    67         94
    68         77
    69        978
    70        191
    71        230
    72         11
    79          9
    80          6
    81         74
    82         45
    83        680
    84         73
    85        158
    86          8
    95         60
    96         34
    97        809
    98         64
    99          9
   109         54
   110         30
   111        597
   112         44
   123         17
   124         14
   125         89
   126         17
   138          8
   151         19
   165         11
   166          9
   167        113
   168         13