##TITLE=Library Entry 61981
##JCAMP-DX=Revision 4.10 
##DATA TYPE=MASS SPECTRUM
##SAMPLE DESCRIPTION=Japan AIST/NIMC Database- Spectrum MS-NW-3290
##NAMES=HP
##CAS NAME=Benzenepropanenitrile
##MOLFORM=C9H9N
##CAS REGISTRY NO=645-59-0
##MP= -300
##BP= -300
##MW= 131
##$RETENTION INDEX=1244
##$CONDENSED SPECTRUM=NO
##NPOINTS= 57
##XYDATA=(XY..XY) 1 
    26          3
    27         10
    28          4
    29          1
    31          3
    37          4
    38          9
    39         49
    40          7
    41         10
    43          1
    45          1
    49          2
    50         25
    51         53
    52         12
    53          3
    54          1
    59          6
    61          4
    62         10
    63         31
    64          8
    65         93
    66          5
    73          2
    74          9
    75          9
    76          9
    77         38
    78         16
    79          4
    85          1
    86          2
    87          2
    88          1
    89         18
    90          7
    91        999
    92         77
    93          3
    99          1
   100          1
   101          3
   102          8
   103         21
   104         16
   105          5
   106          2
   107          2
   116          2
   128          3
   129          2
   130          6
   131        235
   132         23
   133          1