##TITLE=Library Entry 60951
##JCAMP-DX=Revision 4.10 
##DATA TYPE=MASS SPECTRUM
##SAMPLE DESCRIPTION=Japan AIST/NIMC Database- Spectrum MS-NW-7791
##NAMES=HP
##CAS NAME=Benzenepropanoyl chloride
##MOLFORM=C9H9ClO
##CAS REGISTRY NO=645-45-4
##MP= -300
##BP= -300
##MW= 168
##$RETENTION INDEX=1281
##$CONDENSED SPECTRUM=NO
##NPOINTS= 86
##XYDATA=(XY..XY) 1 
    13          1
    14          5
    15          2
    18          1
    26         14
    27         80
    28          6
    29          2
    35          8
    36         23
    37         11
    38         29
    39        125
    40          9
    41         13
    42         14
    43          3
    44          1
    49         10
    50        107
    51        238
    52         54
    53         17
    54          3
    55         25
    56          1
    60          1
    61         11
    62         33
    63         80
    64         17
    65        124
    66         17
    67          2
    73          8
    74         36
    75         28
    76         32
    77        248
    78        186
    79        124
    80          8
    83          1
    84          1
    85          3
    86          5
    87          6
    88          2
    89         42
    90         16
    91        999
    92         80
    93          3
    97          1
    98          4
    99          4
   101          6
   102         32
   103        222
   104        864
   105        890
   106         75
   107          4
   112          2
   114          1
   115          5
   116          1
   120          2
   121          1
   123          2
   125         13
   126          3
   127          5
   128          1
   130          2
   131         86
   132        123
   133        172
   134         16
   135          1
   138          1
   150          3
   168        261
   169         28
   170         89
   171          9