##TITLE=Library Entry 50364
##JCAMP-DX=Revision 4.10 
##DATA TYPE=MASS SPECTRUM
##SAMPLE DESCRIPTION=Japan AIST/NIMC Database- Spectrum MS-NW-4577
##NAMES=HP
##CAS NAME=Imidazole-4-acetic acid
##MOLFORM=C5H6N2O2
##CAS REGISTRY NO=645-65-8
##MP= -300
##BP= -300
##MW= 126
##$RETENTION INDEX=0
##$CONDENSED SPECTRUM=NO
##NPOINTS= 54
##XYDATA=(XY..XY) 1 
    12          1
    14          1
    15          2
    17          1
    18          3
    24          1
    25          6
    26         52
    27         68
    28        329
    29         12
    30          7
    39         25
    40         32
    41         38
    42         15
    43          8
    44         23
    45         39
    46          1
    50          3
    51         17
    52         85
    53         87
    54        436
    55        104
    56          6
    57          5
    60          3
    65          1
    66          4
    67          4
    68          3
    69          3
    70          4
    71          3
    73          2
    77          2
    79          4
    80         36
    81        999
    82        482
    83         36
    84          2
    86          1
    95          1
    96          1
    97          3
    98          1
   107          4
   108          8
   109          2
   126        163
   127         16