##TITLE=Library Entry 62403
##JCAMP-DX=Revision 4.10 
##DATA TYPE=MASS SPECTRUM
##SAMPLE DESCRIPTION=Japan AIST/NIMC Database- Spectrum MS-IW-5659
##NAMES=HP
##CAS NAME=N-(p-Nitrophenylsulfonyl)-l-phenylalanine
##MOLFORM=C15H14N2O6S
##CAS REGISTRY NO=64501-87-7
##MP= -300
##BP= -300
##MW= 350
##$RETENTION INDEX=0
##$CONDENSED SPECTRUM=NO
##NPOINTS= 127
##XYDATA=(XY..XY) 1 
    17          2
    18          7
    26          1
    27          4
    28          2
    30          5
    37          1
    38          3
    39         18
    40          2
    41          6
    42          1
    43          1
    44         40
    45          3
    48          3
    50         26
    51         22
    52          5
    53          3
    54          1
    58          3
    59          1
    61          1
    62          3
    63         16
    64         18
    65         75
    66          6
    67          1
    69          2
    70          2
    74          9
    75         40
    76         55
    77         41
    78          6
    79          4
    80          2
    81          1
    82          1
    87          1
    89         19
    90         22
    91        999
    92        172
    93         13
    94          1
    95          1
    96          1
    97          1
   102          2
   103          9
   104          4
   105          3
   106         16
   107          4
   108          9
   109          3
   112          1
   115          1
   116          9
   117         48
   118        185
   119         77
   120         24
   121          2
   122        128
   123         19
   124          4
   125          5
   130          1
   131          4
   138          2
   139          3
   140          9
   141          5
   146          1
   147         32
   148        437
   149         45
   150          4
   151          1
   152          2
   153          1
   155          4
   156         42
   157          4
   158          3
   163         19
   164         18
   165          6
   166          2
   167          2
   170          8
   171          3
   172          7
   180          1
   182          1
   186        115
   187         12
   188          9
   189          1
   192          1
   193          1
   194          1
   202          3
   204         49
   205          4
   206          3
   207          1
   210          1
   213          1
   229          5
   231          2
   240          1
   243          1
   259         64
   260          7
   261          4
   274          3
   275          1
   304         29
   305         44
   306          9
   307          2
   320          3