##TITLE=Library Entry 31118
##JCAMP-DX=Revision 4.10 
##DATA TYPE=MASS SPECTRUM
##SAMPLE DESCRIPTION=NIST Mass Spectrometry Data Center
##NAMES=HP
##CAS NAME=Ethyl 2-isocyanato-4-methylthiobutyrate
##MOLFORM=C8H13NO3S
##CAS REGISTRY NO=64505-12-0
##MP= -300
##BP= -300
##MW= 203
##$RETENTION INDEX=0
##$CONDENSED SPECTRUM=NO
##NPOINTS= 107
##XYDATA=(XY..XY) 1 
    12          2
    13          3
    14         14
    15         63
    16          2
    18          6
    19          3
    26         60
    27        425
    28        248
    29        539
    30         22
    31          9
    32          2
    33          3
    35        117
    36          2
    37          7
    38          7
    39         55
    40         21
    41        132
    42         71
    43         31
    44         32
    45        194
    46        113
    47        173
    48         39
    49         41
    50          2
    51          4
    52         13
    53         16
    54        129
    55         93
    56        124
    57         27
    58         27
    59         64
    61        999
    62        116
    63         49
    64          5
    65          3
    66          1
    67          2
    68         18
    69         22
    70         11
    71         18
    72         16
    73         77
    74         39
    75        180
    76         13
    77         10
    80          1
    82        113
    83        139
    84        132
    85         41
    86         76
    87         35
    88         23
    89          5
    90          2
    93          1
    96         55
    97          2
    99         28
   101        435
   102         70
   103         12
   104          2
   105          2
   109         15
   110          6
   111         18
   112         16
   114        227
   115         12
   116         19
   117          4
   127         41
   128         48
   129        254
   130         64
   131         14
   132          5
   133          1
   140         52
   142        103
   143          6
   144          2
   145          1
   146          4
   155         14
   157        313
   158         40
   159          6
   160         10
   174          1
   188          8
   203        146
   204         16
   205          7