##TITLE=Library Entry 66669
##JCAMP-DX=Revision 4.10 
##DATA TYPE=MASS SPECTRUM
##SAMPLE DESCRIPTION=Chemical Concepts
##NAMES=HP
##CAS NAME=Tetramethyl diphosphane-oxide-sulfide
##MOLFORM=C4H12OP2S
##CAS REGISTRY NO=64516-41-2
##MP= -300
##BP= -300
##MW= 170
##$RETENTION INDEX=0
##$CONDENSED SPECTRUM=NO
##NPOINTS= 4
##XYDATA=(XY..XY) 1 
    77        568
    93        999
   155        666
   170        565