##TITLE=Library Entry 12080
##JCAMP-DX=Revision 4.10 
##DATA TYPE=MASS SPECTRUM
##SAMPLE DESCRIPTION=A.A.Kutin, Moscow, Russia
##NAMES=HP
##CAS NAME=Benzene, 1,2-diacetoxy-3,6-di(acetoxymethyl)-
##MOLFORM=C16H18O8
##CAS REGISTRY NO=6452-94-4
##MP= -300
##BP= -300
##MW= 338
##$RETENTION INDEX=0
##$CONDENSED SPECTRUM=NO
##NPOINTS= 180
##XYDATA=(XY..XY) 1 
    33          0
    34          0
    36          0
    37          0
    38          2
    39         22
    40         14
    41         17
    43        999
    44         38
    45         11
    46          0
    47          0
    48          1
    49          0
    50          5
    51         17
    52         14
    53         10
    54          1
    55          9
    56          1
    57          3
    58          1
    59          1
    60          4
    61          2
    62          1
    63          7
    64          9
    65         22
    66         13
    67         10
    68          2
    69          4
    70          1
    71          1
    72          0
    73          1
    74          1
    75          1
    76          4
    77         55
    78         85
    79         30
    80          3
    81          3
    82          1
    83          1
    84          0
    85          1
    86          0
    87          0
    89          3
    90          1
    91          4
    92          4
    93          4
    94         10
    95         10
    96          1
    97          0
    98          0
    99          0
   101          0
   102          0
   103          5
   105         62
   106        121
   107         28
   108          4
   109          1
   110          0
   111          0
   112          0
   113          0
   115          0
   116          0
   117          0
   118          0
   119          1
   120          3
   121         11
   122         22
   123         42
   124          7
   125          0
   126          0
   127          0
   128          1
   129          0
   130          0
   131          1
   132          3
   134        569
   135        117
   136         22
   137          3
   138          0
   139          0
   140          0
   142          0
   145          1
   146          0
   147          1
   148          3
   149          6
   150         17
   151         77
   152        339
   153         31
   154          3
   155          0
   160          0
   161          1
   162          0
   163          1
   164          1
   165          1
   166          0
   167          0
   168          0
   169          0
   171          0
   173          0
   175          1
   176         24
   177         11
   178          2
   179          0
   180          0
   182          0
   183          0
   189          0
   190          0
   191          1
   192          3
   194        423
   195         61
   196          7
   197          0
   203          0
   206          0
   207          0
   208          0
   209          0
   210          0
   211          0
   212          0
   218          0
   220          0
   221          1
   222          0
   224          0
   234          0
   236         54
   237         12
   238          2
   239          0
   251          0
   252          0
   254        139
   255         17
   256          2
   257          0
   266          0
   267          1
   268          0
   277          0
   278          3
   279          7
   280          1
   281          0
   293          0
   296         26
   297          3
   298          0
   338         17
   339          2
   340          0