##TITLE=Library Entry 39587
##JCAMP-DX=Revision 4.10 
##DATA TYPE=MASS SPECTRUM
##SAMPLE DESCRIPTION=N.W. Davies, Centr. Sci. Lab., Univ. Tasmania, Hobart,
 Australia
##NAMES=HP
##CAS NAME=Oxprenolol
##MOLFORM=C15H23NO3
##CAS REGISTRY NO=6452-71-7
##MP= -300
##BP= -300
##MW= 265
##$RETENTION INDEX=1918
##$CONDENSED SPECTRUM=NO
##NPOINTS= 57
##XYDATA=(XY..XY) 1 
    26          8
    27         56
    29         34
    30        785
    31         15
    32        247
    35         12
    39         53
    40         15
    41        203
    42         42
    43         93
    44         36
    45         10
    50          5
    51         13
    52         26
    53         11
    54          8
    55         16
    56        130
    57         63
    58         31
    60         24
    63          9
    64         12
    65         19
    69          6
    70         24
    71         21
    72        999
    73         60
    74          9
    77         17
    80         10
    81         29
    82          8
    86         18
    93          7
    94          5
    95          8
    98         11
   100         29
   102         19
   103          5
   105          8
   109         40
   110         12
   116         11
   121         22
   122          9
   133          5
   150         36
   209          6
   221         47
   222          8
   250          8