##TITLE=Library Entry 59841
##JCAMP-DX=Revision 4.10 
##DATA TYPE=MASS SPECTRUM
##SAMPLE DESCRIPTION=Chemical Concepts
##NAMES=HP
##CAS NAME=4-Methyl-N-(1H-tetrazol-5-yl)-benzenesulfonamide
##MOLFORM=C8H9N5O2S
##CAS REGISTRY NO=6455-80-7
##MP= -300
##BP= -300
##MW= 239
##$RETENTION INDEX=0
##$CONDENSED SPECTRUM=NO
##NPOINTS= 131
##XYDATA=(XY..XY) 1 
    26          6
    27         38
    28         92
    29         37
    30          8
    31         21
    38          5
    39        134
    40         12
    41         56
    42         26
    43        112
    44         14
    45         21
    46          8
    47          1
    48          5
    49          2
    50         29
    51         54
    52         18
    53         12
    54          3
    55         10
    56         34
    57          9
    58          3
    59          2
    60          3
    61          5
    62         21
    63         73
    64         26
    65        326
    66         22
    67         10
    68          4
    69         12
    70          5
    71          5
    73          3
    74          8
    75          7
    76          6
    77         31
    78         16
    79         18
    80          8
    81          4
    82          5
    83          6
    84          3
    85          4
    86          4
    87          5
    88          3
    89         66
    90         32
    91        999
    92        139
    93         10
    94          3
    95          4
    96          2
    97          3
    98         12
    99          3
   103          1
   104         10
   105         12
   106         28
   107         38
   108         28
   109          5
   110          1
   111          6
   112          1
   113          1
   116          1
   117          2
   118          4
   119          3
   120          1
   121          4
   122          5
   123          4
   124          3
   125          1
   128          1
   129          1
   131          7
   132        127
   133         14
   134          2
   135          1
   136          1
   137          1
   138          1
   139         43
   140          8
   141          3
   145          3
   146         20
   147         11
   148          4
   155        297
   156         42
   157         19
   158          2
   163          4
   164          1
   167          1
   169          1
   171          6
   172          1
   173          1
   174          2
   175         25
   176          3
   196         14
   197          3
   198          1
   210          1
   211          9
   212          1
   213         10
   214          1
   215          1
   239         67
   240         10
   241          4