##TITLE=Library Entry 48179
##JCAMP-DX=Revision 4.10 
##DATA TYPE=MASS SPECTRUM
##SAMPLE DESCRIPTION=H. KOTSUKI, DEP. CHEM., KOCHI UNIV., AKEBONO-CHO, KOCHI
, JPNz
##NAMES=HP
##CAS NAME=7-Thiabicyclo[2.2.1]hept-5-ene-2,3-dicarboxylic anhydride
##MOLFORM=C8H6O3S
##CAS REGISTRY NO=64566-32-1
##MP= -300
##BP= -300
##MW= 182
##$RETENTION INDEX=0
##$CONDENSED SPECTRUM=NO
##NPOINTS= 22
##XYDATA=(XY..XY) 1 
    18         50
    26         50
    39         50
    45        120
    51         30
    54         60
    58         90
    65         40
    66        250
    77         80
    78        999
    79         80
    84        440
    85         40
    86         30
   109         80
   110        270
   111         30
   137         30
   182        360
   183         40
   184         30