##TITLE=Library Entry 50015
##JCAMP-DX=Revision 4.10 
##DATA TYPE=MASS SPECTRUM
##SAMPLE DESCRIPTION=U. JENSEN-KORTE, KLAGENFURTER STR., MONHEIM-BAUMBERG, W
. GER.
##NAMES=HP
##CAS NAME=(R)-(-)-14-Methyl-8-hexadecyn-1-ol
##MOLFORM=C17H32O
##CAS REGISTRY NO=64566-18-3
##MP= -300
##BP= -300
##MW= 252
##$RETENTION INDEX=0
##$CONDENSED SPECTRUM=NO
##NPOINTS= 64
##XYDATA=(XY..XY) 1 
    41        520
    42         50
    43        280
    44         20
    51         10
    52         10
    53         70
    54        300
    55        860
    56        100
    57        320
    58         20
    65         50
    66         30
    67        860
    68        430
    69        350
    70        180
    71        120
    72         30
    77         80
    78         30
    79        400
    80        300
    81        999
    82        520
    83        300
    84        100
    85         50
    86         20
    91        100
    92         30
    93        320
    94        200
    95        700
    96        570
    97        220
    98        150
   107        200
   108         80
   109        370
   110        150
   111         80
   112         50
   121        210
   122         50
   123        220
   124         80
   125         20
   131         20
   133         20
   135         80
   136         50
   137         70
   149         20
   150         50
   152         30
   166         33
   167          5
   168          5
   195         18
   205         10
   223         16
   252         10