##TITLE=Library Entry 56382
##JCAMP-DX=Revision 4.10 
##DATA TYPE=MASS SPECTRUM
##SAMPLE DESCRIPTION=A.A.Kutin, Moscow, Russia
##NAMES=HP
##CAS NAME=Pyrrole-2-carboxylic acid, 4-(2-diethylaminoethyl)-3,5-dimethyl-,
 benzyl ester
##MOLFORM=C20H28N2O2
##CAS REGISTRY NO=6456-31-1
##MP= -300
##BP= -300
##MW= 328
##$RETENTION INDEX=0
##$CONDENSED SPECTRUM=NO
##NPOINTS= 122
##XYDATA=(XY..XY) 1 
    33          2
    34          0
    36          1
    38          0
    39          5
    40          2
    41          2
    42          8
    43          2
    44          4
    45          5
    46          3
    47          0
    51          2
    52          1
    53          1
    54          0
    56          7
    58         28
    59          0
    63          0
    64          1
    65         11
    66          2
    67          1
    68          0
    69          0
    70          2
    71          2
    72          0
    73          0
    74          0
    75          0
    77          5
    78          1
    79          5
    80          2
    81          1
    82          2
    83          2
    84         12
    86        999
    87         35
    89          3
    91         89
    92          8
    93          1
    94          0
    96          0
    97          0
    98          0
    99          0
   103          0
   104          1
   105          2
   106          4
   107          3
   108          2
   109          0
   110          0
   115          0
   118          1
   120          4
   121          3
   122          1
   123          0
   124          0
   127          0
   128          0
   131          0
   132          0
   133          4
   134          4
   135          1
   136          0
   138          0
   146          0
   147          1
   148          5
   149          1
   151          1
   152          0
   161          0
   162          0
   163          0
   164          1
   165          0
   167          0
   177          0
   178          0
   179          0
   181          0
   189          0
   191          0
   193          0
   196          0
   203          0
   204          0
   218          0
   219          1
   221          3
   222          0
   224          0
   230          0
   236          0
   238          0
   239          0
   241          0
   242          1
   243          0
   255          0
   256          5
   257          0
   266          0
   267          0
   271          0
   280          0
   311          0
   313          0
   328         11
   329          2
   330          0