##TITLE=Library Entry 82760
##JCAMP-DX=Revision 4.10 
##DATA TYPE=MASS SPECTRUM
##SAMPLE DESCRIPTION=Div. of Experiment Therapeutics WRAIR, WRAMC, Washingto
n DC 20307
##NAMES=HP
##CAS NAME=1,1-Dibenzyl-3-ethyl-2-thiourea
##MOLFORM=C17H20N2S
##CAS REGISTRY NO=64575-17-3
##MP= -300
##BP= -300
##MW= 284
##$RETENTION INDEX=0
##$CONDENSED SPECTRUM=NO
##NPOINTS= 108
##XYDATA=(XY..XY) 1 
    41         27
    42         13
    43         18
    44         93
    45         50
    46          1
    47          9
    49          8
    50          3
    51         45
    52          7
    53          5
    54          2
    55         12
    56          7
    57          5
    58          7
    60        121
    61          0
    62         11
    63         25
    65        142
    66          5
    67          0
    69          6
    70          5
    71          8
    72          5
    73          0
    74          2
    75          1
    76          0
    77         42
    79        127
    80          5
    81          0
    82          1
    84         22
    86         15
    88         55
    89         33
    91        472
    92         29
    96          0
    97          1
    98          1
    99          1
   102          0
   104         27
   106        999
   107         70
   108          0
   109          4
   111          0
   112          0
   116          6
   117          4
   118          5
   120          1
   121         16
   123         18
   124          1
   125          0
   126          0
   131          9
   132          3
   134          2
   136          8
   140          0
   148         12
   149          1
   150          3
   152          1
   159          2
   161          2
   164          6
   165          2
   167          0
   178          0
   181          0
   191          0
   192          1
   193        182
   194         22
   195          9
   196          7
   197          0
   198          5
   210          2
   212          5
   213          0
   224          1
   226          2
   239          0
   240          1
   241          0
   242          1
   251          7
   252          0
   253          0
   267          0
   281          1
   282          1
   283         52
   284        148
   285         27
   286          8
   287          0