##TITLE=Library Entry 5740
##JCAMP-DX=Revision 4.10 
##DATA TYPE=MASS SPECTRUM
##SAMPLE DESCRIPTION=H.J. MOECKEL & J. WEISS, HAHN-MEITNER-INST. BERLIN, W.
 G
##NAMES=HP
##CAS NAME=n-Propyl n-hexyl disulfide
##MOLFORM=C9H20S2
##CAS REGISTRY NO=64580-54-7
##MP= -300
##BP= -300
##MW= 192
##$RETENTION INDEX=1666
##$CONDENSED SPECTRUM=NO
##NPOINTS= 95
##XYDATA=(XY..XY) 1 
    15         20
    24          0
    25          1
    26         20
    27        336
    29        285
    30         27
    34          1
    35          4
    37          2
    38         10
    39        171
    40         22
    41        594
    42        117
    43        999
    44         50
    45        110
    46         56
    47         85
    48          4
    49          4
    50          1
    51          4
    52          3
    53         22
    54         13
    55        129
    56         25
    57        127
    58         18
    59         25
    60         20
    61         13
    62          1
    63          2
    64         16
    65          7
    66         23
    67         10
    68          3
    69         11
    70          0
    71          1
    72          3
    73         39
    74         14
    75          8
    76          1
    77          1
    78          5
    79         27
    80          1
    81          9
    82          7
    83         12
    84          7
    85         73
    86          7
    87         15
    88          4
    89          1
    90          0
    91          0
    92          0
    93          1
    94          0
   100          0
   101          4
   102          0
   105          0
   106          1
   107         17
   108        190
   109         13
   110         16
   111          0
   112          0
   115          4
   116          2
   117         17
   118          1
   119          0
   120          0
   121          1
   135          0
   149          0
   159          0
   190          0
   191          7
   192        117
   193         17
   194         11
   195          1
   196          0