##TITLE=Library Entry 5799
##JCAMP-DX=Revision 4.10 
##DATA TYPE=MASS SPECTRUM
##SAMPLE DESCRIPTION=H.J. MOECKEL & J. WEISS, HAHN-MEITNER-INST. BERLIN, W.
 G
##NAMES=HP
##CAS NAME=Methyl n-hexyl disulfide
##MOLFORM=C7H16S2
##CAS REGISTRY NO=64580-52-5
##MP= -300
##BP= -300
##MW= 164
##$RETENTION INDEX=1573
##$CONDENSED SPECTRUM=NO
##NPOINTS= 93
##XYDATA=(XY..XY) 1 
    15         30
    24          0
    25          2
    26         50
    27        516
    29        716
    30         18
    33          2
    34          1
    35          9
    37          4
    38         35
    39        278
    40         59
    41        974
    42        293
    43        999
    44        147
    45        304
    46        112
    47        145
    48         10
    49         15
    50          7
    51         14
    52          8
    53         53
    54         31
    55        278
    56         61
    57        318
    58         37
    59         48
    60         40
    61         27
    62          3
    63          9
    64         55
    65         15
    66          8
    67         20
    68          4
    69         31
    70          2
    71          3
    72          3
    73         18
    74         10
    75          5
    76          1
    77          4
    78         38
    79        204
    80        479
    81         45
    82         51
    83         20
    84         19
    85        123
    86         11
    87         23
    88          7
    89          1
    90          0
    91          0
    92          6
    93         48
    95          2
    99          0
   100          0
   101          5
   105          0
   106          1
   107          2
   108          0
   109          0
   114          0
   115          5
   116          2
   117         10
   118          1
   119          0
   120          0
   131          0
   134          0
   135          0
   162          1
   163         31
   164        378
   165         44
   166         35
   167          3
   168          1