##TITLE=Library Entry 89962
##JCAMP-DX=Revision 4.10 
##DATA TYPE=MASS SPECTRUM
##SAMPLE DESCRIPTION=Chemical Concepts
##NAMES=HP
##CAS NAME=2-Chloromethylcyclopropanecarboxylic acid, methyl ester
##MOLFORM=C6H9ClO2
##CAS REGISTRY NO=64583-96-6
##MP= -300
##BP= -300
##MW= 148
##$RETENTION INDEX=0
##$CONDENSED SPECTRUM=NO
##NPOINTS= 78
##XYDATA=(XY..XY) 1 
    15        616
    17          1
    18          8
    26        174
    27        630
    28        120
    29        119
    30         18
    31         24
    32          1
    33          2
    35          7
    36         17
    37         25
    38         59
    39        302
    40         37
    41        153
    42         42
    43         43
    44          7
    45         39
    47          1
    49         57
    50         56
    51        115
    53        670
    54        230
    55        367
    56         13
    58        123
    59        209
    61         17
    62         50
    63         12
    64         15
    65          3
    67          6
    68         10
    69         10
    71        116
    72          4
    73          3
    75         11
    77          3
    79          3
    81        180
    82         25
    83          8
    84         11
    85         37
    86          7
    87         64
    88         77
    89         79
    90         26
    91         23
    92          3
    93         19
    95          5
    97         12
    99         33
   100          1
   105          1
   106          3
   108          1
   111         19
   113        999
   114         52
   115          9
   117        251
   118         14
   119         67
   120          3
   147         35
   148         39
   149         15
   150         11