##TITLE=Library Entry 23935
##JCAMP-DX=Revision 4.10 
##DATA TYPE=MASS SPECTRUM
##SAMPLE DESCRIPTION=H.J. MOECKEL & J. WEISS, HAHN-MEITNER-INST. BERLIN, W.
 G+
##NAMES=HP
##CAS NAME=n-Butyl n-hexyl disulfide
##MOLFORM=C10H22S2
##CAS REGISTRY NO=64580-57-0
##MP= -300
##BP= -300
##MW= 206
##$RETENTION INDEX=1746
##$CONDENSED SPECTRUM=NO
##NPOINTS= 98
##XYDATA=(XY..XY) 1 
    15         13
    24          0
    25          1
    26         23
    27        379
    29        838
    30         48
    33          3
    35          9
    36          2
    37          1
    38          3
    39         92
    40         30
    41        372
    42        463
    43        982
    44         50
    45         86
    46         56
    47         88
    48         25
    49          3
    50          1
    51          4
    52          2
    53         24
    54         18
    55        152
    56         66
    57        999
    58         89
    59         35
    60         37
    61         16
    62          2
    63          0
    64         15
    65          6
    66         15
    67         10
    68          2
    69         17
    70          1
    71          1
    72          1
    73         10
    74         10
    75          4
    76          0
    77          1
    78          7
    79         57
    80          3
    81         13
    82         11
    83         18
    84         18
    85        264
    86         23
    87         61
    88         34
    89         22
    90          3
    91          0
    92          1
    93          6
    94          0
   100          0
   101          9
   102          0
   106          0
   107          0
   115          2
   116          7
   117         60
   118          5
   119          2
   121         19
   122        281
   123         20
   124         27
   125          1
   126          0
   135          0
   136          0
   149          2
   150         52
   151          5
   152          4
   153          0
   177          0
   205          8
   206        206
   207         30
   208         19
   209          2
   210          0