##TITLE=Library Entry 5744
##JCAMP-DX=Revision 4.10 
##DATA TYPE=MASS SPECTRUM
##SAMPLE DESCRIPTION=H.J. MOECKEL & J. WEISS, HAHN-MEITNER-INST. BERLIN, W.
 G
##NAMES=HP
##CAS NAME=Isopropyl n-hexyl disulfide
##MOLFORM=C9H20S2
##CAS REGISTRY NO=64580-55-8
##MP= -300
##BP= -300
##MW= 192
##$RETENTION INDEX=0
##$CONDENSED SPECTRUM=NO
##NPOINTS= 103
##XYDATA=(XY..XY) 1 
    15         11
    24          0
    25          1
    26         18
    27        339
    29        266
    30          6
    33          1
    34          1
    35          5
    36          0
    37          2
    38         10
    39        149
    40         17
    41        515
    42         98
    43        999
    44         59
    45         54
    46         20
    47         46
    48          1
    49          6
    50          1
    51          3
    52          1
    53         16
    54          8
    55        108
    56         30
    57        133
    58         16
    59         36
    60         20
    61         13
    62          1
    63          1
    64         12
    65          6
    66         11
    67          6
    68          2
    69         13
    70          1
    71          2
    72          1
    73         12
    74          6
    75          6
    76          1
    77          1
    78          3
    79         26
    80          1
    81          7
    82          2
    83         14
    84         23
    85        212
    86         16
    87          8
    88          2
    89          0
    91          0
    92          0
    93          2
    95          0
    99          2
   100          0
   101          1
   105          0
   106          0
   107          5
   108         22
   109          1
   110          2
   111          0
   114          0
   115          4
   116          3
   117         74
   118          6
   119          3
   120          0
   121          3
   123          0
   135          0
   148          0
   149          4
   150         66
   151          7
   152          5
   153          0
   154          0
   159          0
   190          0
   191          0
   192         83
   193         12
   194          8
   195          1
   196          0