##TITLE=Library Entry 89673
##JCAMP-DX=Revision 4.10 
##DATA TYPE=MASS SPECTRUM
##SAMPLE DESCRIPTION=F.J. Schmitz, Dep. Chem., Univ. Oklahoma, Norman, Oklah
oma, USA
##NAMES=HP
##CAS NAME=3-Furancarboxylic acid, 5-(2,6-dimethyloctyl)-
##MOLFORM=C15H24O3
##CAS REGISTRY NO=64597-83-7
##MP= -300
##BP= -300
##MW= 252
##$RETENTION INDEX=0
##$CONDENSED SPECTRUM=NO
##NPOINTS= 25
##XYDATA=(XY..XY) 1 
    57        530
    69        460
    71        440
    81        250
    83        160
    84        290
    85        450
    87        280
    95        240
   107        260
   108        110
   109        160
   112        999
   113        400
   125        500
   126        560
   130        720
   139        560
   153        710
   157        260
   164         90
   181        220
   195         80
   207         48
   252         71