##TITLE=Library Entry 25649
##JCAMP-DX=Revision 4.10 
##DATA TYPE=MASS SPECTRUM
##SAMPLE DESCRIPTION=Exported from NIST MS Search
##NAMES=HP
##CAS NAME=Pentanoic acid, 4-methyl-
##MOLFORM=C6H12O2
##CAS REGISTRY NO=646-07-1
##MP= -300
##BP= -300
##MW= 116
##$RETENTION INDEX=949
##$CONDENSED SPECTRUM=NO
##NPOINTS= 56
##XYDATA=(XY..XY) 1 
    15         20
    17          6
    18         23
    26         23
    27        255
    28        119
    29        224
    30         36
    31         46
    36          7
    37          6
    38         16
    39        174
    40         25
    41        454
    42        117
    43        584
    44         25
    45        169
    46          8
    47          6
    50         11
    51         17
    52          5
    53         37
    54         13
    55        461
    56        147
    57        999
    58         52
    59        166
    60        412
    61         35
    67          6
    69         45
    70         36
    71         11
    72         13
    73        576
    74        628
    75         64
    76          6
    81          6
    83        154
    84         18
    85         10
    87         67
    88          7
    89          6
    97         15
    98          5
    99         11
   101         54
   115          6
   116          1
   117          1