##TITLE=Library Entry 17875
##JCAMP-DX=Revision 4.10 
##DATA TYPE=MASS SPECTRUM
##SAMPLE DESCRIPTION=Exported from NIST MS Search
##NAMES=HP
##CAS NAME=1,3-Oxathiane
##MOLFORM=C4H8OS
##CAS REGISTRY NO=646-12-8
##MP= -300
##BP= -300
##MW= 104
##$RETENTION INDEX=0
##$CONDENSED SPECTRUM=NO
##NPOINTS= 28
##XYDATA=(XY..XY) 1 
    26         60
    27        170
    28        130
    29        170
    31         60
    39        210
    40         40
    41        790
    42         90
    44         40
    45        420
    46        999
    47        250
    48        140
    57         60
    58         50
    59        110
    60         40
    61         70
    71         80
    73        110
    74        720
    75         70
    76        130
   103        170
   104        335
   105         20
   106         20