##TITLE=Library Entry 7178
##JCAMP-DX=Revision 4.10 
##DATA TYPE=MASS SPECTRUM
##SAMPLE DESCRIPTION=Japan AIST/NIMC Database- Spectrum MS-NW-7413
##NAMES=HP
##CAS NAME=Hexane, 1-nitro-
##MOLFORM=C6H13NO2
##CAS REGISTRY NO=646-14-0
##MP= -300
##BP= -300
##MW= 131
##$RETENTION INDEX=1021
##$CONDENSED SPECTRUM=NO
##NPOINTS= 69
##XYDATA=(XY..XY) 1 
    15          4
    26         11
    27        148
    28         36
    29        185
    30         35
    31         27
    32          2
    36          1
    37          2
    38          7
    39        116
    40         22
    41        476
    42         98
    43        999
    44         36
    45         57
    46         21
    47          1
    49          1
    50          7
    51          9
    52          4
    53         26
    54         17
    55        521
    56        120
    57        140
    58         10
    59         84
    60         11
    61          6
    62        101
    63          4
    64          1
    65          3
    66          2
    67         21
    68         16
    69         53
    70         25
    71          8
    72          6
    73          6
    74          2
    75          7
    76          4
    77          2
    79          2
    80          1
    81          7
    82          9
    83         52
    84         22
    85         90
    86          9
    87          1
    88         18
    89          4
    96          3
    98          2
    99          1
   102         13
   103          1
   105          1
   112          5
   113          1
   114          1