##TITLE=Library Entry 9200
##JCAMP-DX=Revision 4.10 
##DATA TYPE=MASS SPECTRUM
##SAMPLE DESCRIPTION=D.HENNEBERG, MAX-PLANCK INSTITUTE, MULHEIM, WEST GERMAN
Y
##NAMES=HP
##CAS NAME=Nonadecanoic acid
##MOLFORM=C19H38O2
##CAS REGISTRY NO=646-30-0
##MP= -300
##BP= -300
##MW= 298
##$RETENTION INDEX=2236
##$CONDENSED SPECTRUM=NO
##NPOINTS= 182
##XYDATA=(XY..XY) 1 
    26          1
    27        143
    28         41
    29        388
    30         11
    31         12
    33          1
    36          2
    37          1
    39         72
    40         16
    41        698
    42        146
    43        999
    44         33
    45         59
    46          1
    47          1
    50          1
    51          2
    52          1
    53         31
    54         52
    55        613
    56        158
    57        719
    58         33
    59         34
    60        686
    61        232
    62          8
    63          1
    65          4
    66          5
    67         61
    68         51
    69        336
    70         90
    71        337
    72         19
    73        749
    74         58
    75          5
    77          4
    78          1
    79         11
    80          6
    81         40
    82         45
    83        220
    84         84
    85        196
    86         15
    87        119
    88         13
    89          1
    91          1
    93          9
    94          4
    95         30
    96         31
    97        160
    98         97
    99         56
   100          8
   101         54
   102         18
   103          0
   105          1
   107          7
   108          3
   109         12
   110         17
   111         71
   112         29
   113         32
   114          5
   115         80
   116         41
   117          3
   119          1
   120          0
   121         10
   122          2
   123          6
   124          8
   125         35
   126         12
   127         20
   128          3
   129        223
   130         27
   131          1
   133          1
   134          0
   135          7
   136          1
   137          3
   138          5
   139         15
   140          9
   141         16
   142          2
   143         34
   144          7
   149          4
   150          0
   151          1
   152          4
   153          9
   154          7
   155         12
   156          1
   157         22
   158          6
   163          2
   165          0
   166          2
   167          5
   168          3
   169          8
   170          2
   171         32
   172          7
   173          2
   174          0
   177          1
   180          3
   181          4
   182          3
   183          5
   184          0
   185         53
   186         11
   187          0
   191          0
   194          4
   195          5
   196          3
   197          3
   198          0
   199         45
   200          8
   201          1
   208          0
   209          1
   210          4
   211          0
   213         26
   214          4
   218          1
   219          1
   223          0
   224          1
   227         12
   228          2
   236         12
   237          2
   238         11
   239          9
   240          1
   241         23
   242          5
   243          0
   251          1
   252          0
   255        101
   256         16
   257          1
   262          4
   263          0
   269         15
   270          2
   279          0
   280          2
   281          2
   282          0
   283          0
   296          0
   297          2
   298        406
   299         86