##TITLE=Library Entry 1031
##JCAMP-DX=Revision 4.10 
##DATA TYPE=MASS SPECTRUM
##SAMPLE DESCRIPTION=Japan AIST/NIMC Database- Spectrum MS-NW-8186
##NAMES=HP
##CAS NAME=1,9-Diaminononane
##MOLFORM=C9H22N2
##CAS REGISTRY NO=646-24-2
##MP= -300
##BP= -300
##MW= 158
##$RETENTION INDEX=1373
##$CONDENSED SPECTRUM=NO
##NPOINTS= 77
##XYDATA=(XY..XY) 1 
    15          2
    16          5
    17          9
    18         44
    26          1
    27         17
    28         57
    29         23
    30        999
    31         27
    32          4
    39         16
    40          3
    41         63
    42         34
    43         47
    44        294
    45        107
    46          4
    47          6
    51          1
    53          6
    54          9
    55         74
    56        106
    57         13
    58         10
    59         35
    60          2
    65          1
    66          1
    67         12
    68          8
    69         43
    70         28
    71          3
    72         45
    73         23
    74          1
    77          1
    79          2
    80          1
    81         11
    82         15
    83         24
    84         21
    85          3
    86         71
    87         14
    88          1
    95          4
    96         12
    97          4
    98          7
   100         59
   101          9
   109          1
   110          3
   111          1
   112          9
   113          1
   114         42
   115         10
   124          2
   126          1
   128         21
   129        132
   130         12
   138          1
   140          6
   141          4
   142        103
   143         10
   156          1
   157          5
   158         15
   159          2