##TITLE=Library Entry 20344
##JCAMP-DX=Revision 4.10 
##DATA TYPE=MASS SPECTRUM
##SAMPLE DESCRIPTION=Japan AIST/NIMC Database- Spectrum MS-NW-4646
##NAMES=HP
##CAS NAME=2-Pentene, (E)-
##MOLFORM=C5H10
##CAS REGISTRY NO=646-04-8
##MP= -300
##BP= -300
##MW= 70
##$RETENTION INDEX=501
##$CONDENSED SPECTRUM=NO
##NPOINTS= 40
##XYDATA=(XY..XY) 1 
    14          1
    15         11
    25          1
    26         19
    27        143
    28         10
    29        219
    30          5
    31          9
    36          1
    37         11
    38         23
    39        227
    40         45
    41        277
    42        370
    43         19
    44          7
    45          2
    49          3
    50         16
    51         20
    52          9
    53         83
    54         31
    55        999
    56         47
    57          3
    60          1
    61          5
    62          6
    63          7
    64          1
    65          8
    66          3
    67         26
    68          6
    69         29
    70        382
    71         24