##TITLE=Library Entry 24870
##JCAMP-DX=Revision 4.10 
##DATA TYPE=MASS SPECTRUM
##SAMPLE DESCRIPTION=RADIAN CORP
##NAMES=HP
##CAS NAME=Octadecanoic acid, 2-methylpropyl ester
##MOLFORM=C22H44O2
##CAS REGISTRY NO=646-13-9
##MP= -300
##BP= -300
##MW= 340
##$RETENTION INDEX=2328
##$CONDENSED SPECTRUM=NO
##NPOINTS= 120
##XYDATA=(XY..XY) 1 
    15          1
    27         90
    29        289
    30          8
    31          7
    39         82
    40          4
    41        663
    42        127
    43        641
    44         25
    45         10
    53         26
    54         33
    55        366
    56        814
    57        999
    58         66
    59         19
    60        167
    61         73
    65          3
    66          2
    67         54
    68         30
    69        171
    70         53
    71        187
    72         12
    73        166
    74         23
    77          3
    79         17
    80          7
    81         56
    82         27
    83        134
    84         59
    85        109
    86         14
    87         64
    88          7
    89          4
    91          2
    93         13
    94          5
    95         51
    96         24
    97        105
    98         65
    99         32
   100          6
   101         34
   102          9
   103          4
   107         10
   108          4
   109         28
   110         11
   111         54
   112         17
   113         17
   114          4
   115         35
   116         90
   117         66
   118          5
   121         13
   123         16
   124          6
   125         27
   126          6
   127         10
   129        106
   130         14
   135         12
   137          9
   138          4
   139         13
   140          2
   141          5
   143         24
   144          5
   149          7
   151          4
   153          8
   155          2
   157         13
   158          5
   163          4
   167          5
   171         23
   172          8
   181          3
   185         54
   186          8
   199         20
   200          2
   213          9
   222          2
   227         15
   228          2
   241         42
   242          7
   247          3
   255          8
   264          8
   265          8
   267        170
   268         36
   269          3
   284        227
   285        264
   286         52
   287          6
   310          2
   325          1
   340         56
   341         18
   343          1