##TITLE=Library Entry 1078
##JCAMP-DX=Revision 4.10 
##DATA TYPE=MASS SPECTRUM
##SAMPLE DESCRIPTION=NIST Mass Spectrometry Data Center
##NAMES=HP
##CAS NAME=H2N(CH2)7NH2
##MOLFORM=C7H18N2
##CAS REGISTRY NO=646-19-5
##MP= -300
##BP= -300
##MW= 130
##$RETENTION INDEX=1168
##$CONDENSED SPECTRUM=NO
##NPOINTS= 37
##XYDATA=(XY..XY) 1 
    16         12
    18         87
    27         55
    28        132
    30        999
    39         44
    41         98
    42         66
    43         67
    44        123
    45         69
    51          6
    53         11
    54         17
    55         70
    56        166
    58         10
    59         24
    67         15
    68         14
    69         42
    70         33
    72         25
    73         23
    81          9
    83         10
    84         25
    86         42
    87         13
    96          7
    98         16
   100         37
   101         76
   102          8
   112         11
   114         56
   128         15