##TITLE=Library Entry 1032
##JCAMP-DX=Revision 4.10 
##DATA TYPE=MASS SPECTRUM
##SAMPLE DESCRIPTION=NIST Mass Spectrometry Data Center, 1994
##NAMES=HP
##CAS NAME=1,10-Diaminodecane
##MOLFORM=C10H24N2
##CAS REGISTRY NO=646-25-3
##MP= -300
##BP= -300
##MW= 172
##$RETENTION INDEX=1476
##$CONDENSED SPECTRUM=NO
##NPOINTS= 64
##XYDATA=(XY..XY) 1 
    15          3
    18         43
    26          3
    27         25
    28         49
    29          3
    30        999
    31         22
    39         32
    40          7
    41         95
    42         40
    43         52
    44        210
    45         77
    47          3
    53         12
    54         11
    55         89
    56        128
    57         17
    58          9
    59         51
    60          2
    67         19
    68         12
    69         66
    70         40
    71          2
    72         48
    73         19
    77          2
    79          3
    81         16
    82         12
    83         27
    84         15
    85          2
    86         78
    87         18
    95          9
    96          7
    97         14
    98         11
    99          7
   100         65
   101          8
   109          2
   110          2
   112          5
   114         44
   115          7
   126          6
   128         48
   129          8
   142         30
   143        139
   144         15
   154          9
   156        139
   157         16
   171          2
   172          4
   173          2