##TITLE=Library Entry 16054
##JCAMP-DX=Revision 4.10 
##DATA TYPE=MASS SPECTRUM
##SAMPLE DESCRIPTION=Darrick Lee, Cayman Chemical, Ann Arbor, MI
##NAMES=HP
##CAS NAME=4-Fluoroamphetamine
##MOLFORM=C9H12FN
##CAS REGISTRY NO=64609-06-9
##MP= -300
##BP= -300
##MW= 153
##$RETENTION INDEX=1114
##$CONDENSED SPECTRUM=NO
##NPOINTS= 87
##XYDATA=(XY..XY) 1 
    40          6
    41         15
    42         70
    44        999
    45         28
    46          1
    49          1
    50         14
    51         17
    52          5
    53          2
    54          3
    56          7
    57         42
    59         14
    60          1
    61          4
    62         14
    63         32
    64          6
    65          7
    66          1
    69         17
    70          7
    71          1
    73          1
    74          8
    75         17
    76          4
    77          5
    78          2
    79          1
    80          2
    81         16
    83        101
    84          6
    85          2
    86          3
    87          4
    88          2
    89         16
    90          3
    91         12
    92          2
    93          2
    94          4
    95          7
    96          8
    97          2
    98          1
    99          1
   100          1
   101         13
   102          2
   103          2
   104          2
   105          2
   107         33
   109        186
   110         26
   111          4
   112          1
   113          1
   115         10
   116          2
   117          6
   118         11
   119          1
   120          4
   121          7
   122          7
   123          1
   124          1
   130          1
   131          1
   133         13
   134          4
   135         17
   136         10
   137          8
   138         26
   139          2
   148          1
   150          1
   151          1
   152          6
   153          1