##TITLE=Library Entry 38924
##JCAMP-DX=Revision 4.10 
##DATA TYPE=MASS SPECTRUM
##SAMPLE DESCRIPTION=L.N.Kulikova, V.G. Zaikin, RPFU, Moscow, Russia
##NAMES=HP
##CAS NAME=Propan-1,3-dioic acid, di[3-methylbutyl] ester
##MOLFORM=C13H24O4
##CAS REGISTRY NO=64617-96-5
##MP= -300
##BP= -300
##MW= 244
##$RETENTION INDEX=1561
##$CONDENSED SPECTRUM=NO
##NPOINTS= 47
##XYDATA=(XY..XY) 1 
    26          3
    27         56
    29         62
    30          3
    39         43
    40          7
    41        146
    42        108
    43        461
    44          4
    45          4
    53         14
    54         12
    55        287
    56         14
    57          6
    60          9
    67          5
    68          7
    69         63
    70        655
    71        999
    72         53
    86         11
    87         70
    88          2
    89          3
    99          2
   105        240
   106          8
   113          4
   114          5
   115          9
   118          1
   131         15
   132         29
   133         10
   141          2
   157        108
   158          9
   159         14
   175         58
   176          5
   201         58
   202          8
   229          3
   245          3