##TITLE=Library Entry 5345
##JCAMP-DX=Revision 4.10 
##DATA TYPE=MASS SPECTRUM
##SAMPLE DESCRIPTION=A.A.Kutin, Moscow, Russia
##NAMES=HP
##CAS NAME=5-Pyrimidine sulfonyl chloride, 1,2,3,4-tetrahydro-6-methyl-2,4-d
ioxo-
##MOLFORM=C5H5ClN2O4S
##CAS REGISTRY NO=6461-30-9
##MP= -300
##BP= -300
##MW= 224
##$RETENTION INDEX=0
##$CONDENSED SPECTRUM=NO
##NPOINTS= 96
##XYDATA=(XY..XY) 1 
    33          2
    34          3
    35         27
    36         36
    37         21
    38         61
    39         71
    42        999
    43        107
    44         81
    45         21
    46          5
    48         98
    49          7
    52        193
    53         88
    54        119
    56          8
    57         11
    58         12
    59          8
    61          7
    62          6
    64         52
    65         27
    67        145
    68         63
    69        122
    70         53
    71         14
    72         11
    73          5
    74          3
    76         13
    77          3
    78          2
    79          5
    80         14
    82         99
    83         35
    85         11
    86          5
    87         16
    88         17
    89         12
    90          1
    91          0
    94          4
    95          4
    96          2
    97          7
    98          2
    99         11
   100          1
   101          6
   102          3
   104         14
   105         33
   106          8
   107          1
   110          0
   112          3
   113         11
   114          1
   115          3
   117         13
   119          4
   124          1
   126         46
   127          2
   128          0
   130          5
   138          0
   140          3
   141         25
   142          2
   146         23
   147          0
   154          0
   157          0
   160          6
   162          1
   166          4
   173          3
   185          4
   186         10
   187         21
   189        439
   190         25
   191         22
   192          0
   221          0
   222          4
   224         28
   226         12
   227          0