##TITLE=Library Entry 31587
##JCAMP-DX=Revision 4.10 
##DATA TYPE=MASS SPECTRUM
##SAMPLE DESCRIPTION=R. J. SOOTHILL
##NAMES=HP
##CAS NAME=Benzene, 1-[(2-chloroethyl)sulfonyl]-4-nitro-
##MOLFORM=C8H8ClNO4S
##CAS REGISTRY NO=6461-63-8
##MP= -300
##BP= -300
##MW= 249
##$RETENTION INDEX=0
##$CONDENSED SPECTRUM=NO
##NPOINTS= 22
##XYDATA=(XY..XY) 1 
    63        999
    64         72
    65        253
    74         76
    75        312
    76        250
    77        138
    92         99
   122        250
   123         89
   139         12
   140         10
   141         38
   170         66
   185        156
   186        213
   187        172
   188         31
   189         31
   213         50
   249        142
   251         51