##TITLE=Library Entry 100736
##JCAMP-DX=Revision 4.10 
##DATA TYPE=MASS SPECTRUM
##SAMPLE DESCRIPTION=Chemical Concepts
##NAMES=HP
##CAS NAME=Benzene, 1,3,5-trimethyl-2-(methylsulfonyl)-
##MOLFORM=C10H14O2S
##CAS REGISTRY NO=6462-31-3
##MP= -300
##BP= -300
##MW= 198
##$RETENTION INDEX=0
##$CONDENSED SPECTRUM=NO
##NPOINTS= 89
##XYDATA=(XY..XY) 1 
    26          2
    27         51
    29         11
    36         11
    38          6
    39        101
    40         11
    41        104
    42          4
    43          7
    44          0
    45         33
    50         23
    51         79
    52         29
    53         48
    54          3
    55          4
    59          9
    61          3
    62         10
    63         43
    64         12
    65         71
    66         10
    67         10
    69          6
    70          3
    71          2
    74          8
    75         13
    76         11
    77        147
    78         62
    79         66
    80          7
    85          3
    86          3
    87          4
    89         20
    90         10
    91        297
    92         39
    93         28
    94          3
    95          3
    97         12
   101          3
   102         20
   103        169
   104         49
   105         39
   106         24
   107         31
   108          3
   109          3
   113          3
   114          3
   115         90
   116         36
   117        348
   118        184
   119        999
   120         96
   121          9
   122          4
   123          2
   133          5
   134         16
   135        454
   136         45
   137         12
   139          5
   149          5
   150          2
   151          4
   165         17
   166         13
   167          6
   169          4
   181         10
   183         99
   184         12
   185          5
   197          9
   198        563
   199         66
   200         31
   201          3