##TITLE=Library Entry 52547
##JCAMP-DX=Revision 4.10 
##DATA TYPE=MASS SPECTRUM
##SAMPLE DESCRIPTION=Japan AIST/NIMC Database- Spectrum MS-IW-7280
##NAMES=HP
##CAS NAME=8,8-Dimethyl-2-oxo-2,8,9,10-tetrahydropyrano(2,3-f)chromene-9,10-
diyl 9-((Z)-2-methyl-2-butenoate) 10-(3-methyl-2-butenoate)
##MOLFORM=C24H26O7
##CAS REGISTRY NO=6468-80-0
##MP= -300
##BP= -300
##MW= 426
##$RETENTION INDEX=0
##$CONDENSED SPECTRUM=NO
##NPOINTS= 184
##XYDATA=(XY..XY) 1 
    15          1
    16          1
    17          1
    26          5
    27         31
    28         35
    29         49
    30          1
    31          1
    32          2
    37          3
    38          7
    39         74
    40          8
    41         40
    42          8
    43         24
    44         23
    45          7
    49          2
    50          9
    51         13
    52          6
    53         39
    54         50
    55        314
    56         21
    57          9
    58          4
    59          4
    60          4
    62          1
    63          8
    64          5
    65          4
    66          1
    67          6
    68          1
    69         16
    70          4
    71         11
    72          4
    73          1
    74          1
    75          4
    76          3
    77          6
    78          2
    79          4
    80          1
    81          6
    82        115
    83        999
    84         63
    85         30
    86          4
    87          1
    88          1
    89          5
    90          2
    91          6
    92          8
    93          3
    95          2
    96          1
    97          3
    98          4
    99          2
   100        102
   101          9
   102          6
   103          2
   104          1
   105          2
   106          1
   107          2
   108          3
   109          1
   110          2
   111          2
   113          1
   114          2
   115          5
   116          2
   117          2
   118          2
   119          2
   121          1
   123          1
   125          1
   127          4
   128          9
   129          5
   130          2
   131          4
   132          1
   133          2
   134          3
   135          7
   136          1
   137          1
   139          1
   141          2
   142          1
   143          2
   144          1
   145          4
   146          3
   147          3
   148          2
   149          1
   152          1
   153          1
   155          2
   156          1
   157          4
   158          4
   159          5
   160          2
   161          1
   162          2
   163          1
   169          1
   171          4
   172          2
   173          8
   174          3
   175          8
   176          2
   181          1
   183          1
   184          2
   185         17
   186          5
   187          6
   188          4
   189          9
   190          2
   191          3
   197          3
   198          3
   199          8
   200          2
   201         28
   202          5
   203          2
   211          1
   212          1
   213        116
   214         17
   215         10
   216         12
   217          2
   226          9
   227         25
   228         23
   229        222
   230         34
   231          4
   241          1
   242          2
   243         33
   244         88
   245         16
   246          2
   255          1
   256          2
   258          1
   261          9
   262          1
   267          1
   281          1
   283          1
   298          1
   311        110
   312         21
   313          3
   326        125
   327         47
   328          9
   329          1
   343          2
   426          5
   427          1