##TITLE=Library Entry 10465
##JCAMP-DX=Revision 4.10 
##DATA TYPE=MASS SPECTRUM
##SAMPLE DESCRIPTION=Div. of Experiment Therapeutics, WRAIR, WRAMC, Wash. DC
 20307
##NAMES=HP
##CAS NAME=Methyl .alpha.,.beta.-D-galactoside, 2,3-O-diacetyl-4,6-dideoxy-4
,6-diacetylthio-
##MOLFORM=C15H22O8S2
##CAS REGISTRY NO=64698-04-0
##MP= -300
##BP= -300
##MW= 394
##$RETENTION INDEX=0
##$CONDENSED SPECTRUM=NO
##NPOINTS= 207
##XYDATA=(XY..XY) 1 
    43        999
    45         53
    47         16
    48          2
    49         26
    51         12
    52          1
    53          9
    54          2
    55         11
    56          1
    57          9
    58          4
    59         17
    60          5
    61         11
    63          2
    64          3
    65          5
    66          1
    67          2
    68          4
    69          9
    70          4
    71         15
    72          6
    73         12
    74         51
    75          5
    76          4
    77          6
    78          2
    79          4
    81         54
    82          6
    83         20
    84         22
    85         40
    86         13
    87         18
    88          3
    89         10
    90          2
    91         40
    92          3
    93          0
    94          2
    95          3
    96          4
    97         61
    99         23
   100         19
   101         23
   102          6
   103         49
   104          7
   105         24
   106          2
   107          2
   108          0
   109          6
   110          6
   111         12
   113         25
   114         17
   115         44
   116         16
   117         26
   118          8
   119          8
   121          4
   122          0
   123          3
   124          6
   125         10
   126          5
   127          7
   128          9
   129         19
   130         10
   131         48
   132          8
   133          4
   134          1
   135          2
   137          0
   138          3
   139         28
   141         23
   142         17
   143         15
   144          1
   145         14
   146         16
   147         19
   148          4
   149          2
   150          2
   151          0
   152          2
   153          2
   155          6
   156         14
   157         39
   159         23
   160          3
   161          6
   163          4
   164          0
   165          2
   166          0
   167          1
   168          1
   169          2
   170          2
   171          8
   172          9
   173         28
   174         14
   175         31
   176          3
   177          5
   178          0
   179          1
   181          1
   182          0
   183          2
   184          4
   185          9
   186          2
   187         11
   188          5
   189         16
   190          5
   191          3
   192          0
   193          1
   198          4
   199          9
   200          2
   201          5
   202          1
   203          2
   205          3
   206          2
   207          1
   212          1
   213          0
   214          2
   215          1
   216          8
   217         27
   218          7
   219          5
   220          0
   226          3
   227          1
   228          0
   229          1
   230          2
   231          8
   232          2
   233          1
   234          0
   235          1
   242          1
   243          0
   245          1
   247          0
   248          0
   249          2
   251          0
   258          5
   259          8
   260          0
   261          5
   262          0
   263          1
   264          0
   274          3
   275          1
   277         28
   278          2
   279          4
   281          0
   291          5
   292          2
   293          0
   302          0
   305          0
   308         29
   309          4
   310          3
   311          0
   321          7
   322          1
   323          1
   335          0
   351         25
   352          5
   353          3
   357          1
   363          2
   364          0
   393          0
   394          4
   395          0