##TITLE=Library Entry 16738
##JCAMP-DX=Revision 4.10 
##DATA TYPE=MASS SPECTRUM
##SAMPLE DESCRIPTION=V.A.Korolev, Moscow, Russia
##NAMES=HP
##CAS NAME=(3-Oxo-1H-indazol-2-yl)acetic acid
##MOLFORM=C9H8N2O3
##CAS REGISTRY NO=64697-24-1
##MP= -300
##BP= -300
##MW= 192
##$RETENTION INDEX=0
##$CONDENSED SPECTRUM=NO
##NPOINTS= 46
##XYDATA=(XY..XY) 1 
    36         39
    37        149
    38        301
    39        456
    40        104
    41        203
    42        407
    43         95
    45        999
    46         37
    50        328
    51        152
    52        178
    53         70
    54         21
    55         46
    56         33
    57         32
    60        214
    61         40
    62        105
    63        290
    64        239
    65        145
    71         14
    73         39
    74         78
    75         84
    76        375
    77        123
    89        127
    90        429
    91         78
    92        279
   104        109
   105         16
   118         89
   119        285
   120         37
   146        253
   147        112
   148         54
   149          4
   192        195
   193         20
   194          3