##TITLE=Library Entry 36184
##JCAMP-DX=Revision 4.10 
##DATA TYPE=MASS SPECTRUM
##SAMPLE DESCRIPTION=ASES Database, Dalian Institute, P.R. China
##NAMES=HP
##CAS NAME=Perfluorooctanonitrile
##MOLFORM=C8F15N
##CAS REGISTRY NO=647-12-1
##MP= -300
##BP= -300
##MW= 395
##$RETENTION INDEX=0
##$CONDENSED SPECTRUM=NO
##NPOINTS= 15
##XYDATA=(XY..XY) 1 
    31         99
    69        999
    76        200
    93         29
   100        179
   119        400
   126         49
   131        231
   169        250
   181         90
   219         89
   231         59
   269         69
   319         50
   395         39