##TITLE=Library Entry 1535
##JCAMP-DX=Revision 4.10 
##DATA TYPE=MASS SPECTRUM
##SAMPLE DESCRIPTION=Chuck Anderson, Aldrich Chemical Co.
##NAMES=HP
##CAS NAME=1H,1H,2H,2H-Perfluorooctan-1-ol
##MOLFORM=C8H5F13O
##CAS REGISTRY NO=647-42-7
##MP= -300
##BP= -300
##MW= 364
##$RETENTION INDEX=0
##$CONDENSED SPECTRUM=NO
##NPOINTS= 130
##XYDATA=(XY..XY) 1 
    14          0
    15          3
    18          0
    19          3
    20          0
    26          1
    27         12
    28          1
    29         83
    30         10
    31        999
    32         11
    33          6
    38          0
    39          2
    42          5
    43         20
    44         15
    45         28
    46          4
    47         16
    49         84
    50          6
    51         47
    52          0
    53          0
    55          1
    56          1
    57         12
    58          1
    59          5
    62          1
    63          1
    64         39
    65        132
    66          2
    67         17
    69        222
    70          2
    71          0
    73          3
    74          0
    75         39
    76          2
    77         54
    78          2
    79          1
    81          2
    82          0
    83          1
    86          0
    87          0
    88          1
    89          1
    91          2
    93         12
    95        165
    96          5
    97          1
   100         24
   101          1
   104          0
   105          2
   106          1
   107          3
   108          1
   109          1
   111          0
   112          1
   113          5
   115          1
   119         23
   120          0
   122          1
   123          0
   124          1
   125          0
   126          3
   127         35
   128          1
   131         38
   132          1
   133          1
   137          2
   138          0
   139          0
   143          0
   144          0
   145          4
   150          0
   157          5
   158          0
   162          0
   163          4
   169         11
   170          0
   175          1
   176          0
   177          0
   181          4
   187          0
   189          0
   195          1
   197          0
   207          2
   213          3
   219          4
   225          1
   227          0
   231          4
   245          1
   257          1
   263          0
   269          0
   275          1
   276          0
   277          0
   294          1
   295          5
   296          6
   297          0
   305          1
   314          3
   315          1
   324          0
   327          0
   344          6
   345          0
   363          2
   365          0