##TITLE=Library Entry 10536
##JCAMP-DX=Revision 4.10 
##DATA TYPE=MASS SPECTRUM
##SAMPLE DESCRIPTION=Chemical Concepts
##NAMES=HP
##CAS NAME=4-Heptenal, 6-(acetyloxy)-4-methyl-, (E)-
##MOLFORM=C10H16O3
##CAS REGISTRY NO=64702-50-7
##MP= -300
##BP= -300
##MW= 184
##$RETENTION INDEX=0
##$CONDENSED SPECTRUM=NO
##NPOINTS= 90
##XYDATA=(XY..XY) 1 
    26          6
    27         89
    28         10
    29         81
    30          2
    31         11
    37          2
    38          8
    39        138
    40         27
    41        240
    42         27
    43        999
    44         31
    45         38
    47          4
    50          9
    51         27
    52         15
    53        108
    54         31
    55        250
    56         24
    57         29
    58         13
    59         16
    60         24
    61          7
    62          3
    63          9
    64          2
    65         34
    66         18
    67        260
    68         43
    69         74
    70         13
    71         17
    72          3
    77         46
    78         11
    79        111
    80         60
    81        373
    82        271
    83        155
    84         22
    85        146
    86         19
    87         16
    91         51
    92         10
    93         44
    94         11
    95        337
    96        128
    97         44
    98        432
    99         85
   100          7
   101          3
   105         11
   106          8
   107         60
   108          8
   109         92
   110         10
   111          9
   112          4
   113          6
   114          9
   115          2
   121          6
   122          2
   123         20
   124        152
   125         64
   126          7
   127         37
   128          4
   129          2
   135          3
   136          5
   140        117
   141         54
   142         16
   143          2
   156          2
   169          5
   184          1