##TITLE=Library Entry 61317
##JCAMP-DX=Revision 4.10 
##DATA TYPE=MASS SPECTRUM
##SAMPLE DESCRIPTION=W.Jennings, T.Shibamoto
##NAMES=HP
##CAS NAME=Nonanoic acid, phenylmethyl ester
##MOLFORM=C16H24O2
##CAS REGISTRY NO=6471-66-5
##MP= -300
##BP= -300
##MW= 248
##$RETENTION INDEX=1816
##$CONDENSED SPECTRUM=NO
##NPOINTS= 48
##XYDATA=(XY..XY) 1 
    28         42
    29          7
    41         32
    43        205
    55         94
    56         11
    57        255
    58          8
    59          8
    65         21
    67         21
    69        125
    70          7
    71        181
    72          7
    73          7
    77          9
    79         52
    81         41
    83         32
    84          9
    90         86
    91        999
    92        345
    93         19
    95         19
    96         19
    97        179
    98          8
   101         19
   105         19
   107         65
   108        792
   109         74
   110          8
   111         32
   115          8
   121         31
   123         41
   138         23
   139        173
   140          9
   141        114
   142          9
   156          9
   157        127
   158          9
   248         31