##TITLE=Library Entry 17626
##JCAMP-DX=Revision 4.10 
##DATA TYPE=MASS SPECTRUM
##SAMPLE DESCRIPTION=Dmitri Zagorevskii, Scientific Instruments @ Applicatio
ns
##NAMES=HP
##CAS NAME=2,5,8,11,14,20,23,26,29,32-Decaoxatricyclo[31.3.1.1(15,19)]octatr
iaconta-1(37),15,17,19(38),33,35-hexaene
##MOLFORM=C28H40O10
##CAS REGISTRY NO=64739-07-7
##MP= -300
##BP= -300
##MW= 536
##$RETENTION INDEX=0
##$CONDENSED SPECTRUM=NO
##NPOINTS= 142
##XYDATA=(XY..XY) 1 
    26         46
    27        109
    29         77
    31        126
    37          9
    38         19
    39         61
    41        130
    42         38
    43        685
    44         92
    45        999
    46         22
    51         10
    52         20
    53         24
    55         47
    56         10
    57         77
    58        158
    59        133
    60          5
    63         26
    64        148
    65        155
    66         21
    67         23
    68         17
    69         96
    70         71
    71        164
    72         31
    73        282
    74          7
    75         23
    76        153
    77        116
    78         35
    79         95
    80         40
    81         76
    82        134
    83         10
    84          7
    85          5
    86         94
    87        144
    88         35
    89        131
    90         15
    91        253
    92        455
    93        157
    94         38
    95         52
    96         15
    97         17
    99          5
   101         23
   102          5
   103         24
   104         21
   105         61
   106         13
   109         87
   110        188
   111        121
   112         18
   113          8
   114         30
   115         76
   116         17
   117        100
   118         14
   119        141
   120         57
   121         80
   122         18
   123         54
   124         47
   125         15
   127          6
   128         17
   129         22
   131          5
   133         66
   134         30
   135         97
   136        251
   137        706
   138         83
   139         23
   145          5
   147         21
   148          6
   149         89
   150         35
   151         59
   152         20
   153         20
   154         84
   155         39
   158         17
   159         41
   160          9
   161         46
   162        134
   163        228
   164         36
   165         63
   166         12
   167         17
   168          5
   175         17
   177          9
   178          7
   180        105
   181        122
   182         13
   189         11
   193          8
   198         26
   199         23
   205          9
   206         26
   207         34
   224         53
   225         44
   242         12
   243          5
   250          7
   251          5
   268         26
   269         40
   270          5
   271          5
   294          5
   312         17
   313          6
   536        322
   537         68
   538         22