##TITLE=Library Entry 87426
##JCAMP-DX=Revision 4.10 
##DATA TYPE=MASS SPECTRUM
##SAMPLE DESCRIPTION=A.V. Sokolovskii, Ufa Petroleum Inst., Ufa, USSR
##NAMES=HP
##CAS NAME=1,3-Benzodioxole, 2-ethoxy-
##MOLFORM=C9H10O3
##CAS REGISTRY NO=64736-45-4
##MP= -300
##BP= -300
##MW= 166
##$RETENTION INDEX=0
##$CONDENSED SPECTRUM=NO
##NPOINTS= 17
##XYDATA=(XY..XY) 1 
    50         10
    51         20
    52         20
    53         30
    54         10
    62         10
    63         70
    64         80
    65         60
    77         10
    81         70
    92         40
   109         20
   110        999
   121        660
   166        470
   167         46