##TITLE=Library Entry 109241
##JCAMP-DX=Revision 4.10 
##DATA TYPE=MASS SPECTRUM
##SAMPLE DESCRIPTION=Chemical Concepts
##NAMES=HP
##CAS NAME=Benzene, (1-cyclopenten-1-ylsulfonyl)-
##MOLFORM=C11H12O2S
##CAS REGISTRY NO=64740-90-5
##MP= -300
##BP= -300
##MW= 208
##$RETENTION INDEX=0
##$CONDENSED SPECTRUM=NO
##NPOINTS= 120
##XYDATA=(XY..XY) 1 
    26         10
    27        137
    28          2
    29         75
    30          2
    31          1
    36          1
    37          5
    38         23
    39        396
    40         88
    41        469
    42         14
    43         29
    44          1
    45         31
    47          4
    48          2
    49          1
    50         80
    51        314
    52         35
    53         56
    54          7
    55        546
    56         25
    57          3
    58          4
    59          4
    61          2
    62          8
    63         35
    64          8
    65        228
    66        319
    67        465
    68         27
    69         11
    70          4
    71         64
    72          6
    73          3
    74         15
    75         17
    76         15
    77        333
    78        205
    79         40
    80          2
    81         25
    82         11
    83        897
    84         54
    85          7
    87          3
    89          7
    91         20
    92          2
    93          1
    94         15
    95          2
    96          1
    97        177
    98         16
    99         19
   102          4
   103          5
   104         11
   105          1
   108          2
   109         23
   110         13
   111          2
   113          1
   114          6
   115         54
   116          8
   117          6
   123          2
   124          1
   125        999
   126        332
   127         71
   128         48
   129         30
   130          3
   131          3
   132          3
   134          5
   135         11
   136         12
   137          5
   138          1
   139          2
   141         22
   142         10
   143         53
   144          8
   145          2
   147          5
   148          1
   149          1
   152          5
   153          1
   157          1
   159          1
   160          2
   161          9
   162          2
   163          2
   173          8
   174          1
   189         13
   190          4
   191          2
   207          8
   208        347
   209         55
   210         19
   211          2