##TITLE=Library Entry 46225
##JCAMP-DX=Revision 4.10 
##DATA TYPE=MASS SPECTRUM
##SAMPLE DESCRIPTION=Chemical Concepts
##NAMES=HP
##CAS NAME=Phosphine, tris(1-methylethyl)-
##MOLFORM=C9H21P
##CAS REGISTRY NO=6476-36-4
##MP= -300
##BP= -300
##MW= 160
##$RETENTION INDEX=0
##$CONDENSED SPECTRUM=NO
##NPOINTS= 92
##XYDATA=(XY..XY) 1 
    26         12
    27        163
    28         36
    29         40
    30          1
    31          1
    33          1
    34          0
    35         10
    36          0
    37          2
    38          3
    39         61
    40         49
    41        364
    42         27
    43        749
    44         25
    45         66
    46         16
    47         92
    48         31
    49         14
    50          1
    51          0
    52          0
    53          2
    54          0
    55         47
    56          3
    57         46
    58         18
    59         39
    60          5
    61        146
    62          7
    63         15
    64          1
    65          0
    66          1
    67          2
    68          1
    69        121
    70          8
    71         33
    72         13
    73         58
    74         85
    75        341
    76        999
    77        126
    78          3
    79          0
    81          0
    82          0
    83         13
    84          1
    85          3
    87          2
    88          1
    89         92
    90         31
    91          2
    92          2
    97          3
    98          0
    99          0
   101          3
   102          2
   103         81
   104          6
   105          0
   108          0
   113          0
   115          1
   116          3
   117         72
   118        539
   119         35
   120          0
   131          0
   132          0
   133          0
   134          1
   145         73
   146          8
   147          0
   158          1
   159          5
   160        272
   161         26
   162          1