##TITLE=Library Entry 88089
##JCAMP-DX=Revision 4.10 
##DATA TYPE=MASS SPECTRUM
##SAMPLE DESCRIPTION=D.HENNEBERG, MAX-PLANCK INSTITUTE, MULHEIM, WEST GERMAN
Y
##NAMES=HP
##CAS NAME=.alpha.-L-Sorbofuranose, cyclic 2,3:4,6-bis(ethylboronate)
##MOLFORM=C10H18B2O6
##CAS REGISTRY NO=64780-40-1
##MP= -300
##BP= -300
##MW= 256
##$RETENTION INDEX=0
##$CONDENSED SPECTRUM=NO
##NPOINTS= 192
##XYDATA=(XY..XY) 1 
    26         37
    27         52
    28          4
    29        105
    30         10
    31         82
    32          0
    39         26
    40         13
    41         63
    42         30
    43        105
    44         22
    45         42
    46          8
    47          1
    50          2
    51          3
    52          6
    53         19
    54         14
    55         54
    56         82
    57        336
    58         22
    59         28
    60          2
    61          1
    62          1
    63          1
    64          0
    65          4
    66          6
    67         14
    68         38
    69        196
    70         52
    71         36
    72          6
    73          8
    74          2
    75          2
    76          1
    77          2
    78          2
    79          4
    80          3
    81         28
    82         28
    83        110
    84         29
    85         46
    86         39
    87         23
    88          2
    89          1
    90          0
    91          8
    92          2
    93          3
    94          4
    95         15
    96         25
    97         45
    98        107
    99        249
   100         20
   101         22
   102          2
   103          3
   104          0
   105          1
   106          0
   107          1
   108          4
   109         26
   110        269
   111        999
   112        150
   113        138
   114         24
   115         40
   116          3
   117          1
   118          1
   119          1
   120          1
   121          1
   122          3
   123         36
   124        170
   125        282
   126         38
   127         55
   128         30
   129         19
   130          2
   131          1
   133          1
   134          1
   135          2
   136          4
   137         14
   138         13
   139         38
   140         39
   141         57
   142         43
   143         11
   144          2
   145          1
   146          0
   147          0
   148          1
   149          5
   150          5
   151         19
   152          8
   153         19
   154          7
   155         10
   156         10
   157         34
   158          4
   159          2
   161          1
   162          2
   163          4
   164          5
   165         10
   166         10
   167         22
   168         47
   169        123
   170         16
   171         14
   172          1
   174          0
   176          0
   177          0
   178          1
   179          6
   180         16
   181         30
   182         13
   183         15
   184          2
   185          0
   189          0
   190          0
   191          1
   192          0
   193          2
   194          9
   195         17
   196         18
   197         29
   198          7
   199          5
   200          3
   201          2
   202          5
   203          0
   204          0
   205          2
   206          8
   207         16
   208          4
   209          6
   210          2
   211          1
   212          0
   213          0
   219          1
   220          4
   221          9
   222          2
   223         19
   224        148
   225        297
   226         85
   227        108
   228         10
   229          1
   236          0
   237          3
   238         10
   239          7
   240          0
   255          0
   256          2
   257          0