##TITLE=Library Entry 55706
##JCAMP-DX=Revision 4.10 
##DATA TYPE=MASS SPECTRUM
##SAMPLE DESCRIPTION=HCACAV,61(1)357(1978); G. BIERI ET AL
##NAMES=HP
##CAS NAME=1,3-Butadiyne, 1,4-difluoro-
##MOLFORM=C4F2
##CAS REGISTRY NO=64788-23-4
##MP= -300
##BP= -300
##MW= 86
##$RETENTION INDEX=0
##$CONDENSED SPECTRUM=NO
##NPOINTS= 6
##XYDATA=(XY..XY) 1 
    31        110
    36         40
    43         40
    55        100
    67         50
    86        999