##TITLE=Library Entry 71059
##JCAMP-DX=Revision 4.10 
##DATA TYPE=MASS SPECTRUM
##SAMPLE DESCRIPTION=D.HENNEBERG, MAX-PLANCK INSTITUTE, MULHEIM, WEST GERMAN
Y
##NAMES=HP
##CAS NAME=.beta.-D-Erythro-Pentopyranose, 2-deoxy-, cyclic 3,4-(ethylborona
te)
##MOLFORM=C7H13BO4
##CAS REGISTRY NO=64780-32-1
##MP= -300
##BP= -300
##MW= 172
##$RETENTION INDEX=0
##$CONDENSED SPECTRUM=NO
##NPOINTS= 95
##XYDATA=(XY..XY) 1 
    26         31
    27        101
    28        216
    29        165
    30          6
    31         50
    32          5
    38          3
    39         64
    40         27
    41         89
    42         93
    43        269
    44        162
    45        137
    46          2
    47          3
    49          1
    50          6
    51          4
    52          6
    53         47
    54         34
    55         81
    56        159
    57        502
    58         29
    59         12
    60          5
    61         12
    65          1
    66          3
    67         18
    68        106
    69        169
    70        461
    71        120
    72         12
    73         59
    74         35
    75         10
    79          1
    80          1
    81         17
    82         34
    83         86
    84         30
    85         56
    86         15
    87         12
    88          1
    91          0
    93          1
    94          1
    95          8
    96         38
    97        291
    98        999
    99        443
   100         45
   101         15
   102          2
   103          6
   108          1
   109          4
   110         33
   111        131
   112        142
   113        392
   114         29
   115         17
   116          3
   123          9
   124         47
   125         88
   126        107
   127         16
   128         18
   129         11
   130          0
   137          0
   139          1
   140         12
   141         53
   142         41
   143         14
   149          0
   152          0
   153          9
   154         31
   155         13
   156          0
   170          1
   171          6
   172          7