##TITLE=Library Entry 71460
##JCAMP-DX=Revision 4.10 
##DATA TYPE=MASS SPECTRUM
##SAMPLE DESCRIPTION=D.HENNEBERG, MAX-PLANCK INSTITUTE, MULHEIM, WEST GERMAN
Y
##NAMES=HP
##CAS NAME=.alpha.-D-Ribopyranose, cyclic 1,2:3,4-bis(ethylboronate)
##MOLFORM=C9H16B2O5
##CAS REGISTRY NO=64780-34-3
##MP= -300
##BP= -300
##MW= 226
##$RETENTION INDEX=0
##$CONDENSED SPECTRUM=NO
##NPOINTS= 132
##XYDATA=(XY..XY) 1 
    23          0
    24          3
    25          7
    26         48
    27        204
    28        229
    29        532
    30         13
    31         42
    32         15
    33          0
    35          0
    36          2
    37         15
    38         21
    39        171
    40         44
    41        136
    42        133
    43        167
    44         56
    45         96
    47          1
    48          1
    49          4
    50         13
    51         19
    52         24
    53         77
    54         62
    55        159
    56         98
    57        294
    58         15
    59          8
    60          2
    62          4
    63          2
    64          1
    65          4
    66         12
    67         19
    68         42
    69        254
    70        473
    71         57
    72          5
    73          5
    74          1
    75          0
    77          2
    78          1
    80          4
    81         18
    82         46
    83        159
    84         30
    85         18
    86         11
    87          6
    88          1
    92          2
    93          3
    94          4
    95         23
    96         54
    97        271
    98        999
    99        145
   100         23
   101         13
   102          0
   106          1
   107          4
   108          8
   109         31
   110        251
   111        880
   112         83
   113         69
   114          7
   115          2
   116          0
   118          0
   119          0
   120          1
   121          1
   122          5
   123        167
   124        737
   125        116
   126         11
   127         14
   128         42
   129         74
   130          3
   131          1
   136          1
   137          5
   138          9
   139         12
   140         25
   141         53
   142          4
   143          1
   148          0
   149          1
   150          3
   151          8
   152          3
   153          2
   154          2
   155          1
   156          1
   163          1
   164          1
   165         10
   166         24
   167         18
   168          6
   169          8
   170          3
   179          3
   180          6
   181          0
   194          0
   195          1
   196          7
   197         10
   198          2
   224          1
   225          2