##TITLE=Library Entry 48561
##JCAMP-DX=Revision 4.10 
##DATA TYPE=MASS SPECTRUM
##SAMPLE DESCRIPTION=E.SANTORO MONTEDISON S.P.A., RESEARCH CENTRE, MILAN, IT
ALY
##NAMES=HP
##CAS NAME=Hexane, 3,3,4,4-tetrafluoro-
##MOLFORM=C6H10F4
##CAS REGISTRY NO=648-36-2
##MP= -300
##BP= -300
##MW= 158
##$RETENTION INDEX=0
##$CONDENSED SPECTRUM=NO
##NPOINTS= 24
##XYDATA=(XY..XY) 1 
    15         10
    27         60
    29         51
    33         21
    39         20
    41         10
    47         16
    51        139
    57         10
    59         92
    69         10
    77         43
    78        129
    79        999
    80         33
    95         21
    99          3
   100          4
   109          9
   110          7
   119          3
   138          0
   139          0
   158          0