##TITLE=Library Entry 60199
##JCAMP-DX=Revision 4.10 
##DATA TYPE=MASS SPECTRUM
##SAMPLE DESCRIPTION=W.VOELTER CHEM. INST., UNIV., TUBINGEN, GERMANY, F.R.G.
##NAMES=HP
##CAS NAME=O-Trifluoroacetyl dihydrocinnamyl alcohol
##MOLFORM=C11H11F3O2
##CAS REGISTRY NO=64806-62-8
##MP= -300
##BP= -300
##MW= 232
##$RETENTION INDEX=0
##$CONDENSED SPECTRUM=NO
##NPOINTS= 31
##XYDATA=(XY..XY) 1 
    27         50
    29         20
    39        120
    40         60
    41         60
    43         10
    50         40
    51        110
    53         20
    63         50
    65        160
    66         10
    69        140
    77        700
    78         70
    79         50
    89         30
    91        999
    92        170
    93         10
   103         50
   104         30
   105         60
   115         40
   116         30
   117        430
   118        540
   119         80
   136         10
   232        140
   233         20