##TITLE=Library Entry 33135
##JCAMP-DX=Revision 4.10 
##DATA TYPE=MASS SPECTRUM
##SAMPLE DESCRIPTION=Chemical Concepts
##NAMES=HP
##CAS NAME=Tricyclo[4.2.2.1(2,5)]undecane
##MOLFORM=C11H18
##CAS REGISTRY NO=64822-53-3
##MP= -300
##BP= -300
##MW= 150
##$RETENTION INDEX=0
##$CONDENSED SPECTRUM=NO
##NPOINTS= 90
##XYDATA=(XY..XY) 1 
    26          9
    27        175
    29        115
    30          2
    37          2
    38         10
    39        322
    40         59
    41        533
    42         36
    43         54
    44          2
    45          1
    46          2
    50         14
    51         58
    52         36
    53        181
    54        191
    55        320
    56         18
    57         20
    58          3
    59          6
    60          2
    62          3
    63         20
    64          6
    65        105
    66        232
    67        999
    68        280
    69         76
    70          6
    71         13
    74          1
    75          4
    76          2
    77        188
    78         87
    79        499
    80        584
    81        472
    82        421
    83        182
    84         14
    85          6
    89          5
    90          1
    91        131
    92         32
    93        300
    94        337
    95        166
    96         50
    97          9
    98          1
    99          2
   102          1
   103          8
   104          3
   105         25
   106         15
   107        206
   108        316
   109        352
   110         30
   111          3
   112          1
   113          1
   115          6
   116          0
   117          3
   118          1
   119          4
   120          6
   121        356
   122        738
   123         79
   124          4
   125          1
   135        114
   136         14
   137          2
   138          1
   139          1
   149          8
   150        205
   151         26
   152          2