##TITLE=Library Entry 6832
##JCAMP-DX=Revision 4.10 
##DATA TYPE=MASS SPECTRUM
##SAMPLE DESCRIPTION=Japan AIST/NIMC Database- Spectrum MS-NW-8450
##NAMES=HP
##CAS NAME=Carbonic acid, bis(1-methylethyl) ester
##MOLFORM=C7H14O3
##CAS REGISTRY NO=6482-34-4
##MP= -300
##BP= -300
##MW= 146
##$RETENTION INDEX=0
##$CONDENSED SPECTRUM=NO
##NPOINTS= 48
##XYDATA=(XY..XY) 1 
    14          1
    15         18
    16          1
    18          2
    19          2
    26          5
    27         81
    28         11
    29         12
    31         18
    37          1
    38          3
    39         40
    40          9
    41        182
    42        115
    43        999
    44         40
    45        611
    46         13
    47          1
    55          1
    56          3
    57          2
    58          4
    59        176
    60          6
    61          2
    63        133
    64          1
    65          1
    69         22
    70          1
    75          2
    76          1
    78          2
    79          4
    87         17
    88          1
    89          1
    94          1
   103          1
   104         59
   105         35
   106          2
   120          3
   121          1
   131          1