##TITLE=Library Entry 16679
##JCAMP-DX=Revision 4.10 
##DATA TYPE=MASS SPECTRUM
##SAMPLE DESCRIPTION=NIST Mass Spectrometry Data Center, 1994
##NAMES=HP
##CAS NAME=Ethane, 1-bromo-2-methoxy-
##MOLFORM=C3H7BrO
##CAS REGISTRY NO=6482-24-2
##MP= -300
##BP= -300
##MW= 138
##$RETENTION INDEX=706
##$CONDENSED SPECTRUM=NO
##NPOINTS= 54
##XYDATA=(XY..XY) 1 
     4          2
     8          0
    12          4
    13         12
    14         47
    15        202
    16          4
    17          4
    18          0
    24          1
    25         11
    26         95
    27        237
    28         96
    29        316
    30         25
    31         68
    32          1
    33          4
    39          1
    40          1
    41          7
    42         25
    43         97
    44          1
    45        999
    46         22
    47          2
    58        122
    59          7
    79         23
    80         10
    81         20
    82         10
    83          1
    91          4
    92          5
    93         32
    94          8
    95         28
    96          3
    97          0
   104          1
   105          3
   106          6
   107         30
   108          5
   109         25
   110          0
   120          0
   122          1
   138         47
   140         47
   141          1