##TITLE=Library Entry 30666
##JCAMP-DX=Revision 4.10 
##DATA TYPE=MASS SPECTRUM
##SAMPLE DESCRIPTION=Chemical Concepts
##NAMES=HP
##CAS NAME=Acetic acid, dibromo-, methyl ester
##MOLFORM=C3H4Br2O2
##CAS REGISTRY NO=6482-26-4
##MP= -300
##BP= -300
##MW= 230
##$RETENTION INDEX=971
##$CONDENSED SPECTRUM=NO
##NPOINTS= 98
##XYDATA=(XY..XY) 1 
    24          1
    25          5
    26         11
    27         93
    28         45
    29        207
    30         31
    31         30
    32          3
    36          1
    39          1
    40          6
    41         85
    42         17
    43         13
    44          8
    45          3
    49          0
    51          0
    53          0
    55          3
    56          2
    57          7
    58          0
    59        999
    60         24
    61          4
    67          0
    69          2
    70          1
    71          4
    72          5
    73          0
    77          0
    79         49
    80         18
    81         48
    82         17
    83          2
    84          0
    85          1
    91         57
    92        118
    93         78
    94        117
    95         37
    96          2
    97         14
    99          0
   104          0
   105          1
   106          2
   107        269
   108          9
   109        262
   110          8
   111          0
   112          0
   119          1
   120         90
   121          8
   122         85
   123         20
   124          0
   125         13
   127          0
   151          4
   152          2
   153          4
   154          2
   158          1
   160          3
   162          1
   170          4
   171        323
   172         13
   173        626
   174         11
   175        299
   176          3
   186         19
   187          0
   188         37
   189          1
   190         19
   191          0
   198          1
   199         19
   200          3
   201         38
   202          2
   203         19
   230         40
   231          2
   232         76
   233          3
   234         36
   235          1