##TITLE=Library Entry 9653
##JCAMP-DX=Revision 4.10 
##DATA TYPE=MASS SPECTRUM
##SAMPLE DESCRIPTION=DKFZ HD SCHMIDT, HEIDELBERG, GERMANY, F.R.G.
##NAMES=HP
##CAS NAME=4H-Cyclopropa[5',6']benz[1',2':7,8]azuleno[5,6]oxiren-4-one, 8,8a
-bis(acetyloxy)-2a-[(acetyloxy)methyl]-1,1a,1b,1c,2a,3,3a,6a,6b,7,8,8a-dodec
ahydro-6b-hydroxy-3a-methoxy-1,1,5,7-tetramethyl-, [1aR-(1a.alpha.,1b.beta.,
1c.beta.,2a.beta.,3a.alpha.,6a
##MOLFORM=C27H36O10
##CAS REGISTRY NO=64838-69-3
##MP= -300
##BP= -300
##MW= 520
##$RETENTION INDEX=0
##$CONDENSED SPECTRUM=NO
##NPOINTS= 451
##XYDATA=(XY..XY) 1 
    11          1
    13          1
    14          1
    15         37
    16          4
    18          2
    20          0
    21          0
    24          0
    25          0
    26          5
    27          9
    28        145
    29         60
    30          4
    31         27
    32         39
    33          1
    36          1
    37          2
    38          5
    39         77
    40         14
    41        145
    42         43
    43        999
    44         87
    45         56
    46          1
    47          1
    48          0
    49          1
    50          4
    51         20
    52         16
    53        141
    54         20
    55        104
    56          9
    57         83
    58         14
    59         33
    60         37
    61         11
    62          3
    63         11
    64          3
    65         58
    66         27
    67         89
    68         22
    69        437
    70         33
    71         31
    72          3
    73         45
    74          3
    75          3
    76          4
    77        141
    78         39
    79        166
    80         33
    81         91
    82         41
    83        520
    84         35
    85         66
    86          5
    87         10
    88          1
    89          6
    90          4
    91        175
    92         31
    93         81
    94         31
    95        143
    96         93
    97         54
    98         16
    99         27
   100          4
   101         56
   102          6
   103         41
   104         20
   105        145
   106         31
   107        145
   108        131
   109        270
   110         85
   111         87
   112         25
   113         29
   114         41
   115         43
   116         22
   117         43
   118         14
   119         72
   120         31
   121        150
   122         62
   123        110
   124        416
   125        312
   126         87
   127         50
   128         37
   129         56
   130         22
   131         52
   132         52
   133        116
   134         52
   135        122
   136         75
   137         91
   138        166
   139         72
   140         18
   141         47
   142         25
   143         33
   144         20
   145         68
   146         37
   147         77
   148         87
   149        204
   150         64
   151        166
   152         47
   153         39
   154         18
   155         31
   156         22
   157         39
   158         41
   159         77
   160        114
   161        145
   162         70
   163        112
   164        145
   165        177
   166         60
   167         54
   168         20
   169         33
   170         20
   171         41
   172         37
   173         66
   174         41
   175        118
   176         60
   177         95
   178         45
   179         60
   180         29
   181         43
   182         18
   183         39
   184         18
   185         47
   186         33
   187         52
   188         35
   189         93
   190         29
   191         64
   192         85
   193        150
   194         33
   195         33
   196         18
   197         47
   198         45
   199         56
   200         43
   201        127
   202         54
   203         64
   204         27
   205         37
   206         16
   207         35
   208         25
   209         39
   210         31
   211         68
   212         37
   213         62
   214         37
   215        102
   216         54
   217         54
   218         35
   219         60
   220         39
   221         33
   222         20
   223         68
   224         27
   225         41
   226         33
   227         43
   228         22
   229         50
   230         81
   231         39
   232         16
   233         60
   234         27
   235         31
   236         16
   237         43
   238         25
   239         60
   240         45
   241         47
   242         22
   243         41
   244         29
   245         41
   246         14
   247         27
   248         10
   249         22
   250         20
   251         39
   252         29
   253         54
   254         22
   255         43
   256         22
   257         58
   258         31
   259         39
   260         35
   261         56
   262         29
   263         33
   264         18
   265         39
   266         18
   267         45
   268         31
   269         41
   270         20
   271         33
   272         22
   273         25
   274          7
   275         37
   276         16
   277         20
   278         11
   279         43
   280         52
   281         45
   282         22
   283         31
   284         18
   285         22
   286         10
   287         27
   288         10
   289         29
   290         29
   291         22
   292         31
   293         60
   294         27
   295         31
   296         18
   297         41
   298         22
   299         31
   300         18
   301         22
   302          5
   303          6
   304          3
   305          7
   306          6
   307         35
   308        122
   309         70
   310         31
   311         29
   312         27
   313         22
   314          7
   315         18
   316          4
   317         18
   318          5
   319          3
   320          1
   321          6
   322         31
   323         20
   324          9
   325         39
   326         41
   327         47
   328         16
   329          9
   330          7
   331         14
   332          7
   333          4
   334          2
   335          8
   336          3
   337          2
   338          2
   339         18
   340         87
   341         43
   342         10
   343         16
   344          7
   345          8
   346          3
   347          2
   348          2
   349          6
   350         20
   351          8
   352         18
   353         11
   354          7
   355          9
   356          5
   357         43
   358         43
   359         12
   360         14
   361          4
   362          1
   363          1
   364          0
   365          1
   366          0
   367          6
   368         58
   369         35
   370         16
   371         11
   372         29
   373         10
   374          3
   375          3
   376          2
   377          2
   378          1
   380          0
   381         18
   382         16
   383         50
   384         16
   385         20
   386         31
   387         20
   388          7
   389          3
   390          3
   391          2
   392          2
   393          0
   394          1
   395          0
   397          0
   398          3
   399          4
   400         93
   401         50
   402         14
   403          9
   404          3
   405          4
   406          0
   407          0
   408          0
   410          7
   411          3
   412          5
   413          3
   414          1
   415          1
   416          1
   417         10
   418         25
   419          6
   420          1
   421          1
   424          0
   425          0
   427          3
   428         14
   429          6
   430          2
   431          2
   432          2
   433          1
   434          0
   435          0
   436          0
   440          0
   442         27
   443          7
   444          2
   445          5
   446          4
   447          1
   448          0
   457          0
   458          0
   459          1
   460         25
   461         35
   462          8
   463          2
   464          0
   465          0
   470          1
   471          0
   472          3
   473          1
   474          0
   475          0
   476          0
   477          2
   478          6
   479          1
   480          0
   488          1
   489          0
   490          0
   492          0
   502          2
   503          1
   504          0
   520          8
   521          3
   522          0