##TITLE=Library Entry 24991
##JCAMP-DX=Revision 4.10 
##DATA TYPE=MASS SPECTRUM
##SAMPLE DESCRIPTION=Japan AIST/NIMC Database- Spectrum MS-IW-5050
##NAMES=HP
##CAS NAME=Piperazine, 1,4-diethyl-
##MOLFORM=C8H18N2
##CAS REGISTRY NO=6483-50-7
##MP= -300
##BP= -300
##MW= 142
##$RETENTION INDEX=1028
##$CONDENSED SPECTRUM=NO
##NPOINTS= 89
##XYDATA=(XY..XY) 1 
    13          1
    14          4
    15         21
    24          2
    25         16
    26        101
    27        335
    28        680
    29        462
    30        106
    31          8
    39          9
    40         10
    41         79
    42        751
    43         92
    44         63
    45         24
    47          8
    48         14
    49         10
    50          1
    51         50
    52          5
    53          6
    54         58
    55         60
    56        695
    57        999
    58        942
    59         39
    60         15
    61         17
    62         19
    68         21
    69         22
    70        481
    71        157
    72        334
    73         35
    74          5
    78          1
    79          1
    80          8
    81          9
    82         19
    83         22
    84        543
    85        163
    86        605
    87         36
    88          1
    92          9
    93          1
    94          4
    95          7
    96         13
    97         42
    98         75
    99        184
   100         31
   101          2
   105          1
   106          2
   107          2
   108          3
   109          6
   110          4
   111         26
   112         43
   113         93
   114          9
   115          1
   125         22
   126         10
   127        306
   128         25
   129          1
   134          5
   135          3
   136          3
   137          1
   138          5
   139          6
   140         20
   141         45
   142        893
   143         90
   144          4