##TITLE=Library Entry 71572
##JCAMP-DX=Revision 4.10 
##DATA TYPE=MASS SPECTRUM
##SAMPLE DESCRIPTION=Tox21 Consortium/NIST Mass Spectrometry Data Center, 20
12
##NAMES=HP
##CAS NAME=Eperisone
##MOLFORM=C17H25NO
##CAS REGISTRY NO=64840-90-0
##MP= -300
##BP= -300
##MW= 259
##$RETENTION INDEX=0
##$CONDENSED SPECTRUM=NO
##NPOINTS= 96
##XYDATA=(XY..XY) 1 
    15          1
    26          1
    27         10
    28         12
    29         11
    30         10
    38          1
    39         17
    40          3
    41         65
    42         55
    43         11
    44         23
    45          1
    50          4
    51         10
    52          3
    53          8
    54          8
    55         63
    56         19
    57          6
    58          2
    62          1
    63          6
    64          2
    65          6
    66          1
    67          3
    68          7
    69         19
    70         24
    71          1
    74          1
    75          2
    76          4
    77         40
    78          9
    79         36
    80          4
    81          1
    82          5
    83          8
    84         15
    85          5
    86          1
    89         10
    90         10
    91         10
    92          1
    94          1
    95          1
    96         24
    97         35
    98        999
    99         68
   100          2
   101          1
   102          3
   103         27
   104          8
   105         40
   106          4
   110          5
   115          6
   116          2
   117          8
   118          4
   119          2
   124          5
   125          2
   126         14
   127          3
   128          2
   129          2
   130          1
   131          5
   132          2
   133        105
   134         11
   135          1
   138          1
   144          1
   145          6
   146          4
   147          1
   159          2
   160          1
   162          1
   174         10
   175          2
   216          1
   244          4
   245          1
   258          1
   259          2