##TITLE=Library Entry 44229
##JCAMP-DX=Revision 4.10 
##DATA TYPE=MASS SPECTRUM
##SAMPLE DESCRIPTION=Association of Official Racing Chemists
##NAMES=HP
##CAS NAME=Cannabidiol, 2TMS derivative
##MOLFORM=C27H46O2Si2
##CAS REGISTRY NO=64846-15-7
##MP= -300
##BP= -300
##MW= 458
##$RETENTION INDEX=2270
##$CONDENSED SPECTRUM=NO
##NPOINTS= 339
##XYDATA=(XY..XY) 1 
    46         12
    47         11
    48          1
    51          2
    53         26
    55         55
    56          5
    57          6
    59         35
    60          3
    61          7
    62          3
    63          2
    64          1
    65          4
    67         60
    68         84
    69         13
    70          4
    71          7
    73        999
    74         85
    75         97
    76          9
    77         16
    78          3
    79         20
    80          3
    81         18
    82          2
    83          7
    85          3
    86          2
    87          2
    89          2
    90          1
    91         31
    92          7
    93         35
    94          5
    95          7
    97          7
    98          2
    99          5
   100          1
   101          1
   102          2
   103          8
   105         24
   106          8
   107         44
   108          4
   109         24
   110          4
   111          1
   113          1
   115         14
   116          6
   117         11
   118          4
   119         18
   120          4
   121         29
   122          4
   123          5
   124          3
   125          2
   127          5
   128         17
   129         19
   130          4
   131          8
   133         40
   134         22
   135         14
   136          2
   137          3
   138          2
   139          3
   141         14
   142          6
   143          9
   144          3
   145          9
   147         66
   148         12
   149         16
   150          3
   151          6
   152          8
   153         10
   154          6
   155         15
   156          4
   157          7
   158          3
   159          6
   160          2
   161         12
   162          4
   163         10
   164          3
   165         15
   166          6
   167          8
   168          7
   169          9
   170          4
   171         13
   172          4
   173          6
   174          3
   175         11
   176          6
   177         19
   178         12
   179         17
   180          5
   181          8
   182          3
   183          7
   185         14
   186          3
   187          7
   188          3
   189         12
   190          8
   191         13
   192          6
   193         11
   194          5
   195         10
   196          3
   197          5
   198          5
   199         18
   200         10
   201         10
   202          6
   203         16
   204          7
   205          9
   206          5
   208          1
   209          2
   210          3
   211          7
   212          3
   213         16
   214         16
   215         54
   216         23
   217         22
   218          8
   219         13
   220          5
   221         10
   222          4
   223          9
   224          3
   225          8
   226          4
   227         13
   228         12
   229         68
   230         42
   231         73
   232         19
   233         27
   234          7
   235         10
   236          3
   237         11
   238          4
   239          7
   240          3
   241          8
   242          7
   243         33
   244         90
   245         47
   246         19
   247         29
   248          7
   249         29
   250          7
   251         11
   252          5
   253          8
   254          3
   255          9
   256          5
   257         17
   258          9
   259         12
   260          5
   261          8
   262          5
   263         12
   264          5
   265         20
   266          9
   267         12
   268         50
   269         15
   270          7
   271         19
   272          7
   273          9
   274          3
   275          5
   276          2
   277          8
   278          5
   279          5
   280          3
   281         14
   282         18
   283         10
   284          4
   285         15
   286          5
   287         14
   288          6
   289         12
   290          5
   291          4
   292          3
   293          6
   294          6
   295          4
   296         14
   297          7
   298          3
   299          5
   300         32
   301        192
   302         65
   303         35
   304         14
   305         10
   306          4
   307          4
   308          2
   309         10
   310          6
   311          3
   312          2
   313          3
   314          0
   315          2
   316          2
   317          8
   319         82
   320         33
   321         33
   322          7
   324         75
   325         29
   326         11
   327          2
   328          1
   329          1
   330          1
   331          2
   332          2
   333         13
   334          8
   335         27
   337        302
   338         95
   339         40
   340          6
   341          2
   343          2
   344          1
   345          1
   346          1
   347          4
   348          2
   349         20
   350         66
   351        118
   352         42
   353         14
   354          2
   355          1
   357          1
   358          0
   359          2
   360          1
   361          3
   362          0
   363          3
   364          7
   365          1
   368          1
   369          7
   370          3
   371          1
   372          0
   373          1
   375         43
   376         14
   377          7
   378          1
   379          0
   385          4
   386          1
   387          4
   390        453
   391        107
   392         45
   393          8
   394          1
   399          1
   401          3
   402          2
   403          4
   404          1
   413          0
   414          0
   415          6
   416          2
   417          1
   429          1
   430         10
   431          3
   432          1
   441          1
   442          0
   443         19
   444          7
   445          2
   446          1
   458         23
   459          9
   460          3
   461          0