##TITLE=Library Entry 7952
##JCAMP-DX=Revision 4.10 
##DATA TYPE=MASS SPECTRUM
##SAMPLE DESCRIPTION=ASES Database, Dalian Institute, P.R. China
##NAMES=HP
##CAS NAME=Neopentane-1,1-diol diacetate
##MOLFORM=C9H16O4
##CAS REGISTRY NO=64847-79-6
##MP= -300
##BP= -300
##MW= 188
##$RETENTION INDEX=0
##$CONDENSED SPECTRUM=NO
##NPOINTS= 16
##XYDATA=(XY..XY) 1 
    39         19
    41         90
    42         30
    43        999
    44         30
    57        319
    69         30
    71         49
    85         60
    86         19
    87        148
    99         10
   100         49
   103         89
   129        100
   131         59