##TITLE=Library Entry 10827
##JCAMP-DX=Revision 4.10 
##DATA TYPE=MASS SPECTRUM
##SAMPLE DESCRIPTION=ASES Database, Dalian Institute, P.R. China
##NAMES=HP
##CAS NAME=n-Hexane-1,1-diol diacetate
##MOLFORM=C10H18O4
##CAS REGISTRY NO=64847-81-0
##MP= -300
##BP= -300
##MW= 202
##$RETENTION INDEX=0
##$CONDENSED SPECTRUM=NO
##NPOINTS= 21
##XYDATA=(XY..XY) 1 
    39         40
    41         78
    42         30
    43        999
    44         50
    45          9
    55         30
    56         19
    57         20
    58         10
    61          9
    71         30
    72          9
    82         20
    83         49
    86         19
    99         50
   100         40
   103         89
   131         20
   143         49