##TITLE=Library Entry 952
##JCAMP-DX=Revision 4.10 
##DATA TYPE=MASS SPECTRUM
##SAMPLE DESCRIPTION=NIST Mass Spectrometry Data Center
##NAMES=HP
##CAS NAME=Morpholine, 2,6-dimethyl-, cis-
##MOLFORM=C6H13NO
##CAS REGISTRY NO=6485-55-8
##MP= -300
##BP= -300
##MW= 115
##$RETENTION INDEX=0
##$CONDENSED SPECTRUM=NO
##NPOINTS= 47
##XYDATA=(XY..XY) 1 
    12          2
    14         16
    15        107
    16          4
    18          9
    19         11
    26         27
    27        123
    28        290
    29        159
    30        999
    31         32
    33          3
    34          2
    37          5
    39        195
    40         52
    41        308
    42        651
    43        267
    44         94
    45         80
    46          3
    51          2
    52          5
    54         24
    56        408
    57         37
    58         12
    67          3
    68         29
    70        215
    71        517
    72         40
    73         17
    79          2
    80          2
    81          4
    84          2
    86          4
    94          1
    96          5
   100         27
   101          2
   113          2
   115        288
   116         23