##TITLE=Library Entry 57484
##JCAMP-DX=Revision 4.10 
##DATA TYPE=MASS SPECTRUM
##SAMPLE DESCRIPTION=Japan AIST/NIMC Database- Spectrum MS-IW- 752
##NAMES=HP
##CAS NAME=3,3-Dichloropivalic acid
##MOLFORM=C5H8Cl2O2
##CAS REGISTRY NO=64855-18-1
##MP= -300
##BP= -300
##MW= 170
##$RETENTION INDEX=0
##$CONDENSED SPECTRUM=NO
##NPOINTS= 128
##XYDATA=(XY..XY) 1 
    14          1
    15          6
    16          1
    17          1
    18          1
    25          1
    26          8
    27         95
    28         16
    29         48
    30          1
    31         22
    35          4
    36         55
    37          9
    38         23
    39        123
    40         12
    41        151
    42         16
    43        138
    44         69
    45        157
    46          4
    47          6
    48          8
    49         28
    50         12
    51         28
    52          6
    53        145
    54         36
    55        208
    56         16
    57         15
    58          3
    59        111
    60          6
    61         10
    62         11
    63         60
    64          5
    65         19
    66          1
    67          2
    68          5
    69         36
    70        125
    71         15
    72          3
    73         11
    74          3
    75         61
    76          9
    77         24
    78          3
    79          4
    81          8
    82          3
    83         40
    84          5
    85         25
    86        203
    87        999
    88         53
    89        124
    90        108
    91         85
    92         39
    93         16
    94          2
    95          2
    96          1
    97          7
    98          3
    99         68
   100          9
   101         15
   102          1
   103          1
   105          3
   107          3
   108          1
   109          7
   110         10
   111         72
   112          9
   113         44
   114          3
   115          7
   116         22
   117          6
   118          7
   119          6
   120          1
   121          3
   122          2
   123          8
   124          8
   125        196
   126         13
   127        121
   128          6
   129         19
   130          1
   134        130
   135        293
   136         58
   137         99
   138          6
   139          5
   141          1
   145          3
   147          3
   149          1
   152          1
   153          3
   154          1
   155         75
   156          4
   157         47
   158          3
   159          8
   160          1
   169          2
   170          6
   171          1
   172          4