##TITLE=Library Entry 69370
##JCAMP-DX=Revision 4.10 
##DATA TYPE=MASS SPECTRUM
##SAMPLE DESCRIPTION=G.-J. Wei et al., Food Chemistry 116 (2009) 774-778
##NAMES=HP
##CAS NAME=Methylselenol
##MOLFORM=CH4Se
##CAS REGISTRY NO=6486-05-1
##MP= -300
##BP= -300
##MW= 96
##$RETENTION INDEX=0
##$CONDENSED SPECTRUM=NO
##NPOINTS= 19
##XYDATA=(XY..XY) 1 
    41         35
    44         83
    76         20
    77         16
    78        285
    79        261
    80        505
    81         20
    82         31
    89        105
    90        139
    91        450
    92        257
    93        780
    94        280
    95        200
    96        999
    97        124
    98        252