##TITLE=Library Entry 9662
##JCAMP-DX=Revision 4.10 
##DATA TYPE=MASS SPECTRUM
##SAMPLE DESCRIPTION=DKFZ HD SCHMIDT, HEIDELBERG, GERMANY, F.R.G.
##NAMES=HP
##CAS NAME=4H-Cyclopropa[5',6']benz[1',2':7,8]azuleno[5,6-b]oxiren-4-one, 8,
8a-bis(acetyloxy)-2a-[(acetyloxy)methyl]-1,1a,1b,1c,2a,3,3a,6a,6b,7,8,8a-dod
ecahydro-6b-hydroxy-3a-methoxy-1,1,5,7-tetramethyl-, [1aR-(1a.alpha.,1b.beta
.,1c.alpha.,2a.alpha.,3a.alpha
##MOLFORM=C27H36O10
##CAS REGISTRY NO=64869-55-2
##MP= -300
##BP= -300
##MW= 520
##$RETENTION INDEX=0
##$CONDENSED SPECTRUM=NO
##NPOINTS= 439
##XYDATA=(XY..XY) 1 
    12          4
    13          5
    15        116
    16          8
    17          9
    18         22
    19          0
    25          2
    26          8
    27         51
    28         22
    29         65
    30         16
    31         27
    32          2
    34          0
    36          0
    37          2
    38          4
    39         73
    40         18
    41        196
    42         49
    43        999
    44        125
    45         64
    46          1
    47          1
    48          0
    49          0
    50          7
    51         24
    52         16
    53        138
    54         15
    55         98
    56         13
    57         63
    58          8
    59         23
    60         42
    61         12
    62          2
    63         11
    64          4
    65         43
    66         18
    67         70
    68         16
    69        276
    70         27
    71         25
    72          4
    73         42
    74          4
    75          5
    76          3
    77        100
    78         23
    79        111
    80         22
    81         65
    82         26
    83        348
    84         24
    85         41
    86          4
    87          8
    88          2
    89          6
    90          3
    91        125
    92         23
    93         53
    94         20
    95         81
    96         49
    97         34
    98         14
    99         23
   100          5
   101         45
   102          5
   103         29
   104         11
   105         86
   106         17
   107         86
   108         75
   109        151
   110         41
   111         44
   112         18
   113         16
   114         26
   115         37
   116         13
   117         29
   118          9
   119         42
   120         20
   121         90
   122         35
   123         60
   124        156
   125        174
   126         45
   127         28
   128         27
   129         35
   130         11
   131         31
   132         35
   133         72
   134         29
   135         70
   136         36
   137         53
   138         62
   139         39
   140         10
   141         32
   142         16
   143         24
   144         10
   145         39
   146         18
   147         45
   148         41
   149         93
   150         35
   151         75
   152         28
   153         24
   154         12
   155         18
   156         15
   157         23
   158         17
   159         41
   160         49
   161         81
   162         48
   163         62
   164         54
   165         72
   166         32
   167         35
   168         11
   169         23
   170         18
   171         34
   172         23
   173         41
   174         26
   175         60
   176         25
   177         58
   178         27
   179         37
   180         17
   181         24
   182         12
   183         23
   184         13
   185         33
   186         26
   187         34
   188         22
   189         47
   190         18
   191         49
   192         39
   193         52
   194         15
   195         22
   196         10
   197         27
   198         22
   199         28
   200         19
   201         66
   202         31
   203         34
   204         16
   205         24
   206         10
   207         19
   208         13
   209         26
   210         16
   211         33
   212         24
   213         45
   214         28
   215         44
   216         25
   217         31
   218         16
   219         36
   220         21
   221         20
   222         10
   223         25
   224         13
   225         25
   226         21
   227         26
   228         15
   229         29
   230         17
   231         20
   232          8
   233         25
   234         15
   235         16
   236          8
   237         24
   238         15
   239         43
   240         23
   241         33
   242         13
   243         30
   244         16
   245         33
   246         10
   247         17
   248          8
   249         13
   250         25
   251         28
   252         17
   253         29
   254         13
   255         31
   256         25
   257         30
   258         21
   259         22
   260         21
   261         44
   262         23
   263         16
   264          8
   265         27
   266         12
   267         35
   268         17
   269         26
   270         11
   271         17
   272         13
   273         22
   274         11
   275         20
   276          9
   277         11
   278          8
   279         31
   280         27
   281         24
   282         11
   283         20
   284         12
   285         16
   286          9
   287         11
   288          4
   289         13
   290         16
   291         16
   292         10
   293         29
   294         16
   295         22
   296         10
   297         27
   298         23
   299         21
   300          8
   301         14
   302          4
   303          7
   304          5
   305          3
   306          3
   307         31
   308         51
   309         29
   310         15
   311         19
   312         14
   313         13
   314          6
   315         13
   316         41
   317         18
   318          6
   319          4
   320          2
   321          4
   322          9
   323          9
   324          3
   325         22
   326         24
   327         30
   328          9
   329          8
   330          6
   331          7
   332          3
   333         10
   334          3
   335          5
   336          2
   337          2
   338          2
   339         12
   340         33
   341         19
   342          6
   343         11
   344          6
   345          7
   346          3
   347          2
   348          1
   349          5
   350          7
   351          3
   352          4
   353          9
   354          4
   355          4
   356          3
   357         16
   358         18
   359          8
   360          3
   361          2
   362          1
   363          1
   364          0
   365          0
   366          0
   367          2
   368         19
   369         12
   370          8
   371          7
   372          9
   373          4
   374          1
   375          2
   376          1
   377          1
   378          0
   379          0
   381          1
   382          4
   383         33
   384          9
   385         17
   386         18
   387         10
   388          3
   389          1
   390          2
   391          1
   392          0
   393          0
   397          0
   398          1
   399          2
   400         54
   401         24
   402          5
   403          4
   404          2
   405          1
   406          0
   407          0
   408          0
   409          0
   410          1
   411          0
   412          1
   413          1
   414          2
   415          1
   416          1
   417          4
   418         11
   419          3
   420          0
   421          0
   422          0
   426          0
   427          1
   428          4
   429          2
   430          1
   431          1
   432          2
   433          0
   434          0
   435          0
   436          0
   442         23
   443          7
   444          1
   445          3
   446          2
   447          1
   448          0
   458          0
   459          0
   460         33
   461         16
   462          3
   463          0
   474          0
   475          0
   476          1
   477          0
   478          1
   479          0
   488          0
   489          1
   490          2
   491          0
   492          0
   502          0
   520         27
   521          8
   522          1
   523          0