##TITLE=Library Entry 109850
##JCAMP-DX=Revision 4.10 
##DATA TYPE=MASS SPECTRUM
##SAMPLE DESCRIPTION=Patti Price, Georgia Bureau of Investigation, Decatur,
 Georgia
##NAMES=HP
##CAS NAME=Butoconazole
##MOLFORM=C19H17Cl3N2S
##CAS REGISTRY NO=64872-76-0
##MP= -300
##BP= -300
##MW= 410
##$RETENTION INDEX=0
##$CONDENSED SPECTRUM=NO
##NPOINTS= 214
##XYDATA=(XY..XY) 1 
    41         46
    42          1
    44          4
    45         37
    46          1
    47          1
    50          3
    51         14
    52         11
    53         32
    54         44
    55          7
    56          1
    57          1
    58          3
    59          5
    60          1
    61          1
    62          6
    63         31
    64          3
    65         10
    66          1
    67          8
    68          8
    69         96
    70          3
    71          1
    72          2
    73         12
    74          5
    75         19
    76          3
    77         31
    78          7
    79          4
    80         14
    81        119
    82        211
    83         30
    84          3
    85          1
    86          1
    87          1
    88          1
    89         89
    90         33
    91          9
    92          1
    93          2
    94          8
    95          3
    97          2
    98          2
    99         32
   100          1
   101         21
   102         12
   103         34
   104          6
   105          1
   106         10
   107         74
   108         34
   109          8
   110          1
   111          4
   112          2
   113          2
   114          2
   115         47
   116         26
   117          8
   118          1
   119          2
   120          1
   121         11
   123          1
   125        999
   126         78
   127        327
   128         62
   129         61
   130         54
   131          8
   132          1
   133         11
   134         23
   135          7
   136          2
   137          4
   138         11
   139         12
   140          4
   141          5
   142         53
   143         11
   144         20
   145          4
   146          3
   147          4
   148          2
   149          7
   150          2
   151        413
   152         45
   153        136
   154         14
   155          8
   156          8
   157          8
   158          1
   159          7
   161          2
   162          1
   163          2
   164          7
   165        173
   166         22
   167         55
   168         10
   169         20
   170          5
   171          7
   172          1
   173          1
   174          1
   177         17
   178         13
   179         12
   180          6
   181          8
   182          6
   183         18
   184          3
   185          9
   186          1
   187          2
   188          1
   189          1
   190          2
   191         76
   192         10
   193         45
   194          4
   195          8
   196          1
   197          4
   199          1
   203          3
   204         28
   205          5
   206         19
   207          2
   208          3
   209          2
   210          1
   211          2
   212         31
   213         28
   214         21
   215         18
   216          5
   217          4
   218          1
   219          1
   220          1
   221          1
   225          1
   226          2
   227          1
   228          1
   229          1
   231         12
   232         26
   233         85
   234         21
   235         27
   236          4
   237          3
   239          1
   241          1
   243          1
   244          1
   245          1
   249          1
   265          1
   267          1
   269          1
   270          1
   273          1
   285          2
   287          1
   299          1
   306          1
   309          1
   348          1
   374          1
   375         64
   376         17
   377         78
   378         20
   379         46
   380          9
   381         11
   382          2
   383          1
   410         51
   411         11
   412         51
   413         11
   414         18
   415          3
   416          2