##TITLE=Library Entry 44451
##JCAMP-DX=Revision 4.10 
##DATA TYPE=MASS SPECTRUM
##SAMPLE DESCRIPTION=M.Quilliam ET AL.Anal.Chem.,50,59(1978)
##NAMES=HP
##CAS NAME=Uridine, 3TBDMS derivative
##MOLFORM=C27H54N2O6Si3
##CAS REGISTRY NO=64898-15-3
##MP= -300
##BP= -300
##MW= 586
##$RETENTION INDEX=3115
##$CONDENSED SPECTRUM=NO
##NPOINTS= 139
##XYDATA=(XY..XY) 1 
    52          2
    55         14
    57         37
    59         48
    69         12
    70          2
    73        999
    74        101
    75        141
    76          2
    77          2
    81         46
    82          4
    83          4
    85         12
    89        516
    90         42
    91         16
    95          8
    96          2
    97          8
    99         69
   100         10
   101         18
   103          6
   111          6
   112          2
   113          8
   115        145
   116         27
   117         69
   118          2
   119          4
   124          4
   125          4
   126         12
   127         10
   129         90
   130          6
   131          8
   133        101
   134         10
   135         10
   137          2
   143         14
   145         69
   146          6
   147        267
   148        130
   149         78
   150          6
   151          6
   153         16
   155         16
   157          2
   159          4
   167          6
   168         23
   169        457
   170         71
   171         71
   172          4
   173         10
   174          6
   175         10
   177          2
   185          8
   187         16
   189         23
   190          2
   191        240
   195          2
   203          6
   207         14
   211        162
   212         27
   213         10
   215          2
   221          4
   222          2
   225          4
   226          2
   228         25
   229          6
   232         61
   233          2
   243         37
   244          6
   245         16
   259          6
   261        257
   262         61
   263         23
   264          4
   265        348
   266         69
   267         21
   269         35
   270          2
   283         42
   284         10
   285         80
   286         18
   287          8
   293          8
   301         56
   302         14
   303         27
   304          4
   307          4
   313         75
   314         21
   315          6
   323          4
   325          2
   327         10
   341          2
   343          6
   355          4
   357          6
   367          4
   383        158
   384         54
   385         18
   397         33
   398          8
   399          8
   417         71
   418         25
   419         10
   439          6
   471          2
   529        964
   530        468
   531        225
   532         63
   533         10
   571         21
   572          6