##TITLE=Library Entry 55556
##JCAMP-DX=Revision 4.10 
##DATA TYPE=MASS SPECTRUM
##SAMPLE DESCRIPTION=ASES Database, Dalian Institute, P.R. China
##NAMES=HP
##CAS NAME=2-Propenyl-1,3-dithiane
##MOLFORM=C7H12S2
##CAS REGISTRY NO=64899-10-1
##MP= -300
##BP= -300
##MW= 160
##$RETENTION INDEX=0
##$CONDENSED SPECTRUM=NO
##NPOINTS= 32
##XYDATA=(XY..XY) 1 
    39        221
    41        300
    45        480
    46        229
    47         98
    53        148
    54         29
    58         79
    59         91
    65         30
    71         91
    72        120
    73        199
    74        260
    81         69
    84         40
    85        999
    86        510
    95        210
    99         19
   100         30
   103        420
   105        120
   106         51
   111         39
   113         81
   114         40
   118         40
   119         79
   127         70
   145        100
   160        782