##TITLE=Library Entry 62627
##JCAMP-DX=Revision 4.10 
##DATA TYPE=MASS SPECTRUM
##SAMPLE DESCRIPTION=Japan AIST/NIMC Database- Spectrum MS-NW-4478
##NAMES=HP
##CAS NAME=Benzenesulfonamide, N,N-diethyl-4-methyl-
##MOLFORM=C11H17NO2S
##CAS REGISTRY NO=649-15-0
##MP= -300
##BP= -300
##MW= 227
##$RETENTION INDEX=0
##$CONDENSED SPECTRUM=NO
##NPOINTS= 107
##XYDATA=(XY..XY) 1 
    14          1
    15         11
    17          1
    18         19
    26          4
    27         41
    28         54
    29         64
    30          9
    32          6
    37          1
    38          5
    39         55
    40          6
    41         27
    42         78
    43          7
    44         89
    45          4
    48          1
    50          9
    51         22
    52          6
    53          4
    54          4
    55          3
    56         93
    57         11
    58         13
    61          2
    62          8
    63         34
    64         10
    65        146
    66          9
    67          2
    68          1
    69          2
    70          9
    71         13
    72         29
    73          1
    74          2
    75          3
    76          2
    77         12
    78          5
    79          4
    80          1
    81          2
    85          1
    86          1
    87          2
    88          1
    89         34
    90         26
    91        999
    92         88
    93          5
    95          1
   103          1
   104          2
   105          5
   106          4
   107          4
   108          2
   111          2
   113          1
   115          1
   117          1
   118          5
   119          2
   120          6
   121          2
   122          1
   123          2
   124          1
   132          1
   134          2
   135          1
   136          1
   139         17
   140          2
   141          1
   147          1
   148          1
   154          1
   155        872
   156         76
   157         46
   158          3
   162          2
   163          1
   184          2
   198          2
   211          2
   212        755
   213         94
   214         42
   215          5
   216          1
   225          1
   226          6
   227        116
   228         15
   229          6
   230          1