##TITLE=Library Entry 88150
##JCAMP-DX=Revision 4.10 
##DATA TYPE=MASS SPECTRUM
##SAMPLE DESCRIPTION=Pu Leung, NIH, Bethseda, MD
##NAMES=HP
##CAS NAME=Chlorsulfuron
##MOLFORM=C12H12ClN5O4S
##CAS REGISTRY NO=64902-72-3
##MP= -300
##BP= -300
##MW= 357
##$RETENTION INDEX=0
##$CONDENSED SPECTRUM=NO
##NPOINTS= 186
##XYDATA=(XY..XY) 1 
    41        153
    42        889
    43        293
    44         54
    45         36
    46         18
    47         11
    48         49
    49         66
    50        372
    51        189
    52         26
    53         70
    54         56
    55         77
    56        281
    57         80
    58        431
    59         15
    60         10
    61         51
    62         38
    63        105
    64         74
    65         19
    66         21
    67        171
    68        286
    69        994
    70         59
    71         19
    72         22
    73         72
    74        162
    75        690
    76        123
    77         26
    78          7
    79         13
    80         12
    81         20
    82         46
    83        108
    84         90
    85         97
    86         32
    87         42
    88          7
    89         12
    90         74
    91          9
    92         17
    93         13
    94         21
    95         84
    96         15
    97         15
    98         28
    99        146
   100         15
   101         19
   102          2
   103          2
   104          1
   105          5
   106         21
   107          7
   108         29
   109         24
   110        672
   111        999
   112         98
   113        391
   114         29
   115          3
   116          1
   117          2
   118          2
   119          2
   121          0
   122          1
   123          9
   124          9
   125         65
   126         31
   127        133
   128        107
   129         43
   130         43
   131         21
   132          2
   133          8
   134          3
   135          6
   136         59
   137          6
   139        170
   140        957
   141        141
   142         12
   143          3
   144          1
   145          0
   146          0
   147          1
   150         14
   151          3
   152          4
   153         16
   154          3
   155          5
   156          6
   157          3
   158          4
   159         18
   160          7
   161          5
   162          3
   163          0
   164          3
   165          4
   166        683
   167        137
   168         12
   169          2
   171          0
   173          2
   175        536
   176         39
   177        217
   178         15
   179         10
   180          2
   181          2
   182          3
   183          2
   184          0
   185          0
   186          1
   187          4
   188          0
   189          0
   191         30
   192          3
   193         12
   194          3
   195          0
   196          0
   203         12
   204          0
   205          1
   214          1
   215          5
   217        260
   218         24
   219         89
   220          9
   221          5
   222          0
   224          0
   230          3
   232          1
   240          0
   246          2
   250          0
   251          3
   253          0
   258        157
   259         23
   260          2
   293         21
   294          3
   295          7
   296          0
   306          3
   307          0
   315          1
   322         28
   323          4
   324          2
   340          1
   342          0
   356          2
   357          7
   358          2
   359          3