##TITLE=Library Entry 7780
##JCAMP-DX=Revision 4.10 
##DATA TYPE=MASS SPECTRUM
##SAMPLE DESCRIPTION=FDA, Los Angeles District Laboratory
##NAMES=HP
##CAS NAME=Lauric acid .beta.-chloroethyl ester
##MOLFORM=C14H27ClO2
##CAS REGISTRY NO=64919-15-9
##MP= -300
##BP= -300
##MW= 262
##$RETENTION INDEX=1799
##$CONDENSED SPECTRUM=NO
##NPOINTS= 62
##XYDATA=(XY..XY) 1 
    41        579
    42        195
    43        999
    44         55
    45         30
    53         35
    54         50
    55        554
    56        250
    57        934
    58         45
    60        105
    61         65
    62        904
    63        609
    64        305
    65        180
    67         50
    68         40
    69        205
    70         45
    71        145
    73        140
    81         40
    82         25
    83        145
    84        100
    85         85
    86        250
    87        190
    95         60
    96         20
    97        135
    98         75
    99         35
   101         30
   107         25
   109         30
   111         25
   121         20
   122        669
   123        145
   124        195
   125         55
   135        614
   136         40
   137        215
   138         35
   149         45
   163         45
   177         60
   179         20
   183        295
   184         55
   191        110
   192         20
   193         35
   219         75
   221         25
   233         20
   262         45
   264         20