##TITLE=Library Entry 60988
##JCAMP-DX=Revision 4.10 
##DATA TYPE=MASS SPECTRUM
##SAMPLE DESCRIPTION=Div. of Experiment Therapeutics WRAIR, WRAMC, Wash. DC
 20307
##NAMES=HP
##CAS NAME=Benzenebutanoic acid, .alpha.-oxo-, ethyl ester
##MOLFORM=C12H14O3
##CAS REGISTRY NO=64920-29-2
##MP= -300
##BP= -300
##MW= 206
##$RETENTION INDEX=0
##$CONDENSED SPECTRUM=NO
##NPOINTS= 144
##XYDATA=(XY..XY) 1 
    41         24
    42         13
    43         32
    44         41
    45         22
    46          1
    47          7
    48          0
    49         18
    50         30
    51        112
    52         23
    53         14
    54          0
    55         33
    56          3
    57          6
    58          2
    59          2
    60          2
    61          2
    62          9
    63         38
    65        131
    66          9
    67          2
    68          1
    69         11
    70          5
    71         34
    73          6
    74         10
    75         12
    76         28
    77        192
    78         70
    79         95
    80          7
    82          1
    83          5
    84         10
    85          2
    86          9
    87          5
    88          1
    89         30
    91        999
    92         99
    93          8
    94          1
    95          2
    96          1
    97          3
    98          0
    99          2
   101          9
   102         18
   103        149
   104        147
   105        660
   106         35
   107         42
   108          2
   109          1
   110          0
   111          2
   113          0
   115         30
   116         11
   117         55
   118         13
   119         13
   120         15
   121         89
   122          8
   123          1
   124          0
   125          1
   126          0
   127          4
   128          5
   129         10
   130          2
   131        101
   132         14
   133        256
   134         29
   135          7
   136          2
   137          2
   138          4
   139          2
   141          2
   142          2
   143          5
   144          6
   145          6
   146          3
   147         11
   148          5
   149          7
   150         17
   151          2
   152          2
   153          0
   155          2
   156          0
   157          3
   158          2
   159          7
   160         13
   161          6
   162         12
   163          5
   164          1
   165          3
   166          1
   167          3
   169          0
   171          2
   172          0
   173          3
   174          2
   175          3
   176          9
   177         15
   178         21
   179          4
   180          4
   181          2
   182          0
   183          1
   185          2
   187          2
   188         25
   189          8
   190          8
   191          6
   192          4
   204          1
   205         17
   206         58
   207          7
   208          0