##TITLE=Library Entry 31079
##JCAMP-DX=Revision 4.10 
##DATA TYPE=MASS SPECTRUM
##SAMPLE DESCRIPTION=Chemical Concepts
##NAMES=HP
##CAS NAME=1,3-Dithiane-2-thione, 4,6-dimethyl-
##MOLFORM=C6H10S3
##CAS REGISTRY NO=64923-46-2
##MP= -300
##BP= -300
##MW= 178
##$RETENTION INDEX=0
##$CONDENSED SPECTRUM=NO
##NPOINTS= 99
##XYDATA=(XY..XY) 1 
    26         10
    27        106
    29         62
    30          1
    33          3
    34          6
    35          9
    37          4
    38         13
    39        157
    40         25
    41        398
    42         63
    43         22
    44         22
    45        173
    46         10
    47         26
    48          1
    49          2
    50          7
    51         13
    52          4
    53         58
    54          8
    55         89
    56         15
    57         17
    58         39
    59        234
    60        999
    61        195
    62         44
    63         11
    64         44
    65         12
    66          4
    67         43
    68         27
    69        374
    70         30
    71         14
    72          7
    73         77
    74         62
    75          6
    76        100
    77         21
    78          9
    79          3
    81          4
    82          2
    83          6
    84          3
    85         19
    86          2
    87         85
    88          5
    89          5
    91          3
    92          2
    93          2
    95          2
    96          3
    97          5
    98          2
    99          5
   101          9
   102         14
   103          2
   104          2
   105          1
   108         18
   109          4
   110          3
   111          3
   112          1
   113          4
   114          2
   115          2
   117          1
   118          1
   120          1
   121          2
   123          1
   125          2
   134        222
   135         15
   136         20
   137          2
   138          2
   145          2
   146          1
   149          1
   178        675
   179         54
   180         80
   181          7
   182          4