##TITLE=Library Entry 9666
##JCAMP-DX=Revision 4.10 
##DATA TYPE=MASS SPECTRUM
##SAMPLE DESCRIPTION=R.T. LOEFFLER,LONG ASHTON RES. STN.,LONG ASHTON,BRISTOL
,U.K.
##NAMES=HP
##CAS NAME=3-Methyl-1-[(1H)-1,2,4-triazol-1-yl]butan-2-one
##MOLFORM=C7H11N3O
##CAS REGISTRY NO=64922-02-7
##MP= -300
##BP= -300
##MW= 153
##$RETENTION INDEX=0
##$CONDENSED SPECTRUM=NO
##NPOINTS= 18
##XYDATA=(XY..XY) 1 
    39         48
    40         29
    41        262
    42         41
    43        999
    44         35
    53          8
    54         20
    55        135
    56         81
    57          5
    69         15
    71        451
    72         20
    82        278
    83        710
    84         39
   154         22