##TITLE=Library Entry 67276
##JCAMP-DX=Revision 4.10 
##DATA TYPE=MASS SPECTRUM
##SAMPLE DESCRIPTION=Exported from NIST MS Search
##NAMES=HP
##CAS NAME=3-Cyclohexene-1-carboxylic acid, 4-methyl-, methyl ester
##MOLFORM=C9H14O2
##CAS REGISTRY NO=6493-79-4
##MP= -300
##BP= -300
##MW= 154
##$RETENTION INDEX=1572
##$CONDENSED SPECTRUM=NO
##NPOINTS= 102
##XYDATA=(XY..XY) 1 
    14          0
    15         42
    16          1
    17          2
    18          6
    26          4
    27         74
    28         12
    29         35
    30          1
    31          4
    32          4
    33          5
    37          1
    38          7
    39        107
    40         24
    41        101
    42         11
    43         36
    44          3
    45         13
    46          3
    47          2
    50         10
    51         34
    52         17
    53         86
    54         15
    55        156
    56          8
    57          4
    59         40
    60          1
    61         13
    62          4
    63         11
    64          2
    65         40
    66         16
    67        228
    68        166
    69         19
    70          1
    71          6
    72          5
    73          3
    74          7
    75          1
    76          1
    77        125
    78         29
    79        514
    80         78
    81         39
    82          8
    83          6
    84          2
    85         16
    86          1
    87         31
    88          1
    89          2
    90          0
    91         72
    92         41
    93        156
    94        999
    95        593
    96         43
    97         10
    98          4
    99          3
   100          7
   101          1
   103          1
   104          1
   105          5
   106          0
   107         28
   108          4
   109         10
   110          2
   111         25
   112          4
   113          2
   119          2
   121         12
   122        198
   123        114
   124         10
   125         15
   126          7
   127          1
   135          0
   137          6
   138          1
   139         30
   140          3
   154        247
   155         25
   156          2