##TITLE=Library Entry 28323
##JCAMP-DX=Revision 4.10 
##DATA TYPE=MASS SPECTRUM
##SAMPLE DESCRIPTION=V.A.KOPTYUG, ATLAS OF MASS SPECTRA OF ORGANIC COMPOUNDS
##NAMES=HP
##CAS NAME=2,2,4,5,5-Pentamethyl-3-imidazoline-3-oxide
##MOLFORM=C8H16N2O
##CAS REGISTRY NO=64934-83-4
##MP= -300
##BP= -300
##MW= 156
##$RETENTION INDEX=0
##$CONDENSED SPECTRUM=NO
##NPOINTS= 93
##XYDATA=(XY..XY) 1 
    26          5
    27         40
    28         44
    29        225
    30         20
    31          7
    32          8
    37          1
    38          5
    39         63
    40         20
    41        450
    42        338
    43         21
    44          6
    45          2
    50          3
    51          8
    52          7
    53         33
    54         16
    55         13
    56        370
    57        406
    58        999
    59        144
    60          5
    61          1
    62          1
    63          9
    64          1
    65          4
    66          4
    67         22
    68         14
    69        568
    70         41
    71         13
    72          2
    73         19
    74          2
    77          1
    78          1
    79          1
    80          4
    81          4
    82          2
    83         14
    84         61
    85          5
    87          5
    90          1
    92          1
    93          1
    94          4
    95          5
    96         11
    97          4
    98         19
    99         57
   100         11
   101         38
   102          3
   103          1
   104          1
   105          1
   106          1
   107          2
   108          5
   109         14
   110         15
   111          3
   115          3
   120          3
   121          1
   123          8
   124          5
   125         23
   126          4
   127          1
   128          1
   129          1
   130          1
   131          1
   137          1
   138          1
   139          1
   140          2
   141         18
   142          2
   156        356
   157         33
   158          3