##TITLE=Library Entry 49566
##JCAMP-DX=Revision 4.10 
##DATA TYPE=MASS SPECTRUM
##SAMPLE DESCRIPTION=NIST Mass Spectrometry Data Center, 1994
##NAMES=HP
##CAS NAME=3-Cyclohexene-1-carboxylic acid, methyl ester
##MOLFORM=C8H12O2
##CAS REGISTRY NO=6493-77-2
##MP= -300
##BP= -300
##MW= 140
##$RETENTION INDEX=1447
##$CONDENSED SPECTRUM=NO
##NPOINTS= 76
##XYDATA=(XY..XY) 1 
    12          2
    13          5
    15        393
    16          7
    18          1
    26         56
    27        359
    28         79
    29        143
    30         29
    31         31
    32          3
    33         18
    37         12
    38         45
    39        420
    40         55
    41        300
    42         25
    43         52
    44          6
    45         28
    47          5
    50         83
    51        158
    52         89
    53        286
    54        177
    55        138
    56          7
    57          7
    58          5
    59        114
    60          2
    61         20
    62          7
    63         19
    64          2
    65         65
    66         65
    67         57
    68         21
    69         21
    71         14
    72          2
    74         26
    75          4
    77        225
    79        800
    80        999
    81        921
    82         63
    83         20
    84          6
    85          9
    87          7
    91          6
    92          1
    93         11
    95          5
    97         30
    98         11
    99          7
   105          2
   108        382
   109        142
   110         14
   111         47
   112         14
   113          4
   121          1
   123          1
   125         22
   126          1
   140        142
   141         11