##TITLE=Library Entry 49682
##JCAMP-DX=Revision 4.10 
##DATA TYPE=MASS SPECTRUM
##SAMPLE DESCRIPTION=F. TURECEK,HEYROVSKY INST PHYS CHEM & ELECTROCHEM,PRAGU
E,CZECH
##NAMES=HP
##CAS NAME=endo-(2S,7R)-Tricyclo[6.2.2.0(2,7)]-9-dodecene-3,6-dione
##MOLFORM=C12H14O2
##CAS REGISTRY NO=64989-24-8
##MP= -300
##BP= -300
##MW= 190
##$RETENTION INDEX=0
##$CONDENSED SPECTRUM=NO
##NPOINTS= 79
##XYDATA=(XY..XY) 1 
    26         40
    27        120
    29         20
    38         10
    39        120
    40         20
    41         50
    42         20
    43         15
    50         30
    51        100
    52         60
    53         50
    54         30
    55         70
    56        210
    57         20
    62          7
    63         20
    64          5
    65         50
    66         30
    67         25
    68         15
    69          5
    70         10
    77        150
    78        210
    79        350
    80        999
    81         80
    82         30
    83         20
    84         20
    85         10
    91        120
    92        100
    93         20
    94         15
    95         10
    96          7
    97          5
    98          5
    99         60
   103         16
   104         10
   105         70
   106         30
   107         70
   108         30
   110         20
   111         50
   112         90
   115         10
   116         10
   117         35
   118         19
   119         16
   120         13
   121         10
   128          3
   129         20
   130         40
   131         16
   132          2
   133         30
   134         20
   135          8
   145          5
   146          7
   147         25
   148         20
   149         10
   161         30
   162         70
   163         10
   190        410
   191         50
   192          6