##TITLE=Library Entry 5009
##JCAMP-DX=Revision 4.10 
##DATA TYPE=MASS SPECTRUM
##SAMPLE DESCRIPTION=Chemical Concepts
##NAMES=HP
##CAS NAME=1-(2-Methylallyl)-aziridine
##MOLFORM=C6H11N
##CAS REGISTRY NO=6498-86-8
##MP= -300
##BP= -300
##MW= 97
##$RETENTION INDEX=0
##$CONDENSED SPECTRUM=NO
##NPOINTS= 37
##XYDATA=(XY..XY) 1 
    26         21
    27         97
    28        123
    29        108
    30         31
    37          7
    38         19
    39        133
    40         35
    41        150
    42        999
    43         42
    44          7
    49          2
    50          9
    51         16
    52          8
    53         39
    54         28
    55         91
    56        154
    57         23
    65          2
    66          2
    67         13
    68         41
    69         81
    70          8
    80          6
    81         10
    82        140
    83          9
    94          5
    95          2
    96        232
    97         92
    98          6