##TITLE=Library Entry 82450
##JCAMP-DX=Revision 4.10 
##DATA TYPE=MASS SPECTRUM
##SAMPLE DESCRIPTION=Japan AIST/NIMC Database- Spectrum MS-IW-4355
##NAMES=HP
##CAS NAME=4-Bromo-N-methyl-N-phenylbenzenesulfonamide
##MOLFORM=C13H12BrNO2S
##CAS REGISTRY NO=64999-91-3
##MP= -300
##BP= -300
##MW= 325
##$RETENTION INDEX=0
##$CONDENSED SPECTRUM=NO
##NPOINTS= 91
##XYDATA=(XY..XY) 1 
    15          1
    27          3
    28          3
    30          1
    38          3
    39         19
    40          1
    41          1
    42          2
    44          1
    50         23
    51         38
    52          7
    53          3
    54          1
    62          2
    63         11
    64          9
    65         15
    66          4
    67          1
    69          1
    74          8
    75         32
    76         32
    77        267
    78         58
    79        149
    80         10
    81          1
    82          1
    89          1
    90          5
    91          6
    92          3
    93          1
    96          2
   104         62
   105         43
   106        999
   107         95
   108          4
   115          1
   120          9
   121          1
   129          1
   131          1
   139          2
   140          2
   141          8
   142          1
   152          2
   153          1
   155         34
   156          3
   157         33
   158          3
   166          2
   167         16
   168          2
   180          2
   181         35
   182        115
   183         16
   184          1
   203          2
   205          2
   206          1
   208          1
   219         10
   220         45
   221         14
   222         44
   223          5
   235          1
   237          1
   246          3
   247          3
   248          3
   260         34
   261        202
   262         62
   263        198
   264         28
   265          1
   325        253
   326         40
   327        261
   328         40
   329         13
   330          1