##TITLE=Library Entry 89695
##JCAMP-DX=Revision 4.10 
##DATA TYPE=MASS SPECTRUM
##SAMPLE DESCRIPTION=Japan AIST/NIMC Database- Spectrum MS-NW-9238
##NAMES=HP
##CAS NAME=Cytidine
##MOLFORM=C9H13N3O5
##CAS REGISTRY NO=65-46-3
##MP= -300
##BP= -300
##MW= 243
##$RETENTION INDEX=0
##$CONDENSED SPECTRUM=NO
##NPOINTS= 156
##XYDATA=(XY..XY) 1 
    14          3
    15         17
    16         10
    17         27
    18        101
    19          2
    26          9
    27         28
    28         89
    29         53
    30         17
    31         56
    32          7
    33          1
    37          1
    38          4
    39         16
    40         33
    41         61
    42         90
    43         91
    44         72
    45         40
    46          7
    47          6
    51          3
    52         24
    53         10
    54         20
    55         45
    56         34
    57         99
    58         15
    59          7
    60         34
    61         30
    62          1
    64          1
    65          3
    66         11
    67         49
    68         94
    69        145
    70         44
    71         36
    72         12
    73         86
    74         18
    75          2
    77          1
    78          2
    79         15
    80          5
    81         16
    82          9
    83         48
    84         24
    85         30
    86         13
    87          5
    88          1
    89          2
    91          1
    92          2
    93          7
    94         57
    95         96
    96         42
    97         24
    98          5
    99          1
   100          2
   101          3
   102          2
   103          4
   105          2
   106          1
   107          3
   108          3
   109         12
   110         19
   111        290
   112        999
   113         68
   114         16
   115          6
   116          1
   118          1
   119          2
   120          2
   121          4
   122         14
   123         10
   124         11
   125         11
   126         12
   127          2
   128          1
   132          6
   133         10
   134          6
   135          9
   136         15
   137          5
   138         10
   139          6
   140        424
   141         32
   142          4
   143          1
   144          2
   146          1
   147          1
   148          4
   149          2
   150          2
   151        268
   152         26
   153          6
   154         60
   155          5
   160          4
   161          1
   162          1
   163          2
   164          2
   165          3
   166          3
   167          1
   168          2
   169          8
   170         81
   171          7
   172          1
   175          1
   176          1
   177          2
   178         19
   179          2
   182          3
   183          1
   184          1
   194          3
   196          2
   200          2
   208          2
   212          3
   213          5
   214          2
   215          1
   225          1
   226          2
   242          1
   243          3
   244         11
   245          1