##TITLE=Library Entry 33877
##JCAMP-DX=Revision 4.10 
##DATA TYPE=MASS SPECTRUM
##SAMPLE DESCRIPTION=Japan AIST/NIMC Database- Spectrum MS-NW- 423
##NAMES=HP
##CAS NAME=Orotic acid
##MOLFORM=C5H4N2O4
##CAS REGISTRY NO=65-86-1
##MP= -300
##BP= -300
##MW= 156
##$RETENTION INDEX=0
##$CONDENSED SPECTRUM=NO
##NPOINTS= 97
##XYDATA=(XY..XY) 1 
    12          1
    13          2
    14          3
    16          2
    17          1
    18          3
    24          1
    25          4
    26          4
    27         10
    28         46
    29         12
    30          1
    32          5
    34          1
    36          2
    37          1
    38         19
    39         60
    40        212
    41         42
    42         21
    43         21
    44         40
    45         34
    46          2
    47          1
    50          5
    51          7
    52          5
    53         26
    54          7
    55          9
    56          4
    57          9
    59          1
    60          5
    61          1
    63          1
    64          1
    65          3
    66          4
    67         61
    68        999
    69        168
    70         25
    71          5
    72          1
    73          6
    74          3
    75          2
    76          6
    77          8
    78          2
    79          1
    80          1
    81          4
    82          3
    83          5
    84          8
    85         12
    86          3
    87          1
    89          1
    90          1
    91          1
    93          2
    94          2
    95          2
    96          2
    97          4
    98          3
    99          1
   104          5
   105         11
   106          2
   107          1
   109          1
   110          4
   111          3
   112         24
   113         94
   114          9
   115          2
   120          1
   121          1
   125          1
   129          3
   132          1
   133          3
   134          3
   138          1
   139          9
   140          1
   156        642
   157         42
   158          7