##TITLE=Library Entry 97273
##JCAMP-DX=Revision 4.10 
##DATA TYPE=MASS SPECTRUM
##SAMPLE DESCRIPTION=Japan AIST/NIMC Database- Spectrum MS-IW-1577
##NAMES=HP
##CAS NAME=L-Methionine, N-acetyl-
##MOLFORM=C7H13NO3S
##CAS REGISTRY NO=65-82-7
##MP= -300
##BP= -300
##MW= 191
##$RETENTION INDEX=0
##$CONDENSED SPECTRUM=NO
##NPOINTS= 118
##XYDATA=(XY..XY) 1 
    14          2
    15         32
    16          1
    17          4
    18         23
    19          1
    26          4
    27         40
    28         87
    29         23
    30         26
    31          3
    32          1
    34          1
    35         24
    36          1
    37          1
    38          2
    39         16
    40          4
    41         57
    42         43
    43        414
    44         59
    45         44
    46         20
    47         55
    48         15
    49         14
    50          1
    51          1
    52          2
    53          3
    54         19
    55         29
    56        220
    57        191
    58         14
    59         18
    60         34
    61        257
    62         19
    63         11
    64          1
    65          1
    67          1
    68          7
    69          3
    70          9
    71         53
    72         11
    73         17
    74        137
    75        245
    76         10
    77          9
    81          1
    82          2
    83         31
    84         27
    85         13
    86         24
    87         33
    88        160
    89          9
    90          4
    95          1
    96          1
    97         10
    98         48
    99        767
   100        104
   101         23
   102         81
   103          7
   104         70
   105          4
   106          3
   111          2
   112        115
   113          7
   114         26
   115          2
   116         39
   117        999
   118         52
   119          8
   120          2
   125         31
   126          9
   127          1
   128          4
   129          2
   130        218
   131         65
   132         49
   133          7
   134          9
   135          1
   142          2
   143          6
   144         95
   145          9
   146         15
   147          4
   148         47
   149          8
   150          4
   155          1
   158          2
   173         46
   174         10
   175          3
   176          4
   191        605
   192        101
   193         36
   194          5