##TITLE=Library Entry 72544
##JCAMP-DX=Revision 4.10 
##DATA TYPE=MASS SPECTRUM
##SAMPLE DESCRIPTION=Chemical Concepts
##NAMES=HP
##CAS NAME=1,4-Dioxaspiro[4.5]decane-7-carboxaldehyde
##MOLFORM=C9H14O3
##CAS REGISTRY NO=65005-14-3
##MP= -300
##BP= -300
##MW= 170
##$RETENTION INDEX=0
##$CONDENSED SPECTRUM=NO
##NPOINTS= 70
##XYDATA=(XY..XY) 1 
    26         11
    27         73
    28         10
    29         35
    31         13
    38          6
    39         92
    40         21
    41        298
    42        116
    43         89
    44         11
    45         32
    50          6
    51         13
    52         10
    53         46
    54         11
    55        215
    56         20
    57         12
    61          4
    65         15
    66          8
    67         39
    68         19
    69         84
    70         16
    71          9
    73         17
    74          4
    77         33
    78          4
    79         58
    80         10
    81         43
    82          8
    83         17
    84         10
    85          5
    86        256
    87         15
    88          6
    91          4
    93          4
    95         11
    96          7
    97         76
    98         20
    99        999
   100         94
   101          8
   107          6
   109         15
   110         10
   111         33
   112         25
   113        239
   114         13
   115          6
   125         10
   127          8
   128         11
   140          4
   141        703
   142        233
   143         18
   169          4
   170          6
   171          0