##TITLE=Library Entry 78812
##JCAMP-DX=Revision 4.10 
##DATA TYPE=MASS SPECTRUM
##SAMPLE DESCRIPTION=Chemical Concepts
##NAMES=HP
##CAS NAME=3-Buten-2-ol, benzoate
##MOLFORM=C11H12O2
##CAS REGISTRY NO=65001-62-9
##MP= -300
##BP= -300
##MW= 176
##$RETENTION INDEX=0
##$CONDENSED SPECTRUM=NO
##NPOINTS= 65
##XYDATA=(XY..XY) 1 
    26          4
    27         38
    29         37
    37          2
    38          4
    39         67
    40          4
    41          6
    43         13
    44          8
    45          4
    49          3
    50         36
    51        118
    52         14
    53         32
    54         90
    55        256
    56         15
    57          3
    62          2
    63          2
    65          3
    67          3
    69          2
    70          2
    71         40
    72          2
    73          3
    74          9
    75         10
    76         20
    77        305
    78         30
    79         23
    80          2
    81          2
    91          5
   103          5
   105        999
   106         87
   107          7
   115          5
   117         13
   118          2
   119          2
   121          2
   122         10
   123         36
   124          4
   129          2
   130          2
   131         17
   132          2
   133          2
   134          5
   135          2
   148         12
   149          2
   150          2
   158          3
   161          3
   162          2
   176         26
   177          4