##TITLE=Library Entry 71326
##JCAMP-DX=Revision 4.10 
##DATA TYPE=MASS SPECTRUM
##SAMPLE DESCRIPTION=Japan AIST/NIMC Database- Spectrum MS-IW-1783
##NAMES=HP
##CAS NAME=3-Heptylthiophene
##MOLFORM=C11H18S
##CAS REGISTRY NO=65016-61-7
##MP= -300
##BP= -300
##MW= 182
##$RETENTION INDEX=0
##$CONDENSED SPECTRUM=NO
##NPOINTS= 89
##XYDATA=(XY..XY) 1 
    15          1
    26          1
    27         37
    28          8
    29         39
    30          1
    32          2
    38          2
    39         39
    40          3
    41         61
    42          7
    43         58
    44          2
    45         63
    46          1
    47          4
    50          2
    51          9
    52          3
    53         39
    54          3
    55         20
    56          7
    57         37
    58          7
    59          3
    62          1
    63          3
    65          9
    66          4
    67         12
    68          1
    69          9
    70          5
    71         23
    72          1
    73          1
    77         16
    78          7
    79          7
    80          1
    81          3
    82          2
    83          2
    84         18
    85         39
    86          4
    87          2
    91          7
    92          1
    93          3
    95          2
    97        629
    98        999
    99        100
   100         48
   101          3
   105          2
   106          1
   107          1
   108          1
   109          6
   110         13
   111        188
   112         22
   113         10
   114          1
   119          1
   121          2
   123          6
   124          1
   125         11
   126          9
   127          3
   135          6
   139         21
   140         15
   141          3
   148          1
   149          1
   153          8
   154          3
   155          1
   181          1
   182        227
   183         29
   184         11
   185          1