##TITLE=Library Entry 71316
##JCAMP-DX=Revision 4.10 
##DATA TYPE=MASS SPECTRUM
##SAMPLE DESCRIPTION=Japan AIST/NIMC Database- Spectrum MS-IW-3601
##NAMES=HP
##CAS NAME=3-Decylthiophene
##MOLFORM=C14H24S
##CAS REGISTRY NO=65016-55-9
##MP= -300
##BP= -300
##MW= 224
##$RETENTION INDEX=0
##$CONDENSED SPECTRUM=NO
##NPOINTS= 98
##XYDATA=(XY..XY) 1 
    27         19
    28          6
    29         34
    32          2
    38          1
    39         22
    40          2
    41         65
    42          6
    43         44
    44          2
    45         38
    46          1
    47          3
    50          1
    51          5
    52          2
    53         26
    54          3
    55         27
    56          4
    57         12
    58          4
    59          2
    63          2
    65          8
    66          3
    67         11
    68          1
    69          8
    70          2
    71          6
    73          1
    77         12
    78          5
    79          7
    80          1
    81          3
    82          1
    83          2
    84         12
    85         36
    86          4
    87          2
    91          6
    92          1
    93          4
    94          1
    95          3
    97        466
    98        999
    99         97
   100         51
   101          3
   105          2
   106          1
   107          2
   109          4
   110         13
   111        162
   112         19
   113          9
   114          1
   119          1
   121          2
   123          6
   124          2
   125          9
   126          5
   127          1
   128          1
   133          1
   135          1
   137          1
   139         18
   140         15
   141          3
   142          1
   153          9
   154          6
   155          1
   163          1
   167          6
   168          4
   169          1
   177          6
   178          1
   181          8
   182          5
   183          1
   191          1
   195          3
   196          2
   223          1
   224        142
   225         22
   226          8
   227          1