##TITLE=Library Entry 71328
##JCAMP-DX=Revision 4.10 
##DATA TYPE=MASS SPECTRUM
##SAMPLE DESCRIPTION=Japan AIST/NIMC Database- Spectrum MS-IW- 905
##NAMES=HP
##CAS NAME=3-Octylthiophene
##MOLFORM=C12H20S
##CAS REGISTRY NO=65016-62-8
##MP= -300
##BP= -300
##MW= 196
##$RETENTION INDEX=0
##$CONDENSED SPECTRUM=NO
##NPOINTS= 87
##XYDATA=(XY..XY) 1 
    27         14
    28          5
    29         21
    32          1
    39         15
    40          1
    41         39
    42          4
    43         21
    44          1
    45         31
    47          2
    51          3
    52          1
    53         23
    54          2
    55         13
    56          2
    57         11
    58          3
    59          1
    63          1
    65          6
    66          2
    67          9
    68          1
    69          5
    70          1
    71          4
    77         10
    78          4
    79          6
    80          1
    81          3
    82          1
    84         11
    85         33
    86          3
    87          2
    91          5
    92          1
    93          3
    94          1
    95          2
    96          1
    97        432
    98        999
    99         89
   100         47
   101          3
   105          2
   107          2
   109          3
   110          8
   111        154
   112         20
   113          8
   114          1
   119          1
   121          2
   123          4
   124          1
   125          9
   126          6
   127          1
   133          1
   134          1
   135          2
   137          1
   139         16
   140         12
   141          2
   149          9
   150          1
   153         12
   154          8
   155          1
   162          1
   163          1
   166          5
   167          5
   168          2
   195          1
   196        186
   197         25
   198          9
   199          1