##TITLE=Library Entry 71329
##JCAMP-DX=Revision 4.10 
##DATA TYPE=MASS SPECTRUM
##SAMPLE DESCRIPTION=Japan AIST/NIMC Database- Spectrum MS-IW- 900
##NAMES=HP
##CAS NAME=3-Nonylthiophene
##MOLFORM=C13H22S
##CAS REGISTRY NO=65016-63-9
##MP= -300
##BP= -300
##MW= 210
##$RETENTION INDEX=0
##$CONDENSED SPECTRUM=NO
##NPOINTS= 84
##XYDATA=(XY..XY) 1 
    27          8
    28          2
    29         14
    39          9
    40          1
    41         28
    42          2
    43         19
    45         19
    47          1
    51          2
    52          1
    53         15
    54          1
    55         12
    56          2
    57          7
    58          2
    59          1
    65          4
    66          2
    67          8
    68          1
    69          5
    70          1
    71          3
    77          9
    78          3
    79          5
    80          1
    81          2
    83          1
    84          9
    85         28
    86          3
    87          2
    91          4
    92          1
    93          3
    94          1
    95          2
    96          1
    97        360
    98        999
    99         86
   100         47
   101          3
   105          2
   107          2
   109          2
   110          7
   111        140
   112         18
   113          8
   114          1
   119          1
   121          1
   123          3
   124          1
   125          9
   126          7
   127          1
   133          1
   139         17
   140         15
   141          3
   149          2
   153          9
   154          6
   155          1
   163          9
   164          1
   167          9
   168          7
   169          1
   176          1
   177          1
   181          5
   182          2
   209          1
   210        173
   211         26
   212          9
   213          1