##TITLE=Library Entry 23043
##JCAMP-DX=Revision 4.10 
##DATA TYPE=MASS SPECTRUM
##SAMPLE DESCRIPTION=D.HENNEBERG, MAX-PLANCK INSTITUTE, MULHEIM, WEST GERMAN
Y
##NAMES=HP
##CAS NAME=Iron, tricarbonyl[N,N'-1,2-ethanediylidenebis[2-methyl-2-propanam
ine]-N,N']-
##MOLFORM=C13H20FeN2O3
##CAS REGISTRY NO=65036-35-3
##MP= -300
##BP= -300
##MW= 308
##$RETENTION INDEX=0
##$CONDENSED SPECTRUM=NO
##NPOINTS= 134
##XYDATA=(XY..XY) 1 
    27         34
    28        629
    29        123
    30         30
    37          1
    38          1
    39         34
    41        214
    42         40
    43         10
    44          4
    46          0
    50          2
    51          1
    52          2
    53          4
    54          5
    55         30
    56        126
    57        999
    58         64
    59          1
    64          0
    65          0
    66          1
    67          1
    68          8
    69         23
    70         46
    71          3
    72          0
    73          0
    77          0
    78          0
    80          2
    81          3
    82          7
    83         24
    84         39
    85         16
    86          3
    91          1
    92          0
    93          0
    94          1
    95          3
    96          6
    97        149
    98         11
    99          2
   100          1
   101          0
   102          0
   103          0
   107          0
   108          1
   109          1
   110         17
   111         47
   112        125
   113         13
   114          0
   121          1
   122          0
   123          4
   124          3
   125          3
   126          7
   127          1
   136          2
   137          4
   138         18
   139          5
   140          4
   141         58
   142          6
   143          0
   150          1
   151          2
   152          4
   153         30
   154          3
   155          0
   163          0
   164          0
   165          1
   166          1
   167          4
   168          4
   169          0
   175          0
   176          0
   177          1
   178          7
   179          3
   180          0
   181          2
   182          0
   191          2
   192          1
   193         25
   194          7
   195          4
   196          3
   197          1
   200          1
   202          0
   203          0
   204          0
   205          1
   206          2
   207         17
   208          4
   209        239
   210         31
   211          2
   221          1
   222         17
   223          5
   224        231
   225         30
   226          3
   227          0
   250          4
   251          1
   252         55
   253          9
   254          1
   278          0
   280         14
   281          2
   306          0
   308          8
   309          1