##TITLE=Library Entry 70592
##JCAMP-DX=Revision 4.10 
##DATA TYPE=MASS SPECTRUM
##SAMPLE DESCRIPTION=Japan AIST/NIMC Database- Spectrum MS-IW-5776
##NAMES=HP
##CAS NAME=4,5-Dihydro-N-phenyl-3-furamide
##MOLFORM=C11H11NO2
##CAS REGISTRY NO=65038-85-9
##MP= -300
##BP= -300
##MW= 189
##$RETENTION INDEX=0
##$CONDENSED SPECTRUM=NO
##NPOINTS= 80
##XYDATA=(XY..XY) 1 
    26          1
    27          4
    28          9
    29          6
    37          1
    38          5
    39         51
    40          8
    41        108
    42          5
    43          3
    44          2
    50          4
    51         16
    52          5
    53          3
    54          1
    55          2
    57          1
    62          1
    63          6
    64          8
    65         26
    66         11
    67          3
    68          4
    69        113
    70          8
    71          1
    74          1
    75          1
    76          2
    77         30
    78          4
    79          1
    89          1
    90          1
    91          6
    92          8
    93         53
    94          7
    95         13
    96          1
    97        999
    98         58
    99          5
   103          2
   104          6
   105          1
   106          3
   114          1
   115          3
   116          2
   117          2
   118          1
   119          7
   120          4
   128          1
   130          3
   131          1
   132          3
   140          2
   141          4
   142          2
   143          4
   144          1
   146          1
   159          1
   160          2
   161          2
   170          6
   171         10
   172          2
   185          5
   186          2
   187          3
   188          4
   189        460
   190         58
   191          5