##TITLE=Library Entry 70622
##JCAMP-DX=Revision 4.10 
##DATA TYPE=MASS SPECTRUM
##SAMPLE DESCRIPTION=Japan AIST/NIMC Database- Spectrum MS-IW-2240
##NAMES=HP
##CAS NAME=N-(p-Chlorophenyl)-4,5-dihydro-3-furamide
##MOLFORM=C11H10ClNO2
##CAS REGISTRY NO=65038-87-1
##MP= -300
##BP= -300
##MW= 223
##$RETENTION INDEX=0
##$CONDENSED SPECTRUM=NO
##NPOINTS= 86
##XYDATA=(XY..XY) 1 
    15          1
    26          1
    27          4
    28          8
    29          9
    36          2
    37          3
    38          9
    39         70
    40         10
    41        133
    42          6
    43          4
    44          1
    49          1
    50          5
    51          6
    52          4
    53          5
    54          1
    55          2
    57          1
    61          2
    62          6
    63         17
    64          8
    65          8
    66          2
    67          3
    68          6
    69        111
    70          6
    71          1
    72          1
    73         10
    74          4
    75         17
    76          3
    77          3
    79          1
    83          1
    85          1
    88          1
    89          2
    90          9
    91          7
    92          5
    93          1
    95         17
    96          2
    97        999
    98         56
    99         27
   100          4
   101          8
   102          2
   103          1
   111         13
   112          1
   113          5
   115          1
   125          4
   126          9
   127         19
   128          6
   129          6
   130          3
   131          1
   138          6
   139          1
   140          3
   153          3
   154          2
   155          1
   159          1
   164          2
   166          2
   187          2
   188          1
   194          1
   221          2
   222          2
   223        225
   224         29
   225         74
   226          9