##TITLE=Library Entry 6085
##JCAMP-DX=Revision 4.10 
##DATA TYPE=MASS SPECTRUM
##SAMPLE DESCRIPTION=NIST Mass Spectrometry Data Center, 1994
##NAMES=HP
##CAS NAME=Dodecyl 4-nitrophenyl ether
##MOLFORM=C18H29NO3
##CAS REGISTRY NO=65039-18-1
##MP= -300
##BP= -300
##MW= 307
##$RETENTION INDEX=0
##$CONDENSED SPECTRUM=NO
##NPOINTS= 82
##XYDATA=(XY..XY) 1 
    18          2
    26          9
    27        153
    28         56
    29        374
    30         57
    38         15
    39        153
    41        899
    42        141
    43        999
    44         38
    50         31
    51         18
    52         15
    53         57
    54         53
    55        514
    56        180
    57        878
    58         40
    62          9
    63         43
    64         43
    65         75
    66         20
    67         63
    68         46
    69        293
    70        139
    71        410
    72         25
    75         36
    76         46
    77         20
    78         23
    79         19
    80         27
    81         53
    82         43
    83        177
    84         92
    85        229
    86         16
    91         12
    92         36
    93         56
    94         31
    95         15
    96         25
    97        164
    98         50
    99         43
   105          5
   106         30
   107         23
   108         44
   109        366
   110         46
   111        105
   112         31
   113         24
   122         54
   123        176
   124        105
   125         53
   126         14
   133         12
   135          8
   139        126
   140        112
   141         61
   142          4
   168         20
   277         41
   278         16
   290        235
   291         53
   292          8
   307         61
   308         12
   309          1