##TITLE=Library Entry 96969
##JCAMP-DX=Revision 4.10 
##DATA TYPE=MASS SPECTRUM
##SAMPLE DESCRIPTION=Japan AIST/NIMC Database- Spectrum MS-IW-7843
##NAMES=HP
##CAS NAME=1-Chloro-5-phenyltetrazole
##MOLFORM=C7H5ClN4
##CAS REGISTRY NO=65037-43-6
##MP= -300
##BP= -300
##MW= 180
##$RETENTION INDEX=0
##$CONDENSED SPECTRUM=NO
##NPOINTS= 73
##XYDATA=(XY..XY) 1 
    26          5
    27         10
    28         11
    31          1
    36          2
    37         16
    38         38
    39         80
    40          7
    41         13
    43          1
    44          2
    45          4
    47          7
    49          7
    50         49
    51        109
    52         16
    53          3
    57          1
    58          6
    60          1
    61          9
    62         20
    63         62
    64        110
    65        450
    66         24
    67          1
    69          4
    70          1
    73          4
    74         13
    75         12
    76         14
    77        147
    78         10
    79          1
    86          1
    87          2
    88          3
    89         10
    90         57
    91        145
    92          9
    98          1
    99          2
   100          4
   101          3
   102          2
   103          3
   105          1
   112          3
   114          1
   116        109
   117        999
   118         90
   119         10
   125         93
   126          7
   127         30
   128          2
   135          1
   138          1
   151          1
   152        236
   153         20
   154         77
   155          6
   180         51
   181          8
   182         16
   183          2