##TITLE=Library Entry 78628
##JCAMP-DX=Revision 4.10 
##DATA TYPE=MASS SPECTRUM
##SAMPLE DESCRIPTION=K. Kirk, LBC, NIDDK, NIH, Bethesda, MD 20892
##NAMES=HP
##CAS NAME=4,5-Dihydroxyoxazole-5-one, 4-hydroxymethylene-2-phenyl-
##MOLFORM=C10H7NO3
##CAS REGISTRY NO=65037-88-9
##MP= -300
##BP= -300
##MW= 189
##$RETENTION INDEX=0
##$CONDENSED SPECTRUM=NO
##NPOINTS= 35
##XYDATA=(XY..XY) 1 
    42         27
    43          6
    44          9
    45         33
    49         18
    50        162
    51        331
    52         22
    53         17
    54         22
    56        182
    57         31
    59          7
    61          8
    62         18
    63         30
    73          6
    74         48
    75         41
    76         67
    77        556
    78         53
    86          6
    89         35
    90         32
   103         19
   104         65
   105        999
   106         83
   116          8
   117          6
   149          7
   161          8
   189        308
   190         42