##TITLE=Library Entry 2938
##JCAMP-DX=Revision 4.10 
##DATA TYPE=MASS SPECTRUM
##SAMPLE DESCRIPTION=Asinex Ltd, Moscow, Russia
##NAMES=HP
##CAS NAME=(4-Allylamino-6-chloro-[1,3,5]triazin-2-ylamino)-acetic acid ethy
l ester
##MOLFORM=C10H14ClN5O2
##CAS REGISTRY NO=6504-88-7
##MP= -300
##BP= -300
##MW= 271
##$RETENTION INDEX=0
##$CONDENSED SPECTRUM=NO
##NPOINTS= 163
##XYDATA=(XY..XY) 1 
    33         72
    34         16
    35         17
    36         71
    37         11
    38         49
    39        315
    40        236
    41        999
    42        104
    43        114
    44        118
    45         30
    46          5
    47          2
    48          2
    49          5
    50          3
    51         11
    52         21
    53        102
    54        145
    55        458
    56        214
    57         31
    58          5
    59          6
    60         12
    61          7
    62         77
    63          7
    64         28
    65          6
    66         20
    67         45
    68        185
    69         33
    70         25
    71          4
    73         11
    74          5
    75         10
    76         13
    77         13
    78         22
    79         22
    80         65
    81        129
    82         44
    83        113
    84          7
    86          7
    87         54
    88         14
    89         20
    91        225
    93        122
    94         18
    95         62
    96          6
    97          2
    98          8
    99          3
   100          0
   101         13
   102         25
   103          5
   104         24
   105          6
   106         30
   107         29
   108        152
   109         22
   110         14
   111          2
   114          2
   115          4
   116         10
   117         14
   118          7
   119          9
   120         31
   121         20
   122          9
   123          6
   124          2
   126         11
   127          0
   128          3
   129         11
   130          5
   131         24
   132          3
   133         13
   134         11
   135         11
   136          4
   137          1
   141          5
   142         10
   143         16
   144         47
   145          7
   146         17
   148          4
   154          5
   155          6
   156          7
   157          6
   158         15
   159          5
   160         18
   161          8
   162         14
   163          2
   164          4
   167          4
   168          6
   169         25
   170        153
   171         28
   172         46
   173          7
   177          0
   179          0
   180         10
   181          8
   182         52
   183         11
   184         31
   185          4
   186          5
   195          5
   196         42
   197        102
   198        428
   199         69
   200        136
   201         12
   208          0
   223          4
   225        169
   226         42
   227         51
   228         22
   229          1
   230          2
   236          1
   242          5
   243          1
   244         11
   246          1
   254          3
   256        114
   257         13
   258         30
   259          2
   268          1
   270         36
   271         85
   272         20
   273         25
   274          2