##TITLE=Library Entry 44914
##JCAMP-DX=Revision 4.10 
##DATA TYPE=MASS SPECTRUM
##SAMPLE DESCRIPTION=V.G.Zaikin, TIPS, Russian Acad. Sci.
##NAMES=HP
##CAS NAME=4(axial)-Ethyl-1,2(equatorial)-dimethyl-trans-decahydroquinol-4-o
l,N-oxide
##MOLFORM=C13H25NO2
##CAS REGISTRY NO=65052-75-7
##MP= -300
##BP= -300
##MW= 227
##$RETENTION INDEX=0
##$CONDENSED SPECTRUM=NO
##NPOINTS= 87
##XYDATA=(XY..XY) 1 
    54         52
    55         29
    56        139
    57        296
    58        527
    59         17
    60          5
    67        106
    68         31
    69        120
    70         52
    71         50
    72        135
    73         29
    74        999
    75         26
    77         33
    78         10
    79         41
    81        114
    82         27
    83         29
    84          8
    85          3
    86         31
    87          8
    91         57
    93         33
    94         15
    95         55
    96         45
    97         29
    98          8
    99         71
   105         17
   107         41
   108         20
   109         34
   110         45
   111         43
   112         34
   113         10
   121         31
   123          8
   124         17
   126         17
   128         26
   135         17
   136         45
   138         34
   139         69
   150         20
   151         17
   152         50
   154         13
   159         19
   161         17
   162         29
   163        238
   164         78
   166         38
   168        144
   169         13
   180        163
   181         62
   182        350
   183         45
   191         15
   192         60
   194         95
   195         15
   196        188
   197         47
   198        224
   199         34
   205         17
   206         12
   207         13
   208         40
   209        132
   210        106
   211         71
   212        168
   213         24
   227        581
   228         85
   229          6