##TITLE=Library Entry 73012
##JCAMP-DX=Revision 4.10 
##DATA TYPE=MASS SPECTRUM
##SAMPLE DESCRIPTION=Finnigan MAT: Toxicological Library (LIBR-TX)
##NAMES=HP
##CAS NAME=Nimorazole
##MOLFORM=C9H14N4O3
##CAS REGISTRY NO=6506-37-2
##MP= -300
##BP= -300
##MW= 226
##$RETENTION INDEX=1803
##$CONDENSED SPECTRUM=NO
##NPOINTS= 16
##XYDATA=(XY..XY) 1 
    41         29
    42        114
    53         19
    54         31
    55         40
    56        150
    57         10
    67          9
    68          9
    70         21
    94         11
    98         10
   100        999
   101         62
   122         21
   180          9