##TITLE=Library Entry 19323
##JCAMP-DX=Revision 4.10 
##DATA TYPE=MASS SPECTRUM
##SAMPLE DESCRIPTION=S.A. Rang et al., IR & MS of Unsatd. Hydrocarbons, 1977
##NAMES=HP
##CAS NAME=6-Tridecene, (Z)-
##MOLFORM=C13H26
##CAS REGISTRY NO=6508-77-6
##MP= -300
##BP= -300
##MW= 182
##$RETENTION INDEX=1271
##$CONDENSED SPECTRUM=NO
##NPOINTS= 81
##XYDATA=(XY..XY) 1 
    15          7
    24          0
    25          2
    26         18
    27        257
    28         32
    29        530
    30         11
    37          2
    38          4
    39        208
    40         36
    41        984
    42        240
    43        619
    44         15
    45          0
    49          0
    50          4
    51         11
    52         10
    53        104
    54        257
    55        999
    56        603
    57        377
    58         16
    59          0
    63          1
    64          0
    65         22
    66         17
    67        169
    68         87
    69        777
    70        476
    71        136
    72          6
    73          0
    74          0
    76          0
    77         18
    78         11
    79         28
    80          7
    81         53
    82         73
    83        383
    84        213
    85         60
    86          3
    91          5
    92          0
    93          2
    94          0
    95         14
    96         31
    97        218
    98         96
   105          0
   107          0
   110         13
   111         79
   112         43
   113          4
   123          0
   124          4
   125         23
   126         17
   127          2
   138          1
   139          7
   140          6
   141          1
   152          0
   153          2
   154         10
   155          1
   182        109
   183         13
   184          1