##TITLE=Library Entry 2245
##JCAMP-DX=Revision 4.10 
##DATA TYPE=MASS SPECTRUM
##SAMPLE DESCRIPTION=Humboldt-Universitat zu Berlin, Department of Chemistry
, Analytical Group
##NAMES=HP
##CAS NAME=2-(Propen-3-yl)-5-phenyltetrazole
##MOLFORM=C10H10N4
##CAS REGISTRY NO=65103-37-9
##MP= -300
##BP= -300
##MW= 186
##$RETENTION INDEX=0
##$CONDENSED SPECTRUM=NO
##NPOINTS= 84
##XYDATA=(XY..XY) 1 
    12          5
    13          6
    14         32
    15         88
    16          2
    17          7
    18         20
    26        158
    27        319
    28        306
    29         32
    30          3
    31          1
    37         63
    38        138
    39        876
    40         88
    41        999
    42         45
    43          9
    44          6
    45          2
    49         18
    50        177
    51        273
    52         72
    53         29
    54         69
    55         27
    56          3
    57          3
    60          4
    61         40
    62        125
    63        366
    64         54
    65         46
    66          5
    67          2
    73          7
    74         35
    75         54
    76        158
    77        228
    78         36
    79          6
    81          3
    84          3
    85         13
    86         24
    87         26
    89        375
    90         42
    91         84
    92          8
    99          4
   100          3
   101          4
   102         47
   103        123
   104        101
   105         10
   115        358
   116         41
   117         12
   118         35
   119          4
   127         59
   128        160
   129        571
   130        109
   131         24
   132          2
   142          2
   143          3
   144         13
   145          4
   146          3
   156          4
   157          5
   158          1
   186         81
   187         26
   188          3