##TITLE=Library Entry 57315
##JCAMP-DX=Revision 4.10 
##DATA TYPE=MASS SPECTRUM
##SAMPLE DESCRIPTION=Chemical Concepts
##NAMES=HP
##CAS NAME=Silane, bicyclo[2.2.1]hept-2-yltriethyl-, exo-
##MOLFORM=C13H26Si
##CAS REGISTRY NO=65118-97-0
##MP= -300
##BP= -300
##MW= 210
##$RETENTION INDEX=0
##$CONDENSED SPECTRUM=NO
##NPOINTS= 116
##XYDATA=(XY..XY) 1 
    25          0
    26         10
    27        107
    28         21
    29        157
    30         13
    31        137
    33          2
    37          0
    38          2
    39         92
    40         19
    41        174
    42         17
    43        113
    44         34
    45         84
    46          5
    47          3
    48          1
    50          1
    51         10
    52          9
    53         58
    54         45
    55        139
    56         46
    57        201
    58        170
    59        811
    60         62
    61         27
    62          4
    63          1
    65         36
    66         44
    67        151
    68         34
    69         40
    70         17
    71         31
    72         11
    73         25
    74          3
    75          0
    76          2
    77         39
    78         10
    79         34
    80         10
    81         23
    82         10
    83         60
    84          8
    85         52
    86         31
    87        999
    88         89
    89         39
    90          1
    91         29
    92          4
    93         90
    94         13
    95         99
    96         19
    97         52
    98          8
    99         18
   100          2
   101         36
   102          2
   103          1
   104          0
   105          0
   107          8
   109         11
   110          2
   111         44
   112          7
   113         34
   115        442
   116         54
   117         15
   119          2
   121          5
   122          2
   123         22
   124         11
   125        192
   126         30
   127         30
   128          4
   129          1
   130          0
   137          1
   139         13
   140          2
   145          0
   149          4
   151         18
   153        363
   154         49
   155         12
   156          1
   160          0
   177          0
   179          3
   181        543
   182         99
   183         25
   184          2
   206          0
   210         42
   211          7
   212          2