##TITLE=Library Entry 2837
##JCAMP-DX=Revision 4.10 
##DATA TYPE=MASS SPECTRUM
##SAMPLE DESCRIPTION=A.Kamal-Eldin ET AL.J.Chrom.,776,245(1997)
##NAMES=HP
##CAS NAME=Methyl 10-oxo-8-decenoate
##MOLFORM=C11H18O3
##CAS REGISTRY NO=65114-83-2
##MP= -300
##BP= -300
##MW= 198
##$RETENTION INDEX=1592
##$CONDENSED SPECTRUM=NO
##NPOINTS= 60
##XYDATA=(XY..XY) 1 
    41        999
    42        183
    43        353
    53        184
    54        130
    55        681
    56         68
    57        336
    58         28
    66         35
    67        222
    68        137
    69        490
    70        436
    71         71
    72         14
    73         74
    74        450
    78         19
    79        107
    80        114
    81        209
    82         88
    83        299
    84        114
    85         47
    87        198
    88         28
    91         55
    92         26
    93         63
    94        116
    95        135
    96         98
    97        133
    98        216
    99         34
   101         18
   105         21
   106         46
   107         34
   109         67
   110         77
   111         36
   112         14
   113         10
   119         14
   120         36
   121         60
   122         47
   123         27
   124         30
   125         21
   129         35
   137         34
   138        136
   139         54
   166         34
   167         26
   198          9