##TITLE=Library Entry 20284
##JCAMP-DX=Revision 4.10 
##DATA TYPE=MASS SPECTRUM
##SAMPLE DESCRIPTION=Japan AIST/NIMC Database- Spectrum MS-NW-9379
##NAMES=HP
##CAS NAME=22-Tricosenoic acid
##MOLFORM=C23H44O2
##CAS REGISTRY NO=65119-95-1
##MP= -300
##BP= -300
##MW= 352
##$RETENTION INDEX=0
##$CONDENSED SPECTRUM=NO
##NPOINTS= 255
##XYDATA=(XY..XY) 1 
    17          3
    18         10
    26          2
    27         40
    28         24
    29        151
    30          4
    31          5
    32          2
    38          1
    39         52
    40          9
    41        526
    42         99
    43        593
    44         20
    45         30
    51          2
    52          1
    53         31
    54        106
    55        999
    56        301
    57        553
    58         26
    59         24
    60        140
    61         32
    62          1
    65          6
    66         12
    67        183
    68        158
    69        759
    70        301
    71        259
    72         14
    73        159
    74         14
    75          1
    77          4
    78          3
    79         25
    80         33
    81        194
    82        261
    83        688
    84        307
    85        156
    86         11
    87         44
    88          5
    89          1
    91          7
    92          4
    93         23
    94         46
    95        149
    96        270
    97        642
    98        293
    99         64
   100         26
   101         54
   102          9
   103          1
   105          5
   106          3
   107         24
   108         35
   109         93
   110        146
   111        319
   112        119
   113         42
   114         59
   115         46
   116         14
   117          2
   118          2
   119         17
   120          9
   121         42
   122         26
   123         81
   124         96
   125        173
   126         66
   127         67
   128         16
   129         50
   130          7
   131          1
   132          1
   133         19
   134         34
   135         46
   136         20
   137         66
   138         77
   139        102
   140         44
   141         21
   142          7
   143         23
   144          4
   147         17
   148         32
   149         34
   150         14
   151         56
   152         69
   153         67
   154         32
   155         16
   156          6
   157         17
   158          4
   161         14
   162         10
   163         20
   164          9
   165         41
   166         43
   167         44
   168         22
   169         14
   170          4
   171         15
   172          5
   173          1
   175         11
   176          6
   177         12
   178          8
   179         32
   180         31
   181         30
   182         17
   183         10
   184          4
   185         15
   186          3
   189          9
   190          4
   191          9
   192          7
   193         26
   194         31
   195         22
   196         13
   197          9
   198          3
   199          9
   200          3
   203          5
   204          3
   205          6
   206          5
   207         25
   208         36
   209         18
   210         11
   211          9
   212          3
   213          8
   214          3
   217          3
   218          2
   219          4
   220          5
   221         27
   222         36
   223         14
   224          9
   225          8
   226          3
   227          7
   228          3
   231          3
   232          2
   233          3
   234          6
   235         29
   236         41
   237         13
   238          9
   239          9
   240          3
   241          5
   242          3
   245          2
   246          2
   247          2
   248          5
   249         31
   250         48
   251         13
   252          7
   253          7
   254          2
   255          4
   256          5
   257          1
   259          2
   260          1
   261          2
   262          2
   263         30
   264         29
   265          9
   266          4
   267          3
   268          1
   269          4
   270          3
   271          1
   273          1
   274          2
   275          1
   276          1
   277         25
   278         21
   279          7
   280          2
   281          2
   282          1
   283          1
   284          1
   287          1
   288          1
   290         16
   291         24
   292         39
   293          9
   294          1
   295          1
   297          1
   305         13
   306         12
   307          2
   309          3
   310          1
   311          1
   316         13
   317          4
   319          1
   324          1
   333          1
   334        180
   335         49
   336          7
   350          1
   352          6
   353          2