##TITLE=Library Entry 19177
##JCAMP-DX=Revision 4.10 
##DATA TYPE=MASS SPECTRUM
##SAMPLE DESCRIPTION=NIST Mass Spectrometry Data Center, 1998.
##NAMES=HP
##CAS NAME=7-Tetradecenal, (Z)-
##MOLFORM=C14H26O
##CAS REGISTRY NO=65128-96-3
##MP= -300
##BP= -300
##MW= 210
##$RETENTION INDEX=1597
##$CONDENSED SPECTRUM=NO
##NPOINTS= 117
##XYDATA=(XY..XY) 1 
    15          3
    26          6
    27        134
    28         28
    29        286
    30          6
    31          8
    37          1
    38          4
    39        220
    40         37
    41        811
    42        134
    43        449
    44         58
    45          8
    50          5
    51         20
    52         15
    53        155
    54        358
    55        999
    56        238
    57        293
    58         26
    59          6
    62          1
    63          4
    64          1
    65         55
    66         64
    67        622
    68        262
    69        524
    70        347
    71        112
    72         11
    73          2
    77         61
    78         28
    79        344
    80        205
    81        457
    82        319
    83        380
    84        214
    85         56
    86          8
    87          1
    89          1
    91         48
    92         11
    93        240
    94        140
    95        279
    96        240
    97        284
    98        335
    99         30
   100          4
   103          2
   104          1
   105         11
   106          5
   107        105
   108         91
   109        108
   110        153
   111        203
   112         95
   113          9
   114          5
   115          2
   117          1
   119          3
   120          6
   121        267
   122         68
   123         45
   124         44
   125         38
   126         13
   127          2
   128          9
   129          1
   133          1
   134          1
   135        123
   136         39
   137         15
   138         16
   139         12
   140          3
   141          1
   142          2
   149         36
   150         16
   151          6
   152          1
   153          6
   154          3
   155          1
   163         18
   164         12
   165          2
   166         12
   167          7
   168          1
   177          1
   179          3
   181          2
   182          1
   192         60
   193          9
   194          1
   210          4
   211          1