##TITLE=Library Entry 85021
##JCAMP-DX=Revision 4.10 
##DATA TYPE=MASS SPECTRUM
##SAMPLE DESCRIPTION=NIST Mass Spectrometry Data Center, 2010
##NAMES=HP
##CAS NAME=1,4,6-Trimethyl-1,2,3,3a,4,7,8,8a-octahydro-4,7-ethanoazulene
##MOLFORM=C15H24
##CAS REGISTRY NO=65128-08-7
##MP= -300
##BP= -300
##MW= 204
##$RETENTION INDEX=1460
##$CONDENSED SPECTRUM=NO
##NPOINTS= 79
##XYDATA=(XY..XY) 1 
    26          1
    27         12
    28          3
    29         19
    30          1
    39         49
    40          9
    41        100
    42         12
    44          1
    50          3
    51         20
    52          9
    53         48
    54         17
    55         75
    56          2
    59          1
    62          1
    63          7
    64          4
    65         55
    66         10
    67         95
    73          1
    74          1
    75          1
    76          2
    77        123
    78         27
    79        113
    80         21
    81         99
    88          1
    89          3
    90          3
    91        258
    92         40
    93        656
    94         94
    95         97
    96          9
    97          7
    98          1
   101          1
   102          3
   103         17
   104          6
   106         53
   107        507
   108        999
   109        203
   110         16
   111          1
   115         21
   116         10
   117         20
   118          4
   121        436
   122         56
   127          2
   128         10
   129         10
   130          4
   131          7
   141          2
   142          1
   143          1
   144          1
   153          1
   162         40
   163          5
   175         29
   176          6
   189        106
   190         18
   191          1
   204         38
   205          9