##TITLE=Library Entry 44831
##JCAMP-DX=Revision 4.10 
##DATA TYPE=MASS SPECTRUM
##SAMPLE DESCRIPTION=William W. Christie, Mylnefield Lipid Analysis, Invergo
wrie, Dundee, Scotland, UK
##NAMES=HP
##CAS NAME=Hexadecanoic acid, 3-methyl-, methyl ester
##MOLFORM=C18H36O2
##CAS REGISTRY NO=65128-49-6
##MP= -300
##BP= -300
##MW= 284
##$RETENTION INDEX=0
##$CONDENSED SPECTRUM=NO
##NPOINTS= 64
##XYDATA=(XY..XY) 1 
    53         10
    54         20
    55        299
    56         60
    57        179
    58         10
    59         90
    60         10
    61         10
    65         10
    67         40
    68         20
    69        189
    70         30
    71         80
    72         10
    73         60
    74        999
    75        299
    76         20
    82         10
    83         60
    84         10
    85         40
    87         60
    95         20
    96         10
    97         50
    98         20
    99         20
   101        809
   102         60
   107         10
   110         10
   111         20
   112         10
   115         20
   122         10
   123         10
   125         10
   129         10
   135         10
   143         10
   144         10
   157         30
   158         10
   171         20
   172         10
   182         10
   185         10
   199         10
   210         20
   211         10
   213         20
   223         10
   227         30
   228         10
   241         40
   242         10
   253         30
   254         10
   269         10
   284         60
   285         10