##TITLE=Library Entry 71883
##JCAMP-DX=Revision 4.10 
##DATA TYPE=MASS SPECTRUM
##SAMPLE DESCRIPTION=V.G.Zaikin, TIPS RAS, Moscow, Russia
##NAMES=HP
##CAS NAME=Hexanoic acid, 2,2-dimethylpropyl ester
##MOLFORM=C11H22O2
##CAS REGISTRY NO=65127-75-5
##MP= -300
##BP= -300
##MW= 186
##$RETENTION INDEX=0
##$CONDENSED SPECTRUM=NO
##NPOINTS= 58
##XYDATA=(XY..XY) 1 
    26         33
    27        242
    28         78
    29        339
    30         15
    31         19
    37          5
    38         15
    39        188
    40         38
    41        435
    42        181
    43        835
    44         31
    45         22
    50          7
    51         29
    52          5
    53         32
    54         12
    55        265
    56        148
    57        491
    58         28
    59          9
    60         77
    61         17
    65          2
    67          6
    68          6
    69         52
    70        261
    71        817
    72         58
    73         49
    74         58
    75          4
    79          4
    81          4
    83          2
    85          2
    87        112
    88         11
    97          8
    98         18
    99        999
   100         75
   101         31
   114          9
   115          5
   116         37
   117         23
   129         17
   130         72
   131        185
   132         13
   171         21
   172          4