##TITLE=Library Entry 11612
##JCAMP-DX=Revision 4.10 
##DATA TYPE=MASS SPECTRUM
##SAMPLE DESCRIPTION=Chemical Concepts
##NAMES=HP
##CAS NAME=3-Buten-2-one, 4-(6,6-dimethyl-1-cyclohexen-1-yl)-
##MOLFORM=C12H18O
##CAS REGISTRY NO=65133-79-1
##MP= -300
##BP= -300
##MW= 178
##$RETENTION INDEX=0
##$CONDENSED SPECTRUM=NO
##NPOINTS= 101
##XYDATA=(XY..XY) 1 
    26          7
    27         65
    29         72
    31         11
    35          9
    36         66
    38         22
    39        120
    40         19
    41        217
    42         27
    43        999
    44        177
    45         12
    48         12
    50         14
    51         55
    52         26
    53         77
    54         12
    55        153
    56         42
    57         51
    58         14
    60         22
    63         32
    64         22
    65         79
    66         24
    67        118
    68         27
    69        132
    70         33
    71         66
    72         15
    73         14
    77        160
    78         56
    79        270
    80         34
    81        198
    82         34
    83         42
    84         18
    85         19
    89         13
    91        216
    92         46
    93        193
    94         57
    95        165
    96         69
    97         44
    98         20
    99         13
   102         10
   103         31
   104         15
   105        144
   106         38
   107        209
   108        138
   109        126
   110         27
   111         25
   115         35
   116         12
   117         52
   118         16
   119         70
   120         41
   121        710
   122        258
   123        118
   124         19
   128         15
   129         16
   130         22
   131         12
   133         16
   134         17
   135        410
   136         61
   137         31
   141         18
   142          9
   145         88
   146         17
   147         27
   148         11
   149         72
   150         12
   155         10
   161         12
   162          9
   163        235
   164         28
   176          9
   177         78
   178        280
   179         44