##TITLE=Library Entry 31175
##JCAMP-DX=Revision 4.10 
##DATA TYPE=MASS SPECTRUM
##SAMPLE DESCRIPTION=Philip Morris R&D
##NAMES=HP
##CAS NAME=Nonanoic acid, propyl ester
##MOLFORM=C12H24O2
##CAS REGISTRY NO=6513-03-7
##MP= -300
##BP= -300
##MW= 200
##$RETENTION INDEX=1373
##$CONDENSED SPECTRUM=NO
##NPOINTS= 98
##XYDATA=(XY..XY) 1 
    38          2
    39        105
    40         27
    41        508
    42        256
    43        741
    44         29
    45         28
    46          1
    47          0
    48          1
    50          0
    51          4
    52          2
    53         19
    54         23
    55        340
    56         83
    57        395
    58         26
    59         59
    60        557
    61        999
    62         27
    63          5
    65          4
    66          1
    67         39
    68         27
    69        142
    70         34
    71        221
    72         16
    73        348
    74         43
    75         15
    77          2
    79          6
    80          4
    81         54
    82          6
    83         76
    84         53
    85         12
    86          2
    87        104
    88          5
    89         62
    90          1
    93          5
    94          3
    95         10
    96         24
    97         59
    98         29
    99          5
   100          2
   101         39
   102        321
   103         80
   104          6
   107          0
   109          0
   111         14
   112         17
   113          2
   114          2
   115        196
   116         18
   117          9
   121          8
   122          3
   123         17
   124          2
   125          4
   127          0
   128          0
   129         90
   130          7
   131          0
   138          7
   139         23
   140          2
   141        565
   142         53
   143          9
   144          1
   156          1
   157         44
   158         56
   159        721
   160         74
   161          5
   171         33
   172          3
   199          0
   200         32
   201          4