##TITLE=Library Entry 97008
##JCAMP-DX=Revision 4.10 
##DATA TYPE=MASS SPECTRUM
##SAMPLE DESCRIPTION=NIST Mass Spectrometry Data Center
##NAMES=HP
##CAS NAME=Ethyl 3-hydroxyoctadecanoate
##MOLFORM=C20H40O3
##CAS REGISTRY NO=65144-03-8
##MP= -300
##BP= -300
##MW= 328
##$RETENTION INDEX=2348
##$CONDENSED SPECTRUM=NO
##NPOINTS= 76
##XYDATA=(XY..XY) 1 
    27          5
    29         20
    39          8
    41         72
    42         19
    43        131
    44         13
    45          8
    47          5
    54          9
    55         87
    56         31
    57         88
    58         11
    60         21
    61         26
    67         44
    68         25
    69        123
    70         60
    71        168
    72          9
    73         20
    75         41
    81         35
    82         22
    83         56
    85         40
    86          5
    88        120
    89        133
    90          6
    95         27
    96         39
    97         57
    98         28
   101         32
   102          6
   110         25
   111         28
   112          9
   114          7
   115         30
   116         11
   117        999
   118         56
   123         20
   125         17
   126          7
   127         13
   128         12
   138         10
   139          9
   140          6
   141          9
   142          7
   151          8
   152          8
   155         13
   163         15
   166          6
   180         10
   213         13
   214          4
   222         24
   223          6
   227          5
   229          5
   239         13
   246          4
   264         29
   265         16
   267          4
   288          6
   310          8
   327          2