##TITLE=Library Entry 42589
##JCAMP-DX=Revision 4.10 
##DATA TYPE=MASS SPECTRUM
##SAMPLE DESCRIPTION=NIST Mass Spectrometry Data Center
##NAMES=HP
##CAS NAME=Isocitric acid lactone, 2TMS derivative
##MOLFORM=C12H22O6Si2
##CAS REGISTRY NO=65143-62-6
##MP= -300
##BP= -300
##MW= 318
##$RETENTION INDEX=1710
##$CONDENSED SPECTRUM=NO
##NPOINTS= 167
##XYDATA=(XY..XY) 1 
    15          2
    26          1
    27         13
    28          7
    29         11
    30          1
    31          3
    38          1
    39         10
    40          6
    41          2
    42          7
    43         42
    44         32
    45        175
    46         12
    47         45
    48          2
    49          2
    51          1
    52          3
    53          6
    54          5
    55        100
    56         10
    57         15
    58         26
    59         43
    60          9
    61         25
    62          2
    63          1
    66         24
    67         17
    68         23
    69          5
    70          6
    71          8
    72         35
    73        999
    74         91
    75        241
    76         15
    77         12
    79          1
    81          2
    82          3
    83         18
    84         14
    85         20
    86          3
    87          5
    88          1
    89          5
    90          1
    91          1
    93          1
    94         18
    95          8
    96          1
    97          5
    98          8
    99         32
   100          6
   101          7
   102          2
   103          7
   104          1
   105          2
   106          1
   108          3
   109          1
   110          1
   111         14
   112          3
   113         38
   114          7
   115         11
   116          3
   117         18
   118          3
   119          6
   120          1
   121          2
   125          1
   126          1
   127          4
   128          6
   129        460
   130         54
   131         42
   132          8
   133         47
   134          6
   135          8
   136          1
   137          1
   139          5
   140          1
   141         11
   142          6
   143          7
   144          3
   145          4
   147        512
   148         80
   149         53
   150          6
   151          2
   155          1
   156         17
   157        394
   158         50
   159         20
   160          2
   161          1
   169          4
   171          4
   172          2
   173          4
   174          1
   175          2
   177          1
   183          1
   184          3
   185         14
   186          2
   187          2
   190          9
   191          3
   192          1
   201          4
   202          4
   203         52
   204         12
   205          5
   206          1
   211         58
   212          9
   213         22
   214          3
   215          7
   216          1
   217         21
   218          5
   219          2
   220          1
   229          1
   230          2
   231          5
   232          2
   233          1
   243          1
   245          1
   246          4
   247          1
   257          1
   259          3
   274          3
   275          2
   285          9
   286          2
   287          1
   303         92
   304         22
   305         10
   306          1