##TITLE=Library Entry 69995
##JCAMP-DX=Revision 4.10 
##DATA TYPE=MASS SPECTRUM
##SAMPLE DESCRIPTION=CHBEAM,111( )3764(1978); C. RUCHARDT ET AL
##NAMES=HP
##CAS NAME=meso-3,4-Dicyclohexyl-2,2,5,5-tetramethylhexane
##MOLFORM=C22H42
##CAS REGISTRY NO=65149-86-2
##MP= -300
##BP= -300
##MW= 306
##$RETENTION INDEX=0
##$CONDENSED SPECTRUM=NO
##NPOINTS= 25
##XYDATA=(XY..XY) 1 
    41        200
    43         80
    55        290
    57        990
    67         90
    69        130
    70        180
    71        270
    81         70
    83        420
    95         80
    97        999
    98         80
   109         80
   111        110
   123         30
   125         60
   139         70
   153        330
   165         70
   167         70
   179         30
   193        180
   249         40
   306         10