##TITLE=Library Entry 45956
##JCAMP-DX=Revision 4.10 
##DATA TYPE=MASS SPECTRUM
##SAMPLE DESCRIPTION=Chemical Concepts
##NAMES=HP
##CAS NAME=Octanoic acid, 6,6-dimethoxy-, methyl ester
##MOLFORM=C11H22O4
##CAS REGISTRY NO=65157-89-3
##MP= -300
##BP= -300
##MW= 218
##$RETENTION INDEX=1601
##$CONDENSED SPECTRUM=NO
##NPOINTS= 108
##XYDATA=(XY..XY) 1 
    26          0
    27          7
    28          7
    29         23
    30          1
    31         30
    33          2
    38          0
    39         10
    41         79
    42          8
    43         23
    45         57
    46          1
    47         63
    48          1
    49          0
    50          0
    53          6
    54          4
    55         25
    56          3
    57          1
    58         34
    59         22
    60          1
    61          0
    64          5
    65          0
    66          0
    67         17
    68          1
    69         12
    70          0
    71        104
    72          6
    73          3
    74          1
    75        999
    76         31
    77          6
    78          2
    79          7
    80          1
    81         23
    82          1
    83          7
    84          1
    85         10
    86          1
    89          0
    91          0
    92          0
    93          2
    94          2
    95         67
    96          4
    97          4
    98          1
    99          4
   100          0
   101          4
   102          0
   105          2
   106          0
   107          4
   108          0
   109          0
   110          2
   111          6
   112          4
   113          4
   114          2
   116          0
   120          0
   121          0
   122          0
   123         31
   124          1
   125          0
   126          1
   127          1
   129          9
   137          0
   138          7
   139         12
   140          0
   142          0
   143          0
   153          0
   154          0
   155         27
   156          4
   158          0
   159          0
   161          0
   170          1
   171         16
   172          2
   185          0
   186          0
   187        131
   188         11
   189          1
   203          1
   205          0
   217          1
   218          0