##TITLE=Library Entry 67562
##JCAMP-DX=Revision 4.10 
##DATA TYPE=MASS SPECTRUM
##SAMPLE DESCRIPTION=A.A.Kutin, Moscow, Russia
##NAMES=HP
##CAS NAME=Phosphonic acid, 2-phenylethenyl-, phenyl ester
##MOLFORM=C14H13O3P
##CAS REGISTRY NO=65181-53-5
##MP= -300
##BP= -300
##MW= 260
##$RETENTION INDEX=0
##$CONDENSED SPECTRUM=NO
##NPOINTS= 114
##XYDATA=(XY..XY) 1 
    35          7
    36         41
    38         34
    39         87
    40         20
    41          5
    42          2
    43          4
    44          6
    45          2
    47         11
    50         43
    51        104
    52         14
    53          6
    55         14
    57          2
    62         13
    63         53
    64         19
    65        128
    66         63
    67          3
    68          2
    69          3
    73          9
    74         19
    75         33
    76         49
    77        248
    78         19
    79          5
    80          2
    81          5
    82          2
    83          2
    84          0
    89         12
    91        183
    92         16
    94        999
    95         61
    96          7
    97          1
    99         17
   100          7
   101         15
   102        133
   103         66
   104         11
   105          7
   107          4
   109          5
   111          5
   112          2
   113          0
   115          3
   118          8
   119          3
   120          8
   121         33
   122          1
   123          1
   124          0
   128        297
   130        116
   131          6
   133          6
   137          7
   138          6
   139          6
   140          2
   141          4
   149        243
   150         16
   151          4
   152         13
   153          2
   155          1
   164          0
   165         39
   166         15
   167         57
   168          6
   169          5
   171          2
   176          1
   178        169
   179         52
   180         11
   181          5
   182         17
   183         35
   184          1
   194          6
   195         29
   196         53
   197          6
   199          4
   212          7
   213          0
   214          3
   216          1
   217         11
   218          5
   230          1
   232          3
   241          5
   242          2
   243          8
   259         47
   260        387
   261         55
   262          5