##TITLE=Library Entry 46785
##JCAMP-DX=Revision 4.10 
##DATA TYPE=MASS SPECTRUM
##SAMPLE DESCRIPTION=L. CERAULO, DIP. CHIM. TECH. FARM. UNIV., PALERMO, ITAL
Y
##NAMES=HP
##CAS NAME=3-(3-Methyl-1-phenylpyrazol-5-yl)-quinazolin-4(3H)-one
##MOLFORM=C18H14N4O
##CAS REGISTRY NO=65183-10-0
##MP= -300
##BP= -300
##MW= 302
##$RETENTION INDEX=0
##$CONDENSED SPECTRUM=NO
##NPOINTS= 34
##XYDATA=(XY..XY) 1 
    39        173
    50        307
    51        495
    52        121
    63        117
    64         94
    65         90
    66         59
    74        109
    75        169
    76        735
    77        999
    78         92
    89         68
    90         93
    91         62
   102        183
   103        357
   104        175
   105         53
   116         76
   117         39
   129         91
   130        246
   131         79
   132         35
   157         36
   260         34
   261         38
   273         47
   274         48
   301         77
   302        233
   303         41