##TITLE=Library Entry 63425
##JCAMP-DX=Revision 4.10 
##DATA TYPE=MASS SPECTRUM
##SAMPLE DESCRIPTION=Chemical Concepts
##NAMES=HP
##CAS NAME=Benzenemethanol, .alpha.-methyl-4-phenylmethyl-
##MOLFORM=C15H16O
##CAS REGISTRY NO=65189-90-4
##MP= -300
##BP= -300
##MW= 212
##$RETENTION INDEX=0
##$CONDENSED SPECTRUM=NO
##NPOINTS= 43
##XYDATA=(XY..XY) 1 
    39         94
    40          2
    41         11
    43        343
    45         36
    50         49
    51         96
    52         11
    62         18
    63         55
    64          4
    65        109
    74         16
    75         15
    76         17
    77         66
    78         27
    89         41
    90         10
    91        999
    92         83
    98         53
   105         27
   106          9
   115         42
   119         28
   121        118
   128         14
   139         12
   152         64
   153         14
   164          5
   165        120
   166         25
   167         92
   168         48
   178         10
   179          9
   195         21
   197        490
   198         73
   212        227
   213         29