##TITLE=Library Entry 85709
##JCAMP-DX=Revision 4.10 
##DATA TYPE=MASS SPECTRUM
##SAMPLE DESCRIPTION=A.A.Kutin, Moscow, Russia
##NAMES=HP
##CAS NAME=Pentane, 1-(2,2-dibromocyclopropyl)-
##MOLFORM=C8H14Br2
##CAS REGISTRY NO=6519-43-3
##MP= -300
##BP= -300
##MW= 268
##$RETENTION INDEX=0
##$CONDENSED SPECTRUM=NO
##NPOINTS= 60
##XYDATA=(XY..XY) 1 
    37          4
    38         29
    39        289
    40         59
    41        568
    42        354
    43        503
    44         18
    50         29
    51        118
    52         53
    53        238
    54         77
    55        505
    56        774
    57         59
    63         13
    65         73
    66         44
    67        637
    68         50
    69        412
    70         30
    71         17
    77         33
    78         11
    79         62
    80         18
    81         71
    82         53
    83        134
    84        114
    85          5
    91         12
    93         14
    95          5
    97         12
   105         20
   107         31
   109        999
   110         90
   117         13
   119         31
   120          5
   121         20
   122          4
   131         27
   132         22
   133         47
   134         21
   135         16
   147          9
   149          6
   162          8
   164          5
   184          8
   186         20
   188          9
   197          5
   199          9