##TITLE=Library Entry 16271
##JCAMP-DX=Revision 4.10 
##DATA TYPE=MASS SPECTRUM
##SAMPLE DESCRIPTION=Japan AIST/NIMC Database- Spectrum MS-NW-2524
##NAMES=HP
##CAS NAME=Tetrafluoroterephthalic acid
##MOLFORM=C8H2F4O4
##CAS REGISTRY NO=652-36-8
##MP= -300
##BP= -300
##MW= 238
##$RETENTION INDEX=0
##$CONDENSED SPECTRUM=NO
##NPOINTS= 123
##XYDATA=(XY..XY) 1 
    12         14
    16         44
    17          1
    18          3
    20          5
    24          1
    28         78
    29          5
    31        159
    32          5
    36          9
    37         19
    38          3
    43          3
    44        999
    45        178
    46          7
    47          1
    48          4
    49          7
    50         19
    51         11
    55         22
    56         24
    57          9
    60          9
    61         51
    62         13
    63          2
    65          2
    67          3
    68         31
    69         32
    70          1
    71          8
    72          2
    73          5
    74         32
    75        142
    76          5
    77          1
    79         81
    80        122
    81        350
    82         20
    86         28
    87         10
    88         20
    89          2
    91          4
    92         13
    93         42
    94          2
    95          3
    97          1
    98         56
    99        532
   100         90
   101          4
   102          2
   105          7
   106         25
   107          2
   110         18
   111         15
   112          3
   113          3
   115          1
   117         35
   118         38
   119        118
   120          6
   124          7
   125          1
   126          2
   127          2
   129         32
   130        207
   131         34
   132          2
   136          1
   137         23
   138          5
   141          1
   142          1
   144          1
   145          4
   146         38
   147          8
   148         31
   149        494
   150        828
   151         52
   152          1
   154          5
   155          2
   157         15
   158          3
   164          1
   165          4
   166         10
   167          1
   173          3
   174         68
   175         13
   176         11
   177        539
   178         43
   179          3
   190          3
   192          1
   193         29
   194        613
   195         47
   196          5
   218          5
   220          5
   221         44
   222          3
   237          3
   238         89
   239          9
   240          1