##TITLE=Library Entry 67384
##JCAMP-DX=Revision 4.10 
##DATA TYPE=MASS SPECTRUM
##SAMPLE DESCRIPTION=NIST Mass Spectrometry Data Center, 1994
##NAMES=HP
##CAS NAME=3-Fluorophthalic anhydride
##MOLFORM=C8H3FO3
##CAS REGISTRY NO=652-39-1
##MP= -300
##BP= -300
##MW= 166
##$RETENTION INDEX=0
##$CONDENSED SPECTRUM=NO
##NPOINTS= 59
##XYDATA=(XY..XY) 1 
    12          5
    15          0
    25          5
    26         11
    27          2
    28         32
    29          7
    30          0
    31         77
    32          8
    33          5
    36         16
    37         89
    38         36
    39          9
    40          1
    43          4
    44         19
    45          7
    46          1
    47         37
    48          8
    49         41
    50        161
    51         42
    52          5
    53         11
    55         14
    56         17
    57         12
    60         14
    61         98
    62         51
    63         39
    65          3
    68        237
    69         14
    71          7
    72          7
    73         48
    74        137
    75         63
    76          4
    77         11
    79          3
    80          4
    81          7
    82          2
    91          3
    92         48
    93         78
    94        999
    95         64
    96          3
   122        832
   123         71
   124          4
   166        169
   167         14