##TITLE=Library Entry 33103
##JCAMP-DX=Revision 4.10 
##DATA TYPE=MASS SPECTRUM
##SAMPLE DESCRIPTION=Chemical Concepts
##NAMES=HP
##CAS NAME=9-Thiabicyclo(3.3.1)nonane, 9,9-dioxide
##MOLFORM=C8H14O2S
##CAS REGISTRY NO=6522-45-8
##MP= -300
##BP= -300
##MW= 174
##$RETENTION INDEX=0
##$CONDENSED SPECTRUM=NO
##NPOINTS= 57
##XYDATA=(XY..XY) 1 
    26          4
    27         77
    28          8
    29         48
    38          5
    39        142
    40         23
    41        259
    42         18
    43         25
    45          5
    48          2
    50          5
    51         17
    52         11
    53         60
    54        211
    55        115
    56         21
    57          3
    59          2
    63          6
    65         27
    66         48
    67        999
    68        159
    69         53
    70          3
    77         28
    78          6
    79         63
    80         22
    81        203
    82        384
    83         26
    85          2
    87          2
    91         17
    92          3
    93         13
    94          4
    95         63
    96          5
    97          3
    98          3
   105          3
   107         15
   108          5
   109        577
   110         85
   111          6
   131          1
   157          6
   174        268
   175         40
   176         16
   177          1