##TITLE=Library Entry 38567
##JCAMP-DX=Revision 4.10 
##DATA TYPE=MASS SPECTRUM
##SAMPLE DESCRIPTION=J.Meidani ET.AL. JAOCS, 54,496(1977)
##NAMES=HP
##CAS NAME=Hexano-dibutyrin
##MOLFORM=C17H30O6
##CAS REGISTRY NO=65235-12-3
##MP= -300
##BP= -300
##MW= 330
##$RETENTION INDEX=0
##$CONDENSED SPECTRUM=NO
##NPOINTS= 25
##XYDATA=(XY..XY) 1 
    27         86
    28         10
    29         65
    39         34
    41        177
    42         65
    43        578
    44         26
    45         15
    55         75
    57         15
    69         54
    70         45
    71        999
    72         54
    73          7
    83          6
    99        326
   100         15
   143          4
   145         13
   201         15
   214          7
   215         28
   228          7