##TITLE=Library Entry 114891
##JCAMP-DX=Revision 4.10 
##DATA TYPE=MASS SPECTRUM
##SAMPLE DESCRIPTION=V.A.KOPTYUG, ATLAS OF MASS SPECTRA OF ORGANIC COMPOUNDS
##NAMES=HP
##CAS NAME=Benzoic acid, 2-cyano-, ethyl ester
##MOLFORM=C10H9NO2
##CAS REGISTRY NO=6525-45-7
##MP= -300
##BP= -300
##MW= 175
##$RETENTION INDEX=0
##$CONDENSED SPECTRUM=NO
##NPOINTS= 46
##XYDATA=(XY..XY) 1 
    39         34
    42         19
    43         16
    45         27
    50        100
    51        120
    52         30
    62         10
    63         17
    64         13
    65         17
    73          9
    74         40
    75        200
    76        200
    77         30
    78          6
    90         10
    91         10
    92         26
    93          6
    99         13
   100         13
   101         19
   102        440
   103        470
   104         60
   105        150
   106         23
   119         50
   120         19
   129          7
   130        999
   131        120
   132         20
   133          6
   146         29
   147        170
   148         86
   149          9
   160         33
   161          4
   174          7
   175        260
   176         34
   177          4