##TITLE=Library Entry 54213
##JCAMP-DX=Revision 4.10 
##DATA TYPE=MASS SPECTRUM
##SAMPLE DESCRIPTION=Chemical Concepts
##NAMES=HP
##CAS NAME=L-Glutamic acid, dimethyl ester
##MOLFORM=C7H13NO4
##CAS REGISTRY NO=6525-53-7
##MP= -300
##BP= -300
##MW= 175
##$RETENTION INDEX=0
##$CONDENSED SPECTRUM=NO
##NPOINTS= 64
##XYDATA=(XY..XY) 1 
    26         10
    27         31
    28         81
    29         62
    30         48
    31         31
    33         64
    39         17
    40          6
    41        244
    42         64
    43         53
    44         16
    45         12
    50         11
    52          7
    53          5
    54         31
    55         39
    56        454
    57         57
    58          7
    59         32
    60         16
    61          7
    66          6
    67          3
    68          4
    69          5
    70          8
    71         19
    72          8
    73          3
    74         12
    82         16
    83         16
    84        999
    85         53
    86          9
    87          7
    88        140
    89         12
    95          3
    96          3
    98         10
    99         10
   100         46
   101         24
   102         12
   109          3
   114         10
   115         27
   116        803
   117         55
   118          6
   127          3
   128          8
   142          3
   143         70
   144         88
   145          8
   160          4
   175          3
   176          3