##TITLE=Library Entry 9370
##JCAMP-DX=Revision 4.10 
##DATA TYPE=MASS SPECTRUM
##SAMPLE DESCRIPTION=C.B. THOMAS, DEP. CHEM., UNIV. YORK, U.K
##NAMES=HP
##CAS NAME=2-Nitrocumene
##MOLFORM=C9H11NO2
##CAS REGISTRY NO=6526-72-3
##MP= -300
##BP= -300
##MW= 165
##$RETENTION INDEX=0
##$CONDENSED SPECTRUM=NO
##NPOINTS= 63
##XYDATA=(XY..XY) 1 
    40        115
    41        437
    42         70
    43        999
    44         51
    50        210
    51        444
    52        128
    53         83
    54         16
    55         16
    57         39
    59         67
    61         17
    62         56
    63        183
    64         57
    65        268
    66         36
    67         32
    69          5
    74         63
    75         70
    76         92
    77        859
    78        338
    79        174
    89         80
    90         39
    91        704
    92        142
    93         85
    94        107
    95         57
   102         78
   103        282
   104        246
   105        192
   106        163
   107        310
   108         32
   115        253
   116         68
   117        129
   118        107
   119         42
   120        246
   121         62
   122         20
   123         21
   130        175
   131         48
   132         85
   133         75
   134         46
   135         12
   146         13
   147          9
   148        401
   149         42
   150         79
   151          9
   165          4