##TITLE=Library Entry 27833
##JCAMP-DX=Revision 4.10 
##DATA TYPE=MASS SPECTRUM
##SAMPLE DESCRIPTION=Div. of Experiment Therapeutics WRAIR, WRAMC, Washingto
n DC 20307
##NAMES=HP
##CAS NAME=3-Chloro-8-methoxy-N,N-dimethyl-11H-indolo[3,2-c]quinolin-11-etha
namine
##MOLFORM=C20H20ClN3O
##CAS REGISTRY NO=65287-63-0
##MP= -300
##BP= -300
##MW= 353
##$RETENTION INDEX=0
##$CONDENSED SPECTRUM=NO
##NPOINTS= 104
##XYDATA=(XY..XY) 1 
    42         33
    43         13
    44          7
    45          1
    47          4
    48          1
    49         23
    50          2
    51          8
    52          1
    55          3
    56         11
    58        999
    59         28
    62          1
    63          2
    67          0
    69          2
    70          3
    71          6
    72          3
    74          1
    75          2
    76          1
    77          1
    78          1
    80          0
    81          1
    82          0
    83          0
    84         17
    86         12
    87          1
    88          3
    89          1
    93          2
    94          0
    95          1
    97          0
    98          0
    99          1
   101          1
   102          1
   106          3
   109          0
   111          0
   115          2
   120          0
   121          2
   123          2
   124          1
   125          0
   137          1
   140          0
   141          0
   149          1
   150          1
   151          1
   161          1
   162          1
   163          2
   164          1
   174          0
   175          2
   176          2
   177          2
   188          2
   189          1
   190          4
   201          1
   202          1
   203          3
   215          1
   216          3
   217          5
   218          1
   228          0
   229          2
   236          1
   238          4
   239          2
   240          1
   241          0
   251          2
   252          9
   253          2
   254          3
   263          1
   265          1
   266          2
   267          2
   274          0
   281          3
   282          4
   283          2
   284          1
   295          5
   296          3
   297          2
   308          0
   353         25
   354          5
   355          8
   356          1