##TITLE=Library Entry 29451
##JCAMP-DX=Revision 4.10 
##DATA TYPE=MASS SPECTRUM
##SAMPLE DESCRIPTION=Div. of Experiment Therapeutics WRAIR, WRAMC, Washingto
n DC 20307
##NAMES=HP
##CAS NAME=N,N-Dimethyl-11H-indolo[3,2-c]quinoline-11-ethanamine, 5-oxide
##MOLFORM=C19H19N3O
##CAS REGISTRY NO=65287-52-7
##MP= -300
##BP= -300
##MW= 305
##$RETENTION INDEX=0
##$CONDENSED SPECTRUM=NO
##NPOINTS= 135
##XYDATA=(XY..XY) 1 
    42         49
    43         14
    44         10
    45          1
    50          2
    51          5
    52          1
    54          1
    56         19
    58        999
    59         28
    62          2
    63          5
    64          1
    65          1
    69          0
    70          6
    71          8
    72          9
    73          0
    74          3
    75          7
    76          5
    77         10
    78          2
    81          1
    82          1
    83          0
    86          2
    87          2
    88          4
    89          6
    90          2
    91          0
    94          1
    95          1
    96          0
    98          1
    99          2
   100          1
   101          5
   102          6
   103          2
   104          0
   107          1
   108          0
   109          2
   110          0
   111          0
   113          2
   114          2
   115          4
   116          2
   121          2
   123          0
   125          3
   126          2
   127          3
   128          5
   129          1
   130          1
   137          2
   138          1
   139          2
   140          3
   144          0
   149          2
   150          5
   151         11
   152          4
   153          1
   162          1
   163          6
   164          6
   165          5
   166          1
   167          1
   174          2
   175          5
   176         14
   177         11
   178          3
   179          1
   183          1
   187          2
   188          5
   189          7
   190         13
   191          3
   192          1
   199          1
   201          8
   202          8
   203         14
   204          8
   205          4
   206          0
   214          2
   215          4
   216          6
   217          7
   218         16
   219          4
   227          0
   228          2
   229         37
   230         31
   231         43
   232         18
   233          6
   234          2
   241          2
   242          5
   243         10
   244          6
   245          5
   246          1
   247         15
   248          2
   258          1
   259          1
   260          3
   261          1
   273          1
   275          2
   286          0
   287          3
   288          0
   289         27
   290          6
   291          0
   303          3
   305        232
   306         52
   307          5