##TITLE=Library Entry 45211
##JCAMP-DX=Revision 4.10 
##DATA TYPE=MASS SPECTRUM
##SAMPLE DESCRIPTION=ASES Database, Dalian Institute, P.R. China
##NAMES=HP
##CAS NAME=1-Phenyl-3,5-dimethyl-7-thioxo-6,7(8H)-dihydropyrazolo(3,4-b)(1,4
)diazepine
##MOLFORM=C14H14N4S
##CAS REGISTRY NO=65297-95-2
##MP= -300
##BP= -300
##MW= 270
##$RETENTION INDEX=0
##$CONDENSED SPECTRUM=NO
##NPOINTS= 37
##XYDATA=(XY..XY) 1 
    41        349
    42        399
    44        178
    45        207
    51        215
    55        200
    57        199
    58        220
    59        402
    60        890
    69        130
    75        999
    76        131
    77        485
    91         89
   103        150
   104         89
   105         69
   118        108
   119         70
   129         80
   130         49
   149         50
   155         89
   161        150
   169         99
   170         79
   196        148
   197         59
   211        110
   212        150
   228         89
   229         59
   237        200
   238         49
   255        118
   270        646