##TITLE=Library Entry 109675
##JCAMP-DX=Revision 4.10 
##DATA TYPE=MASS SPECTRUM
##SAMPLE DESCRIPTION=Exported from NIST MS Search
##NAMES=HP
##CAS NAME=Benzene, 1-(2-bromoethyl)-4-chloro-
##MOLFORM=C8H8BrCl
##CAS REGISTRY NO=6529-53-9
##MP= -300
##BP= -300
##MW= 218
##$RETENTION INDEX=0
##$CONDENSED SPECTRUM=NO
##NPOINTS= 93
##XYDATA=(XY..XY) 1 
    18          4
    26          3
    27         20
    28         22
    31          3
    32          6
    36          2
    37          5
    38         11
    39         24
    40          2
    41          2
    43          2
    44          2
    49          7
    50         53
    51         99
    52         11
    53          4
    55          2
    60          2
    61          8
    62         14
    63         35
    64          6
    65          7
    68          6
    69         10
    70          3
    72          2
    73         16
    74         26
    75         60
    76         18
    77        108
    78         17
    79          2
    81          2
    84          3
    85          8
    86          5
    87          7
    88          2
    89         50
    90         17
    91         22
    92          2
    93          4
    95          3
    97          3
    98          4
    99         21
   100          3
   101         28
   102         33
   103        170
   104         33
   105          3
   109          1
   110          1
   111         12
   112         11
   113          7
   123          2
   124          1
   125        999
   126         89
   127        324
   128         29
   129          1
   136          3
   137          9
   138         41
   139        225
   140         33
   141         73
   142          7
   152          2
   156         18
   157          2
   158          6
   174          5
   176          3
   183          2
   185          2
   188          4
   190          2
   218        174
   219         16
   220        227
   221         21
   222         56
   223          5