##TITLE=Library Entry 37754
##JCAMP-DX=Revision 4.10 
##DATA TYPE=MASS SPECTRUM
##SAMPLE DESCRIPTION=AAFS Toxicology Section MS DB Committee, U. Alberta, Ca
nada
##NAMES=HP
##CAS NAME=Butaperazine
##MOLFORM=C24H31N3OS
##CAS REGISTRY NO=653-03-2
##MP= -300
##BP= -300
##MW= 409
##$RETENTION INDEX=3188
##$CONDENSED SPECTRUM=NO
##NPOINTS= 126
##XYDATA=(XY..XY) 1 
    42        303
    43        393
    44        134
    45        111
    46         22
    53         41
    54         62
    55         99
    56        174
    57         84
    58        130
    59         15
    67         17
    68         28
    69         65
    70        999
    71        364
    72        255
    73         19
    77         30
    79         13
    81         17
    82         55
    83         67
    84         89
    85         89
    86         17
    91         20
    95         44
    96         59
    97        103
    98        158
    99        130
   100         22
   105         14
   107         12
   109         20
   111        132
   112         28
   113        999
   114        122
   115         16
   123         24
   125         24
   126         14
   127        230
   128         25
   129         13
   135         24
   139         66
   140         29
   141        447
   142         45
   152         16
   153         23
   154         15
   166         13
   167         24
   171         18
   178         23
   179         45
   180         27
   190         22
   191         13
   193         22
   194         14
   196         93
   197        182
   198         74
   199         33
   204         22
   205         14
   206         24
   208         19
   209         16
   210         61
   211         56
   212         73
   213         22
   222         31
   223         48
   224         64
   225         35
   226         39
   234         16
   236         20
   237         37
   238         41
   239         33
   240         28
   250         99
   251         25
   252         24
   254         61
   255         14
   264         13
   266         48
   267         15
   268         89
   269        130
   270         30
   271         18
   280         52
   281         15
   282        140
   283        433
   284         75
   285         39
   294         21
   295         68
   296        104
   297         39
   298         16
   308        101
   309         73
   310         26
   322         17
   323         14
   338         18
   352         36
   365         32
   366         14
   408         20
   409        406
   410        106
   411         42