##TITLE=Library Entry 44949
##JCAMP-DX=Revision 4.10 
##DATA TYPE=MASS SPECTRUM
##SAMPLE DESCRIPTION=Japan AIST/NIMC Database- Spectrum MS-IW-4617
##NAMES=HP
##CAS NAME=2,4,6-Trinitrophenyl-hydrazine
##MOLFORM=C6H5N5O6
##CAS REGISTRY NO=653-49-6
##MP= -300
##BP= -300
##MW= 243
##$RETENTION INDEX=0
##$CONDENSED SPECTRUM=NO
##NPOINTS= 156
##XYDATA=(XY..XY) 1 
    14          3
    15          3
    16          3
    17          5
    25          1
    26          7
    27         19
    28        114
    29         71
    30        759
    31         36
    32          6
    36          2
    37         39
    38         57
    39         45
    40         16
    41         15
    42         14
    43         11
    44         27
    45          9
    46         37
    47          2
    48          9
    49         14
    50        201
    51        127
    52         95
    53         54
    54         21
    55         11
    56          9
    57          2
    59          1
    60          6
    61        101
    62        244
    63        191
    64        143
    65         47
    66         34
    67         18
    68         32
    69         14
    70          4
    71          2
    72          2
    73         45
    74        569
    75        999
    76        259
    77        147
    78         78
    79         31
    80         71
    81         19
    82          3
    83          3
    84          7
    85          1
    86          9
    87         34
    88         60
    89         40
    90         46
    91        233
    92        114
    93         35
    94          9
    95          5
    96          3
    97          2
    99          1
   100          2
   101          6
   102          7
   103         29
   104         34
   105         31
   106         55
   107         17
   108         16
   109         16
   110          2
   111          1
   116          2
   117          3
   118          6
   119          3
   120        332
   121         52
   122         15
   123         11
   124          2
   125          1
   131          1
   132          1
   133          2
   134         15
   135          6
   136         14
   137         89
   138         11
   139          4
   147          1
   148          3
   149          2
   150         17
   151        173
   152         42
   153          9
   154          1
   163          1
   164          3
   165          1
   166          5
   167        727
   168         78
   169         14
   170          1
   179          9
   180         15
   181         36
   182          9
   183         61
   184          6
   185          1
   192          1
   193          3
   194          2
   195          1
   196          2
   197         13
   198         40
   199         16
   200          1
   208          2
   209         85
   210          9
   211          3
   212          1
   213        495
   214         38
   215          8
   222          1
   223          1
   225         26
   226         11
   227          3
   228         58
   229          9
   230          1
   243        332
   244         31
   245          5