##TITLE=Library Entry 85371
##JCAMP-DX=Revision 4.10 
##DATA TYPE=MASS SPECTRUM
##SAMPLE DESCRIPTION=NIST Mass Spectrometry Data Center, 1994
##NAMES=HP
##CAS NAME=4-Fluoro-3-nitrophenyl isocyanate
##MOLFORM=C7H3FN2O3
##CAS REGISTRY NO=65303-82-4
##MP= -300
##BP= -300
##MW= 182
##$RETENTION INDEX=0
##$CONDENSED SPECTRUM=NO
##NPOINTS= 82
##XYDATA=(XY..XY) 1 
    14          1
    26         18
    28         23
    30        219
    31        189
    32          0
    33         69
    36          8
    37         51
    38         51
    39         28
    40          9
    44         22
    45         10
    46         41
    47          5
    49         17
    50         77
    51         54
    52         37
    53          6
    54          6
    55         20
    56        120
    57        402
    58         54
    60          9
    61         71
    62         52
    63         42
    64         52
    65         11
    68         38
    69         29
    70         22
    71          8
    73          8
    74         31
    75         27
    76         94
    77         11
    79         11
    80         32
    81        165
    82        130
    83         39
    85         11
    86          9
    87         17
    88         28
    89          6
    90          7
    91          6
    92          6
    93         11
    94         12
    95         15
    96        110
    97         13
    98          6
    99          4
   105          4
   106         26
   108        999
   109         69
   110          7
   122          6
   124        446
   125         36
   126          7
   132          7
   135         10
   136         75
   137          5
   152        156
   153         15
   154         29
   162          7
   166         23
   182        629
   183         54
   184          6