##TITLE=Library Entry 7967
##JCAMP-DX=Revision 4.10 
##DATA TYPE=MASS SPECTRUM
##SAMPLE DESCRIPTION=A. SELVA, C.N.R., IST. CHIM. POLITEC., MILAN, ITy
##NAMES=HP
##CAS NAME=1-Phenylthio-1-acetoxy-3-tert-butyl-propan-2-one
##MOLFORM=C15H20O3S
##CAS REGISTRY NO=65303-02-8
##MP= -300
##BP= -300
##MW= 280
##$RETENTION INDEX=0
##$CONDENSED SPECTRUM=NO
##NPOINTS= 85
##XYDATA=(XY..XY) 1 
    15          1
    17          2
    18          8
    27          3
    28          3
    29         11
    39         10
    40          1
    41         25
    42          2
    43        999
    44          7
    45          9
    50          2
    51          7
    52          1
    53          3
    55          8
    56          3
    57        100
    58          5
    59          2
    60          2
    63          1
    65          9
    66          8
    67          2
    69         16
    70          2
    71         13
    72          1
    73          1
    74          1
    75          1
    76          1
    77         11
    78          4
    79          1
    81          1
    82          1
    83          3
    84          3
    85          1
    87          6
    91          3
    95          2
    99         44
   100          3
   101          1
   103          1
   105          1
   108          1
   109          9
   110         25
   111          5
   112          1
   113          1
   115          1
   117          1
   119          1
   121          2
   122          1
   123          5
   129          2
   135          2
   136          1
   137          2
   139         25
   140          2
   141          1
   143          1
   149          1
   150          2
   152          1
   153          5
   177          3
   181         13
   182          2
   183          1
   192          0
   205         10
   220          0
   237          1
   280          2
   281          0