##TITLE=Library Entry 11683
##JCAMP-DX=Revision 4.10 
##DATA TYPE=MASS SPECTRUM
##SAMPLE DESCRIPTION=A. SELVA, C.N.R., IST. CHIM. POLITEC., MILAN, IT
##NAMES=HP
##CAS NAME=1-Acetoxy-1-tert-butyl-3-phenylthio-2-propanone
##MOLFORM=C15H20O3S
##CAS REGISTRY NO=65302-93-4
##MP= -300
##BP= -300
##MW= 280
##$RETENTION INDEX=0
##$CONDENSED SPECTRUM=NO
##NPOINTS= 63
##XYDATA=(XY..XY) 1 
    15         40
    18         50
    27         50
    28         90
    29         80
    39        100
    40         20
    41        180
    42         20
    43        999
    44         20
    45        150
    50         20
    51         70
    53         20
    55         70
    56         10
    57        100
    65         50
    66         30
    67         20
    69        190
    70         20
    77         80
    78         40
    79         40
    81         10
    82         10
    83         40
    84         10
    87        360
    88         20
    91         30
   105         30
   109         80
   110        170
   111         20
   121         30
   122         20
   123        400
   124         80
   125         30
   129        190
   134         20
   135         20
   136         20
   150        200
   151         30
   152         30
   157         70
   164         30
   177         50
   178         10
   179        100
   180         10
   181         20
   182         30
   192         40
   224         40
   238         10
   280        110
   281         20
   282         10