##TITLE=Library Entry 59050
##JCAMP-DX=Revision 4.10 
##DATA TYPE=MASS SPECTRUM
##SAMPLE DESCRIPTION=Japan AIST/NIMC Database- Spectrum MS-NW-2338
##NAMES=HP
##CAS NAME=N-Benzylethylenediamine-N,N',N'-triacetic acid
##MOLFORM=C15H20N2O6
##CAS REGISTRY NO=65311-06-0
##MP= -300
##BP= -300
##MW= 324
##$RETENTION INDEX=0
##$CONDENSED SPECTRUM=NO
##NPOINTS= 203
##XYDATA=(XY..XY) 1 
    12          1
    14          6
    15         32
    16          5
    17         23
    18         94
    26          7
    27         21
    28         54
    29         13
    30         22
    31          9
    32          2
    36          1
    37          2
    38          6
    39         34
    40          9
    41         42
    42        262
    43         33
    44        118
    45          9
    46          1
    49          3
    50         10
    51         24
    52          9
    53          5
    54         13
    55         22
    56        120
    57         26
    58         39
    59          4
    60         13
    61          2
    62          6
    63         20
    64          6
    65         83
    66          5
    67          3
    68          7
    69          8
    70         36
    71          9
    72          9
    73          3
    74          5
    75          2
    76          3
    77         29
    78          9
    79         31
    80          6
    81          5
    82          7
    83         16
    84         11
    85         14
    86          9
    87          3
    88         23
    89         19
    90         14
    91        999
    92        103
    93          5
    94          2
    95          3
    96          6
    97         17
    98          9
    99         24
   100         12
   101         33
   102         16
   103          6
   104         14
   105         14
   106         12
   107         19
   108         56
   109          4
   110          4
   111          8
   112          3
   113         12
   114         12
   115          5
   116          6
   117          5
   118         13
   119          8
   120         23
   121          7
   122          1
   123          1
   124          1
   125          6
   126          4
   127          9
   128          6
   129         10
   130          4
   131          5
   132         17
   133         15
   134         77
   135         10
   136          1
   138          1
   139          2
   140          2
   141          8
   142          5
   143         87
   144         10
   145          3
   146         28
   147         10
   148          4
   149          1
   150          1
   151          1
   152          1
   154          1
   155          2
   156          1
   157         32
   158          5
   159          2
   160          5
   161          2
   162          4
   163          1
   164          3
   165          1
   166          1
   167          1
   168          1
   169          3
   170          7
   171        150
   172         31
   173          5
   174          2
   175         18
   176          5
   177          3
   178        246
   179         29
   180          4
   181          5
   182          1
   185          2
   186          1
   187         14
   188          3
   189          8
   190          4
   191          9
   192         15
   193          3
   198          1
   199          1
   200          1
   201          1
   202          2
   203         21
   204          8
   205          2
   206          1
   210          4
   211          1
   215          8
   216          5
   217          1
   219         12
   220          3
   231          1
   232          1
   233         10
   234          2
   236          7
   237          1
   247          2
   248         11
   249          2
   250          1
   260          1
   261          9
   262          5
   263          1
   268         94
   269         17
   270          2
   277          1
   279          2
   306          2
   323          1
   324          2