##TITLE=Library Entry 68906
##JCAMP-DX=Revision 4.10 
##DATA TYPE=MASS SPECTRUM
##SAMPLE DESCRIPTION=NIST Mass Spectrometry Data Center
##NAMES=HP
##CAS NAME=N-(2-Furoyl)aminopurine
##MOLFORM=C10H7N5O2
##CAS REGISTRY NO=65316-39-4
##MP= -300
##BP= -300
##MW= 229
##$RETENTION INDEX=0
##$CONDENSED SPECTRUM=NO
##NPOINTS= 57
##XYDATA=(XY..XY) 1 
    10          2
    12         11
    13          5
    14         34
    15         18
    18         22
    19          2
    20          2
    26          1
    27         43
    28        290
    29        130
    30          8
    36          1
    37         24
    38        136
    39        414
    40         44
    41          1
    42          1
    43          9
    44         77
    45          4
    51          8
    53        182
    54         73
    55          5
    64          1
    65         22
    66         56
    67        130
    68          4
    73         35
    80          8
    81         13
    83         16
    92         24
    93         32
    94          1
    95        999
    96         68
   108         43
   111         24
   119        154
   120        151
   135        161
   145         54
   146          7
   172          5
   173        106
   175        166
   190         36
   200          4
   201        566
   202         59
   229        242
   230          3