##TITLE=Library Entry 60311
##JCAMP-DX=Revision 4.10 
##DATA TYPE=MASS SPECTRUM
##SAMPLE DESCRIPTION=NIST Mass Spectrometry Data Center, 2012
##NAMES=HP
##CAS NAME=Norgestrel
##MOLFORM=C21H28O2
##CAS REGISTRY NO=6533-00-2
##MP= -300
##BP= -300
##MW= 312
##$RETENTION INDEX=0
##$CONDENSED SPECTRUM=NO
##NPOINTS= 254
##XYDATA=(XY..XY) 1 
    15          1
    27         52
    29         95
    31          5
    37          2
    38          4
    39        156
    40         46
    41        357
    42         43
    43         92
    44          8
    45          7
    49          1
    50         10
    51         65
    52         48
    53        379
    54         72
    55        466
    56         27
    57         55
    58          6
    59          3
    60          2
    61          2
    62          3
    63         28
    64         28
    65        203
    66         80
    67        456
    68        140
    69        100
    70         13
    71         23
    72          7
    73          7
    74          3
    75          5
    76         13
    77        558
    78        169
    79        718
    80        129
    81        375
    82         76
    83         88
    84         11
    85         14
    86         17
    87         22
    88          2
    89         32
    90         21
    91        999
    92        177
    93        358
    94        100
    95        216
    96         49
    97        130
    98         15
    99          9
   100          7
   101         17
   102         25
   103        130
   104         90
   105        488
   106        128
   107        402
   108        160
   109        249
   110        601
   111        126
   112         14
   113         11
   114          7
   115        227
   116         86
   117        352
   118         97
   119        322
   120        186
   121        231
   122        264
   123        201
   124         71
   125         17
   126          6
   127         50
   128        149
   129        229
   130         81
   131        246
   132        116
   133        322
   134        249
   135        471
   136        101
   137         58
   138         32
   139         18
   140          3
   141        103
   142         63
   143        125
   144         64
   145        221
   146        134
   147        273
   148        167
   149        155
   150         45
   151         34
   152         28
   153         32
   154         20
   155         93
   156         45
   157        102
   158         99
   159        232
   160        270
   161        195
   162        174
   163         72
   164         26
   165         39
   166         12
   167         29
   168         14
   169         61
   170         42
   171         88
   172         67
   173        191
   174        108
   175         97
   176         33
   177         23
   178         30
   179         18
   180          8
   181         29
   182         15
   183         63
   184         41
   185         82
   186         51
   187        154
   188         58
   189         67
   190         26
   191         31
   192          7
   193          9
   194          5
   195         26
   196         17
   197         60
   198         32
   199         48
   200        127
   201         97
   202         60
   203         96
   204         19
   205          8
   206          2
   207          8
   208          5
   209         24
   210         14
   211         44
   212         38
   213         73
   214         58
   215         86
   216         40
   217         10
   219          4
   220          2
   221         12
   222          5
   223         20
   224         14
   225         21
   226         28
   227        105
   228         28
   229        226
   230         62
   231         42
   232         18
   233          5
   234          1
   235          3
   236          4
   237         24
   238         15
   239         34
   240         21
   241         33
   242        121
   243         35
   244         40
   245        312
   246         56
   247         13
   248          4
   250          5
   251         10
   252          7
   253          8
   254         34
   255         37
   256         14
   257         44
   258        116
   259         22
   260          2
   261          2
   265         46
   266         27
   267          9
   268         23
   269         53
   270         16
   271          5
   272          1
   275          1
   276          2
   277          3
   279          9
   280          2
   283         68
   284         55
   285         13
   286        140
   287         29
   288          4
   293          3
   294         23
   295          9
   296          2
   297         12
   298          3
   310          1
   311          4
   312        156
   313         39
   314          6