##TITLE=Library Entry 73016
##JCAMP-DX=Revision 4.10 
##DATA TYPE=MASS SPECTRUM
##SAMPLE DESCRIPTION=A.A.Kutin, Moscow, Russia
##NAMES=HP
##CAS NAME=Ethanone, 2-(4-morpholyl)-1-(4-phenyl-1-piperazinyl)-
##MOLFORM=C16H23N3O2
##CAS REGISTRY NO=65349-03-3
##MP= -300
##BP= -300
##MW= 289
##$RETENTION INDEX=0
##$CONDENSED SPECTRUM=NO
##NPOINTS= 154
##XYDATA=(XY..XY) 1 
    33          2
    34          0
    36          0
    37          0
    38          1
    39          6
    40         10
    41         33
    42         89
    43         21
    44         17
    45          5
    50          3
    51         17
    52          3
    53          1
    54         11
    55         14
    56        170
    57         12
    58          4
    59          0
    60          0
    62          0
    63          2
    64          1
    65          5
    66          1
    67          0
    68          3
    69          3
    70         42
    71          7
    72         12
    73          0
    75          1
    76          2
    77         59
    78          8
    79          5
    80          0
    81          0
    82          1
    83          1
    84          1
    85          3
    86          7
    87          1
    88          0
    89          1
    90          1
    91         32
    92          3
    93          2
    94          0
    95          0
    96          0
    98         23
   100        999
   101         54
   102          9
   103          3
   104         49
   105         43
   106         25
   107          3
   108          0
   109          0
   110          0
   111          0
   112          1
   113          0
   114          0
   115          0
   116          0
   117          5
   118          9
   119         23
   120         29
   121          3
   123          0
   125          0
   126          1
   127          3
   128          0
   129          0
   130          3
   131          3
   132         42
   133          7
   134         21
   135          2
   136          0
   139          0
   140          1
   141          1
   142          1
   143          0
   144          3
   145         13
   146          3
   147         12
   148          2
   149          0
   153          0
   154          0
   155          0
   156          0
   157          7
   158          1
   159          5
   160         17
   161         14
   162         11
   163          2
   164          0
   168          0
   169          0
   170          5
   171          2
   172          0
   173          0
   174          0
   175          7
   176          1
   187          0
   188          0
   189         33
   190          4
   191          1
   200          0
   201          1
   202         27
   203          4
   204         13
   205          1
   206          0
   215          0
   216          0
   217          0
   218          0
   219          0
   220          0
   232          0
   245          0
   246          0
   258          0
   259          7
   260          1
   261          0
   287          1
   289         58
   290         11
   291          1