##TITLE=Library Entry 71731
##JCAMP-DX=Revision 4.10 
##DATA TYPE=MASS SPECTRUM
##SAMPLE DESCRIPTION=A.A.Kutin, Moscow, Russia
##NAMES=HP
##CAS NAME=Ethanone, 1-(4-phenyl-1-piperazinyl)-2-(1-piperidyl)-
##MOLFORM=C17H25N3O
##CAS REGISTRY NO=65349-02-2
##MP= -300
##BP= -300
##MW= 287
##$RETENTION INDEX=0
##$CONDENSED SPECTRUM=NO
##NPOINTS= 56
##XYDATA=(XY..XY) 1 
    33         46
    34         27
    39         36
    40         19
    41         73
    42         63
    43         39
    44         46
    48          8
    50         16
    51         27
    52          2
    55         59
    56         41
    57         15
    63         12
    64         15
    65         32
    66         17
    69         17
    70         28
    77         63
    78          7
    84         39
    85          5
    91        114
    92         16
    93         42
    94         37
    96         14
    98        999
    99         54
   103          4
   104         55
   105         50
   106         31
   107         36
   108          7
   119         95
   120         43
   121         36
   122         31
   132         29
   134          6
   147          5
   155          5
   159          2
   160          3
   161         12
   162          5
   164          3
   171          2
   189          5
   202          2
   287        131
   288         18