##TITLE=Library Entry 72878
##JCAMP-DX=Revision 4.10 
##DATA TYPE=MASS SPECTRUM
##SAMPLE DESCRIPTION=NIST Mass Spectrometry Data Center
##NAMES=HP
##CAS NAME=Pentacosane-2,4-dione
##MOLFORM=C25H48O2
##CAS REGISTRY NO=65351-32-8
##MP= -300
##BP= -300
##MW= 380
##$RETENTION INDEX=2824
##$CONDENSED SPECTRUM=NO
##NPOINTS= 68
##XYDATA=(XY..XY) 1 
    27         11
    29         41
    31          3
    39         16
    41        155
    42         35
    43        542
    44         14
    53          9
    55        171
    56         43
    57        173
    58         58
    59         15
    67         37
    68         18
    69        112
    70         28
    71        103
    72         85
    80         17
    82         17
    83         66
    84         39
    85        396
    86         21
    87          9
    94         16
    95         40
    96         14
    97         52
    98         46
    99         12
   100        999
   101        193
   102         15
   109         21
   110          7
   111         35
   112         16
   113        148
   114         15
   121          7
   123         13
   124         25
   125         10
   127         10
   135         10
   137         12
   138         29
   139          6
   142         25
   143          3
   151          5
   154          4
   156          7
   169          5
   266          2
   304         15
   305          4
   319          2
   322          7
   323          7
   351          1
   362         25
   363          6
   365          4
   380          8