##TITLE=Library Entry 63689
##JCAMP-DX=Revision 4.10 
##DATA TYPE=MASS SPECTRUM
##SAMPLE DESCRIPTION=Dr. Jiri Zamecnik, DCIEM, North York, Canada, GP Librar
y
##NAMES=HP
##CAS NAME=2-Amino-6-benzyloxytoluene
##MOLFORM=C14H15NO
##CAS REGISTRY NO=65361-82-2
##MP= -300
##BP= -300
##MW= 213
##$RETENTION INDEX=0
##$CONDENSED SPECTRUM=NO
##NPOINTS= 33
##XYDATA=(XY..XY) 1 
    39        151
    41         94
    51         69
    63         42
    65        458
    66         77
    77        129
    78         30
    79         25
    89         47
    91        999
    92        308
    94         95
   105         12
   106         38
   107         22
   121         50
   122         86
   123          9
   135         15
   136         56
   167          8
   169          6
   170          8
   180          5
   181          6
   184          6
   196         37
   197         11
   198         42
   212         72
   213        554
   214        130