##TITLE=Library Entry 35275
##JCAMP-DX=Revision 4.10 
##DATA TYPE=MASS SPECTRUM
##SAMPLE DESCRIPTION=T.Marunaka,Biomed.Mass Spectrom., 9,381(1982)
##NAMES=HP
##CAS NAME=1-(2,5-Dihydro-2-furanyl)-5-fluorouracil
##MOLFORM=C8H7FN2O3
##CAS REGISTRY NO=65361-15-1
##MP= -300
##BP= -300
##MW= 198
##$RETENTION INDEX=0
##$CONDENSED SPECTRUM=NO
##NPOINTS= 35
##XYDATA=(XY..XY) 1 
    38          3
    39        363
    40        199
    41        411
    50         38
    51         10
    52          3
    56         34
    58        161
    59        140
    60        264
    68        705
    69        999
    70        257
    71         99
    72          3
    77          3
    78         21
    85          3
    86         38
    87        380
    88         13
    98         55
    99          3
   124          7
   125         21
   126        106
   127         14
   128          3
   129          3
   130        589
   131        130
   198        158
   199         38
   200         10