##TITLE=Library Entry 32194
##JCAMP-DX=Revision 4.10 
##DATA TYPE=MASS SPECTRUM
##SAMPLE DESCRIPTION=Chemical Concepts
##NAMES=HP
##CAS NAME=4,7-Ethanoisobenzofuran-1,3,5,8(4H)-tetrone, tetrahydro-
##MOLFORM=C10H8O5
##CAS REGISTRY NO=6537-90-2
##MP= -300
##BP= -300
##MW= 208
##$RETENTION INDEX=0
##$CONDENSED SPECTRUM=NO
##NPOINTS= 164
##XYDATA=(XY..XY) 1 
    34          0
    35          0
    36          2
    37          9
    38         61
    39        467
    40        256
    41         70
    42        161
    43         56
    44         18
    45         11
    46          8
    47          5
    48          1
    49          3
    50         60
    51        145
    52        124
    53        158
    54         63
    55        179
    56         10
    57         16
    58          5
    59         14
    60          6
    61          3
    62         11
    63         48
    64         21
    65        174
    66        999
    67         68
    68        129
    69         24
    70          7
    71          9
    72          8
    73         25
    74          6
    75          9
    76          5
    77        153
    78         95
    79        416
    80        257
    81        114
    82         87
    83         14
    84         15
    85          7
    86          5
    87          2
    88          1
    89          2
    90         11
    91         67
    92        107
    93         13
    94        561
    95         94
    96         12
    97         20
    98          4
    99         12
   100          1
   101         12
   102          1
   103          0
   104          0
   105          3
   106         26
   107         83
   108        237
   109         25
   110        110
   111         11
   112          4
   113          2
   114          1
   115          1
   116          0
   117          0
   118         17
   119          4
   120          1
   121          5
   122          5
   123          8
   124         15
   125          5
   126          1
   127          1
   128          3
   129          3
   130          0
   131          0
   132          0
   133          2
   134         40
   135        161
   136        124
   137         12
   138         11
   139          3
   140          0
   141          0
   143          0
   145          0
   146          1
   147          7
   148          1
   149          3
   150          1
   151          3
   152         63
   153          6
   154          1
   155          8
   156          9
   158          1
   159          0
   160          0
   161          1
   162         25
   163          5
   164          1
   165          1
   166          2
   167          2
   168          1
   169          1
   170          1
   171          1
   172          0
   173          0
   174          0
   175          0
   176          0
   177          0
   178          1
   179          4
   180        146
   181         15
   182          2
   183          0
   184          0
   185          0
   186          0
   189          0
   190          1
   191          0
   192          0
   193          0
   194          0
   195          0
   205          0
   206          0
   207          4
   208        331
   209         36
   210          5
   211          0