##TITLE=Library Entry 83498
##JCAMP-DX=Revision 4.10 
##DATA TYPE=MASS SPECTRUM
##SAMPLE DESCRIPTION=J.Sanz-Asensio ET AL.J.Chrom.,840,235(1999)
##NAMES=HP
##CAS NAME=Phenol, 2-[(ethylthio)methyl]-
##MOLFORM=C9H12OS
##CAS REGISTRY NO=65370-06-1
##MP= -300
##BP= -300
##MW= 168
##$RETENTION INDEX=1404
##$CONDENSED SPECTRUM=NO
##NPOINTS= 39
##XYDATA=(XY..XY) 1 
    46         34
    47         23
    50         78
    51        189
    52         98
    53         85
    55         18
    57         13
    58         80
    59         31
    60         13
    61         23
    62         23
    63         60
    64         16
    65         36
    66         16
    67          8
    69         10
    71         10
    74         18
    75         10
    77        510
    78        288
    79        189
    80         28
    89         18
    90         18
    91         18
    95         26
   105         13
   107        999
   108        241
   109         26
   137         13
   139         31
   168        192
   169         16
   170          5