##TITLE=Library Entry 70953
##JCAMP-DX=Revision 4.10 
##DATA TYPE=MASS SPECTRUM
##SAMPLE DESCRIPTION=Chemical Concepts
##NAMES=HP
##CAS NAME=2-Oxecanone, 10-methyl-, (.+/-.)-
##MOLFORM=C10H18O2
##CAS REGISTRY NO=65371-24-6
##MP= -300
##BP= -300
##MW= 170
##$RETENTION INDEX=1308
##$CONDENSED SPECTRUM=NO
##NPOINTS= 95
##XYDATA=(XY..XY) 1 
    25         10
    27        185
    28         87
    29        179
    30          4
    31          9
    38          5
    39        184
    40         41
    41        587
    42        274
    43        193
    44         12
    45         93
    46          3
    47          2
    48          2
    50          5
    51         12
    52          6
    53         54
    54         83
    55        677
    56        255
    57         83
    58         44
    59         21
    60         35
    61          5
    63          2
    65          8
    66         10
    67        152
    68        159
    69        297
    70        183
    71         82
    72          9
    73         45
    74          5
    75          2
    76          7
    78         10
    79         47
    80         24
    81         78
    82        269
    83        232
    84        508
    85         47
    86          5
    87         18
    88          7
    91          8
    92          4
    93         37
    94         31
    95         49
    96         52
    97        208
    98        999
    99         72
   100         24
   101         24
   102          4
   103          4
   105         13
   106          3
   107          3
   108         73
   109         76
   110        104
   111        106
   112         25
   113         15
   114         40
   115         20
   116          3
   119         10
   120          6
   123         77
   124         32
   125         13
   126        101
   127         72
   128         12
   129          3
   150          8
   152        142
   153         17
   155         48
   156          5
   169          4
   170         21
   171          4