##TITLE=Library Entry 109921
##JCAMP-DX=Revision 4.10 
##DATA TYPE=MASS SPECTRUM
##SAMPLE DESCRIPTION=Dr. Jiri Zamecnik, DCIEM, North York, Canada, GP Librar
y
##NAMES=HP
##CAS NAME=3-Ethoxy-4-methoxyphenol
##MOLFORM=C9H12O3
##CAS REGISTRY NO=65383-57-5
##MP= -300
##BP= -300
##MW= 168
##$RETENTION INDEX=0
##$CONDENSED SPECTRUM=NO
##NPOINTS= 23
##XYDATA=(XY..XY) 1 
    39        100
    41         48
    52         53
    53         67
    55         87
    65         60
    68         55
    69         94
    79         33
    81         29
    93         44
    96         41
    97        267
   108         14
   111        108
   125        999
   126         64
   137         15
   139         21
   140        182
   153         34
   168        580
   169         48