##TITLE=Library Entry 15675
##JCAMP-DX=Revision 4.10 
##DATA TYPE=MASS SPECTRUM
##SAMPLE DESCRIPTION=Patti Price, Georgia Bureau of Investigation, Decatur,
 Georgia
##NAMES=HP
##CAS NAME=1,2-Benzenediol, 4-(2-amino-1-hydroxypropyl)-
##MOLFORM=C9H13NO3
##CAS REGISTRY NO=6539-57-7
##MP= -300
##BP= -300
##MW= 183
##$RETENTION INDEX=0
##$CONDENSED SPECTRUM=NO
##NPOINTS= 102
##XYDATA=(XY..XY) 1 
    38          6
    39         43
    40          7
    41          9
    42         42
    43         16
    44        999
    45         30
    46          2
    50         11
    51         28
    52         12
    53         33
    54          8
    55         27
    56          3
    57          2
    58          1
    59          1
    60          1
    61          2
    62          7
    63         33
    64         18
    65        150
    66         17
    67          6
    68          2
    69          4
    70          1
    71          1
    73          1
    74          3
    75          5
    76          5
    77         19
    78         14
    79          9
    80          4
    81         32
    82         10
    83          2
    84          1
    86          1
    87          1
    88          1
    91         12
    92          6
    93        142
    94         18
    95          5
    96          1
    97          1
   101          1
   102          2
   103          4
   104          5
   105          3
   106          7
   107          7
   108          3
   109         19
   110         11
   111         31
   112          1
   116          1
   117          1
   118          4
   119          3
   120          1
   121          5
   122         10
   123         21
   124         16
   125          3
   129          1
   130          1
   131          2
   132          6
   133          2
   134          1
   135          1
   137         63
   138         17
   139         43
   140         14
   141          1
   146          5
   147          2
   148          4
   149          3
   150          5
   151          3
   152          1
   162          1
   163          1
   164          2
   165         13
   166          4
   183         42
   184          4
   185          1