##TITLE=Library Entry 63350
##JCAMP-DX=Revision 4.10 
##DATA TYPE=MASS SPECTRUM
##SAMPLE DESCRIPTION=A.A.Kutin, Moscow, Russia
##NAMES=HP
##CAS NAME=3-Benzotriazol-1-yl-propionic acid
##MOLFORM=C9H9N3O2
##CAS REGISTRY NO=654-15-9
##MP= -300
##BP= -300
##MW= 191
##$RETENTION INDEX=0
##$CONDENSED SPECTRUM=NO
##NPOINTS= 117
##XYDATA=(XY..XY) 1 
    33          1
    34          2
    36          1
    37         33
    38         64
    39        124
    40         40
    41         48
    42         30
    43         59
    44         22
    45        238
    46          4
    49          5
    50         92
    51        130
    52         79
    53         10
    55        128
    56          6
    57          2
    59         14
    60         10
    61         17
    62         42
    63        167
    64        254
    65         93
    66         12
    67          3
    68          1
    69          2
    70          1
    71          1
    73        211
    74         32
    75         31
    76         73
    77        318
    78         40
    79          7
    80          2
    81          1
    82          1
    83          1
    84          0
    85          1
    86          3
    87          5
    88          9
    89         30
    90        113
    91        999
    92        116
    93         29
    94          4
    95          1
    96          0
    97          0
    98          0
    99          0
   100          0
   102          7
   103         20
   104        323
   105         27
   106          4
   107          1
   108          0
   109          3
   110          0
   111          0
   112          0
   113          0
   114          0
   115          1
   116         10
   117         65
   118         76
   119         25
   120         88
   121         28
   122          2
   123          0
   125          0
   127          0
   128          5
   129          0
   130          0
   132         26
   133          2
   134          0
   135          1
   136          0
   141          0
   143          0
   144          2
   145          4
   146         32
   147          4
   148          0
   149          0
   150          0
   151          0
   152          0
   162          2
   163          2
   164          0
   165          0
   171          0
   172          0
   174          1
   175          0
   189          4
   191        447
   192         49
   193          4