##TITLE=Library Entry 38810
##JCAMP-DX=Revision 4.10 
##DATA TYPE=MASS SPECTRUM
##SAMPLE DESCRIPTION=Chemical Concepts
##NAMES=HP
##CAS NAME=1-Propanol, 2,3-bis[(3,7,11,15-tetramethylhexadecyl)oxy]-
##MOLFORM=C43H88O3
##CAS REGISTRY NO=6540-63-2
##MP= -300
##BP= -300
##MW= 652
##$RETENTION INDEX=0
##$CONDENSED SPECTRUM=NO
##NPOINTS= 137
##XYDATA=(XY..XY) 1 
    26         34
    27          9
    28        108
    30         14
    39         22
    41        224
    42         65
    43        629
    44         21
    45         36
    51         16
    53         15
    55        545
    56        254
    57        772
    58         72
    59         21
    60         14
    67         54
    68         59
    69        727
    70        227
    71        999
    72         64
    73         82
    74          7
    75         40
    79         12
    80         36
    81        251
    82        108
    83        545
    84         91
    85        681
    86         47
    87          6
    93         58
    94         31
    95        124
    96         93
    97        363
    98         52
    99        357
   100         26
   105          9
   107         17
   108          5
   109         78
   110         28
   111        291
   112         58
   113        224
   114         20
   121         18
   122         33
   123        290
   124        110
   125        217
   126         82
   127        198
   128         19
   129          5
   135         12
   136         29
   137         37
   138         23
   139         93
   140         40
   141        162
   142         16
   143          8
   147          7
   149         20
   151         12
   152         12
   153         75
   154         12
   155        125
   156         14
   165         10
   167         29
   169        102
   177         10
   179         10
   181         19
   182         34
   183         94
   184         11
   193          6
   195         15
   196         34
   197        132
   198         19
   207         15
   209          9
   210         46
   212          8
   218          6
   223         17
   224          6
   225         31
   226          6
   253          7
   278        201
   279        191
   280        110
   281        135
   282         27
   296        136
   297         49
   308         26
   309         29
   310          6
   324         57
   325        299
   326         71
   327         24
   338          6
   340        144
   341         77
   343        275
   344         68
   354         14
   355          8
   373        100
   374         23
   410          3
   434          2
   530          1
   563          1
   619          8
   620         13
   621          7
   637          6
   638          2
   652         11
   653          5