##TITLE=Library Entry 35451
##JCAMP-DX=Revision 4.10 
##DATA TYPE=MASS SPECTRUM
##SAMPLE DESCRIPTION=Japan AIST/NIMC Database- Spectrum MS-NW-5704
##NAMES=HP
##CAS NAME=2-Butenoic acid, 3-hexenyl ester, (E,Z)-
##MOLFORM=C10H16O2
##CAS REGISTRY NO=65405-80-3
##MP= -300
##BP= -300
##MW= 168
##$RETENTION INDEX=1599
##$CONDENSED SPECTRUM=NO
##NPOINTS= 54
##XYDATA=(XY..XY) 1 
    15          7
    17          1
    18          3
    26          6
    27         50
    28         11
    29         35
    30          1
    31          3
    37          4
    38          9
    39        158
    40         29
    41        363
    42         25
    43          9
    44          2
    45          2
    50          3
    51          8
    52          5
    53         27
    54         52
    55         57
    56          6
    57          5
    58          1
    62          1
    63          1
    65          8
    66          6
    67        569
    68         40
    69        999
    70         45
    71          4
    77          4
    78          1
    79          7
    80          3
    81         47
    82        779
    83         53
    84          3
    85          2
    86          3
    87         48
    88          2
    91          1
    95          1
    96          1
    98          1
    99          5
   113          1