##TITLE=Library Entry 35549
##JCAMP-DX=Revision 4.10 
##DATA TYPE=MASS SPECTRUM
##SAMPLE DESCRIPTION=Japan AIST/NIMC Database- Spectrum MS-NW-6640
##NAMES=HP
##CAS NAME=5-Decanone, 6-hydroxy-
##MOLFORM=C10H20O2
##CAS REGISTRY NO=6540-98-3
##MP= -300
##BP= -300
##MW= 172
##$RETENTION INDEX=0
##$CONDENSED SPECTRUM=NO
##NPOINTS= 103
##XYDATA=(XY..XY) 1 
    14          1
    15          7
    17          5
    18         16
    26          7
    27        111
    28         15
    29        191
    30          7
    31         42
    32          3
    37          1
    38          3
    39         52
    40          8
    41        373
    42         26
    43        115
    44         35
    45         76
    46          2
    50          2
    51          4
    52          2
    53         11
    54          5
    55         64
    56         15
    57        449
    58         28
    59          6
    60         40
    61          2
    63          1
    65          2
    66          1
    67         12
    68          8
    69        999
    70         62
    71         13
    72          4
    73         26
    74         19
    75          1
    77          3
    78          1
    79          5
    80          1
    81          9
    82          3
    83         24
    84         13
    85        488
    86        156
    87        412
    88         24
    89          2
    91          4
    92          1
    93          2
    94          1
    95          8
    96          5
    97         22
    98          9
    99         18
   100         11
   101          2
   102          1
   103          2
   105          1
   107          2
   109          2
   110          1
   111          7
   112          8
   113         14
   114         16
   115          5
   116         41
   117          3
   125          6
   126          6
   127          5
   128          2
   129          2
   130          4
   137          2
   138          2
   139          1
   141          1
   142          1
   143          4
   153          2
   154          3
   155         17
   156          2
   157          1
   170          4
   171          2
   172          6
   173          2