##TITLE=Library Entry 78836
##JCAMP-DX=Revision 4.10 
##DATA TYPE=MASS SPECTRUM
##SAMPLE DESCRIPTION=NIST Mass Spectrometry Data Center
##NAMES=HP
##CAS NAME=Pent-2-en-1-yl benzoate
##MOLFORM=C12H14O2
##CAS REGISTRY NO=65416-27-5
##MP= -300
##BP= -300
##MW= 190
##$RETENTION INDEX=1492
##$CONDENSED SPECTRUM=NO
##NPOINTS= 46
##XYDATA=(XY..XY) 1 
    27         21
    29          8
    36          2
    38         11
    39         43
    40         25
    41        118
    42         18
    45          5
    50         31
    51         91
    52         13
    53         55
    54          9
    62          5
    63          6
    64          9
    65          9
    67        137
    68        211
    69         80
    74         19
    75          8
    76         15
    77        293
    78         26
    79         27
    85         34
    87          5
    89          7
    92          8
    97         16
   105        999
   106         84
   122          7
   123         86
   124          9
   128          9
   129         14
   130         14
   136          5
   138          5
   157          4
   161          6
   190         13
   191          6