##TITLE=Library Entry 2106
##JCAMP-DX=Revision 4.10 
##DATA TYPE=MASS SPECTRUM
##SAMPLE DESCRIPTION=Japan AIST/NIMC Database- Spectrum MS-NW-9514
##NAMES=HP
##CAS NAME=o-Allylhydroxylamine
##MOLFORM=C3H7NO
##CAS REGISTRY NO=6542-54-7
##MP= -300
##BP= -300
##MW= 73
##$RETENTION INDEX=0
##$CONDENSED SPECTRUM=NO
##NPOINTS= 32
##XYDATA=(XY..XY) 1 
    14          1
    15          8
    16          3
    17          2
    18          6
    25          3
    26         25
    27         78
    28         45
    29         43
    30        174
    31         12
    32         12
    33         46
    34          9
    39        348
    40         20
    41        999
    42         45
    43          7
    44         14
    45          1
    46         11
    53          2
    54          3
    55         21
    56         14
    57         12
    58          3
    72         21
    73          8
    74          3