##TITLE=Library Entry 46792
##JCAMP-DX=Revision 4.10 
##DATA TYPE=MASS SPECTRUM
##SAMPLE DESCRIPTION=Chemical Concepts
##NAMES=HP
##CAS NAME=Tellurium, ethyl phenyl dichloride
##MOLFORM=C8H10Cl2Te
##CAS REGISTRY NO=65440-50-8
##MP= -300
##BP= -300
##MW= 306
##$RETENTION INDEX=0
##$CONDENSED SPECTRUM=NO
##NPOINTS= 192
##XYDATA=(XY..XY) 1 
    37          5
    38         13
    39         33
    40          1
    41          3
    42          0
    43          3
    44          0
    45          0
    48          0
    49          8
    50        190
    51        545
    52         43
    53          2
    55          2
    56          0
    57          2
    58          1
    59          1
    60          0
    61          2
    62          5
    63         10
    64          2
    65         10
    66          1
    67          0
    69          1
    70          1
    71          1
    72          0
    73          9
    74         69
    75         69
    76         96
    77        999
    78        634
    79         48
    80          1
    81          1
    83          1
    85          1
    86          0
    87          0
    89          4
    90          2
    91        120
    92          9
    93          1
    95          0
    96          0
    97          1
   102          1
   103          8
   104          6
   105         87
   106         47
   107          4
   109          0
   110          1
   111          3
   112         82
   113          6
   114         25
   115          2
   117          0
   120          2
   121          1
   122         12
   123          6
   124         22
   125         35
   126         95
   127         14
   128        152
   129         23
   130        162
   131         25
   132          1
   138          1
   139          2
   140          1
   141          2
   142          2
   143          2
   144          1
   147          1
   148          0
   149          3
   150          3
   151         10
   152          3
   153         19
   154         13
   155         26
   156          5
   157         18
   158          4
   159         19
   160          8
   161         20
   162          8
   163         39
   164         10
   165         47
   166         12
   167         22
   168          5
   171          1
   173          1
   174          1
   175          4
   176          2
   177          5
   178          3
   179          7
   180          4
   181          3
   185          0
   186          5
   187          2
   188         12
   189         16
   190         43
   191          7
   192         81
   193          2
   194         93
   195          2
   196         24
   197          2
   198          2
   199         26
   200         20
   201         54
   202         93
   203        213
   204         82
   205        311
   206        132
   207        336
   208        129
   209          7
   215          0
   216          0
   217          0
   218          0
   219          1
   220          0
   221          0
   223          0
   225          0
   226          1
   227          1
   228         34
   229         16
   230         64
   231        101
   232        261
   233         23
   234        424
   235         40
   236        463
   237         50
   238         25
   239          9
   240         41
   241         12
   242         50
   243         12
   244         12
   245          3
   263         11
   264          5
   265         22
   266         31
   267         83
   268         17
   269        149
   270         15
   271        181
   272         26
   273         73
   274         11
   275         60
   276          5
   277         77
   278          5
   279         34
   280          3
   281          5