##TITLE=Library Entry 15287
##JCAMP-DX=Revision 4.10 
##DATA TYPE=MASS SPECTRUM
##SAMPLE DESCRIPTION=Chemical Concepts
##NAMES=HP
##CAS NAME=4-Hydroxyphenyl 3-nitrobenzoate
##MOLFORM=C13H9NO5
##CAS REGISTRY NO=65440-47-3
##MP= -300
##BP= -300
##MW= 259
##$RETENTION INDEX=0
##$CONDENSED SPECTRUM=NO
##NPOINTS= 47
##XYDATA=(XY..XY) 1 
    33         20
    37          7
    38         32
    39         64
    40        128
    42        499
    43        396
    44        999
    45        114
    46         11
    50        131
    51         32
    53         87
    54         29
    55         36
    56         24
    57         16
    58         29
    61          6
    63         30
    65         82
    69         15
    70          7
    72        125
    73        170
    74         35
    75         54
    76        178
    77         18
    81         49
    82          9
    83          6
    87        263
    92         26
    93          8
   104        170
   105         15
   109         21
   120         10
   121         16
   122          9
   134         11
   150        404
   151         29
   167         19
   259         60
   260          7