##TITLE=Library Entry 60785
##JCAMP-DX=Revision 4.10 
##DATA TYPE=MASS SPECTRUM
##SAMPLE DESCRIPTION=Chemical Concepts
##NAMES=HP
##CAS NAME=.alpha.D-Galactofuranose, 1,2:5,6-bis-O-(1-methylethylidene)-3-O-
(phenylmethyl)-
##MOLFORM=C19H26O6
##CAS REGISTRY NO=65451-98-1
##MP= -300
##BP= -300
##MW= 350
##$RETENTION INDEX=0
##$CONDENSED SPECTRUM=NO
##NPOINTS= 241
##XYDATA=(XY..XY) 1 
    27         16
    28         14
    29         27
    30          4
    31         22
    37          3
    38          4
    39         30
    40          7
    41         58
    42         30
    43        209
    44         23
    45          5
    46          1
    47          2
    50          3
    51         11
    52          3
    53          7
    54          4
    55         50
    56          8
    57         29
    58         10
    59         87
    60          8
    61         14
    62          2
    63          7
    64          4
    65         64
    66         10
    67          5
    68         21
    69         38
    70         20
    71         24
    72         79
    73         52
    74          5
    75          2
    76          3
    77         20
    78          5
    79         13
    80          3
    81         19
    82         22
    83         26
    84         39
    85        115
    86         22
    87          4
    88          1
    89         15
    90         13
    91        999
    92        148
    93         12
    94         21
    95         12
    96          3
    97         16
    98          7
    99         17
   100         52
   101        305
   102         22
   103          6
   104         10
   105         43
   106          6
   107         58
   108         11
   109          8
   110         18
   111         16
   112         22
   113         61
   114          8
   115         17
   116          5
   117         14
   118          3
   119          8
   120          4
   121          7
   122          3
   123          8
   124          2
   125          3
   126          8
   127         37
   128         17
   129        171
   130         15
   131         27
   132          7
   133         25
   134          4
   135          3
   136          1
   137          2
   138          1
   139          7
   140          6
   141          8
   142          7
   143         27
   144          5
   145         22
   146          8
   147          6
   148          5
   149         54
   150          8
   151          2
   152          1
   153          3
   154          1
   155         17
   156          3
   157          7
   158          3
   159          6
   160         13
   161         10
   162          7
   163         32
   164          4
   165          4
   166          2
   167         15
   168          5
   169         12
   170          6
   171          8
   172          2
   173         36
   174          7
   175         10
   176         20
   177          5
   178          2
   179          2
   180          0
   181          2
   182          2
   183          2
   184          1
   185         32
   186         50
   187         11
   188         13
   189        111
   190         17
   191         42
   192          8
   193          2
   194          1
   195          1
   196          1
   197          2
   198          3
   199          5
   200          2
   201          6
   202          2
   203          4
   204          2
   205         10
   206          3
   207          1
   208          1
   209          1
   210          2
   211          1
   212          1
   213          1
   214          2
   215          1
   216          8
   217         15
   218          3
   219         14
   220          4
   221          2
   222          1
   223          3
   224          2
   225          1
   226          1
   227          1
   228          1
   229          3
   230          1
   231          1
   232          2
   233          5
   234         30
   235          5
   236          1
   243          1
   244          1
   245          2
   246          1
   247          1
   248          1
   249          5
   250          2
   251          1
   259          1
   260          1
   261          7
   262          5
   263          2
   264          1
   274          2
   275          3
   276          1
   277         11
   278          3
   279          2
   280          2
   290          1
   291          2
   292          5
   293          2
   296          2
   298          1
   300          1
   304          2
   311          1
   320          2
   335        138
   336         29
   337          5
   339          1
   340          0
   341          1