##TITLE=Library Entry 71528
##JCAMP-DX=Revision 4.10 
##DATA TYPE=MASS SPECTRUM
##SAMPLE DESCRIPTION=Tox21 Consortium/NIST Mass Spectrometry Data Center, 20
12
##NAMES=HP
##CAS NAME=1-[(2-Cyclohexyl-2-phenyl-1,3-dioxolan-4-yl)methyl]piperidine
##MOLFORM=C21H31NO2
##CAS REGISTRY NO=65471-77-4
##MP= -300
##BP= -300
##MW= 329
##$RETENTION INDEX=0
##$CONDENSED SPECTRUM=NO
##NPOINTS= 98
##XYDATA=(XY..XY) 1 
    15          1
    27          4
    28          6
    29          8
    30          5
    31          1
    39          9
    40          2
    41         65
    42         35
    43          9
    44         14
    45          1
    50          1
    51          6
    52          1
    53          5
    54          8
    55         75
    56         14
    57          5
    58          1
    63          1
    65          2
    66          1
    67          6
    68         11
    69         14
    70         14
    71          1
    76          2
    77         47
    78          5
    79          5
    80          2
    81          4
    82          7
    83         12
    84         10
    85          9
    86          1
    89          1
    90          1
    91         19
    92          2
    93          1
    94          3
    95          1
    96         21
    97          8
    98        999
    99         68
   100          2
   103          3
   104          2
   105         91
   106          7
   107          1
   108          1
   110          5
   111          1
   112          2
   115          6
   116          2
   117          4
   118          1
   119          1
   120          1
   122          5
   124        121
   125         12
   126          2
   127          1
   128          4
   129          5
   130          1
   131          1
   133          1
   140          7
   141         23
   142          5
   143          4
   147          2
   161          1
   163          1
   171          1
   188          1
   201          1
   202          1
   244          1
   246         81
   247         14
   248          1
   252          4
   253          1
   328          1
   329          2
   330          1