##TITLE=Library Entry 14173
##JCAMP-DX=Revision 4.10 
##DATA TYPE=MASS SPECTRUM
##SAMPLE DESCRIPTION=Dr. Jiri Zamecnik, DCIEM, North York, Canada, GP Librar
y
##NAMES=HP
##CAS NAME=1.-beta.-d-Triacetylribofuranosyl-5-iodouracil
##MOLFORM=C15H17IN2O9
##CAS REGISTRY NO=65499-40-3
##MP= -300
##BP= -300
##MW= 496
##$RETENTION INDEX=0
##$CONDENSED SPECTRUM=NO
##NPOINTS= 36
##XYDATA=(XY..XY) 1 
    42        607
    43        999
    68        174
    69        239
    85        252
    97        274
    99         98
   115        136
   128        225
   139        427
   157        140
   170        123
   171         38
   191         17
   195         31
   211        126
   217         34
   239         80
   259        680
   260         88
   281         20
   299         85
   321         61
   323         54
   349        163
   366         71
   367         21
   408         39
   409        200
   436          6
   437          2
   455         15
   468         10
   469          2
   496         22
   497          8