##TITLE=Library Entry 83995
##JCAMP-DX=Revision 4.10 
##DATA TYPE=MASS SPECTRUM
##SAMPLE DESCRIPTION=Leung Pu, NIH, Bethesda, Maryland, U.S.
##NAMES=HP
##CAS NAME=1,2-Ethanediol, 1,2-diphenyl-, (R*,R*)-(.+/-.)-
##MOLFORM=C14H14O2
##CAS REGISTRY NO=655-48-1
##MP= -300
##BP= -300
##MW= 214
##$RETENTION INDEX=0
##$CONDENSED SPECTRUM=NO
##NPOINTS= 112
##XYDATA=(XY..XY) 1 
    41         17
    42          7
    43         23
    44         26
    45          6
    46          0
    47          0
    49          5
    50         42
    51        133
    52         42
    53         33
    54          3
    55          7
    56          8
    57          5
    58          1
    59          0
    60          2
    61          1
    62          6
    63         23
    64          6
    65         13
    66          3
    67          3
    68          1
    69         11
    70          3
    71          3
    72          0
    73          1
    74          7
    75          6
    76         14
    77        507
    78        109
    79        744
    80         52
    81          4
    82          3
    83          4
    84          1
    85          2
    86          2
    87          2
    88          2
    89         24
    90         22
    91         27
    92          4
    93          2
    94          0
    95          1
    97          2
    98          1
    99          1
   100          1
   101          1
   102          3
   103          0
   105        101
   106         35
   107        999
   108        837
   109         64
   111          1
   113          1
   114          0
   115          3
   116          0
   118          1
   119          2
   120          0
   121          1
   123          0
   124          2
   125          0
   126          1
   127          1
   128          2
   129          0
   131          3
   139          2
   141          1
   149          5
   150          1
   151          2
   152         10
   153          1
   155          0
   163          1
   164          2
   165         17
   166          4
   167          5
   168          1
   169          2
   176          1
   177          1
   178          3
   179          3
   180          3
   181          1
   182          0
   183          0
   195          0
   196          1
   197         10
   198          1
   214          5
   215          0