##TITLE=Library Entry 86439
##JCAMP-DX=Revision 4.10 
##DATA TYPE=MASS SPECTRUM
##SAMPLE DESCRIPTION=NIST Mass Spectrometry Data Center, 1994
##NAMES=HP
##CAS NAME=2-Fluorobenzyl mercaptan
##MOLFORM=C7H7FS
##CAS REGISTRY NO=655-20-9
##MP= -300
##BP= -300
##MW= 142
##$RETENTION INDEX=0
##$CONDENSED SPECTRUM=NO
##NPOINTS= 100
##XYDATA=(XY..XY) 1 
     9          0
    10          0
    11          0
    13          0
    18          1
    20          1
    24          0
    25          1
    26          7
    27          6
    31          6
    32         13
    33         48
    34          6
    35          1
    36          2
    37         12
    38         23
    39         59
    40          2
    45        164
    46         11
    47         16
    48          1
    49          8
    50         50
    51         45
    52          7
    53          1
    55          2
    56         13
    57         97
    58          9
    59         12
    60         19
    61         26
    62         36
    63         65
    64          5
    65          3
    66          0
    68         12
    69         33
    70         17
    71         13
    72          1
    73          2
    74          9
    75         29
    76          5
    77         21
    78          3
    79          1
    80          5
    81         40
    82         17
    83        229
    84         14
    85          5
    86          7
    87         10
    88          3
    89         29
    90          3
    91          1
    92          2
    93          9
    94          6
    95         23
    96         19
    97          7
    98          0
   100          0
   101          0
   102          0
   103          0
   104          0
   105          4
   107         64
   109        999
   110         74
   111          3
   112          0
   113          1
   114          0
   115          1
   117          1
   119          1
   120          0
   121          7
   122          0
   123          1
   124          0
   126          1
   127          0
   140          3
   142        258
   143         21
   144         11
   145          0