##TITLE=Library Entry 37676
##JCAMP-DX=Revision 4.10 
##DATA TYPE=MASS SPECTRUM
##SAMPLE DESCRIPTION=Finnigan MAT: Toxicological Library (LIBR-TX)
##NAMES=HP
##CAS NAME=Thozalinone
##MOLFORM=C11H12N2O2
##CAS REGISTRY NO=655-05-0
##MP= -300
##BP= -300
##MW= 204
##$RETENTION INDEX=2040
##$CONDENSED SPECTRUM=NO
##NPOINTS= 19
##XYDATA=(XY..XY) 1 
    42         47
    51         71
    63         51
    69         97
    70        999
    71         80
    72         67
    77        101
    83        100
    89        120
    90        105
    98        466
    99         78
   105         31
   113         59
   114         28
   132         19
   204        267
   205         40