##TITLE=Library Entry 15868
##JCAMP-DX=Revision 4.10 
##DATA TYPE=MASS SPECTRUM
##SAMPLE DESCRIPTION=Chemical Concepts
##NAMES=HP
##CAS NAME=Boron, (2-aminoethanolato-N,O)(1,5-cyclooctanediyl)-, Tt-4)-
##MOLFORM=C10H20BNO
##CAS REGISTRY NO=65503-24-4
##MP= -300
##BP= -300
##MW= 181
##$RETENTION INDEX=0
##$CONDENSED SPECTRUM=NO
##NPOINTS= 131
##XYDATA=(XY..XY) 1 
    25          0
    26          4
    27         71
    29         33
    30        144
    31          2
    36          0
    37          6
    38          3
    39         54
    41        102
    42         84
    43         68
    44        999
    45         23
    46          0
    49          0
    50          5
    51         15
    52          8
    53         31
    54         30
    55         63
    56         21
    57          5
    58          2
    59          0
    60          0
    61          1
    62          1
    63          4
    64          5
    65         19
    66         12
    67         71
    68         26
    69         50
    70         42
    71         21
    72         46
    73          1
    74          0
    75          0
    76          2
    77         11
    78          5
    79         19
    80         11
    81         41
    82         34
    83         33
    84        157
    85        615
    86         27
    87          2
    88          0
    89          2
    90          2
    91          9
    92          5
    93          9
    94          6
    95         42
    96        123
    97        112
    98        216
    99        101
   100          5
   101          0
   103          0
   104          0
   105          0
   106          2
   107          3
   108          7
   109         49
   110        194
   111        191
   112         74
   113         34
   114          2
   115          0
   116          0
   118          0
   120          1
   121          2
   122          4
   123         62
   124        262
   125        102
   126         26
   127         42
   128          2
   131          0
   132          0
   135          2
   136          2
   137         29
   138        120
   139         38
   140         13
   141          0
   146          0
   147          0
   148          1
   149          0
   150          1
   151         19
   152         79
   153         11
   154          0
   159          0
   160          0
   161          0
   162          1
   163          0
   164          1
   165          5
   166         24
   167          2
   173          0
   174          0
   175          0
   176          0
   177          0
   178          0
   179          4
   180         71
   181        217
   182         29
   183          2