##TITLE=Library Entry 81793
##JCAMP-DX=Revision 4.10 
##DATA TYPE=MASS SPECTRUM
##SAMPLE DESCRIPTION=PYTCAS, 16(12)2024(1977); E. W. B. WARD ET AL.
##NAMES=HP
##CAS NAME=1,3-Naphthalenediol, 1,2,3,4,4a,5,6,7-octahydro-6-[1-(hydroxymeth
yl)ethenyl]-4,4a-dimethyl-, (1.alpha.,3.beta.,4.beta.,4a.alpha.,6.alpha.)-
##MOLFORM=C15H24O3
##CAS REGISTRY NO=65513-74-8
##MP= -300
##BP= -300
##MW= 252
##$RETENTION INDEX=0
##$CONDENSED SPECTRUM=NO
##NPOINTS= 9
##XYDATA=(XY..XY) 1 
   105        999
   183        280
   198        170
   201        240
   216        320
   219        100
   234         80
   237        180
   252         10