##TITLE=Library Entry 14238
##JCAMP-DX=Revision 4.10 
##DATA TYPE=MASS SPECTRUM
##SAMPLE DESCRIPTION=MASS SPECTROMETRY CENTER, UNIV. OF UTAH; ALDRICH 11949-
0
##NAMES=HP
##CAS NAME=Benzenesulfonyl chloride, 2,4,6-tris(1-methylethyl)-
##MOLFORM=C15H23ClO2S
##CAS REGISTRY NO=6553-96-4
##MP= -300
##BP= -300
##MW= 302
##$RETENTION INDEX=0
##$CONDENSED SPECTRUM=NO
##NPOINTS= 109
##XYDATA=(XY..XY) 1 
    15         29
    27        184
    29         86
    32          7
    35         15
    36         36
    38         21
    39        112
    40         17
    41        501
    42         32
    43        999
    44          9
    48         39
    50          9
    51         43
    52         17
    53         76
    55         57
    59         84
    63         28
    64         55
    65        118
    66          8
    67         36
    71         22
    72          6
    75         12
    76          9
    77        143
    78         45
    79         72
    80          8
    86          7
    89         27
    91        370
    92         40
    93         11
   102         27
   103         69
   104         18
   105        164
   106          9
   115        217
   116         92
   117        220
   118         28
   119         98
   127         70
   128        215
   129        186
   130         85
   131        157
   132         25
   133         61
   134         23
   135         29
   137          4
   139         16
   141         98
   142         69
   143         93
   144         40
   145        157
   146         26
   147         52
   149        120
   150          8
   151         28
   152          9
   153         26
   155         26
   156         23
   157         35
   158          8
   159        186
   160         43
   161         76
   162          8
   163          6
   165         22
   171         25
   173         88
   174         19
   175        102
   176          6
   187        374
   188         72
   189         93
   190         20
   191         20
   202         90
   203         66
   204         13
   217         20
   218         45
   221         15
   223          9
   231          7
   232         31
   233          7
   249         29
   251        158
   252         30
   266         55
   267        513
   268         97
   269         36
   302         13