##TITLE=Library Entry 52016
##JCAMP-DX=Revision 4.10 
##DATA TYPE=MASS SPECTRUM
##SAMPLE DESCRIPTION=Japan AIST/NIMC Database- Spectrum MS-NW-3837
##NAMES=HP
##CAS NAME=Cyclohexanecarboxylic acid isopropyl ester
##MOLFORM=C10H18O2
##CAS REGISTRY NO=6553-80-6
##MP= -300
##BP= -300
##MW= 170
##$RETENTION INDEX=0
##$CONDENSED SPECTRUM=NO
##NPOINTS= 93
##XYDATA=(XY..XY) 1 
    14          2
    15         22
    17          2
    18          7
    26          9
    27        155
    28         16
    29         75
    30          2
    31          8
    32          2
    36          2
    37          2
    38          6
    39        126
    40         22
    41        401
    42         68
    43        968
    44         35
    45         25
    47          6
    50          4
    51          9
    52          6
    53         41
    54         52
    55        647
    56        130
    57         10
    58          6
    59        141
    60         23
    61         19
    62          1
    63          2
    65          6
    66          7
    67         89
    68        104
    69         53
    70          6
    71          4
    72          2
    73        176
    74          9
    75          1
    77          8
    78          3
    79         16
    80          8
    81         89
    82         78
    83        999
    84         69
    85          4
    86         17
    87         26
    88          1
    91          2
    92          1
    93         14
    94          2
    95          2
    96          1
    97          3
    98          3
    99         39
   100          8
   101          1
   102          1
   105          3
   108          4
   109         10
   110         68
   111        279
   112         21
   113         13
   114          2
   115         24
   116          2
   119          3
   125          1
   126          3
   127         10
   128        410
   129        492
   130         40
   131          4
   155          9
   156          1
   170         24
   171          3