##TITLE=Library Entry 63449
##JCAMP-DX=Revision 4.10 
##DATA TYPE=MASS SPECTRUM
##SAMPLE DESCRIPTION=HCACAV, 61(4)1342(1978); U. KRAMER ET AL
##NAMES=HP
##CAS NAME=Benzenesulfonamide, 4-methyl-N-[3-[[(4-methylphenyl)sulfonyl]amin
o]propyl]-N-[3-(2-oxoazacyclotridec-1-yl)propyl]-
##MOLFORM=C32H49N3O5S2
##CAS REGISTRY NO=65545-59-7
##MP= -300
##BP= -300
##MW= 619
##$RETENTION INDEX=0
##$CONDENSED SPECTRUM=NO
##NPOINTS= 22
##XYDATA=(XY..XY) 1 
    70        260
    84        110
    91        999
    98        160
   114        100
   123        130
   132        250
   142        140
   155        430
   198        850
   210        310
   224        200
   238        200
   241        280
   253        110
   267        480
   293        140
   313        480
   322        140
   408         30
   464         80
   619          5