##TITLE=Library Entry 54229
##JCAMP-DX=Revision 4.10 
##DATA TYPE=MASS SPECTRUM
##SAMPLE DESCRIPTION=RH-15
##NAMES=HP
##CAS NAME=Bicyclo[2.2.2]octane, 1-methoxy-4-methyl-
##MOLFORM=C10H18O
##CAS REGISTRY NO=6555-95-9
##MP= -300
##BP= -300
##MW= 154
##$RETENTION INDEX=1341
##$CONDENSED SPECTRUM=NO
##NPOINTS= 84
##XYDATA=(XY..XY) 1 
    14          4
    15         65
    16          4
    26         17
    27        119
    28         61
    29         96
    30          4
    31          9
    37          4
    38         11
    39        147
    40         28
    41        205
    42         40
    43        312
    44         10
    45         31
    50         17
    51         37
    52         18
    53         92
    54         74
    55        183
    56         23
    57         21
    58          5
    59          8
    60          1
    61          2
    62          5
    63         13
    64          3
    65         30
    66         15
    67         75
    68         24
    69         78
    70         79
    71         31
    72         15
    77         62
    78         15
    79         90
    80         13
    81         64
    82         25
    83        123
    84        999
    85        110
    86         17
    91         39
    92          8
    93         56
    94         26
    95         32
    96         26
    97        120
    98         15
    99          2
   105          6
   106          1
   107         15
   108          5
   109         18
   110          8
   111        164
   112         17
   113          1
   120          1
   121          4
   122         33
   123         21
   124         22
   125        583
   126         68
   127          5
   139         44
   140         20
   141          2
   153          8
   154        271
   155         32
   156          2