##TITLE=Library Entry 11646
##JCAMP-DX=Revision 4.10 
##DATA TYPE=MASS SPECTRUM
##SAMPLE DESCRIPTION=LAC, NIDDK, NIH, Bethesda, MD 20892
##NAMES=HP
##CAS NAME=1-Allopregnene-3,20-dione
##MOLFORM=C21H30O2
##CAS REGISTRY NO=65556-93-6
##MP= -300
##BP= -300
##MW= 314
##$RETENTION INDEX=0
##$CONDENSED SPECTRUM=NO
##NPOINTS= 191
##XYDATA=(XY..XY) 1 
    41        234
    43        999
    45         30
    51         15
    52         12
    53         99
    55        206
    56          5
    57         14
    58          6
    59          1
    63          3
    64          1
    65         48
    66          5
    67        167
    68         26
    69        157
    71        179
    72          4
    73          1
    77        144
    79        284
    80        103
    81        176
    82          8
    83         13
    84        201
    85         60
    86         11
    87          0
    89          2
    91        170
    92          9
    93        160
    94         18
    95        189
    96         15
    97         17
    98          4
    99          4
   100          1
   101          1
   103         15
   105        109
   107        224
   108         69
   109        157
   110         55
   111         28
   113          4
   115         22
   117         42
   118         12
   119         72
   121        177
   122        448
   123        140
   124         25
   125          8
   127          5
   128         10
   129         16
   130          5
   131         42
   132         22
   133         86
   134        119
   135        104
   136         27
   137         18
   138          7
   139          5
   141          8
   142          6
   143         18
   144         10
   145         42
   146         10
   147         88
   148         24
   149         51
   150          8
   151         13
   152          1
   153          1
   155          7
   156          2
   157         17
   158          9
   159         55
   160         32
   161         59
   162         22
   163         26
   164          4
   165          3
   167          0
   169          6
   170          4
   171         13
   172         10
   173         32
   174         21
   175         79
   176         21
   177         15
   178          4
   179          5
   183          6
   184          4
   185         16
   186          5
   187         53
   188         15
   189         11
   190         13
   191         10
   192         16
   193         34
   194          4
   197          8
   198          4
   199          9
   200          1
   201         18
   202          7
   203         14
   204          4
   205          7
   206          4
   211         14
   212          6
   213         24
   214          8
   215         13
   216          4
   217          9
   218          2
   223          0
   225          7
   226          5
   227         11
   228         16
   229         49
   230        157
   231         53
   232          8
   233          2
   239          5
   240          1
   241          7
   242          5
   243          8
   244         23
   245          5
   246          1
   253         12
   254          7
   255          1
   256         23
   257         11
   258          7
   259          4
   267          9
   268          5
   269         24
   270         15
   271         26
   272        160
   273         30
   274          4
   281         10
   282          1
   283          1
   284          2
   285          3
   286          3
   287          4
   296         46
   297         17
   299         29
   300          5
   301          1
   302          6
   312          9
   313          6
   314        151
   315         35
   316         17
   317          2