##TITLE=Library Entry 35610
##JCAMP-DX=Revision 4.10 
##DATA TYPE=MASS SPECTRUM
##SAMPLE DESCRIPTION=P.A. Leclercq, Lab. Instrum. Anal., Eindhoven Univ. Tec
hnol., Netherlands
##NAMES=HP
##CAS NAME=.alpha.-D-Ribopyranoside, methyl, phosphite triester
##MOLFORM=C6H9O5P
##CAS REGISTRY NO=65562-17-6
##MP= -300
##BP= -300
##MW= 192
##$RETENTION INDEX=0
##$CONDENSED SPECTRUM=NO
##NPOINTS= 83
##XYDATA=(XY..XY) 1 
    41        359
    42         75
    43        195
    44         60
    45         93
    46          7
    47        513
    48         53
    49         20
    50         15
    51         21
    52         42
    53         89
    54         37
    55        225
    56         26
    57        195
    58         20
    59         22
    60          8
    61        126
    62         17
    63         13
    64          9
    65         58
    66          2
    67         15
    68        788
    69        999
    70         71
    71         36
    72          4
    73         17
    74         23
    75          9
    76          2
    77         11
    78          4
    79        138
    80          4
    81         16
    82          6
    83          6
    84          5
    85         90
    86         26
    87          3
    89        994
    90         34
    91          8
    95          9
    96          8
    97          5
    99          4
   102        175
   103        291
   104        225
   105         23
   106          5
   107         29
   108          3
   111          4
   112          5
   113         39
   117         43
   118          4
   119         11
   120          2
   122          5
   129         22
   132        141
   133         32
   134          6
   135          2
   148          1
   149          4
   161         19
   162         56
   163          4
   164          3
   191          5
   192          6
   193          0