##TITLE=Library Entry 79426
##JCAMP-DX=Revision 4.10 
##DATA TYPE=MASS SPECTRUM
##SAMPLE DESCRIPTION=D.HENNEBERG, MAX-PLANCK INSTITUTE, MULHEIM, WEST GERMAN
Y
##NAMES=HP
##CAS NAME=6-Octen-1-one, 3-ethenyl-1-phenyl-
##MOLFORM=C16H20O
##CAS REGISTRY NO=65564-67-2
##MP= -300
##BP= -300
##MW= 228
##$RETENTION INDEX=0
##$CONDENSED SPECTRUM=NO
##NPOINTS= 159
##XYDATA=(XY..XY) 1 
    26         26
    27         25
    28         32
    29         38
    30          1
    31          1
    32          1
    36          0
    37          0
    38          1
    39         34
    40          7
    41         81
    42          7
    43         78
    44          7
    45          0
    49          1
    50          8
    51         34
    52          9
    53         27
    54         19
    55         72
    56          4
    57          3
    58          0
    63          2
    64          0
    65         11
    66         17
    67         40
    68         38
    69         21
    70          2
    71          2
    74          1
    75          1
    76         10
    77        303
    78         81
    79        112
    80         21
    81         24
    82          3
    83          2
    84          0
    85          0
    86          0
    89          1
    90          1
    91         54
    92         14
    93         75
    94         10
    95          7
    96          1
    97          3
    98          0
   100          0
   102          3
   103         11
   104          8
   105        999
   106         80
   107         24
   108        102
   109         19
   110          4
   111          1
   115          9
   116          4
   117         13
   118         23
   119          5
   120        108
   121         74
   122          9
   123          9
   124          1
   125          0
   126          1
   127          3
   128          6
   129         15
   130          3
   131         16
   132          4
   133          7
   134          8
   135          1
   137          1
   139          0
   140          0
   141          7
   142          6
   143          7
   144          6
   145         12
   146          6
   147          3
   148          0
   151          1
   152          1
   153          3
   154          2
   155          8
   156          3
   157        107
   158         17
   159        160
   160         23
   161          9
   162          1
   165          2
   166          1
   167          2
   168          1
   169          2
   170          1
   171         11
   172         11
   173         14
   174          3
   175          0
   176          0
   178          1
   179          2
   180          1
   181          2
   182          1
   183          0
   184          1
   185          9
   186          2
   187          2
   189          0
   193          0
   194          0
   195          3
   196          0
   197          0
   199         14
   200          2
   201          0
   207          0
   210         10
   211          2
   212          1
   213          3
   214          1
   215          0
   216          0
   222          0
   226          1
   227          8
   228         46
   229          9
   230          1