##TITLE=Library Entry 107777
##JCAMP-DX=Revision 4.10 
##DATA TYPE=MASS SPECTRUM
##SAMPLE DESCRIPTION=PYTCAS, 16(12)1983(1977); C. L. CHEN ET AL
##NAMES=HP
##CAS NAME=2H-1-Benzoxacyclohexadecin-16(18aH)-one, 3,4,5,6,7,8,9,10,11,12,1
3,14-dodecahydro-18,18a-dihydroxy-2-methyl-
##MOLFORM=C20H32O4
##CAS REGISTRY NO=65580-01-0
##MP= -300
##BP= -300
##MW= 336
##$RETENTION INDEX=0
##$CONDENSED SPECTRUM=NO
##NPOINTS= 15
##XYDATA=(XY..XY) 1 
    41        210
    43        190
    44        800
    45        280
    55        220
    57         90
    67         50
    69        100
   123        310
   124        999
   125        100
   136         50
   137        140
   318         60
   336        100