##TITLE=Library Entry 99509
##JCAMP-DX=Revision 4.10 
##DATA TYPE=MASS SPECTRUM
##SAMPLE DESCRIPTION=Japan AIST/NIMC Database- Spectrum MS-IW-7815
##NAMES=HP
##CAS NAME=2,2'-Dimethyl-alpha,alpha'-bis(O-toluoyloxy)-trans-stilbene
##MOLFORM=C32H28O4
##CAS REGISTRY NO=65594-69-6
##MP= -300
##BP= -300
##MW= 476
##$RETENTION INDEX=0
##$CONDENSED SPECTRUM=NO
##NPOINTS= 43
##XYDATA=(XY..XY) 1 
    28          5
    39          3
    41          1
    44          1
    50          1
    51          2
    52          1
    63          2
    64          1
    65         21
    66          1
    76          1
    77          2
    78          8
    89          8
    90          8
    91        147
    92         12
   101          1
   118          8
   119        999
   120         88
   121          5
   165          1
   178          4
   179          7
   180          1
   189          1
   191          1
   193          1
   202          3
   203          3
   204          3
   205          2
   206          2
   222          6
   223          1
   341          9
   342          2
   357          1
   476         48
   477         16
   478          3