##TITLE=Library Entry 8803
##JCAMP-DX=Revision 4.10 
##DATA TYPE=MASS SPECTRUM
##SAMPLE DESCRIPTION=Chemical Concepts
##NAMES=HP
##CAS NAME=Pentanoic acid, 3-hydroxy-4-methyl-, methyl ester
##MOLFORM=C7H14O3
##CAS REGISTRY NO=65596-31-8
##MP= -300
##BP= -300
##MW= 146
##$RETENTION INDEX=0
##$CONDENSED SPECTRUM=NO
##NPOINTS= 72
##XYDATA=(XY..XY) 1 
    31        158
    33        132
    34          2
    36          0
    37          9
    38         17
    39        186
    40         27
    41        325
    42        179
    43        999
    44        145
    45         67
    46          1
    47          1
    50          8
    51         11
    52          4
    53         32
    54          7
    55        152
    56         14
    57         91
    58         11
    59         95
    60          2
    61        280
    62          6
    63          2
    65          2
    66          0
    67          8
    68         24
    69         66
    70          6
    71        489
    72         35
    73        142
    74        137
    75         17
    76          1
    77          0
    79          0
    81          5
    82          1
    83          0
    85         12
    86         10
    87          4
    89          0
    95          1
    96         24
    97         33
    98          1
    99          7
   100          0
   101          1
   102          8
   103        286
   104         15
   105          2
   113          8
   114          1
   115         10
   116          1
   127          1
   128         13
   129          4
   130          0
   131          1
   143          0
   145          2