##TITLE=Library Entry 65948
##JCAMP-DX=Revision 4.10 
##DATA TYPE=MASS SPECTRUM
##SAMPLE DESCRIPTION=Chemical Concepts
##NAMES=HP
##CAS NAME=Cyclopropanecarboxylic acid, 1-cyano-2-ethenyl-, ethyl ester
##MOLFORM=C9H11NO2
##CAS REGISTRY NO=65590-89-8
##MP= -300
##BP= -300
##MW= 165
##$RETENTION INDEX=0
##$CONDENSED SPECTRUM=NO
##NPOINTS= 104
##XYDATA=(XY..XY) 1 
    25         61
    27        415
    28         36
    29        777
    30         24
    31         12
    37         51
    38        114
    39        634
    40        130
    41        164
    42         25
    43         53
    44         30
    45         33
    46          6
    49          6
    50         41
    51         73
    52        223
    53        202
    54        127
    55         31
    56         41
    57        317
    58         22
    59          4
    60          3
    61         11
    62         22
    63         79
    64        166
    65        510
    66        791
    67         89
    68         28
    69         13
    70         12
    71         10
    73          3
    74          2
    75          8
    76         16
    77         77
    78         26
    79         24
    80        160
    81        203
    82        209
    83         27
    84          4
    85         40
    86          4
    87          5
    88          7
    89          4
    90         17
    91        454
    92        537
    93        999
    94        118
    95         11
    96          6
    97          4
    98         29
    99          2
   100          2
   101          3
   102          6
   103          2
   104         15
   105         14
   106         43
   107          7
   108         31
   109        109
   110        114
   111         11
   115          3
   118         10
   119        226
   120        250
   121         31
   122        188
   123         16
   124          4
   129          2
   130          3
   131          3
   132          9
   133          3
   136         28
   137        168
   138         23
   139          3
   141          3
   146        102
   147         11
   150          5
   163          2
   164         11
   165        105
   166         21
   167          3