##TITLE=Library Entry 46172
##JCAMP-DX=Revision 4.10 
##DATA TYPE=MASS SPECTRUM
##SAMPLE DESCRIPTION=NIST Mass Spectrometry Data Center
##NAMES=HP
##CAS NAME=Etiocholanolone, TBDMS derivative
##MOLFORM=C25H44O2Si
##CAS REGISTRY NO=65598-73-4
##MP= -300
##BP= -300
##MW= 404
##$RETENTION INDEX=2812
##$CONDENSED SPECTRUM=NO
##NPOINTS= 237
##XYDATA=(XY..XY) 1 
    27          6
    28          6
    29         23
    31          1
    32          2
    38          1
    39         12
    40          4
    41         87
    42          7
    43         25
    45         17
    46          2
    47         16
    48          1
    51          5
    52          1
    53         29
    54          8
    55        113
    56         14
    57         46
    58         14
    59         51
    60          8
    61         18
    62          1
    63          1
    65         16
    66          8
    67        133
    68         17
    69         37
    70          5
    71          4
    72          2
    73        209
    74         34
    75        999
    76         72
    77         95
    78         12
    79        156
    80         26
    81        216
    82         17
    83         61
    85         11
    87          5
    89          9
    90          1
    91        150
    92         25
    93        212
    94         36
    95        174
    96         15
    97         56
    98          7
    99         19
   100          3
   101         36
   102          8
   103         16
   104          9
   105        204
   106         49
   107        233
   108         45
   109         92
   110         17
   111         15
   112          3
   113         11
   114          4
   115         31
   116         10
   117         62
   118         20
   119        194
   120         37
   121        139
   122         18
   123         32
   124         10
   125          9
   126          2
   127         10
   128         12
   129         26
   130          6
   131        126
   132         20
   133        100
   134         22
   135         86
   136         15
   137         19
   138         43
   139          8
   140          1
   141          7
   142          6
   143         34
   144         23
   145        213
   146         37
   147        225
   148         29
   149         44
   150          7
   151         19
   152         10
   153          5
   154          2
   155          8
   156          4
   157         38
   158          9
   159        139
   160         25
   161        179
   162         30
   163         23
   164          6
   165          7
   166          5
   167          5
   168          2
   169          9
   170          4
   171         48
   172         13
   173         84
   174         25
   175         48
   176          6
   177          6
   178          1
   179          2
   180          1
   181          4
   182          1
   183         10
   184          3
   185         43
   186          8
   187         35
   188          6
   189         17
   190          6
   191          3
   193          1
   194          2
   195          2
   196          1
   197         12
   198          4
   199         47
   200         13
   201         70
   202         14
   203          7
   204          1
   205          2
   206          2
   208          2
   209          3
   211          5
   212          3
   213         51
   214         11
   215         17
   216          5
   217          9
   218          3
   220          1
   221          1
   222          1
   223          1
   224          2
   225          2
   226          1
   227         34
   228          7
   229         57
   230         11
   231          3
   233          2
   235          2
   236          1
   237          4
   238          1
   239          5
   240          3
   241          1
   243          4
   244          2
   245          2
   250          1
   251          2
   253         34
   254          3
   255        366
   256         84
   257         14
   258          2
   260          1
   269          2
   270          2
   271         30
   272         10
   273          2
   290          1
   291          1
   301          1
   303          3
   304          1
   305          1
   316          1
   319          1
   329          3
   331          8
   332          1
   333          1
   336          1
   345          3
   347        393
   348        114
   349         28
   350          4
   351          1
   389         13
   390          5
   403          2
   404          4
   405          1