##TITLE=Library Entry 76738
##JCAMP-DX=Revision 4.10 
##DATA TYPE=MASS SPECTRUM
##SAMPLE DESCRIPTION=D.J.HARVEY UNIV. DEPT. OF PHARMACOLOGY, OXFORD, UK
##NAMES=HP
##CAS NAME=Silane, [[(3.beta.,5.alpha.,20R)-pregnane-3,20-diyl]bis(oxy)]bis[
dimethyl-2-propenyl-
##MOLFORM=C31H56O2Si2
##CAS REGISTRY NO=65598-70-1
##MP= -300
##BP= -300
##MW= 516
##$RETENTION INDEX=0
##$CONDENSED SPECTRUM=NO
##NPOINTS= 74
##XYDATA=(XY..XY) 1 
    69         12
    75        382
    76         28
    77         23
    78         19
    81         45
    83         15
    93         18
    95         45
    97         10
    99         19
   101         40
   103        999
   104         93
   105         58
   107         38
   109         39
   115         84
   117         22
   119         19
   121         45
   123         25
   129         44
   133         29
   135         52
   143        302
   144         38
   145         28
   147         45
   149         79
   150         16
   151         18
   159         20
   161         35
   163         20
   173         48
   175         47
   177         13
   187         14
   189         22
   191         19
   201         18
   203         12
   210         14
   221         11
   223         10
   241         11
   255         17
   257         78
   258         17
   283        125
   284         47
   285         23
   295         20
   327          9
   331         63
   332         17
   341         20
   343         11
   355         12
   356         18
   357         23
   358          9
   359         46
   360         12
   373         27
   399         74
   400         25
   430         12
   431         15
   475        804
   476        338
   477        127
   501         14