##TITLE=Library Entry 76739
##JCAMP-DX=Revision 4.10 
##DATA TYPE=MASS SPECTRUM
##SAMPLE DESCRIPTION=D.J.HARVEY UNIV. DEPT. OF PHARMACOLOGY, OXFORD, UK
##NAMES=HP
##CAS NAME=Pregnane-3,20-diol, (3.beta.,5.alpha.,20R)-, 2TBDMS derivative
##MOLFORM=C33H64O2Si2
##CAS REGISTRY NO=65598-71-2
##MP= -300
##BP= -300
##MW= 548
##$RETENTION INDEX=0
##$CONDENSED SPECTRUM=NO
##NPOINTS= 62
##XYDATA=(XY..XY) 1 
    67         13
    68         78
    73         78
    75        355
    76         22
    77         17
    78         14
    81         26
    93         12
    95         26
   103        999
   104         94
   105         47
   107         16
   109         16
   115         22
   117         24
   119         12
   121         25
   123         10
   133         18
   135         39
   145         85
   146         11
   147         27
   149         25
   159        286
   160         45
   161         29
   163         15
   175         20
   187         12
   189         26
   191         14
   193         16
   201         11
   208         22
   210         13
   221         35
   253         12
   257         42
   267         10
   269         15
   281         12
   283        120
   284         26
   285         18
   295         16
   343         10
   355         15
   356         17
   357         14
   359         35
   360         12
   369         10
   389         25
   401         12
   416         48
   431         16
   491        601
   492        265
   493         96