##TITLE=Library Entry 7535
##JCAMP-DX=Revision 4.10 
##DATA TYPE=MASS SPECTRUM
##SAMPLE DESCRIPTION=Zaikin V.G., TIPS RAS, Moscow, Russia
##NAMES=HP
##CAS NAME=Acetic acid, trichloro-, nonyl ester
##MOLFORM=C11H19Cl3O2
##CAS REGISTRY NO=65611-32-7
##MP= -300
##BP= -300
##MW= 288
##$RETENTION INDEX=1674
##$CONDENSED SPECTRUM=NO
##NPOINTS= 85
##XYDATA=(XY..XY) 1 
    25          2
    26         18
    27        107
    28          3
    29        220
    30          6
    31          3
    35         11
    36         74
    37          6
    38         31
    39         98
    40         26
    41        621
    42        243
    43        999
    44         62
    45          4
    47         15
    48          4
    49          6
    50          6
    51          6
    52          5
    53         33
    54         60
    55        757
    56        775
    57        575
    58         21
    63          4
    65          6
    66          4
    67         55
    68        167
    69        583
    70        568
    71        430
    72         19
    75          1
    76          6
    77          3
    78          3
    79          9
    80          3
    81         17
    82        141
    83        387
    84        276
    85        226
    86         16
    87          2
    91          2
    93          2
    94          1
    95          6
    96         21
    97        204
    98        216
    99         15
   101          1
   105          1
   110         33
   111          9
   112         22
   113          1
   114          3
   117         61
   119         59
   121         18
   123          2
   124          2
   125          4
   126         33
   127          5
   128          4
   129          2
   130          2
   145          1
   147          1
   153          1
   163          2
   165          2
   169          1
   171          3