##TITLE=Library Entry 24034
##JCAMP-DX=Revision 4.10 
##DATA TYPE=MASS SPECTRUM
##SAMPLE DESCRIPTION=W.L.MEAD BRITISH PETROLEUM CO. LTD., SUNBURY-ON-THAMES,
 UK
##NAMES=HP
##CAS NAME=Octadecane, 3-methyl-
##MOLFORM=C19H40
##CAS REGISTRY NO=6561-44-0
##MP= -300
##BP= -300
##MW= 268
##$RETENTION INDEX=1871
##$CONDENSED SPECTRUM=NO
##NPOINTS= 70
##XYDATA=(XY..XY) 1 
    39         78
    40         16
    41        480
    42         95
    43        638
    44         18
    53         24
    54         26
    55        283
    56        323
    57        999
    58         47
    67         37
    68         19
    69        131
    70         89
    71        472
    72         26
    81         13
    82         21
    83         75
    84         27
    85        307
    86         15
    95          5
    96          9
    97         58
    98         12
    99        128
   100          9
   110          7
   111         28
   112         10
   113         84
   114          6
   125         13
   126          7
   127         64
   128          6
   139          7
   140          6
   141         58
   142          7
   153          5
   154          4
   155         53
   156          8
   167          4
   168          3
   169         40
   170          4
   181          3
   182          3
   183         24
   184          3
   195          2
   196          3
   197         12
   198          2
   210         14
   211         15
   212          3
   225          1
   238         55
   239        144
   240         21
   241          2
   253          4
   268          4
   269          1