##TITLE=Library Entry 7105
##JCAMP-DX=Revision 4.10 
##DATA TYPE=MASS SPECTRUM
##SAMPLE DESCRIPTION=V.G.Zaikin, Petrochem. Synth. Inst., Moscow
##NAMES=HP
##CAS NAME=Trichloroacetic acid, decyl ester
##MOLFORM=C12H21Cl3O2
##CAS REGISTRY NO=65611-33-8
##MP= -300
##BP= -300
##MW= 302
##$RETENTION INDEX=1783
##$CONDENSED SPECTRUM=NO
##NPOINTS= 74
##XYDATA=(XY..XY) 1 
    25          6
    26         31
    27        179
    28         64
    29        299
    30         11
    31          5
    35         15
    36         49
    37         15
    38         36
    39        212
    40         59
    41        771
    42        291
    43        999
    44        122
    45         16
    47         31
    48          8
    49         16
    50         16
    51         20
    52          9
    53         64
    54         78
    55        788
    56        545
    57        749
    58        238
    59         11
    60          3
    61          3
    63         12
    65         12
    66         12
    67         94
    68        191
    69        556
    70        545
    71        566
    72         29
    77         12
    79         12
    80          9
    81         45
    82        159
    83        548
    84        311
    85        289
    86        238
    87        118
    88          8
    91         12
    93          4
    95         28
    96         39
    97        271
    98        144
    99        111
   100         11
   105          4
   109          8
   110         59
   111        107
   112        181
   113         32
   117         79
   118          6
   119         78
   120          6
   121         25
   140         61
   141          9