##TITLE=Library Entry 80125
##JCAMP-DX=Revision 4.10 
##DATA TYPE=MASS SPECTRUM
##SAMPLE DESCRIPTION=Japan AIST/NIMC Database- Spectrum MS-IW-3747
##NAMES=HP
##CAS NAME=1,4-Dibenzoyl-2,trans-5-diethylpiperazine
##MOLFORM=C22H26N2O2
##CAS REGISTRY NO=6564-75-6
##MP= -300
##BP= -300
##MW= 350
##$RETENTION INDEX=0
##$CONDENSED SPECTRUM=NO
##NPOINTS= 118
##XYDATA=(XY..XY) 1 
    27          3
    28          8
    29          4
    30          3
    39          4
    41         13
    42         12
    43          4
    50          4
    51         26
    52          2
    53          2
    54          6
    55         21
    56          9
    57          3
    58          2
    67          1
    68          3
    69          3
    70         26
    71          3
    72          1
    75          1
    76          9
    77        278
    78         20
    79          1
    81          1
    82         10
    83          5
    84         21
    85          4
    91          4
    92          2
    95          1
    96          7
    97          2
    98          1
   103          1
   104          6
   105        999
   106         81
   107          5
   109          1
   110          4
   111          9
   112        136
   113         10
   117          1
   119          1
   120          1
   122          1
   124          7
   125         59
   126          8
   127          1
   132          1
   133          1
   134          2
   135          1
   139          3
   140          2
   146          4
   147          1
   148          1
   149          1
   158          1
   159          1
   160          8
   161          3
   162         24
   163          3
   172          1
   173          2
   174         17
   175         22
   176        108
   177         13
   178          1
   186          1
   187          1
   188         17
   189         11
   190          3
   199          3
   200          3
   201          1
   203          1
   214          1
   215         11
   216         49
   217         17
   218          2
   227          1
   228          2
   229         11
   230          3
   231          1
   244          1
   245         59
   246         10
   247          1
   267          1
   279          1
   280          5
   281          1
   307          7
   308          1
   321        123
   322         28
   323          3
   332          1
   335          1
   349          6
   350        159
   351         39
   352          5