##TITLE=Library Entry 41615
##JCAMP-DX=Revision 4.10 
##DATA TYPE=MASS SPECTRUM
##SAMPLE DESCRIPTION=ASES Database, Dalian Institute, P.R. China
##NAMES=HP
##CAS NAME=Methyl 1-trimethylsilyl-2-propyl-cyclopropene-3-carboxylate
##MOLFORM=C11H20O2Si
##CAS REGISTRY NO=65672-43-7
##MP= -300
##BP= -300
##MW= 212
##$RETENTION INDEX=0
##$CONDENSED SPECTRUM=NO
##NPOINTS= 25
##XYDATA=(XY..XY) 1 
    43         78
    45        201
    51         59
    55         39
    59        278
    73        999
    74         80
    75         79
    79        838
    80        240
    83         80
    85         31
    89        279
    90         40
   107        258
   108        558
   109         79
   153        199
   154         39
   169         20
   183        358
   184         68
   197         27
   212         99
   213         20