##TITLE=Library Entry 50544
##JCAMP-DX=Revision 4.10 
##DATA TYPE=MASS SPECTRUM
##SAMPLE DESCRIPTION=NIST Mass Spectrometry Data Center
##NAMES=HP
##CAS NAME=11-Hexadecyn-1-ol
##MOLFORM=C16H30O
##CAS REGISTRY NO=65686-49-9
##MP= -300
##BP= -300
##MW= 238
##$RETENTION INDEX=0
##$CONDENSED SPECTRUM=NO
##NPOINTS= 73
##XYDATA=(XY..XY) 1 
    14          7
    15         10
    16          7
    18          4
    19         10
    26         11
    27        161
    28         50
    29        205
    31        414
    32         18
    39        157
    40         47
    41        676
    42         80
    43        212
    44          8
    45         25
    50         10
    51         34
    52         66
    53        185
    54        549
    55        611
    56         70
    57         58
    58          8
    63         16
    65         88
    66         74
    67        764
    68        265
    69        216
    70         39
    71         40
    77        120
    79        309
    80        130
    81        999
    82        280
    83         90
    84         19
    85         27
    91         80
    93        170
    94         64
    95        363
    96        851
    97         97
    98         24
    99          9
   105         16
   107         67
   108         35
   109         75
   110        129
   111         24
   112          7
   121         49
   122         18
   123         31
   124         13
   125          8
   127         13
   135         23
   136         13
   137         15
   138          8
   145          6
   149         11
   173         14
   190         21
   191          5