##TITLE=Library Entry 58973
##JCAMP-DX=Revision 4.10 
##DATA TYPE=MASS SPECTRUM
##SAMPLE DESCRIPTION=Chemical Concepts
##NAMES=HP
##CAS NAME=Oxacyclotetradeca-4,11-diyne
##MOLFORM=C13H18O
##CAS REGISTRY NO=6568-32-7
##MP= -300
##BP= -300
##MW= 190
##$RETENTION INDEX=1639
##$CONDENSED SPECTRUM=NO
##NPOINTS= 117
##XYDATA=(XY..XY) 1 
    25         10
    26         75
    27        407
    28         22
    29        144
    30         15
    31         47
    37         11
    38         38
    39        666
    40         21
    41        691
    42         48
    43         54
    44         15
    45          9
    49          8
    50         93
    51        249
    52        247
    53        348
    54         57
    55        160
    56         10
    57         23
    58          8
    61          8
    62         26
    63         90
    64         28
    65        415
    66        160
    67        319
    68         49
    69         53
    70         14
    71         13
    74         11
    75         12
    76          9
    77        426
    78        150
    79        516
    80         96
    81        146
    82         26
    83         53
    84         11
    89         15
    90         10
    91        999
    92        179
    93        161
    94         48
    95         53
    96         27
    97         22
    98         10
   102         14
   103         87
   104        153
   105        385
   106         94
   107         64
   108         27
   109         26
   110         11
   115        164
   116         81
   117        425
   118         92
   119        208
   120         53
   121         50
   122         12
   123          9
   127         22
   128         55
   129        105
   130         53
   131        226
   132         55
   133        326
   134         94
   135         36
   136         10
   137          9
   141         15
   142         21
   143         36
   144         26
   145         94
   146         28
   147        150
   148         25
   149         10
   152          9
   153          8
   154          8
   155          9
   156          8
   157         25
   158          9
   159         46
   160         11
   161         52
   162         26
   165          9
   166          7
   167          8
   170          8
   171         11
   172          7
   175         30
   176         10
   189         15
   190          7