##TITLE=Library Entry 49497
##JCAMP-DX=Revision 4.10 
##DATA TYPE=MASS SPECTRUM
##SAMPLE DESCRIPTION=ROC 0007
##NAMES=HP
##CAS NAME=s-Triazaborane
##MOLFORM=B3H6N3
##CAS REGISTRY NO=6569-51-3
##MP= -300
##BP= -300
##MW= 81
##$RETENTION INDEX=0
##$CONDENSED SPECTRUM=NO
##NPOINTS= 46
##XYDATA=(XY..XY) 1 
    12         14
    13         19
    14          1
    15          1
    22          3
    23          7
    24          4
    25          4
    26         20
    27         34
    31          1
    35          2
    36         26
    37         52
    38         52
    39         67
    40         10
    41          6
    42          3
    43          2
    47          4
    48          6
    49          5
    50         19
    51         93
    52        279
    53        358
    54          4
    60         20
    61         34
    62         76
    63         70
    64          8
    65          4
    66         15
    67         21
    68          7
    74         13
    75         50
    76        101
    77        128
    78        240
    79        642
    80        999
    81        364
    82          3