##TITLE=Library Entry 37445
##JCAMP-DX=Revision 4.10 
##DATA TYPE=MASS SPECTRUM
##SAMPLE DESCRIPTION=K.Yu ET AL.,Biomed. Mass Spectrom.,14,639(1987)
##NAMES=HP
##CAS NAME=2,3,4-Trimethyl-1-pentanol
##MOLFORM=C8H18O
##CAS REGISTRY NO=6570-88-3
##MP= -300
##BP= -300
##MW= 130
##$RETENTION INDEX=0
##$CONDENSED SPECTRUM=NO
##NPOINTS= 23
##XYDATA=(XY..XY) 1 
    39         42
    40         28
    41        213
    42         42
    43        324
    45        185
    53         14
    55        255
    56         74
    57        569
    58         37
    59         19
    67          9
    68         23
    69        356
    70        999
    71        417
    72          9
    83        176
    84          9
    87         19
    97        329
    98         19