##TITLE=Library Entry 7302
##JCAMP-DX=Revision 4.10 
##DATA TYPE=MASS SPECTRUM
##SAMPLE DESCRIPTION=Exported from NIST MS Search
##NAMES=HP
##CAS NAME=1-Pentanol, 3,4-dimethyl-
##MOLFORM=C7H16O
##CAS REGISTRY NO=6570-87-2
##MP= -300
##BP= -300
##MW= 116
##$RETENTION INDEX=1412
##$CONDENSED SPECTRUM=NO
##NPOINTS= 43
##XYDATA=(XY..XY) 1 
    18         50
    19         16
    27        329
    28         66
    29        270
    30          9
    31        321
    32          7
    33         10
    41        544
    42        244
    43        999
    44         54
    45         65
    46          3
    55        790
    56        618
    57        328
    58         14
    59         14
    60          1
    67         11
    68          5
    69         97
    70        650
    71        159
    72         22
    73         21
    74          3
    81          5
    82          1
    83        184
    84         16
    85         17
    86          1
    87          1
    96          1
    97          6
    98          7
    99          4
   100          1
   101          8
   102          1