##TITLE=Library Entry 64884
##JCAMP-DX=Revision 4.10 
##DATA TYPE=MASS SPECTRUM
##SAMPLE DESCRIPTION=Chemical Concepts
##NAMES=HP
##CAS NAME=Benzoic acid, 4-(benzyloxy)-2-(8-hydroxynonyl)-6-methoxy-, methyl
 ester
##MOLFORM=C25H34O5
##CAS REGISTRY NO=65716-50-9
##MP= -300
##BP= -300
##MW= 414
##$RETENTION INDEX=0
##$CONDENSED SPECTRUM=NO
##NPOINTS= 320
##XYDATA=(XY..XY) 1 
    27          6
    28          1
    29         10
    30          0
    31          2
    38          0
    39         10
    40          1
    41         25
    42          2
    43         20
    44          2
    45         78
    46          1
    50          0
    51          3
    52          1
    53          3
    54          1
    55         18
    56          2
    57         10
    58          0
    59         10
    60          2
    61          0
    62          0
    63          3
    64          2
    65         31
    66          3
    67          6
    68          1
    69         10
    70          1
    71          5
    72          3
    73          2
    74          0
    75          1
    76          1
    77          8
    78          3
    79          5
    80          1
    81          5
    82          1
    83          4
    84          1
    85          4
    86          0
    87          0
    88          0
    89          6
    90          5
    91        999
    92         98
    93          5
    94          1
    95          5
    96          1
    97          3
    98          1
    99          1
   100          0
   101          1
   102          0
   103          3
   104          2
   105          7
   106          2
   107          5
   108          3
   109          4
   110          0
   111          2
   112          0
   113          0
   114          0
   115          4
   116          1
   117          3
   118          1
   119          2
   120          2
   121          6
   122          2
   123          2
   124          1
   125          2
   126          0
   127          1
   128          1
   129          3
   130          1
   131          4
   132          1
   133          6
   134          2
   135         12
   136          2
   137         13
   138          7
   139          2
   140          0
   141          1
   142          0
   143          1
   144          0
   145          2
   146          1
   147          4
   148          3
   149         10
   150          3
   151          7
   152          2
   153          2
   154          1
   155          1
   156          0
   157          1
   158          0
   159          1
   160          1
   161          4
   162          3
   163          8
   164         10
   165          9
   166          3
   167          5
   168          1
   169          1
   170          0
   171          0
   172          0
   173          0
   174          0
   175          4
   176          3
   177         26
   178          9
   179          7
   180          2
   181          3
   182          2
   183          2
   184          0
   185          1
   186          0
   187          1
   188          0
   189          3
   190          2
   191          8
   192          4
   193          3
   194          3
   195         14
   196         97
   197         11
   198          2
   199          2
   200          0
   201          1
   202          0
   203          3
   204          1
   205          4
   206          3
   207          4
   208          1
   209          7
   210          2
   211          1
   212          0
   213          1
   214          0
   215          1
   216          0
   217          2
   218          1
   219          2
   220          0
   221          2
   222          1
   223          1
   224          1
   225          3
   226          3
   227         24
   228          7
   229          2
   230          1
   231          2
   232          0
   233          2
   234          0
   235          4
   236          1
   237          2
   238          1
   239          2
   240          1
   241          1
   242          0
   243          1
   244          0
   245          2
   246          1
   247          5
   248          1
   249          3
   250          1
   251          2
   252          1
   253          3
   254         15
   255          6
   256          2
   257          1
   258          1
   259          1
   260          0
   261          0
   262          0
   263          2
   264          0
   265          1
   266          2
   267         23
   268         13
   269          4
   270          1
   271         15
   272          3
   273         11
   274          2
   275          7
   276          3
   277         11
   278          2
   279          4
   280          1
   281          5
   282          5
   283          1
   284          2
   285          6
   286         83
   287         13
   288          1
   289          0
   290          0
   291         26
   292          4
   293          5
   294          1
   295          1
   296          3
   297          4
   298          1
   299          4
   300          1
   305          5
   306          1
   307          4
   308         17
   309          5
   310          1
   311          0
   312          0
   313          0
   314          0
   320          0
   321          0
   322          0
   323          9
   324          2
   325          1
   326          0
   327          0
   328          0
   330          0
   337          8
   338          3
   339         13
   340          3
   341          0
   348          0
   349          1
   350          0
   354          2
   355          4
   363          1
   364          6
   365         14
   366          3
   367         33
   368          7
   369          1
   370          2
   371          0
   380          0
   381          6
   382         29
   383         38
   384          9
   386          1
   396          3
   397          1
   398          0
   399          0
   400          0
   401          0
   414        122
   415         29
   416          5
   417          0