##TITLE=Library Entry 32180
##JCAMP-DX=Revision 4.10 
##DATA TYPE=MASS SPECTRUM
##SAMPLE DESCRIPTION=G. Lange, Inst. Org. Chem., Univ. Wurzburg, Germany
##NAMES=HP
##CAS NAME=Spiro[bicyclo[2.2.1]hept-5-ene-2,1'-cyclopropane]
##MOLFORM=C9H12
##CAS REGISTRY NO=6572-50-5
##MP= -300
##BP= -300
##MW= 120
##$RETENTION INDEX=0
##$CONDENSED SPECTRUM=NO
##NPOINTS= 35
##XYDATA=(XY..XY) 1 
    38         11
    39        127
    40         35
    41         49
    50         20
    51         59
    52         26
    53         41
    54         14
    55         17
    57         12
    58         15
    62          8
    63         29
    64          7
    65        108
    66        999
    67         72
    77        142
    78         96
    79        227
    80         24
    89         11
    90          6
    91        410
    92        268
    93         28
   102          5
   103         38
   104         11
   105        299
   106         27
   119         31
   120        111
   121         11