##TITLE=Library Entry 33376
##JCAMP-DX=Revision 4.10 
##DATA TYPE=MASS SPECTRUM
##SAMPLE DESCRIPTION=J. CRANDALL INDIANA UNIV., BLOOMINGTON, IND, USA
##NAMES=HP
##CAS NAME=Oxonane
##MOLFORM=C8H16O
##CAS REGISTRY NO=6573-50-8
##MP= -300
##BP= -300
##MW= 128
##$RETENTION INDEX=974
##$CONDENSED SPECTRUM=NO
##NPOINTS= 51
##XYDATA=(XY..XY) 1 
    15         14
    17         10
    18         50
    26         17
    27        195
    28         93
    29        231
    30         10
    31         87
    32         16
    39        206
    40         54
    41        796
    42        777
    43        200
    44        126
    45         93
    51         11
    53         76
    54        442
    55        852
    56        546
    57        233
    58         62
    59         18
    65         11
    66         86
    67        800
    68        999
    69        542
    70        522
    71        267
    72         46
    73         11
    79         17
    80         13
    81        367
    82        442
    83         87
    84         33
    85        125
    86         35
    87         11
    95        126
    96         26
    97         16
    99         26
   100         13
   110         50
   128        189
   129         17