##TITLE=Library Entry 96740
##JCAMP-DX=Revision 4.10 
##DATA TYPE=MASS SPECTRUM
##SAMPLE DESCRIPTION=J.T. CLERC, ORGANIC CHEM. LAB., ETH, ZURICH, SWITZ.
##NAMES=HP
##CAS NAME=Benzonitrile, 2-chloro-6-methyl-
##MOLFORM=C8H6ClN
##CAS REGISTRY NO=6575-09-3
##MP= -300
##BP= -300
##MW= 151
##$RETENTION INDEX=0
##$CONDENSED SPECTRUM=NO
##NPOINTS= 68
##XYDATA=(XY..XY) 1 
    25          1
    26         24
    27         48
    28         48
    29          1
    32          1
    35          6
    36         12
    37         77
    38         77
    39        166
    40         12
    41         12
    43         12
    44          1
    47          1
    48          1
    49         42
    50        101
    51         95
    52         24
    53          1
    57         48
    60         24
    61         71
    62        107
    63        190
    64         60
    65         18
    66          1
    72          1
    73         54
    74         30
    75         71
    76         42
    77          1
    84         12
    85         18
    86         36
    87         60
    88         89
    89        225
    90         42
    91          1
    97         12
    98         12
    99         24
   100         24
   101          1
   102          1
   110          1
   111          1
   112          6
   113          6
   114         71
   115        231
   116        999
   117         83
   118          6
   123         36
   124         24
   125         18
   126          6
   150         71
   151        509
   152         66
   153        160
   154         18