##TITLE=Library Entry 96689
##JCAMP-DX=Revision 4.10 
##DATA TYPE=MASS SPECTRUM
##SAMPLE DESCRIPTION=NIST Mass Spectrometry Data Center, 1994
##NAMES=HP
##CAS NAME=2,6-Dimethylbenzonitrile
##MOLFORM=C9H9N
##CAS REGISTRY NO=6575-13-9
##MP= -300
##BP= -300
##MW= 131
##$RETENTION INDEX=0
##$CONDENSED SPECTRUM=NO
##NPOINTS= 67
##XYDATA=(XY..XY) 1 
    12          1
    13          1
    14          4
    15         40
    16          1
    17          0
    18          3
    26         31
    27        114
    28         35
    32          0
    37         49
    38         86
    39        234
    40         30
    41         20
    48          1
    49         16
    50        120
    51        211
    52         80
    53         31
    54          4
    58          1
    61         37
    62         73
    63        158
    64         75
    65         66
    66         10
    73          7
    74         30
    75         67
    76         88
    77        197
    78         92
    79         11
    84          1
    85          6
    86         10
    87         20
    88         26
    89        112
    90         22
    91         28
    92          2
    97          1
    98          7
    99          9
   100          9
   101         24
   102         71
   103        169
   104         78
   105          8
   111          2
   112          1
   114          7
   116        999
   117         91
   118          4
   127          4
   128         22
   130        454
   131        638
   132         64
   133          2