##TITLE=Library Entry 323
##JCAMP-DX=Revision 4.10 
##DATA TYPE=MASS SPECTRUM
##SAMPLE DESCRIPTION=D.HENNEBERG, MAX-PLANCK INSTITUTE, MULHEIM, WEST GERMAN
Y
##NAMES=HP
##CAS NAME=Tungsten, pentacarbonyl(pyridazine-N1)-, (OC-6-22)-
##MOLFORM=C9H4N2O5W
##CAS REGISTRY NO=65761-20-8
##MP= -300
##BP= -300
##MW= 404
##$RETENTION INDEX=0
##$CONDENSED SPECTRUM=NO
##NPOINTS= 178
##XYDATA=(XY..XY) 1 
    26         53
    27         38
    28        999
    29         10
    30          2
    31          0
    34          0
    37          1
    38          3
    39         12
    41          6
    42          1
    44         15
    49          2
    50         32
    51         76
    52         52
    53          8
    54          1
    55          0
    56          0
    57          0
    65          0
    66          1
    67          7
    68          0
    71          0
    72          0
    76          0
    77          1
    78          3
    79          1
    80        113
    81          6
    82          0
    91          0
    92          0
   117          0
   131          2
   132          2
   133          1
   145          2
   146          2
   147          3
   159          2
   160          2
   161          2
   173          1
   174          3
   175          1
   182          5
   183          3
   184         10
   185          0
   186          5
   187          1
   188          2
   189          1
   194          0
   195          0
   196          0
   197          0
   198          1
   199          1
   200          1
   201          0
   202          0
   206          1
   207          6
   208         48
   209         41
   210         92
   211         25
   212         56
   213         12
   214         10
   215          1
   220          1
   221          1
   222          4
   223          2
   224          4
   225          1
   226          2
   227          1
   228          0
   231          0
   232          1
   233          4
   234         10
   235        108
   236         50
   237         93
   238         24
   239         93
   240         22
   241          7
   242          8
   243          0
   244          0
   245          0
   247          1
   248          1
   249          1
   250          1
   251          1
   252          1
   253          1
   254          1
   255          0
   256          0
   258          0
   259          0
   260          1
   261          4
   262        119
   263        104
   264        130
   265         15
   266        135
   267         16
   268         16
   269          4
   270          9
   271          0
   275          0
   276          0
   277          0
   280          0
   282          0
   284          0
   288          0
   289          2
   290         74
   291         46
   292         87
   293          9
   294        116
   295         10
   296          5
   297          3
   298          3
   316          0
   317          0
   318          3
   319          2
   320          3
   321          1
   322          5
   323          1
   324          1
   325          0
   326          0
   346         29
   347         21
   348         32
   349          4
   350         31
   351          4
   352          3
   354          2
   371          0
   372          0
   373          0
   374         18
   375         11
   376         21
   377          2
   378         20
   379          2
   380          0
   402         22
   403         15
   404         30
   405          3
   406         27
   407          3
   408          0