##TITLE=Library Entry 12775
##JCAMP-DX=Revision 4.10 
##DATA TYPE=MASS SPECTRUM
##SAMPLE DESCRIPTION=P. VAINIOTALO, DEPT. CHEM., UNIV. JOENSUU, JOENSUU, FIN
LAND
##NAMES=HP
##CAS NAME=1,4-Oxathiin-3-carboxylic acid, 5,6-dihydro-2-methyl-
##MOLFORM=C6H8O3S
##CAS REGISTRY NO=6577-69-1
##MP= -300
##BP= -300
##MW= 160
##$RETENTION INDEX=0
##$CONDENSED SPECTRUM=NO
##NPOINTS= 31
##XYDATA=(XY..XY) 1 
    14         18
    15         23
    17         10
    18         51
    26         12
    27         28
    29         12
    39         15
    40         15
    42         20
    43        999
    44         33
    45         77
    46         18
    58         18
    59         20
    69         13
    71         18
    72         24
    76         44
    87         22
    88         13
    90         33
   104         63
   118         18
   132         19
   142         16
   143         10
   160        375
   161         29
   162         20