##TITLE=Library Entry 13352
##JCAMP-DX=Revision 4.10 
##DATA TYPE=MASS SPECTRUM
##SAMPLE DESCRIPTION=ASES Database, Dalian Institute, P.R. China
##NAMES=HP
##CAS NAME=2-Methyl-3-ethoxycarbonyl-5,6-dihydro-1,4-oxathiine
##MOLFORM=C8H12O3S
##CAS REGISTRY NO=6577-68-0
##MP= -300
##BP= -300
##MW= 188
##$RETENTION INDEX=0
##$CONDENSED SPECTRUM=NO
##NPOINTS= 18
##XYDATA=(XY..XY) 1 
    43        999
    45         88
    58         29
    59         30
    64         30
    71         30
    72         50
    74         49
    87        160
    90        111
   104         30
   114         39
   115         30
   118        418
   142        200
   143        280
   160        110
   188        651