##TITLE=Library Entry 84050
##JCAMP-DX=Revision 4.10 
##DATA TYPE=MASS SPECTRUM
##SAMPLE DESCRIPTION=Japan AIST/NIMC Database- Spectrum MS-NW-2134
##NAMES=HP
##CAS NAME=Glycyl-L-tyrosine
##MOLFORM=C11H14N2O4
##CAS REGISTRY NO=658-79-7
##MP= -300
##BP= -300
##MW= 238
##$RETENTION INDEX=0
##$CONDENSED SPECTRUM=NO
##NPOINTS= 96
##XYDATA=(XY..XY) 1 
    12          1
    14          3
    15          3
    17          3
    18         10
    25          1
    26          5
    27         26
    28         63
    29         22
    30         81
    31          2
    37          1
    38          5
    39         26
    40          5
    41          8
    42         13
    43          8
    44          4
    49          1
    50          9
    51         26
    52         19
    53         14
    54          1
    55         10
    56          7
    57         30
    58          3
    59          1
    61          1
    62          3
    63          8
    64          2
    65         10
    66          3
    67          2
    68          1
    69          1
    71          2
    73          1
    74          2
    75          2
    76          2
    77         70
    78         37
    79         17
    80          4
    81          3
    83          2
    84          2
    85         21
    86          9
    87          1
    89          5
    90          4
    91         13
    92          2
    93          1
    94          6
   102          1
   103          1
   104          1
   105          3
   106         22
   107        999
   108         91
   109          6
   112          3
   113          3
   114        211
   115         10
   116          2
   117          1
   118          2
   119          6
   120          9
   121          1
   131          1
   132          2
   133          6
   134          5
   135          4
   136          2
   144          1
   145          2
   146          1
   147          5
   148          2
   161          1
   162          1
   172          1
   220         58
   221          8
   222          1