##TITLE=Library Entry 36760
##JCAMP-DX=Revision 4.10 
##DATA TYPE=MASS SPECTRUM
##SAMPLE DESCRIPTION=NIST Mass Spectrometry Data Center, 2010
##NAMES=HP
##CAS NAME=Acetic acid, trifluoro-, 4-nitrophenyl ester
##MOLFORM=C8H4F3NO4
##CAS REGISTRY NO=658-78-6
##MP= -300
##BP= -300
##MW= 235
##$RETENTION INDEX=1214
##$CONDENSED SPECTRUM=NO
##NPOINTS= 127
##XYDATA=(XY..XY) 1 
    25          1
    26          9
    27          3
    29          3
    30         80
    31          8
    36          1
    37         16
    38         71
    39         14
    40          4
    41          3
    42          1
    43          1
    44         10
    45          8
    46          5
    47          1
    48          1
    49          6
    50        116
    51         34
    52         31
    53         20
    54         16
    55          2
    57          9
    60          4
    61         27
    62         82
    63        306
    64        267
    65         19
    66          7
    67          2
    68         12
    69        999
    70          9
    71          2
    73         10
    74         55
    75        257
    76         76
    77          7
    78         14
    79         10
    80         29
    81          4
    82          8
    83         70
    84          4
    85          2
    86          1
    87          1
    88          1
    89          1
    90          1
    91          8
    92        270
    93         21
    94          8
    95        484
    96         33
    97         89
    98          2
    99          2
   100          1
   101         24
   102          5
   104          1
   106          3
   107          4
   108         35
   109          5
   110          2
   111         16
   112          1
   113         38
   114          6
   119          4
   120          3
   121          7
   122         76
   123          8
   124          1
   127          1
   128          1
   130          3
   131          1
   132          6
   133         24
   134          2
   138          1
   139         48
   140          4
   141          4
   142         42
   143          3
   147          1
   149        101
   150          7
   158          3
   160          2
   161         48
   162          4
   166         13
   167          1
   170          5
   171          1
   177        169
   178         12
   179          1
   188         16
   189         78
   190          7
   191          1
   204          1
   205         98
   206          8
   207          1
   219         30
   220          3
   221          1
   231          1
   235        653
   236         52
   237          7