##TITLE=Library Entry 65993
##JCAMP-DX=Revision 4.10 
##DATA TYPE=MASS SPECTRUM
##SAMPLE DESCRIPTION=ORMSBG,10(10)913(1975); D. F. GLENN
##NAMES=HP
##CAS NAME=Ethanone, 1-cyclopropyl-2-(4-pyridinyl)-
##MOLFORM=C10H11NO
##CAS REGISTRY NO=6580-95-6
##MP= -300
##BP= -300
##MW= 161
##$RETENTION INDEX=0
##$CONDENSED SPECTRUM=NO
##NPOINTS= 38
##XYDATA=(XY..XY) 1 
    37         13
    38         15
    39        379
    40         34
    41        450
    42         15
    43          4
    49          4
    50         17
    51         38
    52         22
    53          9
    54          7
    55         12
    61          7
    62         14
    63         63
    64         23
    65         13
    66         17
    67         12
    68          5
    69        875
    70         39
    77         10
    78          8
    79          5
    91         11
    92        133
    93        999
    94         71
   106         15
   117          6
   126          6
   132         15
   133          6
   161         28
   162          9