##TITLE=Library Entry 54692
##JCAMP-DX=Revision 4.10 
##DATA TYPE=MASS SPECTRUM
##SAMPLE DESCRIPTION=ASES Database, Dalian Institute, P.R. China
##NAMES=HP
##CAS NAME=2-Propoxy-tetrahydropyran
##MOLFORM=C8H16O2
##CAS REGISTRY NO=6581-64-2
##MP= -300
##BP= -300
##MW= 144
##$RETENTION INDEX=1005
##$CONDENSED SPECTRUM=NO
##NPOINTS= 18
##XYDATA=(XY..XY) 1 
    27         49
    29         58
    41        252
    42         49
    43        401
    44         80
    55        109
    56        387
    57        139
    67        101
    74         49
    85        999
    86         99
    89        140
   101         49
   115         69
   143        129
   144         70