##TITLE=Library Entry 25517
##JCAMP-DX=Revision 4.10 
##DATA TYPE=MASS SPECTRUM
##SAMPLE DESCRIPTION=NIST Mass Spectrometry Data Center
##NAMES=HP
##CAS NAME=3-Methyltetracosane
##MOLFORM=C25H52
##CAS REGISTRY NO=65820-52-2
##MP= -300
##BP= -300
##MW= 352
##$RETENTION INDEX=2472
##$CONDENSED SPECTRUM=NO
##NPOINTS= 29
##XYDATA=(XY..XY) 1 
    41        189
    43        436
    55        265
    56        400
    57        999
    58         45
    69        217
    70        157
    71        764
    83        156
    85        523
    86         33
    97        168
    99        240
   111        102
   113        147
   127        107
   141         66
   155         75
   169         59
   183         40
   211         43
   225         37
   294         38
   295         49
   296         17
   322        100
   323        363
   324         76