##TITLE=Library Entry 25522
##JCAMP-DX=Revision 4.10 
##DATA TYPE=MASS SPECTRUM
##SAMPLE DESCRIPTION=NIST Mass Spectrometry Data Center
##NAMES=HP
##CAS NAME=3-Methylhexacosane
##MOLFORM=C27H56
##CAS REGISTRY NO=65820-56-6
##MP= -300
##BP= -300
##MW= 380
##$RETENTION INDEX=2673
##$CONDENSED SPECTRUM=NO
##NPOINTS= 102
##XYDATA=(XY..XY) 1 
    27          6
    29         36
    39         14
    41        174
    42         40
    43        403
    44         18
    53          9
    54         17
    55        241
    56        393
    57        999
    58         44
    67         41
    68         28
    69        205
    70        141
    71        741
    72         39
    81         18
    82         36
    83        162
    84         55
    85        504
    86         35
    95         11
    96         26
    97        151
    98         32
    99        217
   100         17
   110         14
   111         89
   112         27
   113        172
   114         16
   124          8
   125         48
   126         16
   127        124
   128         14
   137          5
   138          8
   139         21
   140         10
   141         92
   142         11
   152          5
   153         11
   154          6
   155         69
   156          8
   166          3
   167          9
   168          4
   169         54
   170          7
   180          5
   181          4
   182          6
   183         47
   184          7
   194          4
   195          5
   196          4
   197         34
   198          7
   209          6
   210          4
   211         37
   212          6
   223          3
   224          3
   225         31
   226          6
   236          3
   238          4
   239         29
   240          7
   253         23
   254          4
   266          4
   267         23
   268          4
   278          2
   281         14
   294          3
   295         12
   308          2
   309          4
   310          2
   322         28
   323         42
   324          9
   350        103
   351        316
   352         89
   353         10
   364          3
   365         11
   366          5
   380          2