##TITLE=Library Entry 98658
##JCAMP-DX=Revision 4.10 
##DATA TYPE=MASS SPECTRUM
##SAMPLE DESCRIPTION=A.S.Moskovkin,I.M.Karnaukh, Russian Center on Disaster
 Medicine
##NAMES=HP
##CAS NAME=4-Cyano-4-hydroxy-3,5-dimethyl-2,6-diphenylpiperidine
##MOLFORM=C20H22N2O
##CAS REGISTRY NO=65834-04-0
##MP= -300
##BP= -300
##MW= 306
##$RETENTION INDEX=0
##$CONDENSED SPECTRUM=NO
##NPOINTS= 161
##XYDATA=(XY..XY) 1 
    38          5
    39         38
    40         24
    41         34
    42         13
    43         19
    44         29
    45          6
    49          3
    50         17
    51         42
    52         17
    53         11
    54         12
    55        100
    56         42
    57         49
    58          6
    59          2
    60          2
    62          3
    63         15
    64          6
    65         46
    66          6
    67          8
    68         15
    69         22
    70          7
    71          5
    72          1
    73          2
    74          5
    75          7
    76         18
    77        110
    78         83
    79         63
    80          5
    81          2
    82          4
    83         30
    84         12
    85         20
    86          1
    87          3
    88          1
    89         45
    90         50
    91        340
    92         32
    93          2
    95          2
    96          1
    97         12
    98          2
    99          5
   101          2
   102         16
   103         93
   104        190
   105         91
   106        480
   107         57
   108          3
   111          5
   113          5
   114          3
   115        170
   116        170
   117        750
   118        999
   119        110
   120          7
   124          1
   127          5
   128         12
   129         13
   130         25
   131         49
   132        140
   133        530
   134         56
   135          3
   139          1
   140          2
   141          8
   142          4
   143          7
   144         14
   145         24
   146        250
   147         35
   148          2
   149          1
   151          2
   152         19
   153          4
   154          2
   155          1
   156          2
   157          4
   158          6
   159          7
   160          7
   161          2
   165         32
   166         18
   167         38
   168          9
   169          4
   170          4
   171          2
   172          6
   173          4
   174         13
   175          2
   177          2
   178          6
   179          4
   180         13
   181          4
   184          5
   186          2
   187          2
   188         49
   189          7
   190         12
   191          4
   192          6
   193         38
   194        840
   195        200
   196         22
   197          1
   202          6
   203          2
   205          1
   206          3
   207          1
   208          6
   219          1
   220          4
   221          2
   222         71
   223         14
   234          2
   248          1
   250          2
   262          2
   264          5
   265          4
   276          8
   277         13
   278          8
   279        540
   280        110
   281         13
   289          4
   306          9
   307          2