##TITLE=Library Entry 1400
##JCAMP-DX=Revision 4.10 
##DATA TYPE=MASS SPECTRUM
##SAMPLE DESCRIPTION=MASS SPECTROMETRY CENTER, UNIV. OF UTAH ALDRICH N01210-
4
##NAMES=HP
##CAS NAME=2,1,3-Benzothiadiazole, 4-nitro-
##MOLFORM=C6H3N3O2S
##CAS REGISTRY NO=6583-06-8
##MP= -300
##BP= -300
##MW= 181
##$RETENTION INDEX=0
##$CONDENSED SPECTRUM=NO
##NPOINTS= 61
##XYDATA=(XY..XY) 1 
    26        142
    27         88
    28         90
    29         35
    30        999
    32        157
    33         23
    37        145
    38        170
    39        134
    40         87
    41         49
    43         32
    44          6
    45        219
    46        205
    49         35
    50        192
    51        138
    52        225
    53         17
    55         12
    57        170
    58        120
    59          9
    60         64
    61         40
    62         71
    63         92
    64        565
    65         44
    69        137
    70        159
    71         69
    74         33
    75        156
    76        374
    77         88
    81         31
    82         65
    83        171
    84        134
    91        151
    93         44
    94         43
    96         59
   103        290
   108        389
   109         69
   110          9
   123        634
   124         53
   125         11
   135        606
   136         60
   151        648
   152         67
   153         21
   181        843
   182         89
   183         50