##TITLE=Library Entry 20989
##JCAMP-DX=Revision 4.10 
##DATA TYPE=MASS SPECTRUM
##SAMPLE DESCRIPTION=L.PETERSON GENERAL MILLS RESEARCH LAB. MINNEAPOLIS MINN
, USA.
##NAMES=HP
##CAS NAME=Pregnan-20-one, 5,6-epoxy-3-hydroxy-, (3.beta.,5.beta.,6.beta.)-
##MOLFORM=C21H32O3
##CAS REGISTRY NO=6585-70-2
##MP= -300
##BP= -300
##MW= 332
##$RETENTION INDEX=0
##$CONDENSED SPECTRUM=NO
##NPOINTS= 115
##XYDATA=(XY..XY) 1 
    53        615
    54        108
    55        999
    57        161
    65        280
    67        699
    68        170
    69        239
    71        465
    77        633
    78        172
    79        885
    80        160
    81        670
    83        140
    84        202
    85        257
    91        910
    92        203
    93        819
    94        335
    95        760
    96        114
   105        602
   106        162
   107        590
   108        243
   109        287
   115        167
   117        230
   118        232
   119        453
   120        232
   121        370
   122        233
   123        282
   128        155
   129        160
   131        243
   133        435
   134        183
   135        363
   136        145
   137        140
   141        128
   143        180
   145        251
   147        273
   149        227
   157        142
   159        288
   161        275
   163        121
   173        131
   175        137
   177        132
   187        131
   201        202
   202         51
   203         49
   205         71
   211        139
   213         59
   215         82
   217         36
   225         42
   227         94
   228         45
   229        170
   230         41
   231         70
   233         35
   241         51
   243        142
   244        112
   245         72
   247         65
   253        105
   254         36
   255         50
   256         44
   257         64
   261        147
   262         45
   267         82
   270         50
   271        249
   272        131
   273         37
   274         33
   275         42
   281        133
   285        500
   286        511
   287        121
   288         69
   289         46
   296        304
   297         88
   298         45
   299        283
   300         65
   303         23
   304         13
   312         20
   313          6
   314        677
   315        160
   316         26
   317         75
   318         16
   330         17
   331          3
   332        397
   333         92