##TITLE=Library Entry 35011
##JCAMP-DX=Revision 4.10 
##DATA TYPE=MASS SPECTRUM
##SAMPLE DESCRIPTION=V.G.Zaikin, TIPS, Russian Acad. Sci.
##NAMES=HP
##CAS NAME=4-n-Pentylthiane, S,S-dioxide
##MOLFORM=C10H20O2S
##CAS REGISTRY NO=65865-33-0
##MP= -300
##BP= -300
##MW= 204
##$RETENTION INDEX=0
##$CONDENSED SPECTRUM=NO
##NPOINTS= 40
##XYDATA=(XY..XY) 1 
    53        100
    54        120
    55        750
    56        280
    57        250
    67        280
    68        100
    69        999
    70        280
    71         60
    81        300
    82         80
    83        530
    84        170
    85         30
    95        220
    96         30
    97        220
    98         30
   106         20
   109        110
   110         40
   111        150
   112         70
   117         10
   123         20
   133         40
   134         80
   138        120
   139         30
   147        130
   148         20
   161        140
   162         20
   175         20
   187         60
   204        120
   205         14
   206          6
   207          1