##TITLE=Library Entry 46939
##JCAMP-DX=Revision 4.10 
##DATA TYPE=MASS SPECTRUM
##SAMPLE DESCRIPTION=Z.A.MALIK, DEP. CHEM., QUAID-I-AZAM UNIV., ISLAMABAD, P
AKIST
##NAMES=HP
##CAS NAME=2,2,2-Trifluoro-1-phenylethyl azide
##MOLFORM=C8H6F3N3
##CAS REGISTRY NO=65874-91-1
##MP= -300
##BP= -300
##MW= 201
##$RETENTION INDEX=0
##$CONDENSED SPECTRUM=NO
##NPOINTS= 58
##XYDATA=(XY..XY) 1 
    26         20
    27         30
    28        180
    32         20
    37         10
    38         30
    39         50
    40         10
    49         10
    50        130
    51        300
    52        110
    53         10
    57         10
    61         10
    62         20
    63         30
    64         10
    65         10
    66         10
    69         70
    70         10
    73         10
    74         30
    75         40
    76         50
    77        999
    78         70
    79         20
    83         10
    87         10
    88         10
    89         20
    90         10
    91         20
    96         10
    99         10
   102         10
   103         30
   104        520
   105         60
   106         40
   107         10
   109        190
   110         10
   119         10
   127         10
   132        400
   133         40
   139         10
   140         20
   152         10
   159        150
   160         10
   173         80
   174         10
   201        250
   202         20