##TITLE=Library Entry 114875
##JCAMP-DX=Revision 4.10 
##DATA TYPE=MASS SPECTRUM
##SAMPLE DESCRIPTION=MASS SPECTROMETRY CENTER, UNIV. OF UTAH ALDRICH 15440-7
##NAMES=HP
##CAS NAME=Benzoic acid, 2-cyano-, methyl ester
##MOLFORM=C9H7NO2
##CAS REGISTRY NO=6587-24-2
##MP= -300
##BP= -300
##MW= 161
##$RETENTION INDEX=0
##$CONDENSED SPECTRUM=NO
##NPOINTS= 56
##XYDATA=(XY..XY) 1 
    14          5
    15        101
    17          1
    18          0
    26         16
    27         70
    28         59
    29         39
    30         13
    31          7
    32          3
    37         27
    38         33
    39         50
    43         11
    44          7
    49         23
    50        143
    51        171
    52         43
    53          7
    59         22
    61          9
    62         16
    63         21
    64         12
    65          3
    66          2
    72          0
    73         15
    74         59
    75        257
    76        180
    77         27
    78          1
    89          7
    90          8
    91         24
    99         17
   100         14
   101         21
   102        595
   103        180
   104         22
   105          5
   116          3
   117          7
   129          2
   130        999
   131        285
   132         30
   133          8
   160         23
   161        348
   162         43
   163          4