##TITLE=Library Entry 55763
##JCAMP-DX=Revision 4.10 
##DATA TYPE=MASS SPECTRUM
##SAMPLE DESCRIPTION=NIST Mass Spectrometry Data Center
##NAMES=HP
##CAS NAME=exo-2-Bromo-5,5-ethylenedioxybicyclo[2.2.1]heptane-7-syn-carboxyl
ic acid
##MOLFORM=C10H13BrO4
##CAS REGISTRY NO=65877-98-7
##MP= -300
##BP= -300
##MW= 276
##$RETENTION INDEX=0
##$CONDENSED SPECTRUM=NO
##NPOINTS= 115
##XYDATA=(XY..XY) 1 
    15         10
    16          3
    17          2
    18          3
    20          2
    26         12
    27         65
    29         33
    30          3
    31          5
    35          2
    36         12
    37          3
    38         17
    39        116
    40         32
    41         59
    42        186
    43         90
    44         64
    45         35
    50         17
    51         42
    52         27
    53         56
    54         18
    55         71
    56          4
    57          3
    62          5
    63         16
    64          5
    65         67
    66         75
    67         59
    68         25
    69          9
    71          3
    73         20
    74          3
    77         90
    78         30
    79        141
    80         43
    81         45
    82         19
    83         13
    84          6
    85          3
    86        999
    87         81
    88          6
    89          7
    90          2
    91         41
    92          7
    93         11
    94          5
    95         24
    96          8
    97         11
    98          8
    99         96
   100          6
   101          2
   105          8
   106          6
   107         21
   108          8
   109          4
   110          3
   111          3
   112        110
   113         17
   119          4
   121          7
   122          5
   123          8
   124          4
   125        137
   126         25
   127          9
   128          9
   135          4
   137         10
   138          3
   139         41
   140         15
   143         20
   144          4
   145         14
   147         13
   149          2
   150          2
   151         62
   152         43
   153         31
   154          3
   157          2
   165          6
   166          5
   167         29
   168         99
   169         11
   170          4
   191          2
   196         14
   197        103
   198         13
   231         47
   232          5
   233         45
   234          4
   276          4
   278          4