##TITLE=Library Entry 35409
##JCAMP-DX=Revision 4.10 
##DATA TYPE=MASS SPECTRUM
##SAMPLE DESCRIPTION=R.B.Cody, JEOL USA
##NAMES=HP
##CAS NAME=Bicyclo[3.1.1]heptane-2-methanethiol, 6,6-dimethyl-
##MOLFORM=C10H18S
##CAS REGISTRY NO=6588-78-9
##MP= -300
##BP= -300
##MW= 170
##$RETENTION INDEX=0
##$CONDENSED SPECTRUM=NO
##NPOINTS= 60
##XYDATA=(XY..XY) 1 
    41        807
    42         50
    43        184
    45         72
    47        113
    51         62
    53        211
    54         72
    55         41
    56         40
    57         66
    59         33
    65         83
    66         50
    67        850
    68        126
    69        999
    70         71
    73         37
    77        202
    78         50
    79        331
    80        199
    81        855
    82        503
    83         85
    85        146
    86         58
    87         55
    88         41
    91        149
    92         73
    93        769
    94        120
    95        197
    96         39
    99         83
   101         40
   105         33
   107         95
   108         62
   109         67
   113         55
   114        143
   115         36
   121        165
   122         35
   123        591
   124         67
   127        248
   128         35
   136        123
   137         48
   141         63
   155        172
   168         50
   169         85
   170        189
   171         35
   172         27