##TITLE=Library Entry 1288
##JCAMP-DX=Revision 4.10 
##DATA TYPE=MASS SPECTRUM
##SAMPLE DESCRIPTION=NIST Mass Spectrometry Data Center, 1994
##NAMES=HP
##CAS NAME=2-Cyclohexylamino-1-phenylethanol
##MOLFORM=C14H21NO
##CAS REGISTRY NO=6589-48-6
##MP= -300
##BP= -300
##MW= 219
##$RETENTION INDEX=0
##$CONDENSED SPECTRUM=NO
##NPOINTS= 92
##XYDATA=(XY..XY) 1 
    14          1
    15          8
    16          1
    17          1
    18          6
    26          4
    27         56
    28        116
    29         80
    30        999
    31         13
    32          2
    37          1
    39         68
    41        171
    42         33
    43         40
    44         15
    49          1
    50         15
    51         48
    52         15
    53         30
    54         30
    55        205
    56         77
    57         10
    58          2
    60          1
    61          0
    62          1
    63          7
    64          1
    65         13
    66          3
    67         15
    68         35
    69         14
    70         29
    71          1
    73          0
    74          1
    75          3
    77        124
    78         30
    79         88
    80         10
    81         14
    82         23
    83         79
    84          6
    89          4
    91         41
    92          4
    93          2
    94          1
    95          0
    96          2
    97          0
    98          2
   102          2
   103         13
   104          9
   105         21
   106         10
   107         20
   108          2
   109          1
   110          5
   111          0
   112        636
   113         50
   114          2
   115          1
   116          1
   117          4
   118          8
   119          3
   120          9
   121          1
   128          1
   129          1
   130          2
   132          0
   136          0
   142          1
   144          0
   158          2
   174          1
   200          2
   201          0
   220          0