##TITLE=Library Entry 1929
##JCAMP-DX=Revision 4.10 
##DATA TYPE=MASS SPECTRUM
##SAMPLE DESCRIPTION=Exported from NIST MS Search
##NAMES=HP
##CAS NAME=1-Propyne, 3-iodo-
##MOLFORM=C3H3I
##CAS REGISTRY NO=659-86-9
##MP= -300
##BP= -300
##MW= 166
##$RETENTION INDEX=0
##$CONDENSED SPECTRUM=NO
##NPOINTS= 43
##XYDATA=(XY..XY) 1 
    12          6
    14         11
    15          8
    16          4
    17          9
    18         33
    19          4
    20          4
    24          4
    25         10
    26         30
    27         50
    28          2
    29          1
    30          3
    31          8
    32         51
    34          3
    35         14
    36        136
    37        156
    38        299
    39        999
    40        146
    41         24
    42          4
   127        245
   128         45
   141         10
   142         22
   151          4
   152          9
   153          7
   154          4
   155          4
   156          4
   157          3
   163         15
   164         10
   165         67
   166        974
   167         40
   168          2