##TITLE=Library Entry 37622
##JCAMP-DX=Revision 4.10 
##DATA TYPE=MASS SPECTRUM
##SAMPLE DESCRIPTION=Japan AIST/NIMC Database- Spectrum MS-NW-5720
##NAMES=HP
##CAS NAME=Butanoic acid, 3-methyl-, 3-methylbutyl ester
##MOLFORM=C10H20O2
##CAS REGISTRY NO=659-70-1
##MP= -300
##BP= -300
##MW= 172
##$RETENTION INDEX=1104
##$CONDENSED SPECTRUM=NO
##NPOINTS= 64
##XYDATA=(XY..XY) 1 
    14          1
    15          8
    18          3
    26          4
    27         86
    28         13
    29        127
    30          3
    31          7
    32          1
    37          1
    38          4
    39         67
    40         11
    41        221
    42        115
    43        451
    44         14
    45         15
    50          1
    51          3
    52          1
    53         10
    54          7
    55        272
    56         36
    57        376
    58         16
    59         19
    60         44
    61         27
    62          1
    67          2
    68          3
    69         47
    70        999
    71        313
    72         16
    73          2
    74          1
    81          1
    83          2
    84          4
    85        566
    86         36
    87         39
    88          6
    97          1
   100          4
   101          5
   102         17
   103        127
   104          8
   105          1
   115         26
   116          2
   127          2
   128          1
   129         27
   130         11
   131          1
   142          1
   157          4
   172          1