##TITLE=Library Entry 32342
##JCAMP-DX=Revision 4.10 
##DATA TYPE=MASS SPECTRUM
##SAMPLE DESCRIPTION=B. R. ANDERSON
##NAMES=HP
##CAS NAME=Bicyclo[5.1.0]oct-3-ene
##MOLFORM=C8H12
##CAS REGISTRY NO=659-84-7
##MP= -300
##BP= -300
##MW= 108
##$RETENTION INDEX=0
##$CONDENSED SPECTRUM=NO
##NPOINTS= 63
##XYDATA=(XY..XY) 1 
    13          4
    14         12
    15         77
    16          1
    18          1
    25          3
    26         72
    27        572
    28        104
    29         59
    37         25
    38         67
    39        659
    40         78
    41        494
    42         24
    43         11
    44          1
    45          4
    49          9
    50         78
    51        151
    52         79
    53        163
    54        565
    55         47
    56          4
    61          7
    62         17
    63         44
    64         12
    65        150
    66        224
    67        999
    68         63
    69          4
    73          3
    74         11
    75         12
    76          7
    77        265
    78        161
    79        641
    80        400
    81         41
    82          5
    86          1
    89          8
    90          7
    91        174
    92         24
    93        335
    94         26
    95          2
    98          1
   102          2
   103          6
   104          2
   105         14
   106          3
   107         22
   108        101
   109          9