##TITLE=Library Entry 42887
##JCAMP-DX=Revision 4.10 
##DATA TYPE=MASS SPECTRUM
##SAMPLE DESCRIPTION=ASES Database, Dalian Institute, P.R. China
##NAMES=HP
##CAS NAME=2-Methyl-prop-1-enyl dithiopropanoate
##MOLFORM=C7H12S2
##CAS REGISTRY NO=65901-85-1
##MP= -300
##BP= -300
##MW= 160
##$RETENTION INDEX=0
##$CONDENSED SPECTRUM=NO
##NPOINTS= 11
##XYDATA=(XY..XY) 1 
    39         90
    41        361
    45        269
    55        108
    57         59
    71         88
    72         69
    73        999
    88        189
   145        328
   160        448