##TITLE=Library Entry 114707
##JCAMP-DX=Revision 4.10 
##DATA TYPE=MASS SPECTRUM
##SAMPLE DESCRIPTION=ASES Database, Dalian Institute, P.R. China
##NAMES=HP
##CAS NAME=4-Amino-5-methylmercapto-1,2,4(4H)-triazole
##MOLFORM=C3H6N4S
##CAS REGISTRY NO=65901-91-9
##MP= -300
##BP= -300
##MW= 130
##$RETENTION INDEX=0
##$CONDENSED SPECTRUM=NO
##NPOINTS= 23
##XYDATA=(XY..XY) 1 
    30        111
    41         98
    42        118
    43        227
    44         80
    45         98
    46         50
    47         61
    55         98
    56         78
    57         98
    69        118
    70        320
    71         79
    72         80
    73         79
    74        199
    97         49
   102         98
   113         89
   114        161
   115         68
   130        999