##TITLE=Library Entry 76696
##JCAMP-DX=Revision 4.10 
##DATA TYPE=MASS SPECTRUM
##SAMPLE DESCRIPTION=O.S.Anisimova
##NAMES=HP
##CAS NAME=4,4'-Bitriazolyl, 3-methyl-3'-phenyl-
##MOLFORM=C11H10N6
##CAS REGISTRY NO=65910-26-1
##MP= -300
##BP= -300
##MW= 226
##$RETENTION INDEX=0
##$CONDENSED SPECTRUM=NO
##NPOINTS= 22
##XYDATA=(XY..XY) 1 
    40        102
    41        410
    42        230
    50        167
    51        154
    52         90
    53         51
    54        115
    62         90
    63        320
    76        256
    77        134
   103        999
   104        370
   129         51
   130        167
   144         64
   145        102
   157        128
   171         39
   226        975
   227        154