##TITLE=Library Entry 80720
##JCAMP-DX=Revision 4.10 
##DATA TYPE=MASS SPECTRUM
##SAMPLE DESCRIPTION=V.I. COHEN, 38 MODABER AVE., TEHRAN, IRA
##NAMES=HP
##CAS NAME=Diselenide, 4,4'-bis(4-methylbenzyl)-
##MOLFORM=C16H18Se2
##CAS REGISTRY NO=65915-30-2
##MP= -300
##BP= -300
##MW= 370
##$RETENTION INDEX=0
##$CONDENSED SPECTRUM=NO
##NPOINTS= 13
##XYDATA=(XY..XY) 1 
    77         90
    78         40
    79         70
   103         50
   104         20
   105        999
   106        110
   209        110
   366         30
   367         20
   368         50
   370         50
   372         20