##TITLE=Library Entry 47156
##JCAMP-DX=Revision 4.10 
##DATA TYPE=MASS SPECTRUM
##SAMPLE DESCRIPTION=Chemical Concepts
##NAMES=HP
##CAS NAME=(4-Phenylazophenyl)methanol
##MOLFORM=C13H12N2O
##CAS REGISTRY NO=65926-74-1
##MP= -300
##BP= -300
##MW= 212
##$RETENTION INDEX=0
##$CONDENSED SPECTRUM=NO
##NPOINTS= 144
##XYDATA=(XY..XY) 1 
    26          5
    27         44
    28         16
    29         16
    30          1
    31         37
    33          1
    35          4
    36          5
    37          5
    38         12
    39         56
    40          9
    41         18
    42          6
    43         13
    44          7
    45          6
    46          1
    47          9
    48          4
    49          3
    50         47
    51        215
    52         36
    53         31
    54          4
    55         13
    56          8
    57         13
    58          1
    60          4
    61          3
    62          9
    63         52
    64         29
    65         24
    66          8
    67          6
    68          5
    69          7
    70          3
    71          4
    72          1
    73          4
    74         12
    75         12
    76         34
    77        999
    78        118
    79         30
    80          4
    81          7
    82          2
    83         29
    84          2
    85         21
    86          2
    87          6
    88          2
    89        368
    90         56
    91         23
    92          6
    93         10
    94          4
    95          4
    96          1
    97          3
    98          3
    99          1
   100          1
   101          2
   102          3
   103          4
   104          8
   105        218
   106         33
   107        758
   108         67
   109          8
   110          1
   111          1
   112          2
   113          1
   115         13
   116          4
   117          2
   118          1
   119          3
   120          3
   121          3
   122          3
   123          3
   124          1
   125          1
   126          2
   127         11
   128         12
   129         10
   130          2
   131          2
   133          2
   134          1
   135        231
   136         21
   137          3
   138          1
   139          3
   140          2
   141          5
   142          1
   143          1
   149         28
   150          6
   151         10
   152         33
   153         26
   154         13
   155         17
   156          3
   157          1
   161          1
   163          2
   164          2
   165         25
   166          7
   167          9
   168          2
   169          1
   170          1
   179          1
   180          1
   181          6
   182          3
   183          3
   195          3
   209          1
   210          6
   211          3
   212        499
   213         79
   214          8
   215          1