##TITLE=Library Entry 48464
##JCAMP-DX=Revision 4.10 
##DATA TYPE=MASS SPECTRUM
##SAMPLE DESCRIPTION=Chemical Concepts
##NAMES=HP
##CAS NAME=1-Hepten-6-yne
##MOLFORM=C7H10
##CAS REGISTRY NO=65939-59-5
##MP= -300
##BP= -300
##MW= 94
##$RETENTION INDEX=0
##$CONDENSED SPECTRUM=NO
##NPOINTS= 62
##XYDATA=(XY..XY) 1 
    25          4
    26         64
    27        489
    28         68
    29        298
    30          5
    31          1
    36          2
    37         42
    38        101
    39        704
    40        134
    41        199
    42         45
    43         15
    44          1
    45          2
    46          0
    48          1
    49         11
    50         95
    51        153
    52        109
    53        282
    54        479
    55        233
    56         15
    57          4
    58          0
    60          1
    61         14
    62         25
    63         44
    64          8
    65        127
    66        144
    67         73
    68         13
    69          1
    70          2
    71          3
    72          0
    73          1
    74          6
    75          3
    77        337
    78         50
    79        999
    80         75
    81         10
    82          3
    83          0
    84          1
    85          2
    86          4
    87          2
    89          4
    91        138
    92         13
    93        144
    94         18
    95          2