##TITLE=Library Entry 33335
##JCAMP-DX=Revision 4.10 
##DATA TYPE=MASS SPECTRUM
##SAMPLE DESCRIPTION=NIST Mass Spectrometry Data Center, 1998.
##NAMES=HP
##CAS NAME=Z-4-Tridecen-1-yl acetate
##MOLFORM=C15H28O2
##CAS REGISTRY NO=65954-19-0
##MP= -300
##BP= -300
##MW= 240
##$RETENTION INDEX=0
##$CONDENSED SPECTRUM=NO
##NPOINTS= 90
##XYDATA=(XY..XY) 1 
    14          1
    15          9
    26          3
    27         58
    28         14
    29        117
    30          3
    31          5
    38          2
    39         93
    40         20
    41        409
    42         70
    43        834
    44         25
    45          5
    50          2
    51          9
    52          8
    53        115
    54        363
    55        416
    56         80
    57        134
    58          8
    59          1
    60          1
    61         23
    62          1
    63          2
    64          1
    65         36
    66         63
    67        635
    68        999
    69        248
    70         45
    71         37
    72          2
    73          9
    74          1
    77         37
    78          8
    79        209
    80         72
    81        711
    82        591
    83        181
    84         24
    85          7
    86          4
    87          4
    91         17
    92          2
    93         27
    94         20
    95        313
    96        343
    97         91
    98         13
    99          2
   101          1
   105          2
   107          5
   108          6
   109        138
   110        121
   111         20
   112          3
   113          1
   121          2
   122          3
   123         66
   124         78
   125          9
   126          1
   127          1
   135          1
   136          1
   137         26
   138         43
   139          5
   141          1
   151         13
   152         44
   153          6
   165          2
   180        180
   181         26
   182          2