##TITLE=Library Entry 14890
##JCAMP-DX=Revision 4.10 
##DATA TYPE=MASS SPECTRUM
##SAMPLE DESCRIPTION=A. Brossi, LAC, NIDDK, NIH, Bethesda, MD 20892
##NAMES=HP
##CAS NAME=N-Acetylcolchinol methyl ether
##MOLFORM=C21H25NO5
##CAS REGISTRY NO=65967-01-3
##MP= -300
##BP= -300
##MW= 371
##$RETENTION INDEX=0
##$CONDENSED SPECTRUM=NO
##NPOINTS= 231
##XYDATA=(XY..XY) 1 
    41          9
    43        999
    44         37
    45         29
    50          5
    51         19
    52          8
    53         23
    54         11
    55         24
    56         14
    57         14
    59         17
    60         33
    62          6
    63         27
    64         10
    65         18
    66          6
    67         11
    68          6
    69         15
    70         11
    71          6
    72          5
    73         23
    74         11
    75         28
    76         31
    77         49
    78         16
    79         10
    80          5
    81          6
    82         11
    83         14
    84         13
    85         14
    86          7
    87         10
    88         13
    89         29
    90         15
    91         38
    92         12
    93          6
    94          4
    95          6
    96          6
    97          8
    98         11
    99         21
   100          9
   101         18
   102         27
   103         19
   104         19
   105         21
   106         15
   107          6
   109          4
   110          5
   111         11
   112         14
   113         32
   114         28
   115         70
   116         18
   117         16
   118         16
   119         18
   120         28
   121         19
   125         17
   126         45
   127         92
   128         63
   129         24
   130         13
   131          8
   132         11
   133         26
   134         19
   135         13
   136          6
   137          6
   138         11
   139         96
   140         78
   141         85
   142         24
   143         14
   144          9
   145         14
   146         11
   147          6
   149         51
   150         17
   151         40
   152         95
   153         59
   154         43
   155         36
   156         40
   157         24
   158         12
   159          7
   160         12
   161          4
   162          5
   163         16
   164         22
   165         68
   166         35
   167         49
   168         65
   169         45
   170         26
   171         37
   172         11
   173          5
   174          4
   176         10
   177         15
   178         28
   179         23
   180         30
   181         45
   182         42
   183         88
   184         38
   185         22
   186         10
   189          5
   190          9
   191         10
   192         13
   193         18
   194         28
   195         53
   196         42
   197         39
   198         32
   199         41
   200         16
   201          4
   205         10
   206         11
   207         21
   208         28
   209         37
   210         44
   211        104
   212         42
   213         24
   214          7
   219          5
   220         11
   221         19
   222         38
   223         52
   224         42
   225         47
   226         43
   227         38
   228         22
   229          5
   234          6
   235         29
   236         30
   237         45
   238         81
   239         95
   240         47
   241         35
   242         34
   243         10
   249         13
   250         30
   251         58
   252         40
   253         48
   254        186
   255         62
   256         38
   257         12
   263          7
   264         10
   265         57
   266        103
   267         74
   268         73
   269        123
   270        109
   271         35
   272          8
   279         10
   280         29
   281        293
   282        125
   283         53
   284         49
   285         23
   286         37
   287          7
   294          4
   295          9
   296         42
   297        331
   298        172
   299         60
   300        103
   301         19
   309          8
   310          5
   311         33
   312        531
   313        160
   314         42
   315          6
   324          5
   325          9
   326          4
   328         41
   329          9
   340         23
   341          6
   356          5
   371        602
   372        191
   373         30