##TITLE=Library Entry 69786
##JCAMP-DX=Revision 4.10 
##DATA TYPE=MASS SPECTRUM
##SAMPLE DESCRIPTION=TNO Volatile Compounds in Food - Chemical Concepts
##NAMES=HP
##CAS NAME=2-(3-Isothiocyanatopropyl)thiophene
##MOLFORM=C8H9NS2
##CAS REGISTRY NO=65984-62-5
##MP= -300
##BP= -300
##MW= 183
##$RETENTION INDEX=0
##$CONDENSED SPECTRUM=NO
##NPOINTS= 113
##XYDATA=(XY..XY) 1 
    23          3
    24          7
    25          9
    26         29
    27        145
    30         10
    32          5
    33          0
    34         13
    35          3
    36          9
    37         26
    38         43
    39        302
    40         16
    41        135
    42         12
    43         14
    45        510
    46         25
    47         40
    48          3
    49         25
    50         46
    51         95
    52         46
    53        250
    54         24
    55          6
    56          6
    57         36
    58         89
    59         41
    60         23
    61         20
    62         25
    63         48
    64          9
    65         73
    66         31
    67         45
    68         12
    69         85
    70         36
    71         43
    72        145
    73         14
    74         24
    75          8
    76          5
    77         87
    78         61
    79         60
    80          9
    81         18
    82         14
    83         10
    84         18
    85         47
    86         47
    87          3
    88          2
    89          9
    90          4
    91        158
    92         23
    93          4
    94          2
    95         25
    96         26
    97        999
    98        182
    99         68
   100         11
   101          0
   104          0
   108          3
   109         36
   110         37
   111        132
   112          7
   113         12
   115          5
   117         12
   118          2
   119          1
   120          1
   121         11
   122          7
   123        328
   124        346
   125         43
   126         26
   127          4
   128          2
   130          0
   134          1
   136          0
   148          1
   149          2
   150         46
   151          9
   152          5
   153          2
   154          2
   166          0
   168          1
   182          2
   183        473
   184         78
   185         49
   186          4
   187          1