##TITLE=Library Entry 28786
##JCAMP-DX=Revision 4.10 
##DATA TYPE=MASS SPECTRUM
##SAMPLE DESCRIPTION=Japan AIST/NIMC Database- Spectrum MS-NW-3180
##NAMES=HP
##CAS NAME=Acetylcholine bromide
##MOLFORM=C7H16BrNO2
##CAS REGISTRY NO=66-23-9
##MP= -300
##BP= -300
##MW= 225
##$RETENTION INDEX=0
##$CONDENSED SPECTRUM=NO
##NPOINTS= 50
##XYDATA=(XY..XY) 1 
    13          2
    14          8
    15        139
    16          1
    26          3
    27         10
    28         15
    29         11
    30         39
    31          1
    32          1
    39          1
    40          3
    41          9
    42         79
    43        104
    44         31
    45          7
    46          1
    47          2
    54          3
    55          5
    56         29
    57         21
    58        999
    59         39
    60          1
    68          1
    69          1
    70         10
    71        103
    72         26
    73          3
    79          8
    80          2
    81          8
    82          2
    86          2
    87         17
    88         13
    91          9
    92          5
    93         25
    94        159
    95         19
    96        146
    97          1
   106          2
   108          2
   131         10