##TITLE=Library Entry 49481
##JCAMP-DX=Revision 4.10 
##DATA TYPE=MASS SPECTRUM
##SAMPLE DESCRIPTION=NIST Mass Spectrometry Data Center
##NAMES=HP
##CAS NAME=Methanesulfonic acid, methyl ester
##MOLFORM=C2H6O3S
##CAS REGISTRY NO=66-27-3
##MP= -300
##BP= -300
##MW= 110
##$RETENTION INDEX=0
##$CONDENSED SPECTRUM=NO
##NPOINTS= 39
##XYDATA=(XY..XY) 1 
    13          1
    14          6
    15        135
    16          2
    27          1
    29        141
    30         17
    31         72
    32          8
    33          9
    34          5
    35          1
    44          5
    45        140
    46         18
    47          7
    48         97
    49         19
    50         25
    51          3
    52          1
    62          3
    63         36
    64         52
    65        278
    66          5
    67         11
    78         14
    79        756
    80        999
    81         53
    82         42
    95        155
    96          3
    97          6
   109         59
   110         56
   111          7
   112          2