##TITLE=Library Entry 7461
##JCAMP-DX=Revision 4.10 
##DATA TYPE=MASS SPECTRUM
##SAMPLE DESCRIPTION=LAC, NIDDK, NIH, Bethesda, MD 20892
##NAMES=HP
##CAS NAME=Strophanthidin
##MOLFORM=C23H32O6
##CAS REGISTRY NO=66-28-4
##MP= -300
##BP= -300
##MW= 404
##$RETENTION INDEX=0
##$CONDENSED SPECTRUM=NO
##NPOINTS= 203
##XYDATA=(XY..XY) 1 
    41        471
    43        999
    44         70
    45        125
    47         47
    49         18
    51         11
    53        290
    55        618
    57        176
    58         17
    59         22
    60         40
    61         14
    63         20
    65        104
    67        305
    69        238
    71        130
    73         52
    74          6
    75          5
    76          2
    77        246
    78         60
    79        348
    81        284
    82         29
    83         48
    84         13
    85         67
    86          7
    88         19
    89         15
    91        380
    93        196
    95        175
    96         22
    97        107
    98         59
    99         19
   101         14
   103         68
   105        246
   107        210
   109        130
   111        156
   112          4
   113         12
   115         78
   117        193
   119        125
   120         49
   121        102
   122         27
   123         19
   124        129
   125         14
   126          9
   127         21
   128         20
   129         86
   131        242
   133        259
   134         13
   135         53
   136         68
   138         32
   139         14
   141         43
   142         19
   143         68
   144         71
   145        108
   146        232
   147         50
   149         70
   151         35
   152          8
   153         37
   155         41
   157         44
   158         77
   159         58
   160        557
   162         27
   163         14
   164        114
   165         11
   167         22
   168          3
   169         46
   171         54
   173         51
   174          8
   175         25
   176         37
   177         37
   178         61
   179        119
   180          9
   181         83
   182          7
   183         34
   185         77
   187        208
   188         21
   189         13
   190         12
   191         12
   192          7
   193         14
   195         54
   197         63
   199         30
   201         35
   203         46
   205         38
   206          2
   207         19
   209         16
   210          7
   211         16
   212         28
   213         17
   215         66
   216          6
   217         26
   219         16
   221         20
   223         13
   225         15
   226          2
   227          8
   228          7
   229         11
   230         10
   231         27
   233         24
   234          5
   235         11
   236          3
   237          4
   239         11
   240         13
   242          7
   243          6
   244          8
   245          4
   246          3
   247          9
   248          4
   249         12
   250          2
   251          2
   253          3
   254          2
   256          8
   257          4
   258          2
   259          4
   260          2
   261          2
   263          5
   267          2
   268          5
   271          2
   277          5
   279          4
   281          3
   283          2
   284          2
   286          4
   287          4
   289          2
   293          2
   294          2
   296          2
   297          2
   304         14
   305          2
   307          9
   317          3
   318          2
   321         14
   322         20
   323          7
   325         17
   326          2
   334          2
   338         23
   340        200
   341         37
   342          7
   352          2
   354         14
   356         28
   358         81
   359         20
   368          9
   369          2
   371          8
   386          2