##TITLE=Library Entry 15534
##JCAMP-DX=Revision 4.10 
##DATA TYPE=MASS SPECTRUM
##SAMPLE DESCRIPTION=Japan AIST/NIMC Database- Spectrum MS-NW- 941
##NAMES=HP
##CAS NAME=Hexanal
##MOLFORM=C6H12O
##CAS REGISTRY NO=66-25-1
##MP= -300
##BP= -300
##MW= 100
##$RETENTION INDEX=800
##$CONDENSED SPECTRUM=NO
##NPOINTS= 57
##XYDATA=(XY..XY) 1 
    14          3
    15         21
    17          2
    18          9
    19          2
    26         26
    27        338
    28         80
    29        329
    30         15
    31         17
    32          3
    37          7
    38         18
    39        200
    40         37
    41        690
    42        107
    43        550
    44        999
    45        194
    46          6
    49          2
    50          9
    51         12
    52          3
    53         28
    54         22
    55        152
    56        819
    57        380
    58         89
    59          7
    60         35
    61          4
    62          2
    63          3
    65          4
    66          1
    67         80
    68          5
    69         13
    70          6
    71         66
    72        166
    73         17
    74          3
    77          1
    79          2
    81         11
    82        127
    83          9
    84          1
    85          3
    87          4
    99          3
   100          4