##TITLE=Library Entry 81406
##JCAMP-DX=Revision 4.10 
##DATA TYPE=MASS SPECTRUM
##SAMPLE DESCRIPTION=V.G.Zaikin, TIPS, Russian Acad. Sci.
##NAMES=HP
##CAS NAME=1-Vinyladamantane
##MOLFORM=C12H18
##CAS REGISTRY NO=6600-42-6
##MP= -300
##BP= -300
##MW= 162
##$RETENTION INDEX=0
##$CONDENSED SPECTRUM=NO
##NPOINTS= 49
##XYDATA=(XY..XY) 1 
    51         65
    52         30
    53        150
    54         30
    55        130
    56        290
    57        480
    58         30
    63         30
    65        100
    66         60
    67        180
    68         20
    69         30
    70         70
    71         50
    77         80
    78        115
    79        500
    80        150
    86         80
    91        370
    92        360
    93        620
    94        320
    95        100
    96         10
   103         40
   104         90
   105        999
   106        510
   107        190
   108         40
   109         20
   115         20
   117         25
   118         20
   119        210
   120        110
   121         70
   133         70
   134         40
   135        310
   136         40
   147         20
   161         20
   162        920
   163        121
   164          7