##TITLE=Library Entry 34825
##JCAMP-DX=Revision 4.10 
##DATA TYPE=MASS SPECTRUM
##SAMPLE DESCRIPTION=Div. of Experiment Therapeutics WRAIR, WRAMC, Washingto
n DC 20307
##NAMES=HP
##CAS NAME=2-Methoxydecanoic acid
##MOLFORM=C11H22O3
##CAS REGISTRY NO=66018-29-9
##MP= -300
##BP= -300
##MW= 202
##$RETENTION INDEX=0
##$CONDENSED SPECTRUM=NO
##NPOINTS= 82
##XYDATA=(XY..XY) 1 
    41        574
    42        102
    43        485
    45        746
    46         25
    48          1
    53         72
    55        607
    56         20
    57        284
    58        119
    59         46
    61         41
    63          3
    65          9
    67         74
    69        999
    71        350
    72         28
    73         53
    75         15
    77          6
    79         16
    81         66
    83        472
    84         67
    85         10
    86         31
    87          5
    88          4
    89         13
    90        118
    91          4
    92          0
    93          2
    94          1
    95         20
    97         38
    99         17
   100          3
   101          1
   103          8
   105          1
   106          1
   107          1
   108          0
   109          7
   110          2
   111          2
   113         14
   114          3
   115          2
   116          0
   119          0
   123          8
   124          6
   125         12
   127          6
   128          2
   129          3
   131          1
   132          0
   137          1
   139          1
   141          3
   143          1
   145          1
   149          0
   152          7
   153          0
   154          0
   155          2
   157        477
   158         50
   159          3
   164          1
   165          0
   169          4
   170          0
   172          1
   202          1
   203          0