##TITLE=Library Entry 31866
##JCAMP-DX=Revision 4.10 
##DATA TYPE=MASS SPECTRUM
##SAMPLE DESCRIPTION=A.A.Kutin, Moscow, Russia
##NAMES=HP
##CAS NAME=5,5'-Bi-1H-tetrazole, 1,1'-diphenyl-
##MOLFORM=C14H10N8
##CAS REGISTRY NO=66012-75-7
##MP= -300
##BP= -300
##MW= 290
##$RETENTION INDEX=0
##$CONDENSED SPECTRUM=NO
##NPOINTS= 108
##XYDATA=(XY..XY) 1 
    35          7
    36         37
    37         50
    38        175
    39        563
    40         68
    41         74
    42         10
    43         13
    44         15
    45          5
    46          0
    47          1
    48          1
    49         13
    50        221
    51        692
    52        110
    53         26
    54          4
    55          0
    61          0
    62         53
    63        225
    64        403
    65        999
    66         63
    67          4
    75         50
    76         96
    77        844
    78         73
    79         18
    80          4
    81          1
    89          1
    90         65
    91        735
    92         64
    93         11
    94          1
    95          0
   102          8
   103         99
   104         36
   105         28
   106          8
   107          5
   108          1
   109          0
   110          1
   111          3
   112          0
   116         21
   117        604
   118        101
   119         14
   120          2
   121          0
   129         35
   130         14
   131         10
   132          4
   133          0
   142          2
   143         85
   144         31
   145          3
   146          0
   171          2
   172          3
   173          0
   179          4
   180          3
   181         12
   182          9
   183          9
   184          1
   185          0
   187          1
   188          0
   193          3
   194         20
   195          3
   196          0
   206         21
   207         80
   208         41
   209          5
   210          0
   218          1
   219          1
   220          5
   221          0
   232          6
   233        265
   234        254
   235         40
   236          5
   237          0
   261          2
   262          8
   263          1
   264          0
   274          0
   289          0
   290          1
   291          0