##TITLE=Library Entry 60402
##JCAMP-DX=Revision 4.10 
##DATA TYPE=MASS SPECTRUM
##SAMPLE DESCRIPTION=Chemical Concepts
##NAMES=HP
##CAS NAME=l-Leucine, N-[N-[N-[(phenylmethoxy)carbonyl]-l-leucyl]-l-leucyl]-
, methyl ester
##MOLFORM=C27H43N3O6
##CAS REGISTRY NO=66013-79-4
##MP= -300
##BP= -300
##MW= 505
##$RETENTION INDEX=0
##$CONDENSED SPECTRUM=NO
##NPOINTS= 119
##XYDATA=(XY..XY) 1 
    27         29
    28         29
    29         23
    30        101
    33          5
    39         25
    40          4
    41         77
    42         19
    43        167
    44         97
    45         10
    50          7
    51         18
    52          5
    53         10
    54          7
    55         51
    56         14
    57         30
    58          5
    59         10
    60          5
    63          6
    65         28
    67         11
    68          9
    69         56
    70         42
    71         14
    72          6
    73          6
    74         13
    77         31
    78          7
    79         51
    80          7
    81          8
    82          8
    83         18
    84         26
    85         15
    86        626
    87         41
    88         20
    89          9
    90         12
    91        999
    92         77
    93          4
    94          7
    96         11
    97         18
    98          8
    99          4
   100          6
   102          4
   107         39
   108         47
   109          6
   110          6
   111          5
   112         17
   113          9
   114          5
   126          6
   130         15
   133          3
   139         19
   141         20
   144         10
   146         30
   155         22
   157         60
   158          7
   160          3
   168          7
   169          9
   170          8
   172          5
   176        223
   177         27
   183         66
   184         11
   187          4
   197          5
   200         27
   201          7
   209          6
   220         25
   221          4
   225        122
   226         45
   227          6
   243         15
   248        114
   249         19
   253         27
   254          4
   270          2
   285         40
   286          7
   303          3
   308          3
   333         44
   334         22
   335          4
   338         20
   339          4
   341         15
   342          2
   361         14
   362          3
   382          2
   449         11
   450          3
   490          2
   505          1
   506          1