##TITLE=Library Entry 68479
##JCAMP-DX=Revision 4.10 
##DATA TYPE=MASS SPECTRUM
##SAMPLE DESCRIPTION=Japan AIST/NIMC Database- Spectrum MS-NW-1994
##NAMES=HP
##CAS NAME=3-Pyridinol-1-oxide
##MOLFORM=C5H5NO2
##CAS REGISTRY NO=6602-28-4
##MP= -300
##BP= -300
##MW= 111
##$RETENTION INDEX=0
##$CONDENSED SPECTRUM=NO
##NPOINTS= 87
##XYDATA=(XY..XY) 1 
    12          7
    13          5
    14         14
    15          5
    16          5
    17          1
    18          3
    24          3
    25         14
    26         92
    27        156
    28        212
    29         84
    30         37
    31          4
    32         10
    33          5
    34          2
    36          9
    37         73
    38        164
    39        460
    40        182
    41        168
    42         73
    43         29
    44         81
    45         13
    46          2
    47          8
    48          4
    49         17
    50         56
    51         67
    52         48
    53         50
    54         87
    55        392
    56         69
    57         21
    58         23
    59          1
    60          2
    61          5
    62         11
    63         17
    64         14
    65         22
    66         71
    67        134
    68        142
    69         18
    70          3
    71         13
    72          1
    73          1
    74          2
    75          5
    76         12
    77         11
    78          8
    79          9
    80          6
    81         12
    82         53
    83         12
    84         73
    85          4
    86          1
    89          1
    91          3
    92          2
    93          9
    94         65
    95        999
    96         60
    97          9
    98          1
   105          2
   106         10
   107          6
   108          1
   109         13
   110          2
   111        918
   112         55
   113          4