##TITLE=Library Entry 83018
##JCAMP-DX=Revision 4.10 
##DATA TYPE=MASS SPECTRUM
##SAMPLE DESCRIPTION=Chemical Concepts
##NAMES=HP
##CAS NAME=N-(4-Bromomethylphenyl)acetamide
##MOLFORM=C9H10BrNO
##CAS REGISTRY NO=66047-05-0
##MP= -300
##BP= -300
##MW= 227
##$RETENTION INDEX=0
##$CONDENSED SPECTRUM=NO
##NPOINTS= 84
##XYDATA=(XY..XY) 1 
    26          6
    27         17
    28         15
    29          4
    30          6
    36          3
    37          2
    38          9
    39         38
    40          7
    41         12
    42         13
    43        232
    44          7
    45          4
    49          2
    50         30
    51         76
    52         73
    53         17
    54          7
    55          7
    56          2
    57         11
    59          2
    60          3
    61          2
    62          7
    63         18
    64          7
    65         10
    66          4
    67          4
    69          4
    70          2
    71          6
    73          2
    74          4
    75          6
    76         14
    77        106
    78        151
    79         56
    80        138
    81         50
    82        132
    83          3
    85          3
    89         14
    90          8
    91          7
    97          2
   102          3
   103          3
   104         43
   105         60
   106        999
   107        133
   108          6
   111          1
   118          3
   119          5
   120          2
   132         18
   133          2
   141          1
   146          4
   147          7
   148        662
   149         94
   150          6
   157          1
   167          0
   174          0
   184          5
   185          1
   186          5
   187          1
   212          0
   226          1
   227         26
   228          4
   229         26
   230          3