##TITLE=Library Entry 99969
##JCAMP-DX=Revision 4.10 
##DATA TYPE=MASS SPECTRUM
##SAMPLE DESCRIPTION=HCACAV,61(1)357(1978); G. BIERI ET AL
##NAMES=HP
##CAS NAME=2-Butynenitrile, 4,4,4-trifluoro-
##MOLFORM=C4F3N
##CAS REGISTRY NO=66051-48-7
##MP= -300
##BP= -300
##MW= 119
##$RETENTION INDEX=0
##$CONDENSED SPECTRUM=NO
##NPOINTS= 6
##XYDATA=(XY..XY) 1 
    31        200
    50        110
    55         40
    69        400
   100        900
   119        999