##TITLE=Library Entry 109704
##JCAMP-DX=Revision 4.10 
##DATA TYPE=MASS SPECTRUM
##SAMPLE DESCRIPTION=Leung Pu, NIH, Bethesda, Maryland, U.S.
##NAMES=HP
##CAS NAME=Pencycuron
##MOLFORM=C19H21ClN2O
##CAS REGISTRY NO=66063-05-6
##MP= -300
##BP= -300
##MW= 328
##$RETENTION INDEX=1683
##$CONDENSED SPECTRUM=NO
##NPOINTS= 165
##XYDATA=(XY..XY) 1 
    41        190
    42         22
    43         14
    44          4
    45          2
    47          8
    48          3
    49         34
    50         11
    51         47
    52          9
    53         11
    54         16
    55         14
    56         20
    57          8
    58          0
    60          1
    61          1
    62          5
    63         31
    64         22
    65         84
    66         25
    67         36
    68         11
    69         63
    70          5
    71          2
    72          0
    73          7
    74          2
    75         12
    76          6
    77        114
    78         11
    79          3
    80          2
    81          1
    82         10
    83          6
    84         84
    85          7
    86         12
    87          2
    88          3
    89         89
    90         42
    91         41
    92         59
    93        150
    94         16
    95          1
    96          1
    97          2
    98          0
    99         26
   100          1
   101          9
   102          3
   103          4
   104          9
   105          6
   106         17
   107          2
   108          0
   110          2
   111         11
   112          4
   113          7
   114          1
   115          4
   116          2
   117          3
   118          3
   119         27
   120         15
   121          2
   123          1
   124          9
   125        999
   126         88
   127        373
   128         26
   129          3
   130          4
   131          7
   132         20
   133          3
   134          1
   135          1
   137          1
   138          9
   139          6
   140         86
   141         11
   142         27
   143          4
   144          4
   145          1
   146          1
   147          3
   149          3
   150          3
   151          7
   152          3
   153          1
   154          1
   160          1
   164          3
   165          2
   166         25
   167          8
   168          9
   169          2
   172          1
   173          0
   175          0
   178          6
   179          2
   180         28
   181          8
   182         29
   183          6
   184          0
   185          2
   187          0
   200          4
   201          2
   202          3
   203         63
   204          9
   205          0
   206          6
   207         13
   208         16
   209          7
   210          5
   211          1
   214          1
   216         21
   217         32
   218         10
   219         10
   220          1
   225          0
   230          6
   231          0
   232          2
   235          5
   236          6
   237          3
   238          2
   239          0
   259         53
   260         12
   261         18
   262          3
   293          0
   294          0
   328        214
   329         53
   330         86
   331         18
   332          2