##TITLE=Library Entry 17371
##JCAMP-DX=Revision 4.10 
##DATA TYPE=MASS SPECTRUM
##SAMPLE DESCRIPTION=Chuck Anderson, Aldrich Chemical Co.
##NAMES=HP
##CAS NAME=1,3,3-Trimethoxybutane
##MOLFORM=C7H16O3
##CAS REGISTRY NO=6607-66-5
##MP= -300
##BP= -300
##MW= 148
##$RETENTION INDEX=0
##$CONDENSED SPECTRUM=NO
##NPOINTS= 67
##XYDATA=(XY..XY) 1 
    14          2
    15         44
    16          1
    17          0
    26          4
    27         29
    28         14
    29         71
    30          6
    31         41
    32         19
    33         23
    34          0
    37          1
    38          3
    39         44
    40         11
    41         67
    42         60
    43        449
    44          2
    45        999
    46         22
    47         53
    48          1
    49          0
    50          3
    51          4
    52          2
    53         35
    54          8
    55         84
    56         14
    57         41
    58         10
    59         58
    60          2
    61          1
    67          0
    68          1
    69          6
    70          2
    71         29
    72         14
    73         15
    74          0
    75         13
    76          0
    83          5
    84          8
    85        218
    86         27
    87          9
    89        643
    90         25
    91          2
    99          0
   101        125
   102          6
   103          0
   115          6
   116         12
   117        281
   118         15
   119          1
   133         31
   134          1