##TITLE=Library Entry 2037
##JCAMP-DX=Revision 4.10 
##DATA TYPE=MASS SPECTRUM
##SAMPLE DESCRIPTION=ATLAS OF MASS SPECTRA OF ORGANIC COMPOUNDS, V. A. KOPTY
UG, ED.
##NAMES=HP
##CAS NAME=Propanal, 2-methyl-, 2-propenylhydrazone
##MOLFORM=C7H14N2
##CAS REGISTRY NO=66075-08-9
##MP= -300
##BP= -300
##MW= 126
##$RETENTION INDEX=948
##$CONDENSED SPECTRUM=NO
##NPOINTS= 35
##XYDATA=(XY..XY) 1 
    28        579
    29        533
    30        306
    39        338
    40         67
    41        999
    42        213
    43        360
    44         89
    52         18
    53         40
    54         89
    55        533
    56        490
    57        236
    58         80
    66         22
    67         21
    68         98
    69         89
    70         62
    81         53
    82         28
    83        133
    84         49
    85        400
    86         24
    97        302
    98         36
    99        107
   111        191
   112         15
   125         28
   126        400
   127         53