##TITLE=Library Entry 37693
##JCAMP-DX=Revision 4.10 
##DATA TYPE=MASS SPECTRUM
##SAMPLE DESCRIPTION=A.I. Gren, Phys.-Chem. Inst., Acad. Sci. Ukraine, Odess
a, Ukraine
##NAMES=HP
##CAS NAME=1,4,10,13-Tetraaza-7,16-dioxacyclooctadecane-2,3,11,12-tetrone
##MOLFORM=C12H20N4O6
##CAS REGISTRY NO=66086-53-1
##MP= -300
##BP= -300
##MW= 316
##$RETENTION INDEX=0
##$CONDENSED SPECTRUM=NO
##NPOINTS= 60
##XYDATA=(XY..XY) 1 
    55         66
    56        167
    57        141
    58        204
    59        109
    60        107
    61         25
    62         48
    69        246
    70        999
    71        181
    72        584
    73        474
    74        312
    75         56
    84         61
    85         25
    86        154
    87        166
    88        544
    89         46
    97         43
    98         25
    99         55
   100        116
   101        135
   102        917
   103         66
   113        141
   114        150
   115        438
   116         78
   128         94
   129        116
   130         43
   131        214
   132         54
   140         47
   141        144
   142         65
   143         73
   157        199
   158         77
   159        143
   160         43
   171         49
   172         45
   201        169
   202         85
   203         81
   228         63
   229          6
   246         93
   247          9
   273        269
   274         48
   298         52
   299          7
   316        367
   317         54