##TITLE=Library Entry 23574
##JCAMP-DX=Revision 4.10 
##DATA TYPE=MASS SPECTRUM
##SAMPLE DESCRIPTION=Japan AIST/NIMC Database- Spectrum MS-NW-7551
##NAMES=HP
##CAS NAME=di-tert-Butyl acetylenedicarboxylate
##MOLFORM=C12H18O4
##CAS REGISTRY NO=66086-33-7
##MP= -300
##BP= -300
##MW= 226
##$RETENTION INDEX=0
##$CONDENSED SPECTRUM=NO
##NPOINTS= 65
##XYDATA=(XY..XY) 1 
    14          1
    15         13
    16          3
    24          1
    25          5
    26         19
    27         39
    28         26
    29        103
    30          2
    31          3
    37          4
    38          8
    39         77
    40         16
    41        263
    42         12
    43         72
    44         85
    45          1
    49          1
    50          6
    51          6
    52          9
    53        114
    54          4
    55         33
    56        169
    57        999
    58         44
    59        145
    60          4
    67          6
    69          4
    70          1
    71          8
    73          1
    79          9
    80         23
    81         13
    82          1
    83          1
    95          6
    96          1
    97         33
    98          2
   107          2
   108          2
   109          1
   111          9
   112          1
   113          1
   115          1
   124          4
   125         15
   126          1
   127          2
   135          1
   137          2
   152          9
   153         27
   154          3
   155         14
   156          1
   171          1