##TITLE=Library Entry 83404
##JCAMP-DX=Revision 4.10 
##DATA TYPE=MASS SPECTRUM
##SAMPLE DESCRIPTION=NIST Mass Spectrometry Data Center
##NAMES=HP
##CAS NAME=2-Chloro-2-oxo-1,3,2-dioxaphospholane
##MOLFORM=C2H4ClO3P
##CAS REGISTRY NO=6609-64-9
##MP= -300
##BP= -300
##MW= 142
##$RETENTION INDEX=0
##$CONDENSED SPECTRUM=NO
##NPOINTS= 65
##XYDATA=(XY..XY) 1 
    12          1
    13          7
    14         20
    15        113
    24          2
    25          4
    26         55
    27         80
    29        235
    30         65
    31        153
    33          4
    35         14
    37          3
    41          8
    42        289
    43        243
    44        812
    47        439
    48        144
    49         14
    50          1
    51          1
    53          1
    57          1
    58          1
    61          3
    63         30
    65          4
    66         16
    67          1
    68          6
    77        205
    78         27
    79         38
    81        423
    82         28
    83        354
    84         95
    85        119
    86         26
    89         15
    90          1
    91         12
    98          9
    99         29
   100         62
   101         15
   102         21
   105          9
   106         39
   107        999
   108         18
   109          3
   112        807
   113         80
   114        324
   115         23
   116         27
   140          2
   141         70
   142        340
   143         29
   144        101
   145          2