##TITLE=Library Entry 22164
##JCAMP-DX=Revision 4.10 
##DATA TYPE=MASS SPECTRUM
##SAMPLE DESCRIPTION=Exported from NIST MS Search
##NAMES=HP
##CAS NAME=Heptane, 1-fluoro-
##MOLFORM=C7H15F
##CAS REGISTRY NO=661-11-0
##MP= -300
##BP= -300
##MW= 118
##$RETENTION INDEX=755
##$CONDENSED SPECTRUM=NO
##NPOINTS= 71
##XYDATA=(XY..XY) 1 
    15          8
    26         13
    27        240
    28         59
    29        401
    30          9
    31          2
    32          1
    33         38
    36          1
    37          2
    38          8
    39        169
    40         28
    41        786
    42        352
    43        957
    44         33
    45          8
    46         15
    47        158
    48          4
    49          1
    50          6
    51         16
    52          4
    53         38
    54         50
    55        395
    56        999
    57        633
    58         27
    59         76
    60         16
    61         62
    62          3
    63          2
    65          4
    66          1
    67         15
    68         46
    69        612
    70        468
    71         75
    72          4
    73         17
    74         44
    75         43
    76          2
    77          2
    78          1
    79          2
    81          3
    82          2
    83         78
    84          6
    85          6
    86          1
    87          1
    88         22
    89         14
    90          1
    91          4
    92          2
    93          1
    97          5
    98         21
    99          2
   116          1
   117          1
   118          1