##TITLE=Library Entry 7752
##JCAMP-DX=Revision 4.10 
##DATA TYPE=MASS SPECTRUM
##SAMPLE DESCRIPTION=Japan AIST/NIMC Database- Spectrum MS-NW-6052
##NAMES=HP
##CAS NAME=Behenic alcohol
##MOLFORM=C22H46O
##CAS REGISTRY NO=661-19-8
##MP= -300
##BP= -300
##MW= 326
##$RETENTION INDEX=2493
##$CONDENSED SPECTRUM=NO
##NPOINTS= 158
##XYDATA=(XY..XY) 1 
    15          3
    17          1
    18          3
    26          3
    27         89
    28         20
    29        287
    30          7
    31        109
    32          1
    36          1
    38          1
    39         64
    40         15
    41        699
    42        170
    43        999
    44         38
    45         15
    46          1
    49          1
    50          1
    51          2
    52          2
    53         36
    54         99
    55        887
    56        361
    57        895
    58         41
    59          3
    61          1
    63          1
    65          6
    66         18
    67        148
    68        336
    69        701
    70        331
    71        427
    72         26
    73         13
    74          1
    77          5
    78          2
    79         12
    80          9
    81        103
    82        493
    83        805
    84        243
    85        258
    86         18
    87          3
    91          3
    92          1
    93          4
    94          5
    95         68
    96        214
    97        721
    98        175
    99         80
   100          6
   101          1
   105          1
   106          1
   107          2
   108          3
   109         32
   110         92
   111        407
   112        134
   113         53
   114          4
   115          1
   121          1
   122          3
   123         20
   124         64
   125        240
   126        101
   127         36
   128          4
   136          2
   137         13
   138         49
   139        134
   140         74
   141         26
   142          3
   151          5
   152         35
   153         88
   154         58
   155         19
   156          2
   165          3
   166         28
   167         63
   168         46
   169         14
   170          2
   179          2
   180         22
   181         46
   182         38
   183         12
   184          2
   193          1
   194         19
   195         35
   196         32
   197          9
   198          1
   207          1
   208         16
   209         26
   210         25
   211          7
   212          1
   219          1
   221          1
   222         12
   223         20
   224         26
   225          9
   226          1
   236         10
   237         16
   238         20
   239          9
   240          2
   249          1
   250          8
   251         12
   252         17
   253          4
   264          5
   265          9
   266          9
   267          3
   278          5
   279          8
   280         66
   281         15
   282          2
   293          1
   294          1
   306         13
   307          4
   308        180
   309         46
   310          6
   311          1
   324          1
   325          2
   326          1