##TITLE=Library Entry 55452
##JCAMP-DX=Revision 4.10 
##DATA TYPE=MASS SPECTRUM
##SAMPLE DESCRIPTION=Exported from NIST MS Search
##NAMES=HP
##CAS NAME=Propane, 1,1,1,2,2,3-hexachloro-3,3-difluoro-
##MOLFORM=C3Cl6F2
##CAS REGISTRY NO=661-96-1
##MP= -300
##BP= -300
##MW= 284
##$RETENTION INDEX=0
##$CONDENSED SPECTRUM=NO
##NPOINTS= 127
##XYDATA=(XY..XY) 1 
    24          2
    28         15
    31         32
    32          4
    35         15
    36          6
    37          5
    38          1
    43          1
    45          1
    47         37
    48          1
    49         12
    50          4
    51          1
    53          1
    54          1
    55         19
    56          1
    59         12
    61          4
    66          3
    68          1
    70          1
    71          5
    72          4
    73          4
    74         24
    75          1
    77          1
    78          6
    80          3
    81          1
    82         35
    83         12
    84         23
    85        999
    86         15
    87        323
    88          4
    89         11
    90         11
    91          3
    94         51
    95          1
    96         34
    97          3
    98          6
    99          1
   101         62
   102          1
   103         40
   104          3
   105          6
   106          2
   107          6
   108          9
   109         59
   110          3
   111         18
   112          1
   113          3
   115          2
   116          1
   117        548
   118          6
   119        527
   120          6
   121        170
   122          2
   123         18
   125         12
   126          1
   127          8
   128          1
   129         20
   131         18
   132         12
   133          6
   134          7
   135          1
   136          1
   141          1
   143          1
   144          1
   145          1
   146          1
   147          1
   148          3
   150          3
   152          1
   164         76
   165          2
   166         99
   167         26
   168         48
   169         24
   170         11
   171          8
   172          1
   173          1
   179         74
   180          2
   181         72
   182          2
   183         23
   184          1
   185          3
   195          2
   197          3
   199         32
   201         48
   202          1
   203         31
   204          1
   205         10
   207          1
   214          4
   216          5
   218          3
   220          1
   249        213
   251        342
   253        216
   255         70
   256          2
   257         12