##TITLE=Library Entry 78899
##JCAMP-DX=Revision 4.10 
##DATA TYPE=MASS SPECTRUM
##SAMPLE DESCRIPTION=ASES Database, Dalian Institute, P.R. China
##NAMES=HP
##CAS NAME=3-Cyclopropylphenyl trifluoromethanesulfonate
##MOLFORM=C10H9F3O3S
##CAS REGISTRY NO=66107-35-5
##MP= -300
##BP= -300
##MW= 266
##$RETENTION INDEX=0
##$CONDENSED SPECTRUM=NO
##NPOINTS= 19
##XYDATA=(XY..XY) 1 
    39        169
    50         71
    51        207
    55         59
    63         69
    65         59
    69        149
    77        381
    78        110
    79        350
    89         60
    91         49
   103        189
   105        999
   106         90
   115        140
   131        120
   133        269
   266         80