##TITLE=Library Entry 83504
##JCAMP-DX=Revision 4.10 
##DATA TYPE=MASS SPECTRUM
##SAMPLE DESCRIPTION=NIST Mass Spectrometry Data Center, 1994
##NAMES=HP
##CAS NAME=4-Dichloromethyl-4-methyl-2,5-cyclohexadien-1-one
##MOLFORM=C8H8Cl2O
##CAS REGISTRY NO=6611-78-5
##MP= -300
##BP= -300
##MW= 190
##$RETENTION INDEX=0
##$CONDENSED SPECTRUM=NO
##NPOINTS= 102
##XYDATA=(XY..XY) 1 
    12          4
    13         11
    14         12
    15         67
    16          3
    17          2
    18          6
    25         14
    26        136
    27        194
    28         14
    33          9
    35         23
    36         18
    37         61
    38        140
    39        431
    40         47
    41         38
    42          7
    43         13
    44          7
    45         10
    46          6
    47         31
    48         38
    49         72
    50        266
    51        368
    52        130
    53        135
    54         13
    55         11
    56          2
    60         13
    61         51
    62         86
    63        164
    64         40
    65        239
    66         28
    67          4
    68          2
    72          6
    73         56
    74         41
    75         86
    76          2
    77        794
    78        125
    79        490
    80         37
    81          3
    82          2
    83         92
    84         10
    85         83
    86         22
    87         25
    88          7
    89         39
    90          3
    91        485
    92         75
    93          5
    97          5
    98          2
    99         18
   101         27
   102          4
   103          8
   105          5
   107        999
   108        155
   109         15
   110          2
   111         49
   112         46
   113         20
   114         14
   119         15
   120          9
   121          4
   125         22
   126         23
   127        187
   128         22
   129         75
   130          6
   131          4
   147          3
   155        394
   156         40
   157        124
   158         10
   175          4
   190         70
   191          6
   192         46
   193          4
   194          7
   195          0