##TITLE=Library Entry 82807
##JCAMP-DX=Revision 4.10 
##DATA TYPE=MASS SPECTRUM
##SAMPLE DESCRIPTION=A.A.Kutin, Moscow, Russia
##NAMES=HP
##CAS NAME=Piperidin-4-one, 3-isopropyl-2,6-diphenyl-, oxime
##MOLFORM=C20H24N2O
##CAS REGISTRY NO=66110-29-0
##MP= -300
##BP= -300
##MW= 308
##$RETENTION INDEX=0
##$CONDENSED SPECTRUM=NO
##NPOINTS= 145
##XYDATA=(XY..XY) 1 
    33          8
    40         30
    41        149
    42         58
    43         83
    44         13
    45          7
    50         14
    51         56
    52         21
    53         27
    54         21
    55        156
    56         51
    57         18
    58          5
    59          6
    60          5
    63         15
    64          5
    65         44
    67         48
    68         26
    69         11
    70          6
    71          2
    72          1
    74          2
    75          5
    76         10
    77        154
    78         83
    79        127
    80         16
    82        138
    83         16
    84          9
    85          1
    89         35
    90         26
    91        173
    92         17
    93          3
    94         14
    96         30
    97          4
    98          8
    99          0
   101          4
   102         20
   103         96
   104        317
   105        103
   106        999
   107        112
   108          8
   110          2
   112          2
   114          0
   115         51
   116         65
   117         52
   118         33
   119         11
   120          8
   122         26
   123          2
   126          4
   127         17
   128         53
   129         44
   130         75
   131         44
   132         22
   133         23
   134          1
   135          5
   138          3
   140          1
   141          6
   142         10
   143         21
   144         52
   145         27
   146         24
   147          3
   148          1
   152         13
   153          2
   154          4
   155          4
   156          8
   157          8
   158          6
   159          4
   160         40
   161         17
   162          2
   165         19
   166          9
   167         19
   168          4
   169          5
   170         14
   171         15
   172         13
   173          2
   174          4
   178          2
   180          0
   184          6
   185          2
   186         43
   187         19
   188        124
   189         16
   190          1
   192          2
   193         14
   194        194
   195         56
   196          5
   202         12
   203         19
   204          3
   206          4
   207          1
   208         93
   209         22
   210          0
   217          1
   220          1
   234          1
   235          1
   247          3
   249          3
   265        105
   266         20
   290          0
   291         40
   292          8
   293         10
   308        162
   309         35
   310          1