##TITLE=Library Entry 54466
##JCAMP-DX=Revision 4.10 
##DATA TYPE=MASS SPECTRUM
##SAMPLE DESCRIPTION=M.E. Kuehne, Chem. Dep., Univ. Vermont, Burlington, Ver
mont, USA
##NAMES=HP
##CAS NAME=[1,3]Benzodioxolo[5,6-a]cyclopenta[i]quinolizin-3-one, 1,2,5,6,12
,13,14,14a-octahydro-
##MOLFORM=C17H19NO3
##CAS REGISTRY NO=6612-99-3
##MP= -300
##BP= -300
##MW= 285
##$RETENTION INDEX=0
##$CONDENSED SPECTRUM=NO
##NPOINTS= 24
##XYDATA=(XY..XY) 1 
    50        190
    51        500
    55        100
    83         60
    84        999
    86        590
    88        100
    89         60
   115         90
   148        110
   172         60
   199        110
   214        190
   215         90
   228        330
   229        200
   242        380
   243        920
   244        150
   256        520
   257        100
   284         60
   285        400
   286        120