##TITLE=Library Entry 47059
##JCAMP-DX=Revision 4.10 
##DATA TYPE=MASS SPECTRUM
##SAMPLE DESCRIPTION=Organic Synthesis Lab, MSU, Moscow.TRC 1507
##NAMES=HP
##CAS NAME=1-Benzoyl-2-dimethylamino-1-ethoxycarbonylethene
##MOLFORM=C14H17NO3
##CAS REGISTRY NO=66129-60-0
##MP= -300
##BP= -300
##MW= 247
##$RETENTION INDEX=0
##$CONDENSED SPECTRUM=NO
##NPOINTS= 62
##XYDATA=(XY..XY) 1 
    46         46
    50         23
    51        169
    52         24
    53        174
    54         31
    55        195
    59         22
    68        131
    70         45
    72         50
    75         21
    76         53
    77        999
    78         62
    81         25
    82         52
    84         32
    89         27
    91        136
    96         48
    97         19
    98        351
    99         23
   102         86
   103         40
   104         22
   105        765
   106         59
   114         70
   115         36
   116         61
   117         26
   123         22
   124        547
   125         35
   126         52
   129         56
   130        223
   131        148
   132         43
   142        140
   144        235
   145         49
   156         37
   157        154
   158        361
   159         50
   170        200
   172        104
   173        101
   174         81
   184         34
   186         59
   200        110
   201         37
   202        132
   204         42
   218         19
   230         96
   247        238
   248         62