##TITLE=Library Entry 79194
##JCAMP-DX=Revision 4.10 
##DATA TYPE=MASS SPECTRUM
##SAMPLE DESCRIPTION=NIST Mass Spectrometry Data Center, 1994
##NAMES=HP
##CAS NAME=7-Benzoylheptanoic acid
##MOLFORM=C14H18O3
##CAS REGISTRY NO=66147-75-9
##MP= -300
##BP= -300
##MW= 234
##$RETENTION INDEX=0
##$CONDENSED SPECTRUM=NO
##NPOINTS= 101
##XYDATA=(XY..XY) 1 
    15          2
    17          6
    18         18
    19          0
    26          5
    27         95
    28         43
    29         51
    30          0
    36          3
    38          6
    39         77
    40         13
    41        131
    42         43
    43         36
    44          3
    45         73
    46          2
    47          1
    50         42
    51        173
    52         16
    53         18
    54          7
    55        100
    56         11
    57          5
    58          1
    59          1
    60         35
    61          1
    62          3
    63          9
    64          4
    65         16
    66          2
    67          9
    68          8
    69         18
    70          3
    71          3
    73         10
    75          9
    76         29
    77        572
    78         83
    79         10
    81          3
    82          1
    83          6
    84          4
    86          3
    87          1
    88          1
    89          4
    91         35
    92          8
    93          1
    94          1
    95          1
    97          2
   102          2
   103          6
   105        999
   106         73
   107          6
   111          2
   112          2
   115          7
   116          2
   117          2
   118          2
   120        557
   121         69
   122          5
   123          1
   127          1
   128          5
   129          6
   130          2
   131          3
   132          1
   133         42
   134          4
   137          1
   145          2
   146          1
   147          1
   157          1
   159          1
   161          1
   170          1
   171          1
   175          3
   187          1
   188          8
   216         18
   217          3
   234          6
   235          0