##TITLE=Library Entry 86264
##JCAMP-DX=Revision 4.10 
##DATA TYPE=MASS SPECTRUM
##SAMPLE DESCRIPTION=NIST Mass Spectrometry Data Center
##NAMES=HP
##CAS NAME=2-Caren-4-ol
##MOLFORM=C10H16O
##CAS REGISTRY NO=6617-35-2
##MP= -300
##BP= -300
##MW= 152
##$RETENTION INDEX=1181
##$CONDENSED SPECTRUM=NO
##NPOINTS= 99
##XYDATA=(XY..XY) 1 
    26          1
    27         28
    28          5
    29         20
    30          1
    31          5
    37          1
    38          5
    39         94
    40         16
    41        142
    42         10
    43        220
    44          8
    45         17
    46          1
    50         12
    51         45
    52         18
    53         66
    54         14
    55         78
    56         13
    57         16
    58          9
    59         56
    60          8
    61          8
    62          6
    63         21
    64          9
    65         80
    66         25
    67        128
    68         14
    69         42
    70          4
    71          6
    72          1
    74          3
    75          4
    76          4
    77        157
    78         32
    79        137
    80         17
    81        117
    82         22
    83         18
    84         16
    85          2
    86          1
    87          1
    89          9
    90          3
    91        299
    92         45
    93        130
    94        113
    95        159
    96         17
    97          5
    98          1
   101          1
   102          4
   103         26
   104         13
   105         61
   106         10
   107         78
   108        107
   109        999
   110         72
   111          5
   115         24
   116          6
   117         44
   118          8
   119        390
   120         37
   121         22
   122         12
   123         32
   124          3
   127          1
   128          1
   129          1
   131          1
   132          3
   133          6
   134         71
   135         12
   136          2
   137        100
   138          9
   150          1
   151          2
   152         26
   153          2