##TITLE=Library Entry 50424
##JCAMP-DX=Revision 4.10 
##DATA TYPE=MASS SPECTRUM
##SAMPLE DESCRIPTION=NIST Mass Spectrometry Data Center, 2010
##NAMES=HP
##CAS NAME=trans-4-(Hydroxymethyl)cyclohexanecarboxylic acid
##MOLFORM=C8H14O3
##CAS REGISTRY NO=66185-74-8
##MP= -300
##BP= -300
##MW= 158
##$RETENTION INDEX=0
##$CONDENSED SPECTRUM=NO
##NPOINTS= 79
##XYDATA=(XY..XY) 1 
    26          4
    27         60
    28         15
    29         69
    30         32
    31         74
    37          1
    38          5
    39        138
    40         21
    41        245
    42         25
    43        182
    44         14
    45         60
    46          2
    47          9
    50         10
    51         28
    52         16
    53        112
    54         82
    55        225
    56         29
    57         67
    58          5
    59          5
    60          5
    61          4
    62          1
    63          4
    65         27
    66         17
    67        189
    68        111
    69         38
    70          7
    71         13
    73         80
    74          4
    77         48
    78         14
    79        177
    80        116
    81        999
    82         77
    83         15
    84          6
    85         17
    86         34
    87          4
    91         22
    92          8
    93         44
    94        384
    95        289
    96         24
    97         26
    98         10
    99         21
   100          2
   104          1
   107          5
   108         20
   109        234
   110         31
   111         29
   112         25
   113          4
   122        229
   123         20
   125         30
   126          3
   127         62
   128         47
   129          3
   139          1
   140         44
   141          4