##TITLE=Library Entry 87201
##JCAMP-DX=Revision 4.10 
##DATA TYPE=MASS SPECTRUM
##SAMPLE DESCRIPTION=Japan AIST/NIMC Database- Spectrum MS-IW-7492
##NAMES=HP
##CAS NAME=1-Acetamido-1,2-dihydro-2-oxopyridine
##MOLFORM=C7H8N2O2
##CAS REGISTRY NO=66193-78-0
##MP= -300
##BP= -300
##MW= 152
##$RETENTION INDEX=0
##$CONDENSED SPECTRUM=NO
##NPOINTS= 68
##XYDATA=(XY..XY) 1 
    13          1
    14          7
    15         24
    16          1
    17          9
    18         43
    25          1
    26         17
    27         35
    28         49
    29         12
    30          2
    37          9
    38         27
    39         82
    40         20
    41         28
    42         25
    43        297
    44         10
    45          1
    49          3
    50         23
    51         40
    52         45
    53         20
    54         59
    55        140
    56         11
    57         15
    58          1
    59          1
    60          2
    63          2
    64          8
    65         10
    66         38
    67         30
    68         12
    69         32
    70          1
    77          1
    78          4
    79          8
    80          5
    81        379
    82        120
    83          8
    92          2
    93         12
    94          7
    95         41
    96          3
   108          1
   109          9
   110        999
   111         69
   112          4
   123          2
   133          1
   134          3
   135          8
   137         14
   138          1
   151          1
   152        350
   153         31
   154          3