##TITLE=Library Entry 15684
##JCAMP-DX=Revision 4.10 
##DATA TYPE=MASS SPECTRUM
##SAMPLE DESCRIPTION=RADIAN CORP
##NAMES=HP
##CAS NAME=Butanamide, 2,2,3,3,4,4,4-heptafluoro-
##MOLFORM=C4H2F7NO
##CAS REGISTRY NO=662-50-0
##MP= -300
##BP= -300
##MW= 213
##$RETENTION INDEX=0
##$CONDENSED SPECTRUM=NO
##NPOINTS= 39
##XYDATA=(XY..XY) 1 
    16         10
    27          2
    28        101
    29          4
    31         53
    32         34
    40          3
    42          1
    43         29
    44        999
    45         16
    46         13
    47          4
    50         28
    51         23
    62          5
    66         38
    69        188
    70          4
    71          3
    73          1
    74          3
    77          2
    78          6
    81          8
    82          1
    93          6
    97          2
   100         58
   108          1
   109          8
   116          4
   119         40
   131          3
   146         27
   150          2
   166         36
   169          8
   194          7