##TITLE=Library Entry 15911
##JCAMP-DX=Revision 4.10 
##DATA TYPE=MASS SPECTRUM
##SAMPLE DESCRIPTION=LAC, NIDDK, NIH, Bethesda, MD 20892
##NAMES=HP
##CAS NAME=N-Serylserine
##MOLFORM=C6H12N2O5
##CAS REGISTRY NO=6620-95-7
##MP= -300
##BP= -300
##MW= 192
##$RETENTION INDEX=0
##$CONDENSED SPECTRUM=NO
##NPOINTS= 83
##XYDATA=(XY..XY) 1 
    42        493
    43        449
    44        999
    45        276
    46         46
    49          7
    50         24
    51         15
    52          8
    53         15
    54         19
    55         43
    56         73
    57         71
    58         40
    59          7
    60        245
    61         59
    63          6
    65         17
    66          7
    67          8
    68         23
    69         31
    70         43
    71         22
    72         45
    73         17
    74        239
    75         86
    76         34
    77         34
    78         12
    80         11
    81         18
    82          8
    83         11
    84         18
    85         12
    86         65
    87        515
    88         81
    89         16
    91         14
    92         17
    93          9
    94         23
    97         12
    98         18
    99         25
   100         11
   101          3
   102         14
   104         36
   105         22
   106          8
   111         12
   113         16
   114         25
   121         10
   126          3
   128         14
   130         16
   131         30
   132         22
   133         15
   135         15
   136          3
   138          9
   139          7
   140          3
   147          3
   148         64
   149          8
   158          3
   160         12
   161         18
   162        142
   163         23
   174         43
   175          3
   192         13
   193          3