##TITLE=Library Entry 21042
##JCAMP-DX=Revision 4.10 
##DATA TYPE=MASS SPECTRUM
##SAMPLE DESCRIPTION=Japan AIST/NIMC Database- Spectrum MS-NW-6007
##NAMES=HP
##CAS NAME=6-Bromohexanenitrile
##MOLFORM=C6H10BrN
##CAS REGISTRY NO=6621-59-6
##MP= -300
##BP= -300
##MW= 175
##$RETENTION INDEX=0
##$CONDENSED SPECTRUM=NO
##NPOINTS= 86
##XYDATA=(XY..XY) 1 
    13          1
    14          5
    15         19
    25          2
    26         46
    27        283
    28         74
    29        187
    30         14
    31          1
    36          1
    37         13
    38         28
    39        209
    40         49
    41        714
    42        244
    43         60
    44          3
    46          1
    47          1
    49          2
    50         11
    51         21
    52         23
    53         66
    54        479
    55        999
    56         54
    57          3
    61          2
    62          2
    63          5
    64          9
    65         10
    66         20
    67         56
    68        110
    69        377
    70         22
    71          1
    75          2
    76          1
    77          3
    78          2
    79         25
    80         10
    81         11
    82         59
    83          6
    85          1
    87          1
    91          1
    92          1
    93         14
    94         12
    95         27
    96        985
    97         71
    98          3
   105          2
   106          5
   107         54
   108          6
   109         52
   110          4
   111          1
   119          3
   120          1
   121          3
   122          1
   123          1
   132          2
   133          1
   134          2
   135         12
   137         11
   138          1
   147         10
   148          4
   149         10
   150          4
   175          5
   176          2
   177          5
   178          1