##TITLE=Library Entry 20861
##JCAMP-DX=Revision 4.10 
##DATA TYPE=MASS SPECTRUM
##SAMPLE DESCRIPTION=NIST Mass Spectrometry Data Center
##NAMES=HP
##CAS NAME=Methyl tiglate
##MOLFORM=C6H10O2
##CAS REGISTRY NO=6622-76-0
##MP= -300
##BP= -300
##MW= 114
##$RETENTION INDEX=866
##$CONDENSED SPECTRUM=NO
##NPOINTS= 62
##XYDATA=(XY..XY) 1 
    14          2
    15         53
    16          1
    17          1
    25          1
    26         24
    27        188
    28         42
    29        213
    31         13
    32          5
    33          1
    36          1
    37         10
    38         22
    39        217
    40         20
    41         48
    43         71
    45         23
    46          1
    47          1
    48          1
    49          8
    50         54
    51         71
    52         31
    53        184
    54        141
    55        999
    56         56
    57          8
    59        141
    60          3
    61          2
    62          1
    63          1
    65          2
    66          2
    67         10
    68          3
    69         21
    70          2
    71         28
    74          2
    75          1
    77          1
    80          1
    81         23
    82        139
    83        560
    84         34
    85          8
    97          1
    99        182
   100         12
   101          1
   112          1
   113          8
   114        518
   115         34
   116          3