##TITLE=Library Entry 39728
##JCAMP-DX=Revision 4.10 
##DATA TYPE=MASS SPECTRUM
##SAMPLE DESCRIPTION=Chemical Concepts
##NAMES=HP
##CAS NAME=1-Butanamine, N-ethyl-N-methyl-
##MOLFORM=C7H17N
##CAS REGISTRY NO=66225-40-9
##MP= -300
##BP= -300
##MW= 115
##$RETENTION INDEX=0
##$CONDENSED SPECTRUM=NO
##NPOINTS= 52
##XYDATA=(XY..XY) 1 
    25          1
    26          0
    27         72
    28         30
    29         86
    30         34
    31          0
    34          0
    37          0
    38          1
    39         18
    40          4
    41         43
    42        100
    43         34
    44        333
    45          8
    50          0
    51          0
    52          1
    53          2
    54          6
    55          0
    56         18
    57         24
    58         84
    59          5
    60          0
    63          0
    64          0
    65          0
    68          0
    69          0
    70          8
    72        999
    73         41
    74          0
    76          0
    77          0
    84          1
    85          1
    86          4
    87          1
    89          0
    91          0
    98          3
   100         22
   101          1
   114          8
   115         69
   116          6
   117          0