##TITLE=Library Entry 63856
##JCAMP-DX=Revision 4.10 
##DATA TYPE=MASS SPECTRUM
##SAMPLE DESCRIPTION=Japan AIST/NIMC Database- Spectrum MS-IW-4710
##NAMES=HP
##CAS NAME=Benzoic acid, 2-[(phenylmethyl)amino]-
##MOLFORM=C14H13NO2
##CAS REGISTRY NO=6622-55-5
##MP= -300
##BP= -300
##MW= 227
##$RETENTION INDEX=0
##$CONDENSED SPECTRUM=NO
##NPOINTS= 128
##XYDATA=(XY..XY) 1 
    17          4
    18         23
    27          6
    28         14
    29          1
    30          1
    37          1
    38          5
    39         44
    40          4
    41         12
    42          1
    43          1
    44          9
    45          2
    50         14
    51         53
    52         13
    53          5
    54          1
    55          1
    57          1
    61          1
    62          6
    63         30
    64         16
    65        171
    66         13
    67          1
    69          1
    71          1
    74          5
    75          9
    76         33
    77        132
    78         36
    79         23
    80          2
    81          1
    82          1
    83          2
    86          1
    87          1
    88          1
    89         39
    90         42
    91        999
    92        114
    93         24
    94          2
    97          1
   101          2
   102          7
   103         14
   104         73
   105         79
   106        729
   107         60
   108          2
   113          9
   114          2
   115          3
   116          1
   117          1
   118          1
   119         37
   120         22
   121         18
   122          7
   123          1
   125          1
   126          3
   127          6
   128          3
   129          1
   130         17
   131          2
   132        150
   133         15
   134          1
   135          1
   137          9
   138          1
   139          1
   140          1
   141          1
   146          1
   148          4
   149         15
   150         42
   151         17
   152         46
   153         20
   154          5
   155          1
   163          1
   164          1
   165          9
   166          4
   167          7
   168          2
   177          2
   178          9
   179         13
   180        282
   181        109
   182         41
   183         33
   184          4
   193          3
   194          2
   195          1
   196          8
   197          2
   206          5
   207          2
   208        256
   209         91
   210         22
   211          3
   223          2
   224          5
   225         11
   226        156
   227        933
   228        147
   229         14
   230          1