##TITLE=Library Entry 22165
##JCAMP-DX=Revision 4.10 
##DATA TYPE=MASS SPECTRUM
##SAMPLE DESCRIPTION=J.T. CLERC, ORGANIC CHEM. LAB., ETH, ZURICH, SWITZ.
##NAMES=HP
##CAS NAME=2,3-Pentanediol, 2,4-dimethyl-
##MOLFORM=C7H16O2
##CAS REGISTRY NO=66225-53-4
##MP= -300
##BP= -300
##MW= 132
##$RETENTION INDEX=0
##$CONDENSED SPECTRUM=NO
##NPOINTS= 37
##XYDATA=(XY..XY) 1 
    17         79
    28        136
    29        244
    30          9
    31        129
    39        115
    40         27
    41        668
    42         36
    43        875
    44         36
    45        230
    53         27
    55        668
    56        999
    57        635
    58         23
    59        267
    61         18
    67         36
    69         46
    70         23
    71        423
    72         87
    73        506
    74         18
    83         87
    84          9
    85        373
    86          9
    89         18
    97         18
    98         27
   103        253
   111         27
   129         36
   130         13