##TITLE=Library Entry 77094
##JCAMP-DX=Revision 4.10 
##DATA TYPE=MASS SPECTRUM
##SAMPLE DESCRIPTION=P.A. Leclercq, Lab. Instrum. Anal., Eindhoven Univ. Tec
hnol., Netherlands
##NAMES=HP
##CAS NAME=Benzene, (4-pentylcyclohexyl)-
##MOLFORM=C17H26
##CAS REGISTRY NO=66227-31-4
##MP= -300
##BP= -300
##MW= 230
##$RETENTION INDEX=0
##$CONDENSED SPECTRUM=NO
##NPOINTS= 26
##XYDATA=(XY..XY) 1 
    29        191
    39         71
    41        232
    43        132
    55        158
    57        122
    65         63
    67         79
    69        104
    71         84
    77         61
    78         74
    81        120
    82         76
    83         66
    91        467
    92        127
    97         76
   104        999
   105        132
   115        104
   117        345
   118        227
   230        396
   231         75
   232          6