##TITLE=Library Entry 109916
##JCAMP-DX=Revision 4.10 
##DATA TYPE=MASS SPECTRUM
##SAMPLE DESCRIPTION=NIST Mass Spectrometry Data Center, 1998.
##NAMES=HP
##CAS NAME=Benzeneacetic acid, 4-chloro-.alpha.-(1-methylethyl)-, cyano (3-p
henoxyphenyl)methyl ester,(S-(R*,R*))-
##MOLFORM=C25H22ClNO3
##CAS REGISTRY NO=66230-04-4
##MP= -300
##BP= -300
##MW= 419
##$RETENTION INDEX=2851
##$CONDENSED SPECTRUM=NO
##NPOINTS= 201
##XYDATA=(XY..XY) 1 
    26          1
    27         31
    28          2
    29         25
    36          1
    37          1
    38          8
    39         62
    40          6
    41         55
    42          5
    43        130
    44          6
    45          1
    49          1
    50         30
    51        129
    52         12
    53         16
    54          1
    55        165
    56          8
    57          1
    59          4
    61          2
    62         19
    63         48
    64         22
    65         40
    66          7
    67          1
    68          1
    69          3
    73          4
    74          8
    75         28
    76         40
    77        232
    78         27
    79          4
    80          1
    83          1
    84          1
    85          1
    86          3
    87         10
    88         34
    89        115
    90         34
    91         46
    92         10
    93          4
    94         10
    95          1
    97          1
    99         11
   100          1
   101         14
   102         19
   103         52
   104         12
   105          6
   106          1
   107          1
   111          4
   112          6
   113         20
   114         58
   115        194
   116         77
   117         75
   118         10
   119          1
   120          1
   121          1
   123          4
   124         62
   125        999
   126        101
   127        357
   128         44
   129         14
   130         11
   131         15
   132         11
   133          8
   134          3
   135          1
   136          2
   137          5
   138          4
   139        103
   140         27
   141        113
   142         15
   143         13
   144          3
   147          2
   149          5
   150         12
   151         47
   152        412
   153        101
   154        114
   155         15
   156          2
   157          1
   160          1
   163          4
   164          5
   165         15
   166          1
   167        839
   168        135
   169        408
   170         51
   171         38
   172          4
   173          1
   175          1
   176          2
   177         10
   178         22
   179         15
   180         98
   181        522
   182         78
   183          9
   184          1
   188          1
   189          2
   190         13
   191          5
   192          3
   193          6
   194          5
   195          4
   196          4
   197         61
   198         44
   199          8
   200          1
   201          1
   202          1
   203          2
   204          1
   205          2
   206         46
   207         35
   208        107
   209         94
   210         18
   211          3
   212          2
   213          1
   214          1
   215          1
   217          1
   219          1
   220          1
   221          1
   222          1
   223         11
   224         16
   225        286
   226         46
   227          5
   228          1
   229          1
   230          1
   237          1
   238          1
   239          1
   240          1
   241          1
   254          1
   255          1
   257          1
   259          1
   267          1
   269          1
   270          1
   282          1
   291          1
   293         13
   294          3
   295          5
   296          2
   297          1
   305          1
   321          1
   323          1
   330          1
   331          7
   332          2
   333          2
   419        138
   420         36
   421         50
   422         12
   423          2