##TITLE=Library Entry 72348
##JCAMP-DX=Revision 4.10 
##DATA TYPE=MASS SPECTRUM
##SAMPLE DESCRIPTION=ASES Database, Dalian Institute, P.R. China
##NAMES=HP
##CAS NAME=Octadecane-1,3-diol methaneboronate
##MOLFORM=C19H39BO2
##CAS REGISTRY NO=66237-68-1
##MP= -300
##BP= -300
##MW= 310
##$RETENTION INDEX=0
##$CONDENSED SPECTRUM=NO
##NPOINTS= 14
##XYDATA=(XY..XY) 1 
    41        120
    43        299
    55        199
    57        179
    68        129
    69        170
    81        108
    82        160
    96        131
    98        308
    99        999
   222         69
   250         99
   310          9