##TITLE=Library Entry 58307
##JCAMP-DX=Revision 4.10 
##DATA TYPE=MASS SPECTRUM
##SAMPLE DESCRIPTION=V.G.Zaikin, Petrochem. Synth. Inst., Moscow
##NAMES=HP
##CAS NAME=Propanoic acid, 2-methyl-, dodecyl ester
##MOLFORM=C16H32O2
##CAS REGISTRY NO=6624-71-1
##MP= -300
##BP= -300
##MW= 256
##$RETENTION INDEX=0
##$CONDENSED SPECTRUM=NO
##NPOINTS= 70
##XYDATA=(XY..XY) 1 
    26         11
    27         91
    28         22
    29        112
    30          6
    31          8
    39         99
    40         29
    41        419
    42        159
    43        997
    44         32
    45          8
    51         11
    53         29
    54         68
    55        370
    56        315
    57        456
    58         27
    66          8
    67         62
    68         99
    69        292
    70        273
    71        693
    72         38
    73         22
    80          8
    81         28
    82        111
    83        289
    84        209
    85        121
    86         16
    87          8
    88         61
    89        999
    90         58
    91         12
    95         22
    96         50
    97        225
    98        129
    99         22
   101         15
   110         25
   111        119
   112         65
   113         18
   115          5
   123          5
   124         10
   125         45
   126         39
   127          5
   129          6
   139         19
   140         75
   141          9
   167          5
   168        138
   169         19
   170          2
   183          6
   185          6
   213         28
   214          4
   256          6
   257          1