##TITLE=Library Entry 48285
##JCAMP-DX=Revision 4.10 
##DATA TYPE=MASS SPECTRUM
##SAMPLE DESCRIPTION=Div. of Experiment Therapeutics WRAIR, WRAMC, Washingto
n DC 20307
##NAMES=HP
##CAS NAME=benzaldehyde 4-[2-pyridyl]-3-thiosemicarbazone
##MOLFORM=C13H12N4S
##CAS REGISTRY NO=66243-84-3
##MP= -300
##BP= -300
##MW= 256
##$RETENTION INDEX=0
##$CONDENSED SPECTRUM=NO
##NPOINTS= 150
##XYDATA=(XY..XY) 1 
    41         82
    42         20
    43         69
    44          6
    45         54
    47         91
    48         34
    49        367
    50        152
    51        672
    52        200
    53         31
    54         23
    55         11
    56          4
    57         16
    58         10
    59         27
    60         54
    61          6
    62         28
    63         89
    64         73
    65        139
    66        121
    67        332
    68         22
    69         17
    70         14
    71         14
    72          5
    73          4
    74         18
    75         27
    76         66
    77        452
    78        999
    79        231
    80         33
    81         12
    82         20
    83         30
    84        237
    85         15
    86        139
    87          5
    88         23
    89        129
    90         81
    91         72
    92         79
    93        112
    94        608
    95         41
    96          1
    97         15
    98         20
    99          4
   100          1
   101          1
   102          8
   103         31
   104        120
   105        137
   106        155
   107         16
   109         17
   110         16
   111         15
   112          3
   113          2
   114          0
   115          2
   116          1
   117          2
   118         10
   119        217
   120        841
   121         78
   122          5
   123          1
   124         85
   125         89
   126         10
   127          6
   128          5
   129          2
   131          1
   133          0
   134          5
   136         71
   137        803
   138         80
   139         46
   140          4
   141          1
   145          0
   146          1
   147          0
   148          0
   149          4
   150          3
   151        301
   152        276
   153         87
   154         17
   155          4
   156          0
   161          0
   162         11
   163          6
   164          1
   165          0
   166          2
   167          3
   168          2
   169          0
   177          4
   178         16
   179         62
   180          7
   181          3
   182          1
   183         11
   184          1
   189          0
   192          0
   193          1
   194          4
   195          3
   196          3
   197          0
   207          1
   208          1
   209          0
   212          0
   221          0
   223         13
   224          1
   225          0
   227          1
   228          0
   240          0
   253          1
   254          6
   255         21
   256        673
   257        112
   258         38
   259          5