##TITLE=Library Entry 8704
##JCAMP-DX=Revision 4.10 
##DATA TYPE=MASS SPECTRUM
##SAMPLE DESCRIPTION=Japan AIST/NIMC Database- Spectrum MS-NW-4037
##NAMES=HP
##CAS NAME=Pentyl acetoacetate
##MOLFORM=C9H16O3
##CAS REGISTRY NO=6624-84-6
##MP= -300
##BP= -300
##MW= 172
##$RETENTION INDEX=0
##$CONDENSED SPECTRUM=NO
##NPOINTS= 77
##XYDATA=(XY..XY) 1 
    13          2
    14          7
    15         46
    16          2
    18          4
    19          1
    25          2
    26         16
    27        111
    28         33
    29        141
    30          4
    31         67
    32          8
    36          1
    37          3
    38          8
    39         63
    40         13
    41        190
    42        260
    43        999
    44         33
    45         11
    50          3
    51          3
    52          2
    53          9
    54          5
    55        225
    56         27
    57         34
    58         76
    59         10
    60         82
    61         77
    62          2
    63          1
    65          1
    67          4
    68          4
    69         49
    70        402
    71        117
    72          7
    73         20
    74          3
    75          1
    77          1
    84         64
    85        339
    86         18
    87         16
    88          2
    96          1
    97          4
    98          1
   100          3
   101          3
   102         42
   103        283
   104         13
   105          4
   112          3
   113          2
   115          8
   116          1
   120          2
   129          2
   130          8
   131          1
   140          1
   143          3
   144          1
   154          2
   157          2
   172          5