##TITLE=Library Entry 22280
##JCAMP-DX=Revision 4.10 
##DATA TYPE=MASS SPECTRUM
##SAMPLE DESCRIPTION=ASES Database, Dalian Institute, P.R. China
##NAMES=HP
##CAS NAME=4,6-Dimethyl-3,5-dithioxo-2,3,4,5-tetrahydro-1,2,4-triazine
##MOLFORM=C5H7N3S2
##CAS REGISTRY NO=6625-99-6
##MP= -300
##BP= -300
##MW= 173
##$RETENTION INDEX=0
##$CONDENSED SPECTRUM=NO
##NPOINTS= 14
##XYDATA=(XY..XY) 1 
    41        169
    42        100
    43        307
    44        118
    45        552
    46         99
    47         79
    55        150
    56        999
    59        160
    60        209
    71         79
    72        160
   173        298