##TITLE=Library Entry 26090
##JCAMP-DX=Revision 4.10 
##DATA TYPE=MASS SPECTRUM
##SAMPLE DESCRIPTION=NIST Mass Spectrometry Data Center, 1994
##NAMES=HP
##CAS NAME=Propanamide, 2,2-dimethyl-N-phenyl-
##MOLFORM=C11H15NO
##CAS REGISTRY NO=6625-74-7
##MP= -300
##BP= -300
##MW= 177
##$RETENTION INDEX=1465
##$CONDENSED SPECTRUM=NO
##NPOINTS= 86
##XYDATA=(XY..XY) 1 
    12          1
    13          1
    14          2
    15         27
    16          1
    17          0
    18          3
    26          7
    27         79
    28         33
    29        202
    30          4
    37          8
    38         34
    39        244
    40         42
    41        358
    42         36
    43          4
    44          1
    45          1
    46          0
    50         24
    51         77
    52         21
    53         15
    54          8
    55         25
    56          0
    57        999
    58         45
    61          2
    62          7
    63         33
    64         38
    65        147
    66         82
    67          8
    68          1
    69         12
    70          5
    71          0
    73          2
    74          9
    75          3
    76          0
    77        103
    78         10
    79          2
    80          1
    83          1
    85         60
    86          3
    88          0
    89          1
    90          4
    91         28
    92         96
    93        610
    94         53
    95          2
   103          0
   104          1
   105          1
   106          5
   115          2
   116          0
   117          3
   118          6
   119         27
   120         35
   121         17
   122          2
   128          0
   130          1
   132          1
   134         52
   135         10
   136          1
   144          0
   146          2
   160          1
   162          3
   177        285
   178         38
   179          2