##TITLE=Library Entry 61174
##JCAMP-DX=Revision 4.10 
##DATA TYPE=MASS SPECTRUM
##SAMPLE DESCRIPTION=Chemical Concepts
##NAMES=HP
##CAS NAME=Propanoic acid, 2-(phenylmethoxy)-
##MOLFORM=C10H12O3
##CAS REGISTRY NO=6625-78-1
##MP= -300
##BP= -300
##MW= 180
##$RETENTION INDEX=0
##$CONDENSED SPECTRUM=NO
##NPOINTS= 69
##XYDATA=(XY..XY) 1 
    27         24
    28         15
    29         13
    30          8
    31          3
    37          1
    38          7
    39         57
    40          5
    41         19
    42          2
    43         16
    44          7
    45         25
    46          2
    49          1
    50         17
    51         52
    52         14
    53          6
    54          1
    55          8
    56         35
    57          4
    61          2
    62          8
    63         33
    64         11
    65        145
    66          9
    67          1
    68          1
    69          2
    71          1
    72          1
    73         22
    74        164
    75         10
    76          5
    77         69
    78         12
    79        131
    80          9
    81          1
    83          1
    85          1
    86          1
    87          1
    89         39
    90         24
    91        999
    92        114
    93          5
    97          1
   105         18
   106          3
   107        456
   108         51
   109          3
   115          1
   117          1
   133          1
   134          2
   135         15
   136          2
   162          3
   179          1
   180         11
   181          2