##TITLE=Library Entry 76726
##JCAMP-DX=Revision 4.10 
##DATA TYPE=MASS SPECTRUM
##SAMPLE DESCRIPTION=D.J.HARVEY UNIV. DEPT. OF PHARMACOLOGY, OXFORD, UK
##NAMES=HP
##CAS NAME=3-.alpha.,20-.beta.-Bis(allyldimethylsilyloxy)-5-.beta.-pregnane
##MOLFORM=C31H56O2Si2
##CAS REGISTRY NO=66250-83-7
##MP= -300
##BP= -300
##MW= 516
##$RETENTION INDEX=0
##$CONDENSED SPECTRUM=NO
##NPOINTS= 75
##XYDATA=(XY..XY) 1 
    67         10
    69         16
    75        238
    76         20
    77         14
    81         50
    83         25
    93         20
    95         55
    97          9
   101         36
   103        999
   104        100
   105         51
   107         35
   109         53
   115         38
   117         58
   119         16
   121         74
   123         27
   129        127
   130         17
   131         11
   133         15
   135         52
   143        168
   144         25
   145         17
   147         33
   149         87
   150         15
   151         12
   159         14
   161         39
   163         25
   173         40
   175         76
   176         12
   177         17
   187         19
   189         36
   199          9
   201         23
   203         20
   210         10
   213         11
   215         23
   221         10
   227         12
   229         14
   255         27
   257         58
   258         13
   281         13
   283        378
   284         87
   285         34
   301          9
   331         23
   341         13
   343         10
   357         22
   358         10
   359         50
   360         17
   385         11
   399         17
   433         84
   434         33
   435         13
   475        273
   476        117
   477         62
   478         11