##TITLE=Library Entry 15855
##JCAMP-DX=Revision 4.10 
##DATA TYPE=MASS SPECTRUM
##SAMPLE DESCRIPTION=LDDRD, NCI, NIH-FCRDC, Frederick, MD 21702
##NAMES=HP
##CAS NAME=Bonomycin hydrochloride
##MOLFORM=C21H22N2O7
##CAS REGISTRY NO=6625-20-3
##MP= -300
##BP= -300
##MW= 414
##$RETENTION INDEX=0
##$CONDENSED SPECTRUM=NO
##NPOINTS= 231
##XYDATA=(XY..XY) 1 
    41        156
    42        367
    43        291
    44        999
    45        296
    46        291
    47         22
    49          6
    50         32
    51          5
    52         25
    53         41
    54         18
    55        145
    56         56
    57        133
    58        439
    59         29
    60         32
    63         19
    65         31
    66         15
    67         39
    68         48
    69        113
    70         57
    71        149
    72         69
    73         24
    74         22
    76         17
    77         68
    78         45
    79         29
    80         13
    81         32
    82         64
    83         46
    84        591
    85        118
    86         49
    87         21
    88         17
    89         16
    91         44
    92         13
    93         14
    94         22
    95         31
    96         27
    97         44
    98        105
    99         27
   100         28
   101         12
   102         26
   103         27
   104         13
   105         34
   106         22
   107         26
   108         14
   109         18
   110         22
   111         21
   112         24
   113         27
   114         47
   115         64
   116         15
   117         12
   121         18
   122         12
   123         19
   124         23
   125         19
   126         26
   127         45
   128         29
   129         20
   131         63
   132         18
   133         16
   134         26
   135         21
   136         18
   137         19
   138         23
   139         26
   140         12
   141         26
   142         13
   143         23
   144         13
   145         19
   147         15
   149         19
   150         26
   151         30
   152         49
   153         36
   154         19
   155         19
   156         15
   157         15
   159         16
   160         62
   161         62
   162         13
   163         17
   164         18
   165         40
   166         28
   167         20
   168         19
   169         23
   170         40
   171         19
   173         34
   174         30
   175         11
   176         14
   177         12
   178         12
   181         34
   182         20
   183         26
   185         14
   186         15
   187        110
   188         23
   189         27
   190         15
   193         14
   194         16
   196         11
   197         28
   198         20
   199         31
   200         31
   201         20
   202         23
   203         15
   209         21
   210         28
   211         28
   212         11
   213         22
   214         12
   216         13
   223         14
   224         18
   225         22
   226         38
   227         44
   228         39
   229         43
   230         16
   232         34
   233         12
   236         13
   237         12
   238         18
   239         31
   240         23
   241         13
   242         22
   243         21
   244         12
   245         24
   252         16
   253         16
   254         13
   256         25
   257         17
   258         17
   266         17
   268         14
   270         12
   272         19
   279         12
   280         16
   282         22
   283         12
   284         28
   285         21
   286         13
   294         14
   296         39
   297         14
   298         17
   299         11
   300         57
   301         53
   302         14
   306         13
   307         13
   308         42
   309         19
   310         32
   311         13
   312         16
   313         20
   323         15
   324         42
   325         35
   326         24
   327         19
   328         14
   334         12
   336         46
   337         31
   338         14
   341         22
   343         15
   351         56
   352         68
   353         60
   354         53
   355         28
   369         31
   370         14
   371         58
   372         14
   379         54
   380         37
   396         67
   397         40
   398         22
   414        171
   415         44