##TITLE=Library Entry 13883
##JCAMP-DX=Revision 4.10 
##DATA TYPE=MASS SPECTRUM
##SAMPLE DESCRIPTION=H. Yagi, LBC, NIDDK, NIH, Bethesda, MD 20892
##NAMES=HP
##CAS NAME=1,2,3,4-Tetrahydro-1,2-diacetoxychrysene
##MOLFORM=C22H20O4
##CAS REGISTRY NO=66267-11-6
##MP= -300
##BP= -300
##MW= 348
##$RETENTION INDEX=0
##$CONDENSED SPECTRUM=NO
##NPOINTS= 210
##XYDATA=(XY..XY) 1 
    42         39
    43        999
    44          9
    45         11
    47         12
    48          4
    49          3
    50          4
    51          5
    52          1
    53          1
    54          0
    55         21
    56          3
    57         11
    58          0
    59          0
    60          3
    61          2
    62          2
    63          7
    64          0
    65          2
    66          0
    67          1
    68          1
    69          5
    70          2
    71          3
    72          0
    73          2
    74          3
    75          5
    76          4
    77          4
    78          1
    79          0
    80          0
    81          3
    82          5
    83         26
    84          2
    85         16
    86          2
    87          8
    88         11
    89          5
    90          0
    91          1
    92          0
    93          1
    94          3
    95         24
    96          1
    97          2
    98          2
    99          3
   100         12
   101         37
   103          1
   104          0
   105          1
   106          5
   107          5
   108         17
   109          2
   110          1
   111          2
   112          8
   113         34
   114         43
   115          7
   117          0
   118          0
   119          0
   120          0
   121          0
   122          1
   123          1
   124          1
   125          1
   126          4
   127          2
   128          2
   129          0
   131          0
   132          0
   133          0
   134          0
   135          1
   136          0
   137          2
   138          1
   139          7
   140          1
   141          1
   142          0
   143          0
   147          0
   149          3
   150         10
   151         14
   152         16
   153          3
   154          0
   155          0
   161          1
   162          3
   163         16
   164          8
   165         40
   166          5
   167          1
   168          0
   169          0
   173          0
   174          5
   175          6
   176         29
   177         14
   178         39
   179         17
   180          2
   181          0
   185          0
   186          2
   187         19
   188         17
   189        167
   190        114
   191        167
   192         30
   193          4
   194          0
   197          0
   198          1
   199          2
   200         20
   201         20
   202        177
   203         80
   204         37
   205         19
   206          5
   207          9
   208          2
   209          0
   211          2
   212          2
   213         29
   214          9
   215        163
   216         67
   217        314
   218         86
   219         75
   220         67
   221         11
   222          1
   223          1
   224          7
   225          5
   226         55
   227         43
   228        635
   229        773
   230        101
   231         67
   232         12
   233         16
   234          5
   235          1
   236          0
   239          0
   241          1
   242          0
   243          2
   244         14
   245        100
   246        512
   247        153
   248         19
   249          2
   252          0
   253          0
   254          0
   255          0
   257          0
   259          2
   260          1
   261          1
   262          3
   263          6
   264          1
   273          0
   286          0
   287          0
   288         92
   289         29
   290          5
   291          0
   304          0
   305          0
   306          1
   307          0
   346          0
   348        196
   349         46
   350          7
   351          0