##TITLE=Library Entry 71744
##JCAMP-DX=Revision 4.10 
##DATA TYPE=MASS SPECTRUM
##SAMPLE DESCRIPTION=ASES Database, Dalian Institute, P.R. China
##NAMES=HP
##CAS NAME=N-Dimethylaminomethylidene-4-sphingenine butaneboronate
##MOLFORM=C25H49BN2O2
##CAS REGISTRY NO=66268-58-4
##MP= -300
##BP= -300
##MW= 420
##$RETENTION INDEX=0
##$CONDENSED SPECTRUM=NO
##NPOINTS= 13
##XYDATA=(XY..XY) 1 
    44        180
    57        150
    83        180
    97        278
    98        999
   125        239
   138        179
   141        208
   153        237
   181        227
   182        525
   363        547
   420         39