##TITLE=Library Entry 10324
##JCAMP-DX=Revision 4.10 
##DATA TYPE=MASS SPECTRUM
##SAMPLE DESCRIPTION=NIST Mass Spectrometry Data Center, 1990.
##NAMES=HP
##CAS NAME=4,6-Decadiyne-3,8-diol, 3,8-dimethyl-
##MOLFORM=C12H18O2
##CAS REGISTRY NO=6626-33-1
##MP= -300
##BP= -300
##MW= 194
##$RETENTION INDEX=0
##$CONDENSED SPECTRUM=NO
##NPOINTS= 84
##XYDATA=(XY..XY) 1 
    14         13
    15         25
    16          2
    18          7
    25          5
    26         22
    27        107
    28        101
    29        130
    31          7
    32         13
    37          9
    38         10
    39         54
    40         13
    41         39
    42          5
    43        999
    44         30
    45         10
    48          6
    49         25
    50         60
    51         44
    52         11
    53         30
    54          6
    55         61
    56          5
    57        101
    61          9
    62         20
    63         43
    64         10
    65         22
    66          7
    67         22
    69         15
    72         49
    73         12
    74         24
    75         23
    76         12
    77        100
    78         27
    79         41
    80          7
    81         17
    82          7
    83         31
    89         12
    90          5
    91         39
    92          5
    93        186
    94         16
    95         21
   103         21
   104         16
   105         24
   106          5
   107         35
   108         10
   109          9
   115         11
   117          7
   119         12
   121         14
   122         10
   123         34
   127          5
   128         14
   133         24
   134          9
   135         15
   136         10
   137         17
   147         34
   148          6
   151          8
   158          8
   161         16
   165        167
   166         20