##TITLE=Library Entry 66542
##JCAMP-DX=Revision 4.10 
##DATA TYPE=MASS SPECTRUM
##SAMPLE DESCRIPTION=A.A.Kutin, Moscow, Russia
##NAMES=HP
##CAS NAME=Pyridine, 2-aminomethyl-6-methyl-
##MOLFORM=C7H10N2
##CAS REGISTRY NO=6627-60-7
##MP= -300
##BP= -300
##MW= 122
##$RETENTION INDEX=0
##$CONDENSED SPECTRUM=NO
##NPOINTS= 76
##XYDATA=(XY..XY) 1 
    33          4
    34          7
    36         22
    37         42
    38        103
    39        348
    40        155
    41        113
    42         83
    43         25
    44         91
    45          8
    46          1
    48          2
    49          8
    50         70
    51        109
    52        105
    53        111
    54         43
    55         23
    56          7
    57         14
    58          1
    59          5
    60         15
    61         18
    62         35
    63         86
    64         73
    65        246
    66        348
    67         89
    68          8
    69         10
    70          5
    71          6
    72          2
    73          6
    74          3
    75          8
    76         18
    77         56
    78        121
    79         48
    80         53
    81         15
    82          3
    83          4
    84          2
    85          1
    87          1
    88          1
    89          0
    90          6
    92        253
    93        999
    94        913
    95         57
    97          2
    98          2
   104         20
   105         13
   106         38
   107        113
   108          9
   109          2
   111          0
   112          2
   113          0
   117          0
   119         67
   121        678
   122        959
   123         79
   124          1