##TITLE=Library Entry 84442
##JCAMP-DX=Revision 4.10 
##DATA TYPE=MASS SPECTRUM
##SAMPLE DESCRIPTION=Japan AIST/NIMC Database- Spectrum MS-NW-3142
##NAMES=HP
##CAS NAME=Phenol, 2-bromo-4-methyl-
##MOLFORM=C7H7BrO
##CAS REGISTRY NO=6627-55-0
##MP= -300
##BP= -300
##MW= 186
##$RETENTION INDEX=1154
##$CONDENSED SPECTRUM=NO
##NPOINTS= 92
##XYDATA=(XY..XY) 1 
    14          1
    15          2
    17          1
    18          5
    25          3
    26         16
    27         47
    28         11
    29          9
    31          2
    32          2
    36          2
    37         17
    38         43
    39         88
    40          6
    41          3
    42          2
    43         13
    44          8
    48          2
    49         14
    50         92
    51        210
    52         88
    53         89
    54          7
    55         18
    56          1
    60          3
    61         15
    62         29
    63         53
    64          9
    65          5
    66          7
    67          7
    68          2
    73          6
    74         21
    75         15
    76         13
    77        344
    78        174
    79         91
    80          8
    81          7
    82          4
    83          1
    84          4
    85          5
    86          4
    87          5
    88          2
    89         12
    90          6
    91          3
    92          2
    93         16
    94         16
   104          2
   105         49
   106         14
   107        999
   108        111
   109          7
   116          1
   117          4
   118          1
   119          4
   128          1
   129          1
   130          1
   131          4
   133          2
   141          1
   143          2
   145          1
   157          4
   159          4
   168          2
   169          3
   170          2
   171          2
   172          1
   184          2
   185        177
   186        678
   187        224
   188        666
   189         51
   190          3