##TITLE=Library Entry 26097
##JCAMP-DX=Revision 4.10 
##DATA TYPE=MASS SPECTRUM
##SAMPLE DESCRIPTION=Chuck Anderson, Aldrich Chemical Co.
##NAMES=HP
##CAS NAME=tert-Butyl phenyl carbonate
##MOLFORM=C11H14O3
##CAS REGISTRY NO=6627-89-0
##MP= -300
##BP= -300
##MW= 194
##$RETENTION INDEX=0
##$CONDENSED SPECTRUM=NO
##NPOINTS= 64
##XYDATA=(XY..XY) 1 
    14          1
    15         17
    16          5
    25          0
    26         15
    27         67
    28         43
    29        201
    30          4
    31          5
    32          2
    36          4
    37         15
    38         39
    39        244
    40         46
    41        421
    42         23
    43         61
    44        100
    45          2
    47          8
    49          4
    50         32
    51         66
    52          6
    53         19
    54          4
    55         58
    56         70
    57        999
    58         42
    59          0
    61          5
    62         10
    63         26
    64          9
    65        118
    66         67
    67          4
    68          1
    74          7
    75          3
    76          3
    77        206
    78         13
    79          5
    90          5
    91         10
    92          0
    93          5
    94        923
    95        139
    96          9
   105          4
   107         77
   108          5
   115          1
   121         28
   122          0
   135         59
   136          5
   179         19
   180          0