##TITLE=Library Entry 98888
##JCAMP-DX=Revision 4.10 
##DATA TYPE=MASS SPECTRUM
##SAMPLE DESCRIPTION=P. Vainiotalo, Dep. Chem., Univ. Joensuu, Joensuu, Finl
and
##NAMES=HP
##CAS NAME=1,3-Dithiolane-2-acetic acid, 2-methyl-, ethyl ester
##MOLFORM=C8H14O2S2
##CAS REGISTRY NO=66278-17-9
##MP= -300
##BP= -300
##MW= 206
##$RETENTION INDEX=0
##$CONDENSED SPECTRUM=NO
##NPOINTS= 80
##XYDATA=(XY..XY) 1 
    14         12
    15         13
    26         15
    27         98
    29        297
    30         11
    31         19
    35         11
    39         67
    40         18
    41        113
    42         14
    43         36
    44         21
    45        151
    46         28
    47         47
    48         17
    53          9
    55          7
    57         11
    58         74
    59        371
    60         49
    61        142
    62          7
    63          9
    64         40
    65          7
    66         10
    67         30
    69          7
    71         28
    72         31
    73         48
    74         35
    75         19
    85         31
    86          7
    87         20
    88          8
    89         33
    90         10
    91         10
    92          7
    94         14
    99         18
   100        199
   101        159
   102         21
   103         15
   104         12
   105         35
   106         11
   113         20
   117         33
   118         37
   119        999
   120         81
   121        102
   127         20
   131         12
   132        176
   133         24
   134         20
   145          8
   146         83
   147        263
   148         30
   149         17
   161         27
   163          5
   173         10
   191         61
   192          9
   193          8
   204         10
   206        337
   207         48
   208         41