##TITLE=Library Entry 54436
##JCAMP-DX=Revision 4.10 
##DATA TYPE=MASS SPECTRUM
##SAMPLE DESCRIPTION=Japan AIST/NIMC Database- Spectrum MS-IW-2419
##NAMES=HP
##CAS NAME=5-Bromo-3-indolyl N-acetyl-beta-d-glucosaminide
##MOLFORM=C16H19BrN2O6
##CAS REGISTRY NO=66279-41-2
##MP= -300
##BP= -300
##MW= 414
##$RETENTION INDEX=0
##$CONDENSED SPECTRUM=NO
##NPOINTS= 237
##XYDATA=(XY..XY) 1 
    14          5
    15         51
    16          2
    17         10
    18         39
    25          1
    26         13
    27         56
    28        187
    29         85
    30         75
    31         80
    32          9
    36          3
    37         21
    38         28
    39         35
    40         15
    41         54
    42        190
    43        624
    44         52
    45         49
    46          9
    47          9
    48          1
    49         11
    50         91
    51        112
    52        110
    53         24
    54         34
    55        115
    56         97
    57         98
    58         77
    59        382
    60        327
    61         69
    62         25
    63         30
    64          9
    65         13
    66         16
    67          7
    68         25
    69         35
    70         41
    71         66
    72        155
    73        254
    74        142
    75        220
    76        153
    77        390
    78         52
    79          8
    80         17
    81         21
    82         16
    83        407
    84        999
    85        125
    86         35
    87        142
    88        127
    89         18
    90          7
    91          8
    92          6
    93          2
    94          2
    95          5
    96         66
    97         67
    98         84
    99         28
   100         58
   101        112
   102         61
   103         87
   104        106
   105         56
   106         51
   107          6
   108         14
   109         23
   110          9
   111          6
   112         88
   113         27
   114        134
   115         48
   116         27
   117         11
   118          6
   119          2
   122          3
   123          4
   124         17
   125         19
   126        177
   127         51
   128          9
   129         13
   130        175
   131         26
   132        117
   133         31
   134          3
   136          2
   137          1
   138        175
   139         22
   140          9
   141         25
   142         22
   143         12
   144        219
   145         31
   146         12
   147          1
   149          1
   150          3
   151          2
   152          2
   153          3
   154         47
   155         76
   156        124
   157         80
   158         94
   159         10
   160          7
   161         43
   162         57
   163          5
   164          1
   166          1
   167          4
   168         84
   169         11
   171          1
   172         18
   173          5
   174          9
   175          2
   176          1
   180          1
   181         22
   182        362
   183        294
   184        372
   185        269
   186        139
   187         12
   188          2
   189          1
   194          1
   195          6
   196          3
   197          7
   198          2
   199          2
   200          1
   201          1
   202          2
   203         23
   204        339
   205         32
   206          5
   207          3
   208          3
   209         15
   210         69
   211        992
   212        158
   213        965
   214         88
   215          6
   217          1
   218          1
   221          1
   222          4
   223          6
   224         10
   225          8
   226          8
   227          3
   228          4
   235          1
   236          2
   237          4
   238          2
   239          4
   240          1
   241          1
   246          9
   247          1
   248          1
   249          1
   250          6
   251          9
   252         12
   253         10
   254          9
   255          2
   260          1
   261          1
   262          2
   263          1
   264          2
   265          1
   266          1
   267          1
   275          1
   276          2
   277          2
   278          5
   279          1
   289          1
   290          1
   291          1
   292          3
   293          1
   294          6
   295          1
   296          4
   297          1
   303          1
   304          1
   305          1
   306          1
   318          1
   320          1
   414          1
   416          1