##TITLE=Library Entry 109282
##JCAMP-DX=Revision 4.10 
##DATA TYPE=MASS SPECTRUM
##SAMPLE DESCRIPTION=NIST Mass Spectrometry Data Center, 1994
##NAMES=HP
##CAS NAME=4-Bromo-3-chlorotoluene
##MOLFORM=C7H6BrCl
##CAS REGISTRY NO=6627-51-6
##MP= -300
##BP= -300
##MW= 204
##$RETENTION INDEX=0
##$CONDENSED SPECTRUM=NO
##NPOINTS= 86
##XYDATA=(XY..XY) 1 
    15         16
    25          5
    26         46
    27         68
    35         20
    36         20
    37         93
    38        110
    39        292
    40         29
    41          9
    42          5
    43         96
    44        253
    47          9
    48         10
    49         82
    50        199
    51        124
    52         14
    53          7
    60         33
    61        143
    62        312
    63        551
    64         87
    65         31
    71          7
    72         30
    73        128
    74        103
    75        106
    76         10
    77          6
    78          6
    79         35
    80         12
    81         37
    82          9
    83          6
    84        121
    85        135
    86         94
    87         86
    88          6
    89        722
    90        272
    91         22
    93          4
    95          4
    96         10
    97         41
    98          4
    99        147
   100         10
   101         45
   102         19
   103         21
   104          8
   110          7
   116          9
   117         16
   118          6
   119         14
   123         42
   124        107
   125        999
   126        113
   127        311
   128         28
   129          5
   141          8
   143         13
   151          6
   153          5
   169        338
   171        328
   172         26
   179          8
   203         60
   204        507
   205        113
   206        644
   207         71
   208        157
   209         14