##TITLE=Library Entry 31354
##JCAMP-DX=Revision 4.10 
##DATA TYPE=MASS SPECTRUM
##SAMPLE DESCRIPTION=Chemical Concepts
##NAMES=HP
##CAS NAME=Ethane, 1,2-bis(methylthio)-
##MOLFORM=C4H10S2
##CAS REGISTRY NO=6628-18-8
##MP= -300
##BP= -300
##MW= 122
##$RETENTION INDEX=1029
##$CONDENSED SPECTRUM=NO
##NPOINTS= 89
##XYDATA=(XY..XY) 1 
    25          2
    26         35
    27        159
    28          9
    29         11
    30          2
    31          1
    33          5
    34          6
    35         87
    36          1
    37          5
    38          0
    39         12
    40          2
    41        233
    42          8
    43          1
    44          9
    45        308
    46        157
    47        289
    48         60
    49         82
    50          6
    51          2
    52          1
    53          3
    54          1
    55          3
    56          1
    57         19
    58         85
    59        154
    60         37
    61        999
    62         32
    63         48
    64         12
    65          1
    66          4
    67          0
    68          1
    69          1
    70          2
    71          2
    72          2
    73         17
    74        262
    75        438
    76         32
    77         20
    78          6
    79         56
    80          2
    81          6
    82          2
    83          0
    84          1
    85          1
    88          3
    89          4
    90          3
    91          2
    92          2
    93          3
    94         14
    95          1
    96          2
   101          1
   102          1
   103          2
   105          1
   106          1
   107         10
   108          3
   109          2
   114          1
   115          1
   116          0
   117          2
   118          1
   119          2
   120          2
   122        870
   123         46
   124         80
   125          5
   126          3