##TITLE=Library Entry 8681
##JCAMP-DX=Revision 4.10 
##DATA TYPE=MASS SPECTRUM
##SAMPLE DESCRIPTION=Japan AIST/NIMC Database- Spectrum MS-IW-4090
##NAMES=HP
##CAS NAME=Pentanoic acid, 3-methyl-4-oxo-
##MOLFORM=C6H10O3
##CAS REGISTRY NO=6628-79-1
##MP= -300
##BP= -300
##MW= 130
##$RETENTION INDEX=0
##$CONDENSED SPECTRUM=NO
##NPOINTS= 71
##XYDATA=(XY..XY) 1 
    14          5
    15         53
    16          3
    17          4
    18         18
    19          1
    26          6
    27         69
    28         30
    29         14
    31         10
    32          1
    35          1
    37          3
    38          6
    39         71
    40         14
    41        149
    42        261
    43        999
    44         55
    45        179
    46          4
    47          2
    49          1
    50          3
    51          4
    52          1
    53          7
    54          1
    55         28
    56          3
    57          9
    58          4
    59          3
    60         15
    61        411
    62          9
    63          3
    65          2
    67          5
    68          4
    69         60
    70        427
    71         44
    72          3
    73        183
    74          6
    75          1
    77          1
    79          1
    83          1
    84          7
    85          9
    86          5
    87         47
    88         22
    89          4
    90          1
    91          5
    95          4
    97          4
   102          7
   111          2
   112         13
   113         36
   114          2
   115          9
   130         78
   131          7
   132          1