##TITLE=Library Entry 89606
##JCAMP-DX=Revision 4.10 
##DATA TYPE=MASS SPECTRUM
##SAMPLE DESCRIPTION=Exported from NIST MS Search
##NAMES=HP
##CAS NAME=3H-Pyrazol-3-one, 2,4-dihydro-4,5-dimethyl-
##MOLFORM=C5H8N2O
##CAS REGISTRY NO=6628-22-4
##MP= -300
##BP= -300
##MW= 112
##$RETENTION INDEX=0
##$CONDENSED SPECTRUM=NO
##NPOINTS= 17
##XYDATA=(XY..XY) 1 
    39        150
    41        100
    42        320
    43         70
    52         70
    53         90
    54         90
    55        150
    56         10
    68        100
    69         30
    83         50
    96        330
    97         20
   111        980
   112        999
   113         79