##TITLE=Library Entry 69125
##JCAMP-DX=Revision 4.10 
##DATA TYPE=MASS SPECTRUM
##SAMPLE DESCRIPTION=Chuck Anderson, Aldrich Chemical Co.
##NAMES=HP
##CAS NAME=Cyclohexanamine, N-2-propenyl-
##MOLFORM=C9H17N
##CAS REGISTRY NO=6628-00-8
##MP= -300
##BP= -300
##MW= 139
##$RETENTION INDEX=0
##$CONDENSED SPECTRUM=NO
##NPOINTS= 58
##XYDATA=(XY..XY) 1 
    15          4
    18          2
    26          4
    27         45
    28         91
    29         43
    30         81
    31          1
    37          0
    38          3
    39         90
    40         11
    41        263
    42         35
    43         30
    44          7
    50          1
    51          5
    52          4
    53         19
    54         45
    55         78
    56         91
    57          8
    58          8
    65          4
    66          2
    67         30
    68        152
    69         25
    70         39
    71          2
    77          9
    78          1
    79         31
    80         23
    81         39
    82        119
    83        132
    84          9
    91          0
    93          1
    94         27
    96        999
    97         59
    98         13
    99          0
   108          2
   110         52
   111          4
   112          9
   122          0
   124         13
   125          0
   136          0
   138         10
   139        108
   140         11