##TITLE=Library Entry 602
##JCAMP-DX=Revision 4.10 
##DATA TYPE=MASS SPECTRUM
##SAMPLE DESCRIPTION=MASS SPECTROMETRY CENTER, UNIV. OF UTAH ALDRICH C08900-
5
##NAMES=HP
##CAS NAME=Carbamic acid, (cyanoacetyl)-, ethyl ester
##MOLFORM=C6H8N2O3
##CAS REGISTRY NO=6629-04-5
##MP= -300
##BP= -300
##MW= 156
##$RETENTION INDEX=0
##$CONDENSED SPECTRUM=NO
##NPOINTS= 52
##XYDATA=(XY..XY) 1 
    12         14
    13          3
    14         14
    15         92
    18        206
    19         12
    26         35
    27        390
    29        999
    30         67
    31        199
    38        118
    39        366
    40        490
    41        128
    42        238
    43        466
    44        341
    45         35
    46          5
    51          0
    52          1
    53          7
    54          5
    56         17
    58          0
    59          7
    61          0
    62         59
    66         38
    67         87
    68        652
    69         85
    70        109
    71         10
    72         41
    73          6
    74          1
    84        141
    85        102
    86         12
    88          9
    95          2
    97         10
   110         20
   111        177
   112         49
   113          1
   116          9
   128        235
   129        131
   130          5