##TITLE=Library Entry 33950
##JCAMP-DX=Revision 4.10 
##DATA TYPE=MASS SPECTRUM
##SAMPLE DESCRIPTION=NIST Mass Spectrometry Data Center, 1994
##NAMES=HP
##CAS NAME=Ethyl pentafluoropropanoyl acetate
##MOLFORM=C7H7F5O3
##CAS REGISTRY NO=663-35-4
##MP= -300
##BP= -300
##MW= 234
##$RETENTION INDEX=0
##$CONDENSED SPECTRUM=NO
##NPOINTS= 79
##XYDATA=(XY..XY) 1 
    12          1
    13         12
    14         42
    15         73
    16          4
    19         17
    25          7
    26         67
    27        263
    28        105
    29        706
    30         37
    31        245
    32         24
    33         11
    37          5
    40         10
    41        146
    42        248
    43        256
    44         32
    45        195
    46         24
    47          8
    49          4
    50         19
    51         25
    53         10
    55          8
    56         17
    59         10
    60         11
    61         10
    62          6
    63         17
    64         23
    67          9
    69        999
    70         41
    71         27
    72          3
    73         20
    74          5
    75         35
    77          6
    81          7
    82          2
    83          6
    87        697
    88         23
    89         16
    90          2
    91        110
    92         13
    93         15
    94          7
   100         33
   109          7
   111         11
   113          9
   115        524
   116         30
   117          8
   118          7
   119        196
   120         14
   139         10
   141         39
   147         66
   159         23
   162          9
   169         10
   170          6
   187         39
   189        396
   190         28
   234         58
   235          4
   236          0