##TITLE=Library Entry 65564
##JCAMP-DX=Revision 4.10 
##DATA TYPE=MASS SPECTRUM
##SAMPLE DESCRIPTION=Japan AIST/NIMC Database- Spectrum MS-IW-6841
##NAMES=HP
##CAS NAME=Ethanedione, bis(6-methyl-2-pyridinyl)-
##MOLFORM=C14H12N2O2
##CAS REGISTRY NO=6630-11-1
##MP= -300
##BP= -300
##MW= 240
##$RETENTION INDEX=0
##$CONDENSED SPECTRUM=NO
##NPOINTS= 98
##XYDATA=(XY..XY) 1 
    15          2
    26          2
    27          9
    28          9
    37          4
    38         11
    39        120
    40         12
    41         15
    42          4
    43          1
    44          2
    49          1
    50         11
    51         13
    52         13
    53          6
    54          2
    61          1
    62          4
    63         22
    64         35
    65        353
    66         68
    67          5
    75          2
    76          4
    77          4
    78          7
    79          2
    88          1
    89          1
    90          6
    91         22
    92        999
    93        108
    94         12
    95          1
   103          1
   104          1
   105          1
   106          4
   107          1
   115          4
   116          2
   117          3
   118          3
   119          5
   120        127
   121         10
   122         13
   123          1
   128          1
   129          1
   130          3
   131          4
   132          1
   137          2
   140          1
   141          4
   142         18
   143         11
   144          5
   145          1
   152          1
   154          2
   155          1
   156          5
   157          4
   158          4
   159          1
   166          1
   167          3
   168         17
   169         47
   170          7
   171          1
   181          4
   183        831
   184        247
   185         26
   186          2
   195          3
   196          1
   197          5
   198          2
   208          2
   209          1
   210          5
   211         20
   212        266
   213         41
   214          4
   239          1
   240        323
   241         56
   242         17
   243          2