##TITLE=Library Entry 1013
##JCAMP-DX=Revision 4.10 
##DATA TYPE=MASS SPECTRUM
##SAMPLE DESCRIPTION=Chemical Concepts
##NAMES=HP
##CAS NAME=2,4(1H,3H)-Pyrimidinedione, 6-chloro-5-nitro-
##MOLFORM=C4H2ClN3O4
##CAS REGISTRY NO=6630-30-4
##MP= -300
##BP= -300
##MW= 191
##$RETENTION INDEX=0
##$CONDENSED SPECTRUM=NO
##NPOINTS= 100
##XYDATA=(XY..XY) 1 
    25          9
    26        498
    27        210
    28        609
    29        540
    30        999
    31         18
    35        351
    36        513
    37        112
    38        426
    39        149
    40         91
    41         38
    42        442
    43        692
    44        946
    45         29
    46         75
    47         78
    48          6
    49         30
    50         10
    51          9
    52        419
    53        215
    54        388
    55         53
    56          7
    57          6
    59         11
    61         35
    62        344
    63         50
    64        113
    65         17
    66         20
    67        304
    68        497
    69        335
    70        685
    71         25
    72          6
    73         41
    74        189
    75         19
    76         62
    77          6
    78         11
    80         26
    81         28
    84          6
    85          5
    86          6
    87         32
    88          6
    89         31
    90        152
    91         12
    92         46
    93          5
    94         16
    95          6
    96         59
    97         18
    99          5
   101          5
   102         37
   103          6
   104         18
   105         25
   106          8
   107         10
   111         24
   112         21
   113        225
   114         12
   115         23
   116          4
   117          7
   118          8
   131          8
   132         30
   133         87
   134         13
   135         30
   136          4
   141          6
   142          4
   148         77
   149         11
   150         24
   156         18
   161         26
   162          3
   163         11
   191        227
   192         15
   193         79
   194          6