##TITLE=Library Entry 47645
##JCAMP-DX=Revision 4.10 
##DATA TYPE=MASS SPECTRUM
##SAMPLE DESCRIPTION=NIST Mass Spectrometry Data Center, 1994
##NAMES=HP
##CAS NAME=3-tert-Butyl-1-phenyl-2-pyrazolin-5-one
##MOLFORM=C13H16N2O
##CAS REGISTRY NO=6631-89-6
##MP= -300
##BP= -300
##MW= 216
##$RETENTION INDEX=0
##$CONDENSED SPECTRUM=NO
##NPOINTS= 146
##XYDATA=(XY..XY) 1 
     4          3
     5          1
     6          1
     8          1
    10          2
    12          2
    13          2
    14          5
    15         76
    17          3
    18         14
    19          0
    21          0
    25          1
    26         15
    27        202
    28         53
    29        235
    30         15
    37         15
    38         62
    39        392
    40        106
    41        637
    42        160
    43         57
    44          5
    45          1
    46          1
    50         81
    51        412
    52         78
    53        117
    54         25
    55        292
    56         25
    57        122
    58          7
    61          4
    62         18
    63         92
    64        213
    65        173
    66         32
    67        118
    68         71
    69         17
    70         14
    71          1
    73          1
    74          7
    75         15
    76          1
    77        999
    78         75
    79         22
    80         13
    81         17
    82         62
    83        625
    84         45
    85          2
    86          8
    87          6
    88          3
    89          5
    90          1
    91        480
    92        122
    93         51
    94         12
    95         14
    96          8
    97         42
    98          6
   101         12
   102          4
   103          8
   104         24
   105        187
   106         83
   107         12
   108          6
   109          4
   110          6
   111          6
   115         13
   116          8
   117         25
   118         56
   119         32
   120          7
   121          1
   122          1
   123          5
   124          2
   127          1
   128          5
   129          8
   130         11
   131         19
   132         41
   133         12
   134         28
   135         15
   136          1
   141          1
   142          2
   143          6
   144         10
   145         11
   146          9
   147         27
   148          3
   154          0
   155          0
   156          7
   157          5
   158         17
   159         39
   160         12
   161          7
   169          1
   171         12
   172          9
   173         62
   174         30
   175          4
   176          1
   183          1
   184          2
   185         10
   186          7
   187          6
   188          1
   197          0
   199          7
   201        957
   202        126
   203         10
   212          1
   213          1
   214          3
   216        678
   217        101
   218          7