##TITLE=Library Entry 8424
##JCAMP-DX=Revision 4.10 
##DATA TYPE=MASS SPECTRUM
##SAMPLE DESCRIPTION=LAC, NIDDK, NIH, Bethesda, MD 20892
##NAMES=HP
##CAS NAME=Cyclopentane, 2-n-octyl-
##MOLFORM=C13H24
##CAS REGISTRY NO=66324-48-9
##MP= -300
##BP= -300
##MW= 180
##$RETENTION INDEX=1309
##$CONDENSED SPECTRUM=NO
##NPOINTS= 54
##XYDATA=(XY..XY) 1 
    41        497
    42        158
    43        999
    51         49
    53        121
    54        358
    55        748
    56        133
    58         19
    61        190
    65         58
    66         17
    67        452
    68        772
    69        364
    70         77
    71         44
    73         93
    77         35
    79         77
    80         53
    81        393
    82        561
    83        214
    84         32
    85         22
    91         45
    93         23
    94         65
    95        271
    96        375
    97         67
    98         20
   105         19
   107         30
   109        186
   110        141
   111         22
   112         47
   115         19
   121         29
   123        117
   124         96
   125         20
   131         19
   135         18
   137         46
   138         26
   139         20
   151         17
   152         41
   165         17
   180         78
   181         19