##TITLE=Library Entry 58338
##JCAMP-DX=Revision 4.10 
##DATA TYPE=MASS SPECTRUM
##SAMPLE DESCRIPTION=Japan AIST/NIMC Database- Spectrum MS-IW-3502
##NAMES=HP
##CAS NAME=Acetic acid, 2,2'-oxybis-, dibutyl ester
##MOLFORM=C12H22O5
##CAS REGISTRY NO=6634-18-0
##MP= -300
##BP= -300
##MW= 246
##$RETENTION INDEX=0
##$CONDENSED SPECTRUM=NO
##NPOINTS= 103
##XYDATA=(XY..XY) 1 
    14          2
    15          9
    16          1
    17          1
    18          3
    26          7
    27         95
    28         57
    29        459
    30         13
    31        125
    32          4
    33          3
    37          1
    38          2
    39         61
    40          9
    41        529
    42        131
    43        100
    44         75
    45         48
    46          1
    47          2
    49          2
    50          1
    51          2
    52          1
    53          9
    54          6
    55         94
    56        936
    57        930
    58         53
    59         19
    60        424
    61        623
    62         16
    63         19
    67          1
    68          1
    69         50
    70          8
    71         37
    72         11
    73         13
    74          3
    75          4
    76          2
    77          8
    82          1
    83          1
    85          3
    86          4
    87         24
    88         54
    89        999
    90         41
    91         28
    92          1
    97          1
    98          2
    99          2
   100          2
   101         53
   102          5
   103         12
   104          1
   105          4
   107          1
   111          1
   114          1
   115          3
   116        530
   117         81
   118          9
   119          2
   123          1
   129          2
   130          1
   131          6
   132          1
   133          1
   134         47
   135         50
   136          2
   143          1
   144          3
   145        116
   146          9
   147          2
   157          1
   159          8
   161          1
   172         45
   173         22
   174          3
   190          6
   191          7
   217          1
   231          1
   246          2
   247          1