##TITLE=Library Entry 49921
##JCAMP-DX=Revision 4.10 
##DATA TYPE=MASS SPECTRUM
##SAMPLE DESCRIPTION=U. CHIACCHIO, DEP. CHEM. & IND. CHEM., CATANIA UNIV., I
TALY
##NAMES=HP
##CAS NAME=2-(4-Bromobutyl)-furan
##MOLFORM=C8H11BrO
##CAS REGISTRY NO=66356-49-8
##MP= -300
##BP= -300
##MW= 202
##$RETENTION INDEX=0
##$CONDENSED SPECTRUM=NO
##NPOINTS= 9
##XYDATA=(XY..XY) 1 
    53        480
    55        190
    57        300
    81        999
    95        160
   109         60
   123        180
   202        210
   204        240