##TITLE=Library Entry 67403
##JCAMP-DX=Revision 4.10 
##DATA TYPE=MASS SPECTRUM
##SAMPLE DESCRIPTION=Chemical Concepts
##NAMES=HP
##CAS NAME=2-Furanmethanamine, 5-[[(2-aminoethyl)thio]methyl]-N,N-dimethyl-
##MOLFORM=C10H18N2OS
##CAS REGISTRY NO=66356-53-4
##MP= -300
##BP= -300
##MW= 214
##$RETENTION INDEX=0
##$CONDENSED SPECTRUM=NO
##NPOINTS= 84
##XYDATA=(XY..XY) 1 
    33          4
    34          1
    35          2
    37          1
    39         48
    40         83
    42        365
    44        391
    45         56
    46         21
    47         10
    48          7
    51         76
    52         42
    53         40
    55         46
    58        516
    61         12
    63          5
    66        197
    67         38
    68         20
    69          9
    70          9
    71          5
    72          4
    73          4
    75         45
    77         30
    79         26
    81        163
    82         45
    83          6
    84          5
    85          6
    86          1
    88          9
    89          1
    90          2
    91          3
    94        999
    95        199
    96         31
    97         29
    98          3
    99          4
   105          1
   108         56
   110        342
   111         22
   113          3
   115          1
   120          1
   122         21
   125        554
   126        109
   127         49
   128          9
   129          2
   137        382
   138         80
   139         41
   140         54
   141         14
   142          8
   143          1
   151          2
   152          4
   153          8
   154          3
   155          1
   169        402
   170         41
   171         25
   172          2
   173          1
   181          1
   184          3
   185          9
   186          5
   187          1
   213          4
   214          2
   215          1