##TITLE=Library Entry 90310
##JCAMP-DX=Revision 4.10 
##DATA TYPE=MASS SPECTRUM
##SAMPLE DESCRIPTION=FDA, Los Angeles District Laboratory
##NAMES=HP
##CAS NAME=2-Pyridinecarboxylic acid, 6-chloro-, methyl ester
##MOLFORM=C7H6ClNO2
##CAS REGISTRY NO=6636-55-1
##MP= -300
##BP= -300
##MW= 171
##$RETENTION INDEX=0
##$CONDENSED SPECTRUM=NO
##NPOINTS= 33
##XYDATA=(XY..XY) 1 
    49         65
    50        300
    51        175
    52         70
    53         40
    59        135
    60         40
    61         55
    62         55
    63         30
    64         40
    65         75
    75        115
    76        664
    77        150
    78        150
    85        105
    86         40
    87         35
    92         50
   111         30
   112        674
   113        999
   114        285
   115        365
   116         25
   140        115
   141        240
   142         55
   143         75
   171         95
   172         25
   173         30