##TITLE=Library Entry 46346
##JCAMP-DX=Revision 4.10 
##DATA TYPE=MASS SPECTRUM
##SAMPLE DESCRIPTION=HCACAV, 61(2)795(1978); L. HOESCH ET AL.
##NAMES=HP
##CAS NAME=1H-Isoindole-1,3(2H)-dione, 2-(9-azabicyclo[6.1.0]non-9-yl)-, cis
-
##MOLFORM=C16H18N2O2
##CAS REGISTRY NO=66387-74-4
##MP= -300
##BP= -300
##MW= 270
##$RETENTION INDEX=0
##$CONDENSED SPECTRUM=NO
##NPOINTS= 36
##XYDATA=(XY..XY) 1 
    74        100
    75        150
    76        999
    77        170
    79        140
    80        280
    81        190
    82        280
    90         90
    93         90
    94        230
    95        650
    96         80
   102         60
   103         80
   104        900
   105        300
   108        220
   109        140
   122         70
   123         90
   124        240
   130        270
   131         70
   132         60
   147         80
   148        700
   149         70
   162        560
   163        170
   175         80
   188        160
   201        330
   202         70
   241         50
   270         50