##TITLE=Library Entry 77721
##JCAMP-DX=Revision 4.10 
##DATA TYPE=MASS SPECTRUM
##SAMPLE DESCRIPTION=Chemical Concepts
##NAMES=HP
##CAS NAME=1,3,2-Dioxaborolane, 4,5-dimethyl-2-phenyl-
##MOLFORM=C10H13BO2
##CAS REGISTRY NO=6638-68-2
##MP= -300
##BP= -300
##MW= 176
##$RETENTION INDEX=0
##$CONDENSED SPECTRUM=NO
##NPOINTS= 116
##XYDATA=(XY..XY) 1 
    25          2
    26         37
    27        130
    28         38
    29         70
    30          2
    31          4
    32          5
    36          1
    37          6
    38          8
    39         69
    40          6
    41         35
    42          7
    43         94
    44         10
    45         25
    48          1
    49          5
    50         48
    51        108
    52         62
    53         88
    54         12
    55         24
    56         16
    57         43
    58          2
    59          1
    60          3
    61         11
    62          4
    63         13
    64          4
    65         13
    66          4
    67          3
    68          1
    69          2
    70          2
    71         19
    72          4
    73          5
    74         12
    75          8
    76         27
    77        161
    78         65
    79         36
    80         15
    81          7
    82          4
    83          3
    84          2
    85          2
    86          1
    87          7
    88          4
    89          9
    90          8
    91         28
    92          3
    93          1
    94          0
    95          1
    96          0
    97          1
    98          0
    99          0
   100          3
   101          5
   102         19
   103        180
   104        999
   105        812
   106         58
   107          4
   109          0
   112          1
   113          5
   115          3
   116         13
   117         55
   118         12
   119          7
   120          2
   121          4
   126          0
   128          1
   129          3
   130         15
   131         99
   132        231
   133         61
   134          5
   139          1
   145          2
   146          5
   147          6
   148          1
   158          1
   159          6
   160        219
   161        866
   162         86
   163          7
   164          0
   167          0
   173          1
   174          8
   175        144
   176        526
   177         60
   178          6
   179          1