##TITLE=Library Entry 39569
##JCAMP-DX=Revision 4.10 
##DATA TYPE=MASS SPECTRUM
##SAMPLE DESCRIPTION=NIST Mass Spectrometry Data Center, 1994
##NAMES=HP
##CAS NAME=Carbamic acid, dimethyl-, 2,4-dichlorophenyl ester
##MOLFORM=C9H9Cl2NO2
##CAS REGISTRY NO=6639-32-3
##MP= -300
##BP= -300
##MW= 233
##$RETENTION INDEX=0
##$CONDENSED SPECTRUM=NO
##NPOINTS= 89
##XYDATA=(XY..XY) 1 
    12          0
    13          1
    14          4
    15        140
    16          1
    17          0
    18         91
    19          0
    25          0
    26          0
    27          4
    28         38
    30          1
    35          1
    36          2
    37         10
    38         10
    39          4
    40          4
    41          7
    42         88
    43         20
    44         12
    47          3
    48          1
    49          6
    50          5
    51          2
    53          4
    54          0
    56         37
    57          1
    60          2
    61         10
    62         19
    63         40
    64          2
    65          1
    66          0
    72        999
    73         67
    74         14
    75         20
    76          1
    77          0
    83          6
    84          4
    85          6
    86          2
    87          1
    96          1
    97          9
    98          4
    99          3
   100          1
   107          7
   109         14
   110          2
   111          4
   112          0
   113          0
   126          2
   128          0
   133         25
   135         17
   136          0
   137          2
   141          0
   145          7
   146          0
   147          5
   149          0
   161          5
   162          3
   163          4
   164          2
   165          0
   175          0
   177          0
   182          0
   186          0
   189          0
   191          0
   198         50
   199          5
   200         17
   201          1
   233          0
   235          0