##TITLE=Library Entry 70883
##JCAMP-DX=Revision 4.10 
##DATA TYPE=MASS SPECTRUM
##SAMPLE DESCRIPTION=G. Lange, Inst. Org. Chem., Univ. Wurzburg, Germany
##NAMES=HP
##CAS NAME=1-Oxa-3,4-Diazaspiro[4.5]dec-3-ene, 2-(acetyloxy)-2-methyl-
##MOLFORM=C10H16N2O3
##CAS REGISTRY NO=66398-55-8
##MP= -300
##BP= -300
##MW= 212
##$RETENTION INDEX=0
##$CONDENSED SPECTRUM=NO
##NPOINTS= 66
##XYDATA=(XY..XY) 1 
    38          7
    39        134
    40         33
    41        250
    42        123
    43        941
    44         41
    45         76
    47          6
    48          2
    49         35
    50         11
    51         37
    52         24
    53        122
    54         56
    55        271
    56         29
    57         21
    58          3
    60         36
    61          3
    65         19
    66         20
    67         98
    68         35
    69         60
    70        353
    71         19
    72          2
    73          1
    77         49
    78         11
    79        158
    80         66
    81        260
    82         39
    83        239
    84         39
    85          2
    86         15
    87         18
    88          2
    91          3
    93          3
    94          3
    95         39
    96         24
    97        182
    98        999
    99        116
   100          8
   107          7
   109          8
   111         13
   112          4
   123          7
   124         55
   125         94
   126          8
   140        149
   141         25
   142          2
   154          5
   184          7
   185          0