##TITLE=Library Entry 6858
##JCAMP-DX=Revision 4.10 
##DATA TYPE=MASS SPECTRUM
##SAMPLE DESCRIPTION=G. Lange, Inst. Org. Chem., Univ. Wurzburg, Germany
##NAMES=HP
##CAS NAME=1,3,4-Oxadiazole, 2-(acetyloxy)-2,5-dihydro-2,5,5-trimethyl-
##MOLFORM=C7H12N2O3
##CAS REGISTRY NO=66398-57-0
##MP= -300
##BP= -300
##MW= 172
##$RETENTION INDEX=0
##$CONDENSED SPECTRUM=NO
##NPOINTS= 36
##XYDATA=(XY..XY) 1 
    37          2
    38          6
    39         73
    40         11
    41         89
    42         47
    43        999
    44         41
    45        205
    46          4
    47          1
    49          6
    51          2
    55          3
    56          1
    57         10
    58         95
    59         23
    60          6
    61          7
    69          2
    72         36
    73          1
    84         13
    85         57
    86          7
    87         24
    88          0
    99          3
   100         88
   101         34
   102          2
   103          0
   114          0
   144          4
   145          0