##TITLE=Library Entry 98950
##JCAMP-DX=Revision 4.10 
##DATA TYPE=MASS SPECTRUM
##SAMPLE DESCRIPTION=V.Zaikin,Inst.Petrochem.Synth.,RAS,Moscow
##NAMES=HP
##CAS NAME=m-Toluic acid, 3-methylbutyl ester
##MOLFORM=C13H18O2
##CAS REGISTRY NO=6640-76-2
##MP= -300
##BP= -300
##MW= 206
##$RETENTION INDEX=1573
##$CONDENSED SPECTRUM=NO
##NPOINTS= 94
##XYDATA=(XY..XY) 1 
    26         16
    27         74
    28         13
    29         76
    30          3
    31         24
    39        116
    40         15
    41        140
    42         69
    43        119
    44         10
    50         26
    51         58
    52         27
    53         14
    54          4
    55        159
    56         27
    57         25
    58          3
    59          8
    60          2
    61          3
    62         22
    63         62
    64         18
    65        158
    66         12
    67          5
    68          3
    69         27
    70        656
    71         46
    74          3
    75         10
    76          5
    77         26
    78          7
    79         22
    80          3
    82          4
    83          3
    84         18
    85          3
    86          2
    87          4
    88          5
    89         52
    90         36
    91        491
    92         65
    93         44
    94          3
    95          5
    97          2
   102          2
   103          2
   104          8
   105         40
   106          3
   107          5
   109          3
   113          3
   117          2
   118         24
   119        999
   120         93
   121          9
   122          3
   123          4
   127          2
   130         10
   131          3
   132          3
   133          3
   134          3
   135         20
   136        322
   137        243
   138         27
   139          2
   141          2
   147          5
   148          2
   149          9
   150          7
   151          3
   152          3
   154          3
   156          2
   163          4
   191          2
   206          7