##TITLE=Library Entry 20561
##JCAMP-DX=Revision 4.10 
##DATA TYPE=MASS SPECTRUM
##SAMPLE DESCRIPTION=Exported from NIST MS Search
##NAMES=HP
##CAS NAME=2H-1,3-Benzoxazine, 6-chloro-3-cyclohexyl-3,4-dihydro-8-methyl-
##MOLFORM=C15H20ClNO
##CAS REGISTRY NO=6640-34-2
##MP= -300
##BP= -300
##MW= 265
##$RETENTION INDEX=0
##$CONDENSED SPECTRUM=NO
##NPOINTS= 60
##XYDATA=(XY..XY) 1 
    15         37
    18         17
    26         17
    27        142
    28         73
    29        109
    30        151
    31         49
    38         20
    39        184
    40         33
    41        616
    42        147
    43        107
    44         67
    45         62
    50         29
    51         53
    52         23
    53         74
    54        140
    55        999
    56        296
    57        115
    59         16
    62         15
    63         38
    65         57
    66         14
    67        181
    68        511
    69         64
    70         85
    77         45
    79         39
    80         18
    81         64
    82        907
    83        556
    84         48
    89         28
    91        283
    92        111
    93         15
    96        101
    97         19
    99         37
   103         20
   110         70
   111         55
   121         63
   125         20
   126         34
   127         16
   154        111
   155        104
   156        107
   157         40
   158         25
   251         41