##TITLE=Library Entry 3842
##JCAMP-DX=Revision 4.10 
##DATA TYPE=MASS SPECTRUM
##SAMPLE DESCRIPTION=A.Pleshkova, Moscow,Russia
##NAMES=HP
##CAS NAME=1',2'-Epoxyhexobarbital
##MOLFORM=C12H16N2O4
##CAS REGISTRY NO=66403-25-6
##MP= -300
##BP= -300
##MW= 252
##$RETENTION INDEX=0
##$CONDENSED SPECTRUM=NO
##NPOINTS= 135
##XYDATA=(XY..XY) 1 
    14          8
    15         14
    16          5
    28         17
    29         24
    30          8
    31         18
    32          5
    39        418
    40         95
    41        999
    42        188
    43        287
    44         63
    45          8
    50         21
    51         64
    52         63
    53        256
    54         99
    55        604
    56        125
    57         93
    58        142
    59         18
    60          5
    64          8
    65         66
    66         63
    67        281
    68        261
    69        348
    70        125
    71         53
    72          6
    75         17
    76         14
    77         84
    78         24
    79        162
    80         53
    81        124
    82         64
    83        291
    84         37
    85         38
    86          5
    91         38
    92          9
    93         21
    94         26
    95        140
    96        429
    97        979
    98         99
    99         52
   100         17
   101         14
   102          5
   105         14
   106         17
   107         23
   108         40
   109         37
   110         37
   111         26
   112         26
   113         49
   114          6
   120          6
   121         17
   122         35
   123         50
   124        104
   125         23
   126          6
   127         27
   128         58
   129          6
   133          6
   134         17
   135         17
   136         14
   137         17
   138         38
   139         21
   140          8
   141          8
   142          8
   143         23
   144          9
   145          9
   148          5
   149         17
   150         49
   151        130
   152        233
   153         37
   154         18
   155         32
   156        493
   157        569
   158         52
   159         17
   160          5
   161          6
   162         64
   163          8
   164         17
   165         38
   166          8
   167         32
   168          8
   169          5
   180          6
   181        124
   182         17
   183         78
   184         14
   193          5
   194          9
   195          8
   208          9
   209         78
   210          8
   211          5
   224         38
   225         17
   226          5
   237        307
   238         44
   239          6
   252        285
   253         41
   254          6