##TITLE=Library Entry 100415
##JCAMP-DX=Revision 4.10 
##DATA TYPE=MASS SPECTRUM
##SAMPLE DESCRIPTION=V.Zaikin,Inst.Petrochem.Synth.,RAS,Moscow
##NAMES=HP
##CAS NAME=m-Toluic acid, cyclopentyl ester
##MOLFORM=C13H16O2
##CAS REGISTRY NO=6640-84-2
##MP= -300
##BP= -300
##MW= 204
##$RETENTION INDEX=0
##$CONDENSED SPECTRUM=NO
##NPOINTS= 72
##XYDATA=(XY..XY) 1 
    25          2
    26         16
    27         53
    28         10
    29         50
    39        148
    40         32
    41        174
    42         22
    43         24
    44          2
    49          3
    50         24
    51         43
    52         16
    53         24
    54          2
    55         17
    56          4
    57         10
    59          4
    61          4
    62         18
    63         43
    64         15
    65        144
    66         17
    67         67
    68         94
    69         41
    70          8
    71          3
    73          2
    74          4
    75          4
    76          3
    77         19
    78          3
    79         18
    83          3
    84          5
    85         26
    86          4
    87          3
    88          2
    89         40
    90         30
    91        448
    92         53
    93         36
    95          3
    97          2
   103          2
   105         10
   107          3
   113          3
   115          3
   117          3
   118         14
   119        999
   120        128
   121          9
   133          3
   134         16
   135         15
   136         89
   137        450
   138         44
   139          5
   147          2
   204         14
   205          3