##TITLE=Library Entry 66131
##JCAMP-DX=Revision 4.10 
##DATA TYPE=MASS SPECTRUM
##SAMPLE DESCRIPTION=JACSAT, 100(6)1883(1978); J. MEINWALD AND T. H. JONES
##NAMES=HP
##CAS NAME=Cyclopenta[c]pyran-1,3-dione, 4,4a,5,6-tetrahydro-4,7-dimethyl-
##MOLFORM=C10H12O3
##CAS REGISTRY NO=66407-26-9
##MP= -300
##BP= -300
##MW= 180
##$RETENTION INDEX=0
##$CONDENSED SPECTRUM=NO
##NPOINTS= 15
##XYDATA=(XY..XY) 1 
    51        100
    65        110
    77        390
    78        100
    79        500
    80        110
    91        370
    93        999
    94        100
   107        220
   108        250
   121        440
   136        470
   152         30
   180         80