##TITLE=Library Entry 64290
##JCAMP-DX=Revision 4.10 
##DATA TYPE=MASS SPECTRUM
##SAMPLE DESCRIPTION=Japan AIST/NIMC Database- Spectrum MS-IW-5898
##NAMES=HP
##CAS NAME=5-Benzyloxyindole-2-carboxylic acid
##MOLFORM=C16H13NO3
##CAS REGISTRY NO=6640-09-1
##MP= -300
##BP= -300
##MW= 267
##$RETENTION INDEX=0
##$CONDENSED SPECTRUM=NO
##NPOINTS= 90
##XYDATA=(XY..XY) 1 
    17          3
    18         11
    27          1
    28          6
    38          2
    39         12
    40          1
    41          5
    44          7
    45          1
    50          7
    51         14
    52          5
    53          2
    57          1
    62          3
    63          9
    64          3
    65         60
    66          3
    74          1
    75          9
    76         11
    77          6
    78          3
    80          1
    82          2
    83          1
    87          2
    88          2
    89          9
    90          5
    91        999
    92         88
    93          3
    95          1
    96          1
    97          1
   100          2
   101          2
   102         35
   103          7
   104          4
   105          2
   110          1
   114          8
   115          2
   116          1
   117          1
   124          1
   130         52
   131         10
   132         12
   133          5
   142          3
   143          1
   146          1
   152          1
   158        181
   159         28
   160          3
   165          3
   166          1
   167          1
   171          1
   176        118
   177         16
   178          2
   189          2
   190          4
   191          2
   192          2
   193          2
   194          3
   204          1
   219          1
   220          3
   221          2
   222          5
   223          9
   224          1
   247          1
   248          2
   249         15
   250          6
   251          1
   266          1
   267        312
   268         56
   269          7