##TITLE=Library Entry 59445
##JCAMP-DX=Revision 4.10 
##DATA TYPE=MASS SPECTRUM
##SAMPLE DESCRIPTION=A.A.Kutin, Moscow, Russia
##NAMES=HP
##CAS NAME=Butane-1,3-dione, 4,4,4-trifluoro-2-phenyl-, 3-thiosemicarbazone
##MOLFORM=C11H10F3N3OS
##CAS REGISTRY NO=66403-92-7
##MP= -300
##BP= -300
##MW= 289
##$RETENTION INDEX=0
##$CONDENSED SPECTRUM=NO
##NPOINTS= 86
##XYDATA=(XY..XY) 1 
    33         92
    34         14
    35          4
    36          0
    37          1
    39         16
    40         19
    41         29
    43        225
    45         49
    46         20
    47         29
    48         21
    50         13
    51         18
    52          3
    53          1
    55          2
    56          2
    58         57
    60        563
    62         21
    63          5
    64          3
    65          2
    66          0
    69         28
    70          1
    71          0
    73          1
    74         23
    75         11
    77         58
    78          7
    79          0
    85          1
    86          5
    87          3
    91        999
    93         36
   101          2
   103         31
   104         12
   105          2
   106          0
   109          0
   115          2
   116          5
   117          5
   118         11
   119          4
   120          0
   127          0
   130          0
   131          5
   132          2
   133          5
   134          0
   136          0
   144          3
   145          0
   146          0
   150          0
   154          0
   155          1
   158          0
   161        114
   162          8
   163          0
   171          0
   173          0
   177          0
   178         16
   179          1
   193          6
   194          0
   212          0
   213          0
   214          0
   220          0
   228          0
   230         43
   231          3
   289         40
   290          4
   291          1