##TITLE=Library Entry 34346
##JCAMP-DX=Revision 4.10 
##DATA TYPE=MASS SPECTRUM
##SAMPLE DESCRIPTION=Chemical Concepts
##NAMES=HP
##CAS NAME=4,8,12-Tetradecatrienal, 5,9,13-trimethyl-
##MOLFORM=C17H28O
##CAS REGISTRY NO=66408-55-7
##MP= -300
##BP= -300
##MW= 248
##$RETENTION INDEX=1933
##$CONDENSED SPECTRUM=NO
##NPOINTS= 134
##XYDATA=(XY..XY) 1 
    26          1
    27         47
    29         71
    30          1
    31          5
    36          0
    38          0
    39         56
    40         19
    41        550
    42         24
    43         50
    44          2
    45          1
    50          0
    51          5
    52          4
    53         76
    54          7
    55        169
    56         11
    57         14
    58          1
    59          0
    63          1
    65         17
    66          6
    67        109
    68         77
    69        999
    70         55
    71          4
    72          0
    73          0
    76          0
    77         32
    78          5
    79         38
    80         25
    81        393
    82         52
    83         24
    84          2
    85          2
    89          0
    91         33
    92         11
    93        170
    94         26
    95        103
    96         31
    97          7
    98          7
    99          1
   100          0
   102          0
   103          1
   104          0
   105         25
   106          6
   107         42
   108         10
   109         32
   110          5
   111         27
   112          3
   115          1
   116          0
   117          1
   118          0
   119         23
   120          4
   121         46
   122         17
   123         56
   124         59
   125          5
   126          0
   128          0
   130          0
   131          2
   132          0
   133         10
   134          5
   135         27
   136        217
   137        105
   138         11
   139          1
   145          4
   146          1
   147          6
   148          7
   149          8
   150          2
   151          0
   159          2
   160          1
   161         24
   162          3
   163          3
   164          4
   165          4
   166          5
   167          0
   173          0
   174          1
   175          1
   176          0
   177         13
   178          2
   179          6
   180          1
   187          5
   188          0
   189          2
   190          1
   191          2
   192          2
   193          0
   204          5
   205         10
   206          1
   215          1
   220          1
   223          0
   230          0
   231          0
   233          2
   234          0
   245          0
   248         30
   249          5
   250          0