##TITLE=Library Entry 83494
##JCAMP-DX=Revision 4.10 
##DATA TYPE=MASS SPECTRUM
##SAMPLE DESCRIPTION=NIST Mass Spectrometry Data Center, 1994
##NAMES=HP
##CAS NAME=Phenol, 2-chloro-4-methyl-
##MOLFORM=C7H7ClO
##CAS REGISTRY NO=6640-27-3
##MP= -300
##BP= -300
##MW= 142
##$RETENTION INDEX=1287
##$CONDENSED SPECTRUM=NO
##NPOINTS= 81
##XYDATA=(XY..XY) 1 
    14          7
    15         18
    18          2
    19          2
    25          8
    26         47
    27        102
    28         17
    29         33
    31          4
    35          9
    36         10
    37         46
    38         90
    39        149
    40         10
    41          4
    42          6
    43         19
    44          6
    47          4
    48          7
    49         42
    50        183
    51        382
    52        119
    53        154
    54         12
    55         21
    56          4
    57          5
    58          1
    59          1
    60         13
    61         42
    62         57
    63         89
    64         11
    65          6
    66          9
    67          7
    71         22
    72         13
    73         36
    74         45
    75         38
    76          1
    77        478
    78        120
    79        113
    80          8
    81          5
    84         10
    85         16
    86         14
    87         20
    88          3
    89         18
    90          2
    91          2
    97          5
    99          5
   100          2
   101          1
   105         50
   107        999
   108         67
   109          5
   111          2
   112          4
   113          8
   114          2
   115          4
   124          1
   125          4
   127          2
   141        169
   142        369
   143         82
   144        118
   145          9