##TITLE=Library Entry 99580
##JCAMP-DX=Revision 4.10 
##DATA TYPE=MASS SPECTRUM
##SAMPLE DESCRIPTION=V.Zaikin,Inst.Petrochem.Synth.,RAS,Moscow
##NAMES=HP
##CAS NAME=Benzoic acid,3-methyl, (2-methylpropyl)ester
##MOLFORM=C12H16O2
##CAS REGISTRY NO=6640-78-4
##MP= -300
##BP= -300
##MW= 192
##$RETENTION INDEX=0
##$CONDENSED SPECTRUM=NO
##NPOINTS= 82
##XYDATA=(XY..XY) 1 
    25          3
    26         16
    27         91
    28         22
    29        122
    30         12
    39        198
    40         30
    41        207
    42         23
    43         59
    44          7
    50         40
    51         68
    52         28
    53         19
    54          4
    55         25
    56        256
    57         52
    58          3
    59          2
    61          7
    62         25
    63         78
    64         28
    65        239
    66         16
    67          2
    69          9
    70         12
    72          2
    73         17
    74          7
    75         11
    76          9
    77         28
    78          7
    79         20
    83          2
    85          3
    86          5
    87          4
    88          6
    89         75
    90         68
    91        773
    92         96
    93         49
    94          4
    95          3
    97          2
    98          3
   102          4
   103          3
   105         15
   106          2
   107          6
   108          2
   113          2
   115          3
   117          2
   118         24
   119        999
   120        193
   121         18
   122          2
   130          5
   131          2
   133          2
   134          5
   135         25
   136        537
   137        667
   138         57
   139          5
   145          2
   147          3
   149         11
   191          3
   192         10
   193          1