##TITLE=Library Entry 72322
##JCAMP-DX=Revision 4.10 
##DATA TYPE=MASS SPECTRUM
##SAMPLE DESCRIPTION=Chemical Concepts
##NAMES=HP
##CAS NAME=Hexahydrospiro[[1,3]dioxolane-2,2'-naphthalene]-8'a-carboxylic ac
id
##MOLFORM=C13H20O4
##CAS REGISTRY NO=66411-80-1
##MP= -300
##BP= -300
##MW= 240
##$RETENTION INDEX=0
##$CONDENSED SPECTRUM=NO
##NPOINTS= 144
##XYDATA=(XY..XY) 1 
    27         17
    28          9
    29         20
    31          5
    33          1
    39         22
    40          6
    41         55
    42         33
    43         35
    44          6
    45         21
    51          5
    52          4
    53         23
    54          8
    55         71
    56         10
    57         17
    58          2
    59          4
    60          5
    61          5
    63          2
    65         14
    66          8
    67         43
    68          8
    69         11
    70          4
    71          8
    73         12
    74          3
    75          2
    76          2
    77         24
    78          7
    79         43
    80         12
    81         30
    82          6
    83          9
    84          4
    85          6
    86        161
    87         25
    88          2
    89          4
    91         35
    92          9
    93         30
    94         19
    95         24
    96          9
    97          9
    98          3
    99        999
   100         80
   101          8
   102          2
   103          2
   104          6
   105         13
   106          9
   107         21
   108         19
   109         35
   110          6
   111         11
   112          4
   113         15
   114          8
   115          4
   116          2
   117          4
   118          2
   119          6
   120          3
   121         10
   122         10
   123          8
   124          3
   125         24
   126          9
   127          8
   128          2
   129          2
   131          4
   132          4
   133         15
   134         13
   135         16
   136          6
   137         86
   138         15
   139         11
   140          7
   141          3
   142          2
   143          8
   144          6
   148          2
   149         22
   150         17
   151         38
   152         13
   153         39
   154          6
   155          2
   156         10
   157         13
   158          2
   164          2
   165         29
   166          7
   167         12
   168          6
   169         14
   170         17
   171          3
   177          2
   178          4
   179          6
   181          2
   183         11
   184          3
   185          5
   186          3
   193          3
   194          4
   195        127
   196         43
   197          9
   198          2
   202          2
   210          3
   211         14
   212          6
   222          3
   223          5
   225          3
   240        143
   241         23
   242          4