##TITLE=Library Entry 8297
##JCAMP-DX=Revision 4.10 
##DATA TYPE=MASS SPECTRUM
##SAMPLE DESCRIPTION=Japan AIST/NIMC Database- Spectrum MS-IW-4102
##NAMES=HP
##CAS NAME=Pentanoic acid, 2-methyl-4-oxo-
##MOLFORM=C6H10O3
##CAS REGISTRY NO=6641-83-4
##MP= -300
##BP= -300
##MW= 130
##$RETENTION INDEX=0
##$CONDENSED SPECTRUM=NO
##NPOINTS= 66
##XYDATA=(XY..XY) 1 
    14          5
    15         62
    16          1
    17          2
    18          7
    26          9
    27         81
    28         25
    29         19
    30          1
    31         17
    35          1
    37          3
    38          8
    39         77
    40         16
    41        174
    42        247
    43        999
    44         56
    45        223
    46          5
    47          1
    49          1
    50          2
    51          3
    52          1
    53          9
    54          1
    55         41
    56          7
    57          5
    58        144
    59         17
    60          7
    61        334
    62          8
    63          2
    65          3
    66          1
    67         14
    68          3
    69         95
    70        321
    71         53
    72          3
    73        144
    74          6
    75          1
    83          1
    84         20
    85         24
    86          8
    87        112
    88         15
    89          1
    97          5
   102          3
   111          1
   112        156
   113        109
   114          7
   115         45
   116          2
   130         34
   131          5