##TITLE=Library Entry 77523
##JCAMP-DX=Revision 4.10 
##DATA TYPE=MASS SPECTRUM
##SAMPLE DESCRIPTION=V.Zaikin,Inst.Petrochem.Synth.,RAS,Moscow
##NAMES=HP
##CAS NAME=m-Toluic acid, 2-phenylethyl ester
##MOLFORM=C16H16O2
##CAS REGISTRY NO=6641-74-3
##MP= -300
##BP= -300
##MW= 240
##$RETENTION INDEX=0
##$CONDENSED SPECTRUM=NO
##NPOINTS= 65
##XYDATA=(XY..XY) 1 
    25          2
    26          9
    27         29
    28          2
    29         15
    30          2
    39         97
    40         11
    41         34
    42          4
    43         10
    44          1
    50         29
    51         65
    52         20
    53         11
    55          8
    56          2
    57          4
    59          3
    61          3
    62         12
    63         49
    64         17
    65        171
    66         11
    67          2
    69          6
    70         15
    71          7
    74          9
    75          9
    76          7
    77         67
    78         40
    79         34
    80          2
    83          4
    84          8
    86          3
    87          3
    88          3
    89         39
    90         37
    91        500
    92         46
    97          2
   101          3
   102         12
   103         47
   104        999
   105        171
   106          8
   107          3
   112          2
   118         17
   119        682
   120         71
   121          6
   130          6
   133          3
   134          2
   135          9
   136         36
   137         10