##TITLE=Library Entry 11971
##JCAMP-DX=Revision 4.10 
##DATA TYPE=MASS SPECTRUM
##SAMPLE DESCRIPTION=ASES Database, Dalian Institute, P.R. China
##NAMES=HP
##CAS NAME=2,7-Dimethyl-3-oxo-5-thioxo-3,4,5,6(2H)-tetrahydro-1,2,4-triazepi
ne
##MOLFORM=C6H9N3OS
##CAS REGISTRY NO=66425-04-5
##MP= -300
##BP= -300
##MW= 171
##$RETENTION INDEX=0
##$CONDENSED SPECTRUM=NO
##NPOINTS= 18
##XYDATA=(XY..XY) 1 
    40         51
    41        181
    42        200
    43        999
    45         98
    55        171
    56         61
    60        109
    69        338
    84         50
    86         69
    97         79
   114         80
   128        218
   129        889
   130         50
   131         50
   171        570