##TITLE=Library Entry 58128
##JCAMP-DX=Revision 4.10 
##DATA TYPE=MASS SPECTRUM
##SAMPLE DESCRIPTION=ASES Database, Dalian Institute, P.R. China
##NAMES=HP
##CAS NAME=2,4,7-Trimethyl-3-thioxo-5-methylthio-3,4(2H)-dihydro-1,2,4-triaz
epine
##MOLFORM=C8H13N3S2
##CAS REGISTRY NO=66425-10-3
##MP= -300
##BP= -300
##MW= 215
##$RETENTION INDEX=0
##$CONDENSED SPECTRUM=NO
##NPOINTS= 31
##XYDATA=(XY..XY) 1 
    40         50
    41         87
    42        459
    43         98
    45        405
    46        110
    47        127
    52        101
    53         89
    54        158
    57         50
    58        139
    59         89
    61         98
    69         78
    72        230
    73        197
    74        118
    80        110
    81        100
    83        129
    84        137
    86        119
    88        999
    95        100
   109        108
   127        368
   141         49
   142        716
   143         49
   215        349