##TITLE=Library Entry 26044
##JCAMP-DX=Revision 4.10 
##DATA TYPE=MASS SPECTRUM
##SAMPLE DESCRIPTION=A.Pleshkova, Nesmeyanov Inst.Org.Elem.Cpds, Moscow
##NAMES=HP
##CAS NAME=O-Methyl-N-methylcarbamate
##MOLFORM=C3H7NO2
##CAS REGISTRY NO=6642-30-4
##MP= -300
##BP= -300
##MW= 89
##$RETENTION INDEX=785
##$CONDENSED SPECTRUM=NO
##NPOINTS= 17
##XYDATA=(XY..XY) 1 
    27        348
    28         96
    29        163
    30         36
    41         36
    42         18
    43        252
    44         24
    56         25
    57        999
    58        264
    59         10
    74        413
    75         16
    89        636
    90         24
    91          3