##TITLE=Library Entry 100927
##JCAMP-DX=Revision 4.10 
##DATA TYPE=MASS SPECTRUM
##SAMPLE DESCRIPTION=A.A.Kutin, Moscow, Russia
##NAMES=HP
##CAS NAME=1H-Naphtho[1,2-E][1,3]-oxazine, 2,3-dihydro-2-(4-methylphenyl)-
##MOLFORM=C19H17NO
##CAS REGISTRY NO=6642-03-1
##MP= -300
##BP= -300
##MW= 275
##$RETENTION INDEX=0
##$CONDENSED SPECTRUM=NO
##NPOINTS= 123
##XYDATA=(XY..XY) 1 
    39          1
    40          0
    41          0
    50          2
    51          3
    52          0
    53          0
    57          0
    58          0
    59          0
    60          0
    63         12
    65         22
    66          0
    69          0
    70          0
    73          2
    74          5
    75          5
    76         12
    77          8
    78          6
    80          0
    82          0
    83          0
    85          1
    87          3
    89         19
    91        185
    94          1
    95          0
    96          0
    97          0
    98          1
   100          2
   102         22
   103          2
   104          2
   105          1
   107          3
   108          1
   109          2
   111          0
   112          0
   113          1
   115         13
   119        999
   122          4
   124          4
   128        120
   134          0
   135          0
   137         33
   139          4
   140          1
   141          1
   142          0
   143          0
   144          0
   150          0
   151          0
   152          0
   153          0
   156         14
   157          4
   158          2
   162          0
   163          0
   164          0
   165          0
   166          0
   168          1
   169          0
   170          0
   171          0
   176          0
   177          0
   178          0
   182          2
   183          0
   184          0
   187          0
   189          0
   190          0
   191          0
   200          0
   201          0
   202          1
   203          0
   204          0
   205          0
   213          0
   215          1
   216          0
   217          0
   218          0
   219          0
   220          0
   226          0
   227          0
   228          0
   229          0
   230          1
   231          1
   232          0
   233          0
   240          0
   241          0
   242          0
   243          0
   244          1
   245          2
   246          1
   247          0
   256          0
   258          2
   259          0
   260          0
   261          0
   275        256
   276         40
   277          4
   278          0