##TITLE=Library Entry 14946
##JCAMP-DX=Revision 4.10 
##DATA TYPE=MASS SPECTRUM
##SAMPLE DESCRIPTION=K. Jacobson, LBC, NIDDK, NIH, Bethesda, MD 20892
##NAMES=HP
##CAS NAME=8,13-Epoxy-labadan-1,6,7,9-tetraol-11-one, 7-O-acetate(ester)
##MOLFORM=C22H36O7
##CAS REGISTRY NO=66428-88-4
##MP= -300
##BP= -300
##MW= 412
##$RETENTION INDEX=0
##$CONDENSED SPECTRUM=NO
##NPOINTS= 206
##XYDATA=(XY..XY) 1 
    41        143
    43        999
    44        105
    45         31
    53         37
    55        180
    56         59
    57        107
    58         31
    59         24
    60          7
    61         36
    65          7
    67         70
    68         16
    69        196
    70         73
    71         79
    72         21
    73         60
    74         53
    77         37
    78          7
    79         52
    81        200
    82         48
    83         78
    84         36
    85        165
    86         18
    87         57
    91         51
    93         58
    94         41
    95        155
    96         36
    97        172
    98         53
    99        208
   100          9
   101         18
   103         58
   105         39
   106         28
   107         85
   108         24
   109        174
   110         49
   111        135
   112         35
   113         51
   114         31
   115          9
   116         40
   117         13
   119         49
   121        125
   122         56
   123        216
   124         91
   125        114
   126         38
   127         40
   128         17
   129         17
   131         23
   133         57
   134          7
   135        116
   136         68
   137        109
   138         80
   139        106
   140         65
   141         52
   142         37
   143         16
   145         38
   147         78
   148         16
   149         92
   150         50
   151        129
   152         92
   153         72
   154         42
   155         36
   156         18
   157          7
   159         34
   161         51
   162         21
   163         92
   164         31
   165        180
   166         57
   167         43
   168         15
   169          6
   170          6
   171          7
   173         39
   175         89
   176         54
   177        109
   178         34
   179         79
   180         67
   181         51
   182         14
   183         45
   184         63
   185         24
   187         14
   189         40
   190         17
   191        246
   192         94
   193        141
   194         91
   195         58
   196         19
   197         30
   198         18
   201         36
   203         67
   204         33
   205         46
   207         59
   208        163
   209        349
   210         53
   211         26
   213          7
   217         16
   218         34
   219         89
   220         29
   221        101
   222         37
   223          6
   226         28
   229         19
   231         21
   233          7
   235         31
   236         32
   237         75
   238          9
   239         44
   240         74
   241          7
   243          8
   245         63
   246         17
   247         63
   248         28
   249         50
   250         85
   251         16
   254         26
   255         18
   259          9
   260          7
   261         45
   262          6
   263         50
   264          8
   265          7
   267         11
   273         36
   277          9
   278         37
   279         28
   281          8
   282         46
   287          8
   291         36
   294          7
   296         57
   297          7
   298          7
   300          6
   301         26
   305         26
   307          8
   315         42
   316         18
   319          8
   324         29
   333         11
   334         33
   340         18
   342        162
   343         32
   347         23
   352         27
   361          6
   376         58
   379         48
   394        535
   395        129
   396         24
   412        355
   413         80
   414          8