##TITLE=Library Entry 89846
##JCAMP-DX=Revision 4.10 
##DATA TYPE=MASS SPECTRUM
##SAMPLE DESCRIPTION=ASES Database, Dalian Institute, P.R. China
##NAMES=HP
##CAS NAME=2,7-Dimethyl-3,5-dioxo-4,6(2H)-dihydro-1,2,4-triazepine
##MOLFORM=C6H9N3O2
##CAS REGISTRY NO=66425-05-6
##MP= -300
##BP= -300
##MW= 155
##$RETENTION INDEX=0
##$CONDENSED SPECTRUM=NO
##NPOINTS= 14
##XYDATA=(XY..XY) 1 
    40        218
    41        952
    42        546
    43        884
    44         79
    54        162
    55         78
    69        842
    70        399
    83         40
    84         40
   112        401
   113        999
   155        430