##TITLE=Library Entry 69242
##JCAMP-DX=Revision 4.10 
##DATA TYPE=MASS SPECTRUM
##SAMPLE DESCRIPTION=NIST Mass Spectrometry Data Center
##NAMES=HP
##CAS NAME=L-3-Methylhistidine, 2TMS derivative
##MOLFORM=C13H27N3O2Si2
##CAS REGISTRY NO=66434-53-5
##MP= -300
##BP= -300
##MW= 313
##$RETENTION INDEX=1847
##$CONDENSED SPECTRUM=NO
##NPOINTS= 192
##XYDATA=(XY..XY) 1 
    15          3
    26          2
    27          6
    28         19
    29          6
    30          3
    31          3
    39         10
    40          3
    41         18
    42         44
    43         30
    44         30
    45        132
    46         10
    47         19
    48          1
    49          1
    52          4
    53          6
    54         33
    55         19
    56         17
    57         10
    58         15
    59         39
    60          7
    61          9
    62          1
    63          1
    66          6
    67          8
    68         28
    69          8
    70         11
    71          4
    73        784
    74         70
    75         98
    76          8
    77          4
    78          1
    79          1
    80          3
    81         20
    82          9
    83          9
    84         11
    85          8
    86         14
    87          6
    88          3
    89          1
    91          2
    93          2
    95        237
    96        999
    97        227
    98         16
    99          4
   100        183
   101         24
   102          9
   103          7
   104          2
   105          2
   106          2
   107          4
   108          3
   109          4
   110          3
   111          2
   112          5
   113          2
   114          2
   115          8
   116          3
   117          7
   118          2
   119          2
   120          1
   121          3
   122          3
   123          6
   124         17
   125          6
   126          3
   127          1
   128          3
   129          1
   130         28
   131         20
   132         30
   133         23
   134         10
   135         11
   136          2
   137          2
   138          1
   139          6
   140          7
   141          2
   142          2
   143          1
   144          5
   145          2
   146          8
   147        131
   148         19
   149         10
   150          4
   151          2
   152          3
   153          5
   154          1
   155          2
   157          1
   158          6
   159          5
   160          7
   161          2
   162          1
   163          7
   164          2
   165          6
   166          3
   167         13
   168        394
   169         68
   170         20
   171          5
   172          4
   173          1
   174          5
   175          1
   176          1
   179          2
   180          6
   181          8
   182          2
   183          1
   185          1
   188          3
   189          1
   190          3
   191          1
   194          2
   195         17
   196         59
   197         14
   198          4
   199          9
   200          2
   202         18
   203         35
   204          8
   205          3
   206          1
   208         14
   209          4
   210          1
   211          1
   213          1
   214          1
   216          2
   218        730
   219        150
   220         67
   221          9
   222          2
   224          3
   225          1
   227          2
   239          1
   241          1
   254          1
   257          1
   268          3
   269          2
   270         78
   271         28
   272          9
   273          2
   280          2
   282          1
   284          1
   285          1
   296          1
   298         32
   299          8
   300          4
   313          1