##TITLE=Library Entry 96464
##JCAMP-DX=Revision 4.10 
##DATA TYPE=MASS SPECTRUM
##SAMPLE DESCRIPTION=A.Pleshkova, Nesmeyanov Inst.Org.Elem.Cpds, Moscow
##NAMES=HP
##CAS NAME=N,O-Bis-(trimethylsilyl)-N-methylaminopropionic acid
##MOLFORM=C10H25NO2Si2
##CAS REGISTRY NO=66434-47-7
##MP= -300
##BP= -300
##MW= 247
##$RETENTION INDEX=0
##$CONDENSED SPECTRUM=NO
##NPOINTS= 38
##XYDATA=(XY..XY) 1 
    45        114
    46          6
    47          4
    59        129
    60          8
    61          4
    73        953
    74        142
    75        175
    76         13
    77         59
    78          6
    86         95
    87          7
    88          1
   102         60
   103          6
   104          3
   116        999
   117        112
   118         38
   119          1
   147        474
   148         76
   149         38
   150          4
   190        209
   191         39
   192         17
   193          3
   204         18
   232        147
   233         31
   234         14
   235          1
   247         32
   248          7
   249          3