##TITLE=Library Entry 43660
##JCAMP-DX=Revision 4.10 
##DATA TYPE=MASS SPECTRUM
##SAMPLE DESCRIPTION=NIST Mass Spectrometry Data Center
##NAMES=HP
##CAS NAME=2-Aminoadipic acid, 3TMS derivative
##MOLFORM=C15H35NO4Si3
##CAS REGISTRY NO=66434-50-2
##MP= -300
##BP= -300
##MW= 377
##$RETENTION INDEX=1719
##$CONDENSED SPECTRUM=NO
##NPOINTS= 223
##XYDATA=(XY..XY) 1 
    15          1
    27          3
    28          4
    29          4
    30          2
    31          3
    39          2
    41          6
    42          7
    43         41
    44         27
    45        130
    46          9
    47         25
    48          1
    49          1
    52          1
    53          4
    54          6
    55        331
    56         58
    57         21
    58         20
    59         67
    60         13
    61         21
    62          2
    63          1
    65          1
    66          4
    67          2
    68          5
    69          6
    70         13
    71          8
    72         34
    73        999
    74        105
    75        240
    76         19
    77         10
    78          1
    80          9
    81          4
    82          4
    83          3
    84          6
    85         15
    86         16
    87          8
    88          5
    89          6
    90          2
    91          2
    92          1
    94          1
    95          1
    96          8
    97          5
    98         45
    99         14
   100        161
   101         29
   102         15
   103         16
   104          2
   105          3
   107          1
   108          8
   109          2
   110          2
   111          2
   112         12
   113          5
   114         22
   115        130
   116         58
   117         40
   118          8
   119          8
   120          1
   121          1
   122          2
   124          1
   125          1
   126          9
   127          5
   128        416
   129        277
   130         57
   131         77
   132         30
   133         72
   134         13
   135          8
   136          1
   138          2
   139          2
   140          3
   141          2
   142         13
   143         11
   144          7
   145          9
   146          7
   147        266
   148         48
   149         54
   150          7
   151          4
   152          5
   153          1
   154         32
   155          9
   156         15
   157          5
   158          5
   159          4
   160          3
   161          3
   162          1
   163         11
   164          2
   167          1
   168          5
   169          1
   170         55
   171         11
   172         25
   173          7
   174         20
   175          4
   176          3
   177          3
   178          1
   180          1
   182         13
   183          2
   184          1
   185          1
   186          1
   187          2
   188         20
   189          3
   190          3
   191          4
   192          1
   193          1
   196          1
   198          1
   199          1
   200          3
   201          1
   202         15
   203         33
   204          9
   205         14
   206          4
   207          3
   212          1
   213          1
   214          1
   216         10
   217        329
   218        129
   219         44
   220          8
   221         11
   222          3
   223          1
   226          2
   228         17
   229          3
   230          3
   231          1
   232          2
   233          1
   242          2
   243          1
   244         98
   245         19
   246         10
   247          3
   249          1
   254          1
   255          1
   256          1
   257          1
   258          3
   259          1
   260        910
   261        210
   262         84
   263         14
   264          2
   270          1
   272         54
   273         15
   274          8
   275          1
   279          1
   286          2
   287          1
   288         19
   289          7
   290          3
   291         11
   292          3
   293          1
   302          1
   334         14
   335          5
   336          2
   337          1
   352          1
   362         54
   363         17
   364          9
   365          2
   377         29
   378         10
   379          4
   380          1