##TITLE=Library Entry 75996
##JCAMP-DX=Revision 4.10 
##DATA TYPE=MASS SPECTRUM
##SAMPLE DESCRIPTION=A.Pleshkova, Nesmeyanov Inst.Org.Elem.Cpds, Moscow
##NAMES=HP
##CAS NAME=Tranexamic acid, 2TMS derivative
##MOLFORM=C14H31NO2Si2
##CAS REGISTRY NO=66434-48-8
##MP= -300
##BP= -300
##MW= 301
##$RETENTION INDEX=0
##$CONDENSED SPECTRUM=NO
##NPOINTS= 37
##XYDATA=(XY..XY) 1 
    45         60
    46          3
    47          2
    59         55
    60          3
    61          2
    73        289
    74         26
    75         94
    76          9
    77          3
    78          2
   102        999
   103        101
   104         38
   105          2
   110         43
   111          9
   147         70
   148         12
   149          5
   197         31
   198          5
   214         19
   215          2
   258          9
   272         38
   273          9
   274          3
   286         72
   287         19
   288          7
   289          2
   301         26
   302          7
   303          3
   304          2