##TITLE=Library Entry 23194
##JCAMP-DX=Revision 4.10 
##DATA TYPE=MASS SPECTRUM
##SAMPLE DESCRIPTION=F. TURECEK,HEYROVSKY INST PHYS CHEM & ELECTROCHEM,PRAGU
E,CZECH
##NAMES=HP
##CAS NAME=1-[(Phenylsulfinyl)methyl]oxirane
##MOLFORM=C9H10O2S
##CAS REGISTRY NO=66464-42-4
##MP= -300
##BP= -300
##MW= 182
##$RETENTION INDEX=0
##$CONDENSED SPECTRUM=NO
##NPOINTS= 86
##XYDATA=(XY..XY) 1 
    26         80
    27        454
    29        717
    30         28
    31        838
    37         21
    38         44
    39        236
    40         26
    41        366
    42         28
    43         89
    44         52
    45        203
    49         61
    50        164
    51        518
    52         55
    53         98
    55         77
    56         40
    57        999
    58         54
    59         18
    62         21
    63         55
    64         26
    65        186
    66         97
    67         35
    68         13
    69         80
    70         24
    71         48
    73         31
    74         50
    75         37
    76         37
    77        615
    78        833
    79         87
    81         59
    82         22
    83         33
    84         48
    85         32
    86         23
    91        108
    92         31
    93         20
    94         28
    95         30
    96         15
    97        238
    98         17
    99         14
   103         17
   104         18
   105         28
   108         31
   109        211
   110        216
   111         32
   115         36
   116         14
   117         73
   118         29
   119         20
   123        154
   124         46
   125        408
   126        551
   127         62
   128         38
   129         28
   133         20
   134         14
   135         36
   136          8
   141        158
   142         15
   165         31
   166         67
   167         16
   182        169
   183         24