##TITLE=Library Entry 66381
##JCAMP-DX=Revision 4.10 
##DATA TYPE=MASS SPECTRUM
##SAMPLE DESCRIPTION=Chemical Concepts
##NAMES=HP
##CAS NAME=1,3-Isobenzofurandione, 3a,4,7,7a-tetrahydro-4,5-dimethyl-
##MOLFORM=C10H12O3
##CAS REGISTRY NO=66491-67-6
##MP= -300
##BP= -300
##MW= 180
##$RETENTION INDEX=0
##$CONDENSED SPECTRUM=NO
##NPOINTS= 104
##XYDATA=(XY..XY) 1 
    26         22
    27        124
    28         34
    29         36
    37          6
    38         26
    39        229
    40         41
    41        142
    42         18
    43         18
    44         10
    45         16
    46          6
    49          3
    50         46
    51        117
    52         64
    53        122
    54         37
    55         35
    56          5
    57          7
    59          3
    60          7
    61          4
    62         16
    63         41
    64         14
    65        115
    66         28
    67        146
    68         20
    69         10
    70          3
    71          4
    73          3
    74          9
    75          4
    76          6
    77        290
    78         90
    79        120
    80         46
    81         53
    82        101
    83          9
    84          3
    85          2
    86          2
    87          3
    89          7
    90          9
    91        410
    92         82
    93        999
    94         99
    95         13
    96          7
    97          5
    98          4
    99         13
   100          5
   101          2
   102          3
   103         11
   104          5
   105         45
   106         42
   107        818
   108        410
   109         46
   110          5
   111          8
   115          2
   116          1
   117          3
   118          2
   119         11
   120          4
   121         11
   122          4
   123          8
   124         30
   125          2
   126          2
   129          2
   133          4
   134         12
   135         20
   136          4
   137         57
   139          3
   147          3
   149         13
   150          3
   151          6
   152        659
   153         57
   154          6
   162          3
   180        171
   181         24
   182          4