##TITLE=Library Entry 45354
##JCAMP-DX=Revision 4.10 
##DATA TYPE=MASS SPECTRUM
##SAMPLE DESCRIPTION=Japan AIST/NIMC Database- Spectrum MS-IW-7536
##NAMES=HP
##CAS NAME=Silane, (1-cyclohexen-1-yloxy)trimethyl-
##MOLFORM=C9H18OSi
##CAS REGISTRY NO=6651-36-1
##MP= -300
##BP= -300
##MW= 170
##$RETENTION INDEX=0
##$CONDENSED SPECTRUM=NO
##NPOINTS= 124
##XYDATA=(XY..XY) 1 
    15          4
    16          1
    17          1
    18          7
    26          3
    27         28
    28          9
    29         11
    30          1
    31          8
    38          2
    39         32
    40          7
    41         53
    42         23
    43         51
    44         28
    45        154
    46          9
    47         54
    48          3
    49          2
    50          4
    51         11
    52          9
    53         28
    54          7
    55         58
    56         15
    57         23
    58         12
    59         73
    60         10
    61         43
    62          6
    63         10
    64          3
    65          8
    66         10
    67          9
    68         14
    69         18
    70         50
    71         11
    72         22
    73        754
    74         66
    75        999
    76         93
    77         77
    78         12
    79         55
    80         21
    81         30
    82          3
    83          9
    84          3
    85         70
    86          7
    87          6
    89          5
    91          5
    92          1
    93          2
    94          3
    95          6
    96          7
    97         10
    98         24
    99         36
   100          4
   101         12
   102          1
   103          2
   105          1
   109          7
   110          1
   111         17
   112          5
   113         18
   114          7
   115          7
   116          4
   117          1
   119          2
   121          1
   123          1
   124          1
   125          9
   126          9
   127        529
   128         63
   129         27
   130          3
   131          3
   133          2
   134          1
   135          1
   137          4
   139          9
   140          2
   141         64
   142        260
   143         36
   144         10
   145          1
   147         72
   148         10
   149          6
   151         13
   152          2
   153          7
   154          3
   155        694
   156         97
   157         31
   158          3
   166          2
   167          3
   169        399
   170        741
   171        125
   172         33
   173          3