##TITLE=Library Entry 114088
##JCAMP-DX=Revision 4.10 
##DATA TYPE=MASS SPECTRUM
##SAMPLE DESCRIPTION=D. KUEHL AND G. VEITH, EPA- DULUTH, USA
##NAMES=HP
##CAS NAME=1,2-Naphthalenedione, 4-chloro-
##MOLFORM=C10H5ClO2
##CAS REGISTRY NO=6655-90-9
##MP= -300
##BP= -300
##MW= 192
##$RETENTION INDEX=0
##$CONDENSED SPECTRUM=NO
##NPOINTS= 22
##XYDATA=(XY..XY) 1 
    65         51
    74        310
    75        570
    76        663
    99         60
   101        599
   102        157
   104        434
   105         61
   129        999
   130        159
   135         58
   136        124
   138         56
   157        430
   158        103
   164        170
   166         72
   191         60
   192        774
   193        105
   194        323