##TITLE=Library Entry 2687
##JCAMP-DX=Revision 4.10 
##DATA TYPE=MASS SPECTRUM
##SAMPLE DESCRIPTION=V.G.Zaikin, TIPS, Russian Acad. Sci., Moscow
##NAMES=HP
##CAS NAME=4-Chloro-3-n-hexyltetrahydropyran
##MOLFORM=C11H21ClO
##CAS REGISTRY NO=66555-66-6
##MP= -300
##BP= -300
##MW= 204
##$RETENTION INDEX=0
##$CONDENSED SPECTRUM=NO
##NPOINTS= 87
##XYDATA=(XY..XY) 1 
    38         80
    39        465
    40        110
    41        999
    42        238
    43        585
    44         75
    45         60
    49         31
    50         30
    51         72
    52         40
    53        222
    54        310
    55        788
    56        260
    57        169
    58         22
    62         20
    63         30
    65         53
    66         84
    67        446
    68        410
    69        487
    70        160
    71         70
    72         10
    75         50
    76         30
    77         74
    78         39
    79        170
    80         81
    81        340
    82        190
    83        483
    84        240
    85        110
    86          7
    87          9
    88         22
    90         10
    91         36
    92         40
    93         57
    94         48
    95        160
    96        117
    97        363
    98         65
    99         11
   101         18
   102         38
   103         18
   104         20
   105         60
   107         73
   108         42
   109        190
   110         75
   111        145
   112         30
   113          8
   115         18
   116          8
   117          7
   118          7
   119         11
   121         41
   122         34
   123         42
   124         48
   125        202
   126         27
   137         20
   138         19
   139         17
   150         40
   151         18
   158          7
   168         50
   169         16
   203          1
   204          2
   205          1
   206          1