##TITLE=Library Entry 85532
##JCAMP-DX=Revision 4.10 
##DATA TYPE=MASS SPECTRUM
##SAMPLE DESCRIPTION=J.VOTH UNIV. OF CALIFORNIA, DAVIS, CALIFORNIA, 95616, U
SA
##NAMES=HP
##CAS NAME=Dodec-5-yn-6-one
##MOLFORM=C12H20O
##CAS REGISTRY NO=66552-60-1
##MP= -300
##BP= -300
##MW= 180
##$RETENTION INDEX=0
##$CONDENSED SPECTRUM=NO
##NPOINTS= 109
##XYDATA=(XY..XY) 1 
    12          2
    13          2
    14         10
    15         82
    16          4
    17         11
    18         36
    25          2
    26         61
    27        942
    28        115
    29        531
    30         12
    31          6
    37          1
    38         84
    39        575
    40         72
    41        862
    42        140
    43        783
    44         26
    45          7
    49          4
    50         47
    51        120
    52         91
    53        624
    54        128
    55        421
    56         43
    57         42
    58          4
    61          9
    62         23
    63         57
    64         29
    65        105
    66        383
    67        257
    68        120
    69         51
    70         77
    71        102
    72          7
    73          3
    74         13
    75         12
    76          7
    77        137
    78         41
    79        368
    80         70
    81        403
    82        265
    83         34
    84          4
    85         10
    86          2
    87          2
    89          4
    90          2
    91         55
    92         10
    93         26
    94         42
    95        186
    96         62
    97         16
    98         22
    99        151
   100         11
   103          4
   104          2
   105         15
   106          4
   107         29
   108         22
   109        999
   110        155
   111         16
   112          3
   115          2
   117          3
   119          5
   120          2
   121          8
   122          5
   123        186
   124        913
   125        104
   126          8
   127          2
   133          8
   135          2
   136          2
   137        135
   138         47
   139          5
   147          2
   151        276
   152         46
   153          4
   162          2
   165         22
   166          3
   179          3
   180         26
   181          7