##TITLE=Library Entry 68814
##JCAMP-DX=Revision 4.10 
##DATA TYPE=MASS SPECTRUM
##SAMPLE DESCRIPTION=G.A.M.S., PARIS, FRANCE.
##NAMES=HP
##CAS NAME=Naphthalene, decahydro-1,5-dimethyl-
##MOLFORM=C12H22
##CAS REGISTRY NO=66552-62-3
##MP= -300
##BP= -300
##MW= 166
##$RETENTION INDEX=1299
##$CONDENSED SPECTRUM=NO
##NPOINTS= 85
##XYDATA=(XY..XY) 1 
    15          3
    26          4
    27         97
    29        127
    30          2
    38          1
    39        121
    40         24
    41        353
    42         36
    43         55
    50          2
    51         16
    52         11
    53         96
    54        102
    55        419
    56         42
    57         24
    58          1
    59          1
    62          1
    63          3
    64          1
    65         30
    66         31
    67        439
    68        170
    69        188
    70         19
    71          4
    75          1
    77         46
    78         10
    79         71
    80         39
    81        562
    82        466
    83        220
    84         16
    85          2
    89          1
    91         29
    92          3
    93         31
    94         54
    95        999
    96        455
    97         72
    98          4
   103          1
   105          4
   106          1
   107          8
   108         17
   109        285
   110        185
   111         31
   112          2
   113          1
   114          2
   115          1
   116          1
   117          1
   121          4
   122          4
   123         75
   124         33
   125         17
   126          1
   135          2
   136          1
   137         47
   138         26
   139          2
   149          1
   150          1
   151        163
   152         93
   153          9
   164          1
   165          3
   166        655
   167         85
   168          5