##TITLE=Library Entry 19181
##JCAMP-DX=Revision 4.10 
##DATA TYPE=MASS SPECTRUM
##SAMPLE DESCRIPTION=V.G.Zaikin, TIPS, Russian Acad. Sci., Moscow
##NAMES=HP
##CAS NAME=4-Chloro-3-cyclohexyltetrahydropyran
##MOLFORM=C11H19ClO
##CAS REGISTRY NO=66555-67-7
##MP= -300
##BP= -300
##MW= 202
##$RETENTION INDEX=0
##$CONDENSED SPECTRUM=NO
##NPOINTS= 82
##XYDATA=(XY..XY) 1 
    37         21
    38         36
    39        436
    40         75
    41        902
    42         90
    43        119
    44         42
    45         42
    49         28
    50         39
    51         96
    52         45
    53        284
    54        287
    55        999
    56        137
    57         55
    58         14
    62         21
    63         38
    64         12
    65         91
    66         69
    67        826
    68        276
    69        183
    70        156
    71        109
    75         48
    76         27
    77        144
    78         55
    79        313
    80        189
    81        636
    82        798
    83         15
    84        148
    85        184
    86         18
    88         12
    89         34
    90         11
    91        104
    92         51
    93        160
    94        137
    95        178
    96        281
    97         61
    98         19
   101         11
   102         27
   103         16
   104         11
   105         67
   106         33
   107        146
   108         69
   109        159
   110         30
   111         18
   116         47
   117         26
   118         19
   119         42
   120         41
   121        139
   122         67
   123         61
   124         16
   133         22
   134         26
   135         94
   136        134
   137         28
   148         39
   149         39
   165         21
   166        361
   167         53