##TITLE=Library Entry 30105
##JCAMP-DX=Revision 4.10 
##DATA TYPE=MASS SPECTRUM
##SAMPLE DESCRIPTION=K.Yu ET AL.,Biomed. Mass Spectrom.,14,639(1987)
##NAMES=HP
##CAS NAME=2,3,4-Trimethyl-2-pentanol
##MOLFORM=C8H18O
##CAS REGISTRY NO=66576-26-9
##MP= -300
##BP= -300
##MW= 130
##$RETENTION INDEX=0
##$CONDENSED SPECTRUM=NO
##NPOINTS= 15
##XYDATA=(XY..XY) 1 
    40          9
    41         14
    43         42
    55         47
    57          9
    58         28
    59        999
    60          9
    66          9
    69          9
    70         23
    71        150
    73         19
    97         37
   115         28