##TITLE=Library Entry 9754
##JCAMP-DX=Revision 4.10 
##DATA TYPE=MASS SPECTRUM
##SAMPLE DESCRIPTION=NIST Mass Spectrometry Data Center, 1990.
##NAMES=HP
##CAS NAME=3-Ethyl-3-methyl-2-pentanol
##MOLFORM=C8H18O
##CAS REGISTRY NO=66576-22-5
##MP= -300
##BP= -300
##MW= 130
##$RETENTION INDEX=1386
##$CONDENSED SPECTRUM=NO
##NPOINTS= 40
##XYDATA=(XY..XY) 1 
    26         18
    27        172
    28         11
    29        173
    31         20
    39        203
    40         47
    41        486
    42         11
    43        999
    44         55
    45        516
    46         13
    50         15
    51         37
    52         16
    53         97
    54         13
    55        597
    56        130
    57        402
    58         26
    59        205
    65         23
    67         60
    69        341
    70         41
    71         67
    72          9
    73         58
    79         12
    81         12
    83        315
    84        866
    85        802
    86         47
    97         29
   101         54
   112         55
   115         23