##TITLE=Library Entry 24845
##JCAMP-DX=Revision 4.10 
##DATA TYPE=MASS SPECTRUM
##SAMPLE DESCRIPTION=V.A.KOPTYUG, ATLAS OF MASS SPECTRA OF ORGANIC COMPOUNDS
##NAMES=HP
##CAS NAME=2,2,5,5-Tetramethyl-4-ethyl-3-imidazoline-3-oxide-1-oxyl
##MOLFORM=C9H17N2O2
##CAS REGISTRY NO=66582-85-2
##MP= -300
##BP= -300
##MW= 185
##$RETENTION INDEX=0
##$CONDENSED SPECTRUM=NO
##NPOINTS= 105
##XYDATA=(XY..XY) 1 
    30        143
    31         24
    32          5
    37         12
    38         24
    39        273
    40         78
    41        607
    42        323
    43        240
    44         10
    45          6
    50         10
    51         26
    52         15
    53        104
    54         66
    55        521
    56        782
    57        999
    58         81
    59        128
    60          5
    61          4
    62          3
    63          7
    65         30
    66         17
    67        145
    68         45
    69         85
    70         96
    71         63
    72         53
    73         36
    74         70
    75         25
    77         14
    78          4
    79         24
    80          9
    81         47
    82         85
    83        581
    84         48
    85         62
    86         20
    87         88
    88         53
    89          3
    91          5
    92          2
    93          4
    94          9
    95         68
    96         32
    97        142
    98        331
    99        142
   100         11
   102          6
   103          2
   104          3
   105          2
   106          1
   107          3
   108         14
   109         30
   110         10
   111          9
   112         17
   113         51
   114        111
   115         20
   121          3
   122          9
   123         25
   124         40
   125         29
   126          3
   127          4
   128          2
   135          2
   136          3
   137          7
   138         19
   139         47
   140         58
   141         21
   142          2
   153          5
   154         21
   155         56
   156        149
   157         16
   158          3
   169         87
   170        217
   171         25
   172          3
   183          1
   184        108
   185        272
   186         54
   187          6