##TITLE=Library Entry 2495
##JCAMP-DX=Revision 4.10 
##DATA TYPE=MASS SPECTRUM
##SAMPLE DESCRIPTION=Japan AIST/NIMC Database- Spectrum MS-IW-1493
##NAMES=HP
##CAS NAME=4-Methyl-2-oxopentanenitrile
##MOLFORM=C6H9NO
##CAS REGISTRY NO=66582-16-9
##MP= -300
##BP= -300
##MW= 111
##$RETENTION INDEX=0
##$CONDENSED SPECTRUM=NO
##NPOINTS= 70
##XYDATA=(XY..XY) 1 
    12          1
    13          1
    14          7
    15         28
    16          1
    25          1
    26         31
    27        307
    28         88
    29        263
    30          7
    31          4
    36          2
    37         18
    38         41
    39        318
    40         67
    41        999
    42        571
    43        947
    44         45
    45         22
    46          2
    49          4
    50         15
    51         32
    52         18
    53         26
    54        127
    55        114
    56         56
    57        475
    58         21
    59          9
    60         89
    61          6
    62          2
    63          3
    64          6
    65          9
    66         18
    67         24
    68         91
    69        219
    70        581
    71         23
    72          2
    74          1
    75          2
    76          3
    77          3
    78         26
    79          3
    80          2
    81          4
    82         48
    83         62
    84         22
    85        324
    86         20
    87         16
    88          1
    95          3
    96        155
    97          9
    98          1
   109          1
   110         16
   111          3
   112          1