##TITLE=Library Entry 17881
##JCAMP-DX=Revision 4.10 
##DATA TYPE=MASS SPECTRUM
##SAMPLE DESCRIPTION=MINISTRY OF TECH. E.R.D.E., WALTHAM ABBEY, UK
##NAMES=HP
##CAS NAME=1,2,4-Butanetriol, trinitrate
##MOLFORM=C4H7N3O9
##CAS REGISTRY NO=6659-60-5
##MP= -300
##BP= -300
##MW= 241
##$RETENTION INDEX=1532
##$CONDENSED SPECTRUM=NO
##NPOINTS= 38
##XYDATA=(XY..XY) 1 
    12          2
    13          2
    14          7
    15        111
    16         10
    26         21
    27         90
    28        388
    29        209
    30        152
    31         61
    32          6
    38          4
    39         41
    40         32
    41        109
    42         70
    43        438
    44         59
    45         41
    46        999
    47          4
    50          8
    51          7
    55        102
    56         31
    57         99
    58         70
    59         10
    71        328
    72        121
    73        132
    74          9
    76         82
    77         11
    90          8
   104          6
   165          5