##TITLE=Library Entry 97734
##JCAMP-DX=Revision 4.10 
##DATA TYPE=MASS SPECTRUM
##SAMPLE DESCRIPTION=ASES Database, Dalian Institute, P.R. China
##NAMES=HP
##CAS NAME=2-Methyl-7-oxo-4,5,6,7-tetrahydroimidazo(4,5,1-jk)[1,4]benzodiaze
pine
##MOLFORM=C11H11N3O
##CAS REGISTRY NO=66596-64-3
##MP= -300
##BP= -300
##MW= 201
##$RETENTION INDEX=0
##$CONDENSED SPECTRUM=NO
##NPOINTS= 49
##XYDATA=(XY..XY) 1 
    40         48
    41         88
    42        127
    43         48
    45         49
    50        217
    51        168
    52        127
    53         51
    61         59
    62        129
    63        218
    64        107
    65         78
    74        170
    75        360
    76        616
    77        358
    78         78
    83         51
    85         40
    86         80
    88         78
    89        150
    90        170
    91         69
   102        130
   103        199
   104        121
   105         70
   116        118
   117        999
   118        129
   129         89
   130         88
   131         99
   132         40
   143         98
   144        827
   145        197
   146         58
   157        179
   158         70
   159         70
   171         80
   172        550
   173        168
   201        857
   202        139