##TITLE=Library Entry 17913
##JCAMP-DX=Revision 4.10 
##DATA TYPE=MASS SPECTRUM
##SAMPLE DESCRIPTION=Exported from NIST MS Search
##NAMES=HP
##CAS NAME=Acetone-D6
##MOLFORM=C3D6O
##CAS REGISTRY NO=666-52-4
##MP= -300
##BP= -300
##MW= 64
##$RETENTION INDEX=0
##$CONDENSED SPECTRUM=NO
##NPOINTS= 25
##XYDATA=(XY..XY) 1 
    14          7
    16         26
    18        184
    26          5
    28         45
    29          1
    30         47
    31          1
    32          8
    33          0
    34         14
    36          2
    38         12
    40         16
    42         38
    44         51
    45          1
    46        999
    47         22
    48          2
    62         12
    63          1
    64        368
    65         12
    66          1