##TITLE=Library Entry 5992
##JCAMP-DX=Revision 4.10 
##DATA TYPE=MASS SPECTRUM
##SAMPLE DESCRIPTION=Japan AIST/NIMC Database- Spectrum MS-NW-7192
##NAMES=HP
##CAS NAME=Agaricic acid
##MOLFORM=C22H40O7
##CAS REGISTRY NO=666-99-9
##MP= -300
##BP= -300
##MW= 416
##$RETENTION INDEX=0
##$CONDENSED SPECTRUM=NO
##NPOINTS= 317
##XYDATA=(XY..XY) 1 
    12          4
    14          1
    15         10
    16         15
    17          4
    18         20
    26          5
    27        150
    28         74
    29        380
    30          9
    31          6
    38          2
    39         98
    40         25
    41        748
    42        141
    43        999
    44        366
    45         17
    46          2
    47          1
    50          1
    51          8
    52          9
    53         84
    54        128
    55        651
    56        155
    57        515
    58        279
    59        216
    60         31
    61          9
    63          2
    65         16
    66         18
    67        189
    68        112
    69        306
    70        101
    71        222
    72         16
    73         47
    74          8
    75          2
    76          1
    77         17
    78          8
    79         64
    80         55
    81        188
    82        138
    83        206
    84         95
    85         99
    86         13
    87         70
    88          5
    89          7
    90          2
    91         18
    92          9
    93         51
    94         63
    95        160
    96        124
    97        198
    98        219
    99         35
   100         26
   101          7
   102        232
   103         77
   104          8
   105         13
   106          7
   107         39
   108         37
   109         98
   110         57
   111         86
   112         76
   113         43
   114         13
   115        243
   116         27
   117          7
   118          5
   119         12
   120          8
   121         42
   122         41
   123         63
   124         44
   125         42
   126        188
   127         29
   128        123
   129         66
   130         15
   131         14
   132          4
   133         13
   134         10
   135         36
   136         36
   137         55
   138         53
   139         53
   140         75
   141         51
   142         16
   143          9
   144         19
   145          7
   146         68
   147         47
   148         16
   149         26
   150         47
   151         47
   152         51
   153         33
   154         46
   155         23
   156         18
   157          9
   158          9
   159         16
   160          4
   161          8
   162          7
   163         24
   164         23
   165         27
   166         36
   167         20
   168         38
   169         17
   170         55
   171         11
   172          6
   173          6
   174          2
   175          7
   176          6
   177         19
   178         20
   179         22
   180         25
   181         17
   182         15
   183          9
   184         67
   185          9
   186          5
   187          5
   188         12
   189          6
   190          6
   191         13
   192         14
   193         16
   194         27
   195         14
   196         17
   197          8
   198         16
   199          4
   200          4
   201          7
   202          5
   203          4
   204          4
   205         10
   206          8
   207         11
   208          9
   209          9
   210         18
   211          6
   212          7
   213          3
   214          3
   215          3
   216          2
   217          3
   218          3
   219          7
   220          8
   221          9
   222         23
   223         10
   224         17
   225          6
   226          4
   227          2
   228          4
   229          2
   230          2
   231          2
   232          3
   233          6
   234         16
   235         16
   236          8
   237          7
   238          5
   239          5
   240          5
   241          3
   242          3
   243          1
   244          1
   245          7
   246          9
   247         15
   248         20
   249          9
   250          7
   251          7
   252          5
   253          3
   254          3
   255          3
   256          2
   257          1
   258          1
   259          2
   260          3
   261          7
   262          9
   263         22
   264         17
   265         25
   266         18
   267         20
   268          6
   269          5
   270          2
   271          1
   272          1
   273          3
   274          5
   275          5
   276          6
   277          6
   278          5
   279          5
   280          6
   281          3
   282         17
   283         10
   284          8
   285          2
   286          1
   287          1
   288          4
   289          6
   290         12
   291         15
   292         12
   293         12
   294          6
   295          3
   296          3
   297          2
   298          2
   300          1
   301          1
   303          2
   304          2
   305          3
   306         24
   307          8
   308         42
   309         12
   310         11
   311          4
   312          1
   314          1
   315          1
   316         12
   317          5
   318         30
   319          8
   320          2
   321          1
   323          2
   324         13
   325          4
   326         23
   327          6
   328          2
   333          2
   334         67
   335         24
   336         33
   337          9
   338          3
   339          1
   342          2
   344          1
   351          3
   352         33
   353         22
   354          6
   355          1
   356          1
   362          5
   363          1
   370         12
   371          3
   380          3
   381          2
   398          1