##TITLE=Library Entry 109134
##JCAMP-DX=Revision 4.10 
##DATA TYPE=MASS SPECTRUM
##SAMPLE DESCRIPTION=Chemical Concepts
##NAMES=HP
##CAS NAME=4-(4-Carboxyphenylsulfonyl)-1,8-naphthalic anhydride
##MOLFORM=C19H10O7S
##CAS REGISTRY NO=66605-53-6
##MP= -300
##BP= -300
##MW= 382
##$RETENTION INDEX=0
##$CONDENSED SPECTRUM=NO
##NPOINTS= 128
##XYDATA=(XY..XY) 1 
    36          5
    39        484
    40         30
    41         47
    42         15
    45        334
    46          1
    47          2
    48         21
    50        549
    51        342
    52         68
    53         84
    54         12
    55         17
    56          7
    57          9
    58          4
    62        193
    63        242
    65        873
    66         39
    67         15
    69         52
    70         17
    71          7
    74        585
    75        820
    76        279
    77        110
    78         28
    79         19
    80         13
    81         30
    82         12
    83          5
    85         53
    86         80
    87         88
    89         81
    91        266
    92         46
    93         34
    94          7
    95         15
    98        310
    99        369
   100         54
   101         25
   102         20
   103         52
   104         82
   105         15
   106          5
   107         16
   108         13
   109         16
   110         19
   111         24
   113        231
   114         23
   115         10
   116          3
   117          4
   118          2
   119          9
   121        186
   122         71
   123         40
   125        999
   126        109
   127          6
   129         31
   133          3
   135          4
   136          1
   137          2
   139        133
   141        242
   142         25
   143          5
   145         53
   146          5
   150          9
   153        234
   154         31
   155         10
   157         27
   158          3
   163          4
   169        241
   170         29
   171          9
   172          2
   173         21
   174          9
   175          2
   176          2
   185         72
   186          9
   187         11
   188          8
   189         26
   190          4
   197          4
   198          8
   199          9
   200         63
   201         55
   202         22
   203          3
   213         14
   215         19
   216         24
   217         14
   218          2
   219          4
   229         36
   230          8
   243          3
   244          8
   245         10
   246          8
   274          4
   337          2
   338         22
   339          3
   382          7