##TITLE=Library Entry 57218
##JCAMP-DX=Revision 4.10 
##DATA TYPE=MASS SPECTRUM
##SAMPLE DESCRIPTION=Chemical Concepts
##NAMES=HP
##CAS NAME=Dodecanoic acid, 11-hydroxy-, methyl ester
##MOLFORM=C13H26O3
##CAS REGISTRY NO=66605-95-6
##MP= -300
##BP= -300
##MW= 230
##$RETENTION INDEX=0
##$CONDENSED SPECTRUM=NO
##NPOINTS= 109
##XYDATA=(XY..XY) 1 
    28         33
    29        116
    31         30
    39         61
    40         15
    41        321
    42         86
    43        268
    44         39
    45        701
    46         17
    53         30
    54         45
    55        442
    56         76
    57        105
    58         28
    59        148
    60          8
    65          5
    66          6
    67        105
    68         63
    69        278
    70         45
    71         64
    72          9
    73         36
    74        686
    75         69
    76          5
    77          7
    79         20
    80         12
    81        129
    82         54
    83        162
    84        110
    85         47
    86          6
    87        999
    88         85
    89          8
    91          6
    92          4
    93         12
    94         21
    95        112
    96        119
    97        128
    98         88
    99         18
   100          6
   101        102
   102         12
   105          5
   107          9
   108          7
   109         27
   110         49
   111         63
   112         25
   113         13
   114         20
   115         53
   116         13
   119          8
   121         12
   123         31
   124         16
   125         29
   126          6
   127         10
   128         15
   129         93
   130         15
   135          5
   136         22
   137         31
   138         96
   139         36
   140          4
   141          9
   143        331
   144         37
   147         10
   151         13
   152          9
   154          7
   155         10
   157         52
   158         10
   162         16
   163         29
   165          9
   169          6
   170          7
   180         49
   181         57
   182          7
   183        151
   184         20
   186        336
   187         66
   188          7
   198         10
   200         18
   214          4
   215         12