##TITLE=Library Entry 91286
##JCAMP-DX=Revision 4.10 
##DATA TYPE=MASS SPECTRUM
##SAMPLE DESCRIPTION=V.G.Zaikin, TIPS, Russian Acad. Sci.
##NAMES=HP
##CAS NAME=4-n-Hexylthiane
##MOLFORM=C11H22S
##CAS REGISTRY NO=66625-25-0
##MP= -300
##BP= -300
##MW= 186
##$RETENTION INDEX=0
##$CONDENSED SPECTRUM=NO
##NPOINTS= 50
##XYDATA=(XY..XY) 1 
    40         50
    41        700
    42         80
    43        300
    44         20
    45        210
    46         80
    47        200
    53        100
    54        110
    55        660
    56        100
    57        110
    59        130
    60        110
    61        300
    65         50
    67        430
    68        220
    69        410
    70         80
    73        110
    74         80
    81        250
    82        260
    83        170
    87        270
    95        220
   101        290
   102        100
   109         90
   115        999
   116        100
   117         50
   123         90
   124         20
   125         30
   129        190
   130         25
   143         20
   157         40
   158         10
   171        160
   172         20
   173         10
   185         50
   186        440
   187         58
   188         23
   189          2