##TITLE=Library Entry 33056
##JCAMP-DX=Revision 4.10 
##DATA TYPE=MASS SPECTRUM
##SAMPLE DESCRIPTION=D.HENNEBERG, MAX-PLANCK INSTITUTE, MULHEIM, WEST GERMAN
Y
##NAMES=HP
##CAS NAME=4H-Cyclopentacyclooctene, decahydro-
##MOLFORM=C11H20
##CAS REGISTRY NO=6663-95-2
##MP= -300
##BP= -300
##MW= 152
##$RETENTION INDEX=0
##$CONDENSED SPECTRUM=NO
##NPOINTS= 69
##XYDATA=(XY..XY) 1 
    27        189
    28        100
    29        197
    30          4
    38          5
    39        291
    40         49
    41        755
    42         74
    43         81
    44          2
    50          8
    51         30
    52         21
    53        152
    54        343
    55        583
    56         99
    57         35
    58          1
    63          7
    64          2
    65         45
    66         84
    67        999
    68        356
    69        286
    70         51
    71          7
    77         55
    78         20
    79        115
    80         55
    81        599
    82        902
    83        209
    84         22
    85          6
    91         24
    92          2
    93         31
    94         36
    95        737
    96        989
    97         35
    98          8
   103          6
   104          9
   105          4
   107          7
   108         14
   109        237
   110        243
   111         42
   112          2
   121          2
   122          4
   123        110
   124        348
   125         31
   126          1
   137          8
   138          1
   146          5
   148          2
   151          1
   152        166
   153         19
   154          1