##TITLE=Library Entry 81067
##JCAMP-DX=Revision 4.10 
##DATA TYPE=MASS SPECTRUM
##SAMPLE DESCRIPTION=B. Derendyaev, Novosibirsk Institute of Organic Chemist
ry
##NAMES=HP
##CAS NAME=4-Benzoyloxyimino-2-carene
##MOLFORM=C17H19NO2
##CAS REGISTRY NO=66656-84-6
##MP= -300
##BP= -300
##MW= 269
##$RETENTION INDEX=0
##$CONDENSED SPECTRUM=NO
##NPOINTS= 47
##XYDATA=(XY..XY) 1 
    41         37
    42          6
    43         25
    50         11
    51         40
    52         10
    53         17
    55          7
    65         22
    66          8
    67         10
    76          7
    77        250
    78         27
    79         24
    80          7
    83         10
    85          7
    91         44
    92         10
    93        108
    94         16
   103          6
   104         22
   105        999
   106        104
   107         24
   115          9
   116          5
   117         22
   118         22
   119         28
   120         24
   121          7
   122         55
   123          7
   130         10
   131         10
   132        364
   133         41
   134         71
   135          7
   146         71
   147        235
   148         34
   149         23
   269          9