##TITLE=Library Entry 79712
##JCAMP-DX=Revision 4.10 
##DATA TYPE=MASS SPECTRUM
##SAMPLE DESCRIPTION=Chemical Concepts
##NAMES=HP
##CAS NAME=Ethanone, 2-(2-ethenylphenyl)-1-phenyl-
##MOLFORM=C16H14O
##CAS REGISTRY NO=66657-90-7
##MP= -300
##BP= -300
##MW= 222
##$RETENTION INDEX=0
##$CONDENSED SPECTRUM=NO
##NPOINTS= 113
##XYDATA=(XY..XY) 1 
    26          1
    27         11
    28          7
    29          1
    30          0
    32          1
    37          0
    38          3
    39         35
    40          2
    41          6
    42          1
    43          3
    44          1
    50         18
    51         78
    52          7
    53          2
    55          1
    56          2
    57          3
    58          0
    59          0
    61          0
    62          4
    63         18
    64          3
    65         19
    66          1
    69          1
    70          1
    71          1
    73          0
    74          4
    75          7
    76         13
    77        328
    78         25
    79          1
    81          0
    82          0
    83          0
    85          0
    86          1
    87          2
    88          2
    89         14
    90          3
    91         32
    92          2
    94          0
    95          0
    98          0
    99          0
   101          1
   102          5
   103          2
   104          2
   105        999
   106         76
   107          5
   111          0
   113          2
   114          2
   115         76
   116         24
   117         24
   118          3
   119          0
   126          0
   127          1
   128          1
   129          0
   131          3
   132          1
   133          1
   139          1
   145          0
   146          0
   147          0
   148          1
   149          4
   150          0
   151          1
   152          1
   153          0
   155          0
   159          0
   160          0
   161          0
   163          0
   165          3
   167          1
   170          0
   176          1
   177          0
   178          3
   179          1
   189          1
   190          0
   191          1
   192          0
   193          3
   194          1
   202          1
   203          0
   204          1
   205          0
   207          8
   208          1
   222        109
   223         19
   224          1