##TITLE=Library Entry 50794
##JCAMP-DX=Revision 4.10 
##DATA TYPE=MASS SPECTRUM
##SAMPLE DESCRIPTION=V.G.Zaikin, TIPS, Russian Acad. Sci.
##NAMES=HP
##CAS NAME=trans, cis-3-Ethylbicyclo[4.4.0]decane
##MOLFORM=C12H22
##CAS REGISTRY NO=66660-43-3
##MP= -300
##BP= -300
##MW= 166
##$RETENTION INDEX=0
##$CONDENSED SPECTRUM=NO
##NPOINTS= 48
##XYDATA=(XY..XY) 1 
    51         14
    52         14
    53         86
    54         86
    55        356
    56         27
    57         21
    65         38
    66         27
    67        486
    68        175
    69        247
    70         41
    71         21
    77         45
    78         14
    79         89
    80         41
    81        999
    82        164
    83         68
    84         27
    85         21
    91         27
    93         41
    94         48
    95        829
    96        240
    97         68
    98          7
   105         10
   107         14
   108         14
   109        212
   110         75
   111         14
   121          7
   123         34
   124         96
   125         14
   135         10
   136        164
   137        904
   138        123
   139         10
   166        602
   167         80
   168          5