##TITLE=Library Entry 65075
##JCAMP-DX=Revision 4.10 
##DATA TYPE=MASS SPECTRUM
##SAMPLE DESCRIPTION=A.A.Kutin, Moscow, Russia
##NAMES=HP
##CAS NAME=Benzenesulfonamide, 4-(4-nitrobenzylidenamino)-
##MOLFORM=C13H11N3O4S
##CAS REGISTRY NO=66667-60-5
##MP= -300
##BP= -300
##MW= 305
##$RETENTION INDEX=0
##$CONDENSED SPECTRUM=NO
##NPOINTS= 193
##XYDATA=(XY..XY) 1 
    33         13
    34          4
    36          4
    37         24
    38         90
    39        374
    40         67
    41        105
    42         48
    43         14
    44         19
    45         17
    46         29
    47         10
    48         35
    50        193
    51        177
    52        116
    53         89
    54         66
    55          9
    56          2
    57          5
    58          5
    60        108
    61         22
    62         82
    63        281
    64        274
    65        940
    66        104
    67          9
    68          5
    69         16
    70         17
    71          5
    72          2
    74         63
    75        210
    76        299
    77        130
    78         28
    80        188
    81         27
    82          7
    84         30
    85          5
    86          7
    87         14
    88         20
    89         82
    90         60
    92        999
    93         71
    94          6
    95          8
    96         11
    97         14
    99          8
   100          5
   101         12
   102         30
   103         30
   104         13
   105         10
   106         25
   108        623
   109         67
   110          6
   111          3
   112          4
   113          9
   114         12
   115         15
   116          8
   117         15
   118         12
   119         10
   120         12
   121          7
   122          4
   123         10
   124         11
   125         11
   126         21
   127         17
   128         20
   129         10
   130          3
   131          2
   132          1
   133          1
   134          2
   135          3
   136          8
   137          5
   139         87
   140         59
   141         14
   142          3
   143          1
   144          0
   145          1
   146          3
   147          2
   148          2
   149         12
   150         58
   151        159
   152        116
   153         53
   154         34
   156        758
   157         57
   158         35
   159          3
   160          0
   161          1
   162          1
   163          2
   164          8
   165         13
   166         50
   167         56
   168         17
   172        916
   173         72
   174         44
   175         11
   176         29
   177         99
   178        324
   179        223
   180         32
   181          7
   182          9
   183         68
   184          7
   185          4
   191          2
   192          6
   193         19
   194         44
   195         58
   196         12
   197          1
   198          0
   199          3
   206          0
   208         36
   209          5
   210          3
   211          6
   212          1
   214          0
   215          4
   216          5
   223          7
   225        161
   226         22
   227          5
   228          1
   229          0
   237          1
   238          6
   241        270
   242         40
   243          4
   246          8
   247          0
   248          0
   255          1
   256          6
   258        139
   259         22
   260          6
   261          1
   272          0
   273          5
   274          2
   275          1
   286          1
   287          2
   289         69
   290         10
   291          4
   292          0
   304        290
   305        930
   306        139
   307         51
   308          7
   309          0