##TITLE=Library Entry 79974
##JCAMP-DX=Revision 4.10 
##DATA TYPE=MASS SPECTRUM
##SAMPLE DESCRIPTION=L. Cohen, LC, NIDDK, NIH, Bethesda, MD 20892
##NAMES=HP
##CAS NAME=Propene, 1,2-dibenzoylamino-
##MOLFORM=C17H16N2O2
##CAS REGISTRY NO=66675-19-2
##MP= -300
##BP= -300
##MW= 280
##$RETENTION INDEX=0
##$CONDENSED SPECTRUM=NO
##NPOINTS= 43
##XYDATA=(XY..XY) 1 
    41          0
    42         32
    43          8
    44          8
    50         18
    51         92
    52          9
    54          2
    63          2
    70          0
    71          0
    72         61
    73          2
    74          6
    75          8
    76         27
    77        492
    78         36
    79          2
    98          1
   103          3
   104         17
   105        999
   106         79
   107          4
   118          1
   122          3
   130          4
   132          1
   146          4
   147          9
   157          8
   158         74
   159         63
   160          8
   174          0
   175         46
   176          6
   263          3
   279          0
   280        394
   281         76
   282          9