##TITLE=Library Entry 16891
##JCAMP-DX=Revision 4.10 
##DATA TYPE=MASS SPECTRUM
##SAMPLE DESCRIPTION=H. Luftmann, Org. Chem. Inst., Westfalisch Wilhelms Uni
v., Munster, Germany
##NAMES=HP
##CAS NAME=Hexane, 1-(methoxymethoxy)-
##MOLFORM=C8H18O2
##CAS REGISTRY NO=66675-06-7
##MP= -300
##BP= -300
##MW= 146
##$RETENTION INDEX=0
##$CONDENSED SPECTRUM=NO
##NPOINTS= 31
##XYDATA=(XY..XY) 1 
    39         39
    41        130
    42         52
    43        302
    44         31
    45        999
    46         28
    47         16
    54         13
    55         86
    56        152
    57         56
    58         11
    61         45
    67         27
    68         15
    69         46
    70         37
    71         44
    75        227
    76         11
    77         13
    81         36
    82         77
    83         72
    84         83
    85        126
    86         35
    96         57
    99         10
   101         16