##TITLE=Library Entry 80984
##JCAMP-DX=Revision 4.10 
##DATA TYPE=MASS SPECTRUM
##SAMPLE DESCRIPTION=L. Cohen, LC, NIDDK, NIH, Bethesda, MD 20892
##NAMES=HP
##CAS NAME=Histidine, N-benzoyl-2-trifluoromethyl-, methyl ester
##MOLFORM=C15H14F3N3O3
##CAS REGISTRY NO=66675-26-1
##MP= -300
##BP= -300
##MW= 341
##$RETENTION INDEX=0
##$CONDENSED SPECTRUM=NO
##NPOINTS= 194
##XYDATA=(XY..XY) 1 
    41          4
    42          3
    43          3
    44          7
    45          3
    47          2
    49          8
    50         17
    51         72
    52         10
    53          7
    54         12
    55          4
    56          1
    57          2
    58          0
    59          7
    60          3
    63          1
    64          1
    65          3
    66          3
    67          2
    69          7
    70          1
    71          1
    74          3
    75          6
    77        413
    78         29
    79         18
    80          3
    81          7
    82          2
    83          1
    84          7
    85          0
    86          5
    88          4
    89          2
    90          1
    91          2
    92          0
    93          0
    94          0
    96          3
    97          1
    99          2
   102         25
   103          8
   105        999
   106         78
   107          6
   108          3
   109          0
   110          1
   111          1
   114          2
   115          2
   116          1
   118          0
   119          0
   120          0
   122        420
   123         32
   124          3
   128          1
   129         19
   130         15
   131          4
   132          7
   133          4
   134          2
   136          1
   138          0
   139          1
   140          1
   141          6
   142          2
   143          0
   147          0
   148          1
   149         42
   150        205
   151         13
   153          2
   155          1
   156          0
   157          2
   158          2
   160          5
   161         18
   162         11
   163          3
   165          0
   167          0
   169          4
   170          1
   171          0
   175          3
   176         12
   177          8
   178          3
   179          2
   181          0
   182          0
   184          1
   185          1
   186          0
   187          1
   188         62
   189         75
   190          8
   191          1
   192          9
   193          4
   195          0
   196          1
   197          0
   198          0
   199          1
   201          9
   202          1
   204          4
   205          0
   206          2
   209          0
   213          0
   216          0
   217          1
   220        256
   221         33
   222          3
   223          2
   226          0
   227          0
   229          1
   231          1
   233          1
   235          0
   236        119
   237         12
   238          0
   239          1
   240          0
   241          1
   243          1
   245          0
   253          0
   254          1
   256         15
   257          2
   258          1
   260          0
   262          1
   264          4
   265          2
   269          0
   270          1
   272         23
   273          4
   276          4
   280          1
   281          7
   282        109
   283         17
   284          1
   285          0
   290          0
   291          1
   292          0
   293          0
   294          0
   296          0
   297          1
   302          1
   304          3
   307          0
   309         10
   310         14
   311          3
   318          4
   320          0
   322          5
   323          2
   324          7
   325          2
   329          0
   332          0
   340          0
   341        217
   342         68
   343         11
   344          1