##TITLE=Library Entry 78384
##JCAMP-DX=Revision 4.10 
##DATA TYPE=MASS SPECTRUM
##SAMPLE DESCRIPTION=Chemical Concepts
##NAMES=HP
##CAS NAME=1,3-Butanedione, 2-methyl-1-phenyl-
##MOLFORM=C11H12O2
##CAS REGISTRY NO=6668-24-2
##MP= -300
##BP= -300
##MW= 176
##$RETENTION INDEX=0
##$CONDENSED SPECTRUM=NO
##NPOINTS= 91
##XYDATA=(XY..XY) 1 
    26          4
    27         38
    28         21
    29          4
    36          0
    37          0
    38          2
    39         13
    41          4
    42          3
    43        164
    44          3
    45          0
    49          0
    50         30
    51        105
    52          8
    53          1
    54          0
    55         34
    56         17
    57          2
    58          0
    59          0
    61          0
    62          2
    63          5
    64          1
    65          1
    66          1
    70          1
    71          1
    73          0
    74          6
    75          6
    76         11
    77        315
    78         30
    79          8
    80          0
    83          6
    87          0
    88          0
    89          2
    90          0
    91          5
    92          3
    93          0
    94          0
    97          0
    98          0
    99          7
   100          0
   101          0
   102          1
   103          4
   104          2
   105        999
   106         72
   107          6
   108          0
   115          9
   116          3
   117          3
   119          0
   120          0
   121          0
   128          0
   129          0
   130          0
   131          1
   132          0
   133        107
   134        104
   135          8
   136          0
   145          0
   148          0
   149          0
   157          0
   158          0
   159          1
   160          1
   161          9
   162          1
   163          0
   174          2
   175         23
   176         76
   177          9
   178          0