##TITLE=Library Entry 109599
##JCAMP-DX=Revision 4.10 
##DATA TYPE=MASS SPECTRUM
##SAMPLE DESCRIPTION=Div. of Experiment Therapeutics WRAIR, WRAMC, Washingto
n DC 20307
##NAMES=HP
##CAS NAME=2,3-Dichloro-6-[[p-chlorobenzyl]thio]benzonitrile
##MOLFORM=C14H8Cl3NS
##CAS REGISTRY NO=66682-81-3
##MP= -300
##BP= -300
##MW= 327
##$RETENTION INDEX=0
##$CONDENSED SPECTRUM=NO
##NPOINTS= 106
##XYDATA=(XY..XY) 1 
    41          2
    42          0
    43          2
    45         22
    47          3
    49         11
    50          7
    51         15
    52          1
    55          1
    57          3
    58          0
    60          1
    61          6
    62         14
    63         53
    64          7
    65          6
    67          0
    69         11
    70          1
    71          1
    72          0
    73         19
    75         14
    76          0
    77          5
    79          3
    81          4
    82          2
    84          7
    85          1
    86          8
    87          7
    88          4
    89        116
    90         32
    91          2
    92          1
    93          0
    94          3
    95          0
    96          1
    97          5
    99         47
   101         12
   103          1
   105          2
   106          2
   107          2
   109          2
   111          3
   112          1
   113          0
   114          0
   115          1
   116          1
   117          0
   120          0
   121          2
   122          2
   123          5
   125        999
   127        344
   128         12
   129          0
   131          3
   132          3
   133          1
   134          1
   135          0
   139          1
   140          1
   141          1
   142          0
   146          0
   155          3
   157          2
   158          3
   160          3
   162          0
   166          0
   167         22
   169         12
   170          1
   171          0
   176          0
   202          9
   204         10
   205          1
   206          1
   216          0
   220          0
   222          1
   224          0
   256          1
   258          1
   292          1
   294          0
   327         35
   328          3
   329         46
   330          3
   331         20
   332          2
   333          2