##TITLE=Library Entry 82071
##JCAMP-DX=Revision 4.10 
##DATA TYPE=MASS SPECTRUM
##SAMPLE DESCRIPTION=A. BARAN'SKI, KRAKOW POLYTECH. UNIV. T. KOSTYU, POLAND
##NAMES=HP
##CAS NAME=3-(4'-Tolyl)-5-phenyl-4-nitroisoxazole
##MOLFORM=C16H12N2O3
##CAS REGISTRY NO=66692-94-2
##MP= -300
##BP= -300
##MW= 280
##$RETENTION INDEX=0
##$CONDENSED SPECTRUM=NO
##NPOINTS= 18
##XYDATA=(XY..XY) 1 
    76         79
    77        728
    78        111
    89        597
    90        114
    91        352
   105        999
   106        133
   107         76
   116        930
   117         82
   132        128
   133        832
   134         78
   159        180
   203         52
   280        981
   281        181