##TITLE=Library Entry 66910
##JCAMP-DX=Revision 4.10 
##DATA TYPE=MASS SPECTRUM
##SAMPLE DESCRIPTION=NIST Mass Spectrometry Data Center, 1994
##NAMES=HP
##CAS NAME=Benzene, (1,1-dimethylethoxy)-
##MOLFORM=C10H14O
##CAS REGISTRY NO=6669-13-2
##MP= -300
##BP= -300
##MW= 150
##$RETENTION INDEX=1074
##$CONDENSED SPECTRUM=NO
##NPOINTS= 57
##XYDATA=(XY..XY) 1 
    12          0
    15         24
    16          0
    18          1
    25          0
    26          9
    27         62
    28         19
    29         98
    30          1
    32          0
    37          9
    38         33
    39        229
    40         34
    41        146
    42         11
    43         23
    44          0
    50         21
    51         56
    52          5
    53         11
    55         25
    56         15
    57         80
    58          3
    60          1
    61          3
    62          9
    63         27
    64         14
    65         99
    66        101
    67          9
    73          0
    74          3
    75          3
    77         61
    78          5
    79          3
    91          8
    94        999
    95         91
    96          5
    97          0
   103          0
   105          2
   107         26
   108          2
   115          1
   120          0
   135         51
   136          5
   137          0
   150         16
   151          1