##TITLE=Library Entry 107909
##JCAMP-DX=Revision 4.10 
##DATA TYPE=MASS SPECTRUM
##SAMPLE DESCRIPTION=A.A.Kutin, Moscow, Russia
##NAMES=HP
##CAS NAME=1,2,3-Trithiolane
##MOLFORM=C2H4S3
##CAS REGISTRY NO=6669-39-2
##MP= -300
##BP= -300
##MW= 124
##$RETENTION INDEX=1068
##$CONDENSED SPECTRUM=NO
##NPOINTS= 63
##XYDATA=(XY..XY) 1 
    42          0
    43          0
    45        248
    46         65
    47         21
    48          2
    50          0
    53          0
    56          6
    57         44
    58        107
    59        408
    60        433
    61         30
    62         24
    64        247
    65         16
    66         24
    67          1
    68          0
    69          0
    70          0
    71          0
    72          0
    75          0
    76          2
    78         92
    79         10
    80          9
    81          1
    82          0
    84          0
    85          2
    87          1
    88          2
    89          2
    90          3
    91          8
    92          3
    93          1
    94          0
    96        376
    97         12
    98         52
    99          1
   100          2
   101          0
   107          0
   109          0
   111          0
   112          0
   117          0
   118          0
   120          0
   121          0
   122          0
   124        999
   125         49
   126        137
   127          5
   128          6
   129          0
   130          0