##TITLE=Library Entry 359
##JCAMP-DX=Revision 4.10 
##DATA TYPE=MASS SPECTRUM
##SAMPLE DESCRIPTION=NIST Mass Spectrometry Data Center
##NAMES=HP
##CAS NAME=Ethyl bromodifluoroacetate
##MOLFORM=C4H5BrF2O2
##CAS REGISTRY NO=667-27-6
##MP= -300
##BP= -300
##MW= 202
##$RETENTION INDEX=0
##$CONDENSED SPECTRUM=NO
##NPOINTS= 54
##XYDATA=(XY..XY) 1 
    12          1
    13          1
    14         10
    15         29
    16          2
    25          2
    26         36
    27        237
    28        106
    29        999
    30         35
    31         36
    32          1
    33          1
    41          2
    42          8
    43         24
    44          8
    45         17
    47          5
    50         78
    51         41
    59         30
    60          1
    73         38
    74          1
    78         44
    79         51
    80          9
    81         17
    82          1
    91          1
    93          9
    94          1
    95         17
    96          2
   107          8
   109         10
   110          7
   111          3
   112          6
   113          3
   123         85
   124          4
   129         93
   131         97
   138          1
   140          1
   157          1
   159          2
   161          2
   187          2
   189          2
   203          1