##TITLE=Library Entry 49462
##JCAMP-DX=Revision 4.10 
##DATA TYPE=MASS SPECTRUM
##SAMPLE DESCRIPTION=Institute of Organic Chemistry, USSR, 1990
##NAMES=HP
##CAS NAME=2,3-Dioxabicyclo[2.2.2]oct-5-ene
##MOLFORM=C6H8O2
##CAS REGISTRY NO=6671-70-1
##MP= -300
##BP= -300
##MW= 112
##$RETENTION INDEX=0
##$CONDENSED SPECTRUM=NO
##NPOINTS= 39
##XYDATA=(XY..XY) 1 
    26        140
    27        300
    28        240
    29        340
    30         10
    31         20
    37         20
    38         30
    39        180
    40         30
    41         70
    42         30
    43         30
    44         10
    50         30
    51         40
    52         20
    53         40
    54         30
    55        240
    56         40
    57         40
    60         80
    65         10
    66         20
    67         20
    68         50
    69         20
    70         30
    71         20
    77         50
    78         40
    79        490
    80        999
    81         60
    83         60
    84         30
    94         20
   112        110