##TITLE=Library Entry 39614
##JCAMP-DX=Revision 4.10 
##DATA TYPE=MASS SPECTRUM
##SAMPLE DESCRIPTION=Japan AIST/NIMC Database- Spectrum MS-IW-8112
##NAMES=HP
##CAS NAME=N,N'-Ethylenebis((vinylsulfonyl)acetamide)
##MOLFORM=C10H16N2O6S2
##CAS REGISTRY NO=66710-66-5
##MP= -300
##BP= -300
##MW= 324
##$RETENTION INDEX=0
##$CONDENSED SPECTRUM=NO
##NPOINTS= 192
##XYDATA=(XY..XY) 1 
    12          1
    13          2
    14          8
    15         18
    16          2
    17          3
    18          9
    24          2
    25          9
    26         68
    27        200
    28        117
    29         26
    30        737
    31         17
    32          9
    33          5
    34         12
    35          3
    36         30
    37          2
    38         12
    39         25
    40         24
    41         85
    42        109
    43        200
    44         97
    45         27
    46          9
    47         12
    48         63
    49          4
    50          8
    51          7
    52          9
    53         12
    54         66
    55         52
    56         44
    57         23
    58         25
    59         30
    60         25
    61          5
    62          8
    63         33
    64        191
    65         21
    66         17
    67         11
    68         22
    69         27
    70         15
    71         42
    72        999
    73         63
    74          7
    75         19
    76         22
    77          9
    78          5
    79          6
    80          9
    81         27
    82         27
    83        176
    84        565
    85         98
    86         31
    87         56
    88          3
    89          9
    90          3
    91        203
    92          9
    93         21
    94          5
    95          6
    96          7
    97          8
    98         23
    99         20
   100         25
   101         25
   102          4
   103          3
   104          4
   105          9
   106          7
   107          6
   108          6
   109         17
   110         12
   111         27
   112          6
   113          5
   114          3
   115          2
   116          1
   117         10
   118          2
   119          3
   120         18
   121          3
   122          5
   123          4
   124          5
   125          3
   126          4
   127          8
   128          8
   129          2
   130          1
   131          2
   132          9
   133         58
   134          5
   135          5
   136          2
   137          3
   138          3
   139          2
   140          2
   141          3
   142          2
   143          3
   144          1
   145          1
   146          3
   147          2
   148          2
   149          2
   150         40
   151          4
   152          3
   153          2
   154          1
   155          2
   156          1
   159          1
   162        165
   163         59
   164         12
   165          6
   166          1
   167          1
   168          5
   169          3
   173         53
   174         20
   175        349
   176         55
   177         21
   178          3
   179          1
   187          4
   188          3
   189          1
   190          6
   191        370
   192         31
   193         23
   194          3
   195          2
   196          1
   201          2
   202          1
   204         48
   205          5
   206          3
   211          1
   215         11
   216          4
   217          1
   218          1
   219          7
   220          1
   232          3
   233        267
   234         30
   235         17
   236          2
   259          1
   260          3
   292          1
   307          2
   308          1
   324          2
   325         48
   326          6
   327          5