##TITLE=Library Entry 49498
##JCAMP-DX=Revision 4.10 
##DATA TYPE=MASS SPECTRUM
##SAMPLE DESCRIPTION=Chemical Concepts
##NAMES=HP
##CAS NAME=Bicyclo(3.3.1)non-2-ene
##MOLFORM=C9H14
##CAS REGISTRY NO=6671-66-5
##MP= -300
##BP= -300
##MW= 122
##$RETENTION INDEX=0
##$CONDENSED SPECTRUM=NO
##NPOINTS= 60
##XYDATA=(XY..XY) 1 
    26          4
    27         62
    28          5
    29         21
    30          0
    37          1
    38          6
    39         91
    40         15
    41         89
    42          7
    43         13
    44          5
    45          2
    50         13
    51         42
    52         18
    53         61
    54         51
    55         33
    56          4
    57          6
    58          1
    62          3
    63          9
    64          4
    65         39
    66         64
    67        105
    68         48
    69         10
    70          4
    71          3
    75          2
    76          3
    77        117
    78        102
    79        629
    80        999
    81        418
    82         24
    83          3
    89          3
    91         73
    92         17
    93        149
    94         60
    95          4
    96          1
    97          1
   103          2
   105          8
   106          1
   107         47
   108          5
   109          1
   121          5
   122        327
   123         24
   124          1