##TITLE=Library Entry 25002
##JCAMP-DX=Revision 4.10 
##DATA TYPE=MASS SPECTRUM
##SAMPLE DESCRIPTION=Chuck Anderson, Aldrich Chemical Co.
##NAMES=HP
##CAS NAME=1-tert-Butoxy-2-methoxyethane
##MOLFORM=C7H16O2
##CAS REGISTRY NO=66728-50-5
##MP= -300
##BP= -300
##MW= 132
##$RETENTION INDEX=844
##$CONDENSED SPECTRUM=NO
##NPOINTS= 62
##XYDATA=(XY..XY) 1 
    14          1
    15         33
    16          0
    17          0
    19          0
    26          3
    27         28
    28         14
    29        176
    30          6
    31         95
    32          1
    33          4
    37          0
    38          2
    39         51
    40         10
    41        297
    42         35
    43        113
    44          5
    45        113
    46          3
    47         53
    48          1
    49          0
    50          1
    51          2
    52          0
    53          5
    54          1
    55         22
    56        219
    57        999
    58         67
    59        507
    60         16
    61          2
    69          0
    70          0
    71          0
    72          3
    73          5
    74          3
    75          6
    77        161
    78          5
    79          0
    83          0
    85          1
    86          1
    87         32
    88          1
    89          0
   100          2
   101          1
   102         12
   103          0
   117        135
   118          8
   119          0
   133          0