##TITLE=Library Entry 29418
##JCAMP-DX=Revision 4.10 
##DATA TYPE=MASS SPECTRUM
##SAMPLE DESCRIPTION=Div. of Experiment Therapeutics WRAIR, WRAMC, Washingto
n DC 20307
##NAMES=HP
##CAS NAME=N,N-Dimethyl-N'-[6-chloro-2-phenyl-4H-1-benzothiopyran-4-ylidene]
-1,2-ethanediamine
##MOLFORM=C19H19ClN2S
##CAS REGISTRY NO=66724-43-4
##MP= -300
##BP= -300
##MW= 342
##$RETENTION INDEX=0
##$CONDENSED SPECTRUM=NO
##NPOINTS= 132
##XYDATA=(XY..XY) 1 
    42         32
    43          6
    44         46
    45          8
    47          3
    50         59
    52         23
    56          7
    58        999
    59         28
    63          5
    65          1
    69          4
    70          4
    71          4
    72          2
    74          1
    75          2
    77          8
    82          0
    83          0
    84          1
    86          1
    87          2
    89          4
    91          2
    92          1
    93          1
    94          1
    95          0
    96          0
    97          1
    99          2
   101          1
   102          1
   103          2
   105          0
   107          1
   109          0
   110          2
   111          3
   113          0
   115          4
   116          1
   117          0
   119          0
   121          4
   122          0
   123          0
   124          2
   125          1
   126          0
   127          0
   128          1
   131          0
   133          1
   134          1
   142          1
   145          1
   147          0
   150          1
   151          1
   152          0
   163          1
   165          1
   168          1
   169          0
   170          0
   171          1
   172          1
   174          0
   175          0
   176          3
   177          1
   178          0
   187          1
   188          0
   189          4
   190          1
   203          1
   204          1
   206          1
   208          1
   214          1
   216          2
   217          1
   219          3
   220          1
   221         16
   222          5
   223          2
   224          0
   234          1
   235          1
   244          2
   246          2
   247          0
   248         10
   249         15
   250          4
   251          2
   255          4
   256          1
   257          4
   258          1
   259          0
   260          0
   261          0
   262          1
   265          0
   269          0
   270          1
   271          3
   272          1
   273          0
   282          0
   283          1
   284         62
   285         26
   286         27
   287         10
   288          2
   296          2
   297          1
   298          4
   299          1
   300          1
   333          0
   341          1
   342          2
   343          0
   344          0