##TITLE=Library Entry 35034
##JCAMP-DX=Revision 4.10 
##DATA TYPE=MASS SPECTRUM
##SAMPLE DESCRIPTION=Chuck Anderson, Aldrich Chemical Co.
##NAMES=HP
##CAS NAME=(R)-(+)-3-Methylcyclopentanone
##MOLFORM=C6H10O
##CAS REGISTRY NO=6672-30-6
##MP= -300
##BP= -300
##MW= 98
##$RETENTION INDEX=848
##$CONDENSED SPECTRUM=NO
##NPOINTS= 51
##XYDATA=(XY..XY) 1 
    14          7
    15         20
    18          0
    25          3
    26         62
    27        279
    28        329
    29        124
    30          2
    31          5
    32          2
    33          0
    34          2
    37         13
    38         32
    39        267
    40         62
    41        443
    42        620
    43         80
    44          3
    49          3
    50         21
    51         25
    52         10
    53         49
    54         23
    55        643
    56        443
    57         25
    58          1
    61          1
    62          3
    63          4
    65          5
    66          1
    67         12
    68          7
    69        999
    70        139
    71         10
    77          0
    79          6
    80          4
    81          2
    83         77
    84          4
    97         10
    98        627
    99         43
   100          2