##TITLE=Library Entry 53106
##JCAMP-DX=Revision 4.10 
##DATA TYPE=MASS SPECTRUM
##SAMPLE DESCRIPTION=L. KONOPSKI, INST. ORG. IND., ANNOPOL, WARSAW, POLAND
##NAMES=HP
##CAS NAME=2,6-Dimethyl-6-nitrosohept-1-en-4-one
##MOLFORM=C9H15NO2
##CAS REGISTRY NO=66737-13-1
##MP= -300
##BP= -300
##MW= 169
##$RETENTION INDEX=0
##$CONDENSED SPECTRUM=NO
##NPOINTS= 49
##XYDATA=(XY..XY) 1 
    18          2
    27         30
    28         23
    29         61
    30         24
    39         43
    40         10
    41         73
    42         55
    43         43
    53         24
    54         11
    55        182
    56        219
    57         33
    58         54
    59          3
    67         15
    69         18
    70        104
    71         19
    72         27
    73         12
    77          3
    81          9
    82         18
    83        999
    84         73
    85         10
    86         85
    95         16
    96         11
    97         20
    98         47
   100         11
   108          9
   114        536
   115         37
   123        110
   124         12
   136          7
   137         15
   138         30
   139         49
   154        134
   155         21
   156          9
   169        338
   170         36