##TITLE=Library Entry 39594
##JCAMP-DX=Revision 4.10 
##DATA TYPE=MASS SPECTRUM
##SAMPLE DESCRIPTION=BRIAN R.WEBSTER,ICI LTD,MACCLESFIELD,ENGLAND
##NAMES=HP
##CAS NAME=Practolol
##MOLFORM=C14H22N2O3
##CAS REGISTRY NO=6673-35-4
##MP= -300
##BP= -300
##MW= 266
##$RETENTION INDEX=0
##$CONDENSED SPECTRUM=NO
##NPOINTS= 57
##XYDATA=(XY..XY) 1 
    26         12
    27         74
    28        120
    29         68
    30        393
    31         18
    32         14
    39         29
    41        110
    42         52
    43        250
    44         50
    45         14
    52         18
    53         25
    54         12
    55         14
    56        145
    57        112
    58         48
    60         43
    63         10
    64         11
    65         33
    70         39
    71         35
    72        999
    73        125
    74         21
    80         33
    81         18
    82         10
    84         14
    86         18
    92         23
    93         14
    94         14
    98         14
   100         46
   102         45
   108        100
   109        229
   110         18
   114         14
   116         66
   122         21
   134         10
   140         10
   151        250
   152         35
   164         12
   190         21
   193         10
   222        104
   223         14
   251         45
   266         17