##TITLE=Library Entry 13308
##JCAMP-DX=Revision 4.10 
##DATA TYPE=MASS SPECTRUM
##SAMPLE DESCRIPTION=Div. of Experiment Therapeutics WRAIR, WRAMC, Washingto
n DC 20307
##NAMES=HP
##CAS NAME=1,3,5-Hexanetrione 1-[p-bromophenyl]-
##MOLFORM=C12H11BrO3
##CAS REGISTRY NO=66734-19-8
##MP= -300
##BP= -300
##MW= 282
##$RETENTION INDEX=0
##$CONDENSED SPECTRUM=NO
##NPOINTS= 114
##XYDATA=(XY..XY) 1 
    41         41
    43        999
    44          7
    45         25
    50        128
    51         62
    53         41
    55         67
    56          5
    57         15
    58         27
    59          9
    61          4
    62         11
    63         55
    64         15
    65         13
    66          5
    67         11
    69        369
    70         13
    71         14
    73          5
    74         41
    75        136
    76        136
    77         51
    78          7
    79         12
    80          5
    81          4
    83          1
    84         21
    85        109
    86         18
    87          9
    89         71
    90         35
    91         14
    92          1
    95          1
    98         23
    99          9
   101         24
   102         28
   103         20
   104         34
   105         19
   107          1
   109          5
   111         10
   113          8
   114          2
   115         22
   116          4
   117          1
   118         21
   119          3
   127         17
   128          8
   129          5
   131         35
   132         39
   133          7
   139          7
   142          1
   143          8
   144          8
   146          8
   154          1
   155        116
   157        136
   158         12
   160        108
   161        142
   162         11
   169          8
   170          1
   171          5
   180          4
   181          8
   183        491
   185        551
   186         32
   188          2
   193          3
   195          6
   198         24
   200         21
   201          1
   220          1
   222          3
   223          8
   225        115
   227         98
   228          6
   236          1
   238          3
   239        131
   240         41
   241        136
   242         30
   249         21
   251         21
   262          6
   264        177
   265         19
   266        175
   267         51
   269         22
   282         76
   283         24
   284         76
   285         27