##TITLE=Library Entry 27579
##JCAMP-DX=Revision 4.10 
##DATA TYPE=MASS SPECTRUM
##SAMPLE DESCRIPTION=Japan AIST/NIMC Database- Spectrum MS-IW-4297
##NAMES=HP
##CAS NAME=Alclometasone dipropionate
##MOLFORM=C28H37ClO7
##CAS REGISTRY NO=66734-13-2
##MP= -300
##BP= -300
##MW= 520
##$RETENTION INDEX=0
##$CONDENSED SPECTRUM=NO
##NPOINTS= 411
##XYDATA=(XY..XY) 1 
    14          1
    15          4
    16          1
    17          3
    18          9
    25          2
    26         19
    27         62
    28         99
    29        265
    30         14
    31          6
    32          1
    35          7
    36         95
    37          2
    38         35
    39          9
    40          3
    41         39
    42          9
    43         76
    44         20
    45         35
    46          4
    47          2
    50          2
    51          5
    52          2
    53         15
    54          9
    55         68
    56         67
    57        999
    58         37
    59          4
    60          1
    61          1
    63          3
    64          2
    65         10
    66          4
    67         26
    68          5
    69         38
    70          9
    71         21
    72          5
    73         50
    74         76
    75          5
    76          3
    77         32
    78          8
    79         32
    80          5
    81         38
    82         10
    83         27
    84          6
    85         16
    86          2
    87         34
    88          3
    89          7
    90          2
    91         64
    92         10
    93         43
    94         10
    95         53
    96         14
    97         25
    98          6
    99         10
   100          5
   101          9
   102          3
   103         11
   104          8
   105         43
   106          9
   107         66
   108         30
   109         47
   110         11
   111         52
   112          8
   113          7
   114          8
   115         93
   116         17
   117         25
   118          6
   119         29
   120         19
   121        253
   122         53
   123         29
   124          8
   125         15
   126          4
   127         16
   128         22
   129         25
   130         10
   131         34
   132         13
   133         46
   134         38
   135         60
   136         13
   137         26
   138          7
   139         10
   140          3
   141         25
   142         11
   143         20
   144         20
   145         69
   146         23
   147        102
   148         19
   149         27
   150          9
   151         10
   152         13
   153         18
   154          7
   155         21
   156          8
   157         35
   158         36
   159         94
   160         20
   161         52
   162         10
   163         23
   164          5
   165         20
   166         12
   167         14
   168          8
   169         22
   170         19
   171        194
   172         39
   173         55
   174         13
   175         33
   176          7
   177         21
   178         11
   179         18
   180          8
   181         28
   182          9
   183         22
   184         15
   185        111
   186         22
   187         38
   188         16
   189         24
   190          8
   191         12
   192          6
   193         14
   194          9
   195         21
   196         11
   197         27
   198          8
   199         12
   200          4
   201          7
   202          7
   203         57
   204         12
   205         17
   206          8
   207         30
   208         17
   209         39
   210         14
   211         39
   212         12
   213         13
   214          4
   215         12
   216          5
   217          6
   218          4
   219         10
   220          8
   221         50
   222         37
   223         76
   224         26
   225         33
   226          9
   227         12
   228          5
   229          9
   230          4
   231          6
   232          4
   233         11
   234         10
   235         29
   236         57
   237        127
   238         43
   239         35
   240          9
   241         12
   242          8
   243          5
   244          5
   245          9
   246          6
   247         14
   248         13
   249         17
   250          9
   251         22
   252          9
   253         15
   254         11
   255         15
   256         13
   257          9
   258          6
   259         15
   260         11
   261         24
   262         96
   263         43
   264         15
   265         17
   266          8
   267         27
   268          8
   269          8
   270          3
   271          3
   272          7
   273          7
   274         10
   275         32
   276         19
   277        251
   278         68
   279         67
   280         21
   281         12
   282          5
   283          6
   284          5
   285          6
   286          3
   287          6
   288          3
   289         13
   290         12
   291         13
   292         12
   293         38
   294         19
   295        257
   296         63
   297         33
   298         16
   299          9
   300          8
   301          9
   302          6
   303         18
   304          6
   305         15
   306          6
   307         18
   308         10
   309         10
   310          6
   311         15
   312         11
   313        149
   314         36
   315         58
   316         14
   317          9
   318         20
   319         17
   320          9
   321         20
   322          8
   323         93
   324         20
   325         16
   326          8
   327          4
   328          2
   329          9
   330          8
   331        400
   332         97
   333        155
   334         39
   335         15
   336         33
   337         20
   338         11
   339          8
   340          3
   341         26
   342          6
   343         10
   344          5
   345         10
   346          4
   347         14
   348          7
   349         52
   350         12
   351         41
   352         13
   353          6
   354         41
   355         14
   356          7
   357          7
   358          4
   359         59
   360         12
   361         28
   362          8
   363          5
   364          2
   365          1
   366          1
   367          1
   368          1
   369         18
   370          6
   371          7
   372         21
   373          9
   374          9
   375          6
   376          2
   377         12
   378          3
   379          6
   380          2
   381          3
   382          1
   387          9
   388          4
   389          6
   390         41
   391         11
   392         18
   393          9
   394          4
   395          7
   396          3
   397         78
   398         21
   399          7
   400          2
   405         19
   406          5
   407          6
   408          3
   409          2
   410         19
   411          9
   412          8
   413          4
   414          1
   415          1
   417          1
   426          1
   427          4
   428          5
   429          3
   430          2
   431          7
   432          3
   433        221
   434         58
   435         79
   436         17
   437          3
   445          1
   446         12
   447          4
   448          6
   449          2
   464          3
   465          1
   466          2
   482          1
   484         10
   485          6
   486          2
   520          3
   521          1
   522          1