##TITLE=Library Entry 107289
##JCAMP-DX=Revision 4.10 
##DATA TYPE=MASS SPECTRUM
##SAMPLE DESCRIPTION=Chemical Concepts
##NAMES=HP
##CAS NAME=Benzeneacetic acid, 3,5-dihydroxy-, ethyl ester
##MOLFORM=C10H12O4
##CAS REGISTRY NO=66761-55-5
##MP= -300
##BP= -300
##MW= 196
##$RETENTION INDEX=0
##$CONDENSED SPECTRUM=NO
##NPOINTS= 84
##XYDATA=(XY..XY) 1 
    26          6
    27         46
    28         19
    29        179
    30          5
    31          4
    38          7
    39         47
    40         13
    41         86
    42         19
    43        107
    44         60
    45         31
    46          7
    47          4
    50         16
    51         48
    52         14
    53         35
    54         10
    55        111
    56         21
    57         98
    58          5
    60         50
    61          9
    62          6
    63         10
    64          5
    65         57
    66         43
    67        105
    68         16
    69         85
    70         17
    71         40
    73         31
    74          9
    75          5
    76          6
    77         56
    78         15
    79         13
    80          4
    81         30
    82         13
    83         27
    84         15
    85         21
    87          8
    91          6
    93         14
    94         36
    95         41
    96         11
    97         19
    98          9
    99          5
   105          9
   106         58
   107         10
   109          8
   110          5
   111         13
   121         11
   122          8
   123        999
   124        373
   125         32
   126          4
   127         18
   129          6
   137         16
   139         26
   149         26
   150         13
   151         23
   167          6
   168         18
   181          2
   196        507
   197         55
   198          6