##TITLE=Library Entry 62819
##JCAMP-DX=Revision 4.10 
##DATA TYPE=MASS SPECTRUM
##SAMPLE DESCRIPTION=JAFCAU, 26(4)898(1978); R. O. MUMMA ET AL
##NAMES=HP
##CAS NAME=L-Phenylalanine, N-[(2,4,5-trichlorophenoxy)acetyl]-, methyl este
r
##MOLFORM=C18H16Cl3NO4
##CAS REGISTRY NO=66789-96-6
##MP= -300
##BP= -300
##MW= 415
##$RETENTION INDEX=0
##$CONDENSED SPECTRUM=NO
##NPOINTS= 42
##XYDATA=(XY..XY) 1 
    63        120
    65        160
    73        190
    77        140
    88        160
    89        160
    90        160
    91        999
    92        140
    97        160
   116        120
   117        740
   118        120
   120        120
   131        440
   132        280
   133        140
   135        120
   146        120
   161        190
   162        999
   163        190
   179        140
   181        140
   187        280
   196        420
   198        400
   200        140
   207        470
   208        120
   209        280
   211        230
   217        120
   218        650
   219        140
   220        420
   254        600
   256        560
   259        190
   356        160
   358        120
   415         50