##TITLE=Library Entry 59213
##JCAMP-DX=Revision 4.10 
##DATA TYPE=MASS SPECTRUM
##SAMPLE DESCRIPTION=AAFS Toxicology Section MS DB Committee, U. Alberta, Ca
nada
##NAMES=HP
##CAS NAME=2-Butanol, 1,2-diphenyl-4-(methylamino)-3-methyl-, propionate
##MOLFORM=C21H27NO2
##CAS REGISTRY NO=66796-40-5
##MP= -300
##BP= -300
##MW= 325
##$RETENTION INDEX=2384
##$CONDENSED SPECTRUM=NO
##NPOINTS= 202
##XYDATA=(XY..XY) 1 
    30         16
    31          5
    32          8
    33          2
    34          1
    36          1
    39         62
    40         12
    41         77
    42        146
    43         50
    44        753
    45         31
    46          4
    47          1
    50         19
    51         78
    52         24
    53         12
    55         99
    56         64
    57        527
    58         94
    59         15
    60          2
    61          1
    62          7
    63         38
    65        316
    66         26
    67          3
    68         13
    69         25
    70         44
    71         27
    72        146
    73         10
    74          6
    75          8
    77        488
    78         79
    79         47
    80          5
    81          2
    82          2
    84          6
    85          2
    86         25
    87         41
    88        443
    89         75
    91        999
    92        136
    93          8
    94          3
    95          1
    96          2
    98         12
   100        606
   101         68
   102         13
   103         25
   105        457
   106         39
   107          8
   108          2
   109          1
   110          1
   111          1
   112          3
   114         33
   115         54
   116         25
   117         19
   118         11
   119         15
   120          6
   121          2
   122          1
   123          1
   124          1
   126          5
   127          6
   128         65
   129        130
   130         17
   131         13
   133        122
   134         42
   135          7
   136          3
   137          1
   138          1
   139          5
   140          1
   141          2
   142          3
   143          3
   144          3
   145          4
   147         79
   148         13
   149          1
   150          2
   151          4
   152         15
   153          5
   154          1
   155          1
   156          1
   157          1
   158          2
   159          1
   160         15
   161          1
   162          5
   163          2
   164          3
   165         18
   166          6
   167          6
   168          1
   169          1
   171          1
   172          1
   173          1
   174          1
   176         14
   177          5
   178         52
   179         11
   180          1
   181          2
   182          1
   183          1
   184          1
   185          1
   187          1
   188          2
   189          3
   190          3
   191          3
   192          3
   193          4
   194          1
   196          2
   197         37
   198          6
   199          1
   201          1
   202          2
   203          2
   204          2
   205         15
   206          2
   207          1
   208          1
   209          1
   211          1
   213          1
   214          1
   215          1
   216          3
   217          1
   220         29
   221          6
   222          1
   224          1
   234        488
   235         79
   236         10
   237          1
   241          1
   245          1
   248          1
   250          1
   251          1
   253          1
   262          1
   269          1
   270          1
   273          1
   276          1
   279          1
   282          1
   284          1
   285          1
   291          1
   294          1
   296          1
   300          1
   302          1
   306          1
   307          5
   308          6
   309          2
   310          1
   311          1
   313          1
   315          1
   326          2
   327          1