##TITLE=Library Entry 31444
##JCAMP-DX=Revision 4.10 
##DATA TYPE=MASS SPECTRUM
##SAMPLE DESCRIPTION=NIST Mass Spectrometry Data Center, 2010
##NAMES=HP
##CAS NAME=Ethyl-2,3-Dichloropropionate
##MOLFORM=C5H8Cl2O2
##CAS REGISTRY NO=668-21-3
##MP= -300
##BP= -300
##MW= 170
##$RETENTION INDEX=1022
##$CONDENSED SPECTRUM=NO
##NPOINTS= 102
##XYDATA=(XY..XY) 1 
    14          2
    15          7
    16          1
    19          1
    24          1
    25          6
    26         56
    27        224
    28         45
    29        494
    30         17
    31         16
    35          5
    36          5
    37          3
    38          3
    39          3
    41         15
    42          9
    43         31
    44          9
    45         63
    46          2
    47          3
    48          9
    49         26
    50          4
    51          8
    52          1
    53         12
    54         19
    55        221
    56         13
    57          1
    58          2
    59          2
    60         14
    61        158
    62        999
    63         95
    64        325
    65         18
    66          1
    67          1
    71          7
    72          2
    73         25
    74          1
    75          2
    76         26
    77         20
    78         10
    79         11
    81          2
    82          2
    83          1
    85          3
    87          1
    88          1
    89         56
    90         10
    91         25
    92          3
    93          3
    94          2
    95          4
    96         16
    97        268
    98         32
    99        182
   100         17
   101         28
   102          2
   106          9
   107         36
   108          4
   109         12
   110          1
   116          2
   118          1
   119          1
   123          1
   125        157
   126          6
   127        102
   128          4
   129         17
   130          1
   133          2
   134          3
   135         34
   136          3
   137         11
   138          1
   142          1
   143          7
   144          1
   145          4
   147          1
   155          5
   157          3
   169          1