##TITLE=Library Entry 13035
##JCAMP-DX=Revision 4.10 
##DATA TYPE=MASS SPECTRUM
##SAMPLE DESCRIPTION=TAT 0119
##NAMES=HP
##CAS NAME=2H-Pyran-5-carboxylic acid, 4-methoxy-6-methyl-2-oxo-, methyl est
er
##MOLFORM=C9H10O5
##CAS REGISTRY NO=668-40-6
##MP= -300
##BP= -300
##MW= 198
##$RETENTION INDEX=0
##$CONDENSED SPECTRUM=NO
##NPOINTS= 73
##XYDATA=(XY..XY) 1 
    14         20
    15        140
    26         30
    27         60
    28         50
    29         70
    37         60
    38         80
    39        100
    40         30
    41         60
    42         60
    43        999
    44         50
    45         70
    46         10
    50         40
    51         50
    52         50
    53        220
    54         50
    55         50
    59        260
    60         30
    65         70
    66        330
    67        100
    68         70
    69        370
    70         20
    80         30
    82         60
    83        130
    84         10
    85         30
    93        120
    94         60
    95         50
    98         50
    99         60
   109         40
   110         60
   111         70
   112         40
   113        130
   114         10
   115         80
   124        100
   125        560
   126         50
   127        100
   128        120
   129         10
   137         60
   138        210
   139        160
   140         30
   141         40
   151        150
   152         20
   155        170
   156         20
   166        110
   167        510
   168         50
   170        800
   171         80
   172         20
   183        390
   184         40
   198        700
   199         70
   200         10