##TITLE=Library Entry 51813
##JCAMP-DX=Revision 4.10 
##DATA TYPE=MASS SPECTRUM
##SAMPLE DESCRIPTION=Dr. Jiri Zamecnik, DCIEM, North York, Canada, GP Librar
y
##NAMES=HP
##CAS NAME=Allococaine
##MOLFORM=C17H21NO4
##CAS REGISTRY NO=668-19-9
##MP= -300
##BP= -300
##MW= 303
##$RETENTION INDEX=0
##$CONDENSED SPECTRUM=NO
##NPOINTS= 34
##XYDATA=(XY..XY) 1 
    42        178
    44         47
    55         56
    67         31
    68         32
    77        120
    81         53
    82        999
    83        386
    94        165
    96        232
    97         88
   105        151
   108         37
   119         20
   122         56
   138          8
   140          6
   150         14
   152        106
   153         15
   166         18
   182        544
   183         52
   184          3
   198         69
   199          6
   200          1
   244          1
   259          0
   272         22
   273          2
   303         72
   304         11