##TITLE=Library Entry 12927
##JCAMP-DX=Revision 4.10 
##DATA TYPE=MASS SPECTRUM
##SAMPLE DESCRIPTION=TAT 0411
##NAMES=HP
##CAS NAME=2H-Pyran-5-carboxylic acid, 4-methoxy-6-methyl-2-oxo-, ethyl este
r
##MOLFORM=C10H12O5
##CAS REGISTRY NO=668-41-7
##MP= -300
##BP= -300
##MW= 212
##$RETENTION INDEX=0
##$CONDENSED SPECTRUM=NO
##NPOINTS= 50
##XYDATA=(XY..XY) 1 
    41         60
    42         50
    43        999
    44         50
    45         10
    53        150
    54         20
    55         60
    59        120
    60         10
    65         50
    66        210
    67         60
    68         10
    69        300
    70         30
    82         60
    83         70
    84         10
    93        110
    94         20
   110         50
   111         70
   112         50
   113         60
   114        130
   115         20
   124         70
   125        390
   126         40
   138        130
   139         50
   141         70
   142         10
   151         80
   152         10
   155        100
   156        350
   157         30
   166        150
   167        510
   168         50
   169        280
   170         30
   184        360
   185         40
   197         90
   198         10
   212        470
   213         50