##TITLE=Library Entry 55065
##JCAMP-DX=Revision 4.10 
##DATA TYPE=MASS SPECTRUM
##SAMPLE DESCRIPTION=J. Klune, Insect Chem. Ecol. Lab., USDA, Beltsville, MD
 20705
##NAMES=HP
##CAS NAME=5-Octyn-1-ol tetrahydropyranol ether
##MOLFORM=C13H22O2
##CAS REGISTRY NO=66800-19-9
##MP= -300
##BP= -300
##MW= 210
##$RETENTION INDEX=0
##$CONDENSED SPECTRUM=NO
##NPOINTS= 118
##XYDATA=(XY..XY) 1 
    41        286
    42         28
    43        161
    44         20
    45         12
    46          2
    47          2
    49          1
    50          4
    51         17
    52         16
    53         46
    54         13
    55        198
    56         65
    57        107
    58          5
    59          5
    60          1
    62          1
    63          5
    64          2
    65         47
    66         30
    67        457
    68         39
    69         31
    70          4
    71         10
    72          1
    73          2
    74          1
    76          0
    77         47
    78         11
    79        104
    80         29
    81        106
    82         27
    83         31
    84         79
    85        999
    86         56
    87          6
    91         34
    92          6
    93         58
    94         11
    95         28
    96          6
    97         22
    98         24
    99          4
   100          9
   101        130
   102          7
   103          1
   105          5
   106          2
   107         21
   108         23
   109        107
   110         19
   111         36
   112          7
   113          1
   114          2
   115          3
   119          4
   120          1
   121          3
   122          3
   123         19
   124         11
   125         17
   126         55
   127          7
   128          1
   133          2
   135         13
   136          4
   137         21
   138          6
   139         51
   140          8
   141          2
   145          1
   147          1
   148          3
   149          3
   150          1
   151         15
   152          9
   153         13
   154          7
   155          2
   161          0
   163          5
   164          1
   165         13
   166          7
   167          4
   168          1
   169          1
   177          1
   179         11
   180          3
   181         85
   182         11
   183          1
   185          0
   192          1
   193          1
   195          3
   196          0
   209          2
   210          4
   211          3