##TITLE=Library Entry 28140
##JCAMP-DX=Revision 4.10 
##DATA TYPE=MASS SPECTRUM
##SAMPLE DESCRIPTION=Chemical Concepts
##NAMES=HP
##CAS NAME=Methanamine, 1-(dicyclohexylphosphino)-N,N-dimethyl-
##MOLFORM=C15H30NP
##CAS REGISTRY NO=66830-54-4
##MP= -300
##BP= -300
##MW= 255
##$RETENTION INDEX=0
##$CONDENSED SPECTRUM=NO
##NPOINTS= 114
##XYDATA=(XY..XY) 1 
    26          1
    27         17
    28          5
    29         25
    30         25
    31          0
    35          0
    37          0
    38          0
    39         22
    40          2
    41         63
    42         59
    43         17
    44          6
    45          5
    46          0
    47          2
    48          0
    49          1
    50          1
    51          2
    52          1
    53         17
    54          8
    55        103
    56          9
    57         10
    58        999
    59         40
    60          2
    61          6
    62          1
    63          1
    65          4
    66          3
    67         17
    68          2
    69          1
    70          0
    71          8
    72          2
    73         17
    74          4
    75          2
    76          1
    77          6
    78          1
    79         17
    80          4
    81         41
    82          9
    83         40
    84          4
    85          5
    86          2
    87         11
    88          7
    89         10
    90         24
    93          0
    94          0
    95          1
    96          0
    97          2
    98          0
    99          3
   100          1
   101          1
   102          1
   103          0
   105          0
   110          0
   111          0
   112          0
   113          2
   114          2
   115         26
   116          9
   117         23
   118          1
   126          0
   127          1
   128          1
   129         11
   131          0
   138          1
   139          0
   141          0
   142          0
   143          6
   144          0
   145          0
   155          0
   156          0
   157          3
   158          0
   169          1
   170          2
   171          0
   172          5
   173          0
   183          2
   191          0
   196          0
   197          4
   198          7
   205          0
   209          0
   211          4
   212          0
   254          0
   255          1
   256          0