##TITLE=Library Entry 62303
##JCAMP-DX=Revision 4.10 
##DATA TYPE=MASS SPECTRUM
##SAMPLE DESCRIPTION=CONTINENTAL OIL CO., PONCA CITY, OKLA, USA
##NAMES=HP
##CAS NAME=Benzene, (3-methyl-3-butenyl)-
##MOLFORM=C11H14
##CAS REGISTRY NO=6683-51-8
##MP= -300
##BP= -300
##MW= 146
##$RETENTION INDEX=0
##$CONDENSED SPECTRUM=NO
##NPOINTS= 98
##XYDATA=(XY..XY) 1 
    13          0
    14          2
    15         10
    16          0
    26          6
    27         62
    28         16
    29         35
    30          1
    31          0
    37          3
    38         11
    39        106
    40         12
    41         39
    42          3
    43          6
    44          1
    45          0
    48          1
    49          1
    50         22
    51         57
    52         14
    53         16
    54          3
    55         16
    56          3
    57          3
    58          0
    61          1
    62          7
    63         29
    64         12
    65        104
    66          7
    67          6
    68          5
    69          2
    70          1
    71          2
    73          2
    74          6
    75          6
    76          5
    77         39
    78         18
    79         12
    80          1
    81          2
    82          1
    83          1
    84          1
    85          1
    86          1
    87          1
    89         16
    90          7
    91        999
    92         62
    93          2
    95          1
    96          1
    97          0
    98          1
    99          0
   101          1
   102          6
   103         14
   104         43
   105         11
   106          1
   107          1
   108          1
   109          0
   113          0
   114          0
   115         14
   116          6
   117          9
   118         12
   119          1
   126          1
   127          4
   128         10
   129          8
   130          3
   131         28
   132          3
   133          0
   141          1
   142          0
   143          1
   144          0
   145          3
   146        159
   147         19
   148          1