##TITLE=Library Entry 38552
##JCAMP-DX=Revision 4.10 
##DATA TYPE=MASS SPECTRUM
##SAMPLE DESCRIPTION=Japan AIST/NIMC Database- Spectrum MS-NW-3849
##NAMES=HP
##CAS NAME=2-Pentanone, 1-phenyl-
##MOLFORM=C11H14O
##CAS REGISTRY NO=6683-92-7
##MP= -300
##BP= -300
##MW= 162
##$RETENTION INDEX=0
##$CONDENSED SPECTRUM=NO
##NPOINTS= 75
##XYDATA=(XY..XY) 1 
    15          5
    17          2
    18         11
    26          4
    27         80
    28          9
    29         10
    37          2
    38          9
    39         72
    40          7
    41        107
    42          9
    43        891
    44         31
    45          5
    50         11
    51         27
    52          8
    53          4
    55         12
    56          1
    57          7
    61          2
    62          9
    63         27
    64          9
    65        111
    66          8
    67          1
    69          5
    70         14
    71        999
    72         45
    73          4
    74          3
    75          2
    76          2
    77          9
    78          3
    79          2
    84          1
    85          1
    86          2
    87          2
    89         25
    90         15
    91        351
    92         57
    93          3
   102          2
   103          3
   104          2
   105          8
   106          2
   115          5
   116          2
   117          2
   118          3
   119          4
   120          1
   127          1
   128          3
   129          5
   130          1
   133          1
   134          3
   141          1
   142          1
   144          2
   147          2
   148          1
   162         94
   163         10
   164          1