##TITLE=Library Entry 77012
##JCAMP-DX=Revision 4.10 
##DATA TYPE=MASS SPECTRUM
##SAMPLE DESCRIPTION=D.HENNEBERG, MAX-PLANCK INSTITUTE, MULHEIM, WEST GERMAN
Y
##NAMES=HP
##CAS NAME=Benzene, (4-methyl-4-pentenyl)-
##MOLFORM=C12H16
##CAS REGISTRY NO=6683-49-4
##MP= -300
##BP= -300
##MW= 160
##$RETENTION INDEX=0
##$CONDENSED SPECTRUM=NO
##NPOINTS= 78
##XYDATA=(XY..XY) 1 
    27         14
    28         22
    29         13
    30          0
    31          0
    32          3
    38          0
    39         21
    40          4
    41        130
    42          6
    43          4
    44          3
    45          1
    50          1
    51         11
    52          4
    53         15
    54          7
    55          8
    56          4
    57          1
    58          0
    63          2
    64          0
    65         48
    66          3
    67         21
    68         19
    69        141
    70          8
    71          0
    74          0
    75          0
    76          1
    77         36
    78         43
    79         34
    80          2
    81          1
    82          0
    84          1
    85          0
    86          0
    89          4
    90          2
    91        207
    92         76
    93          5
    97          0
    98          0
   101          0
   102          3
   103         36
   104        999
   105        119
   106          6
   110          0
   111          0
   113          1
   115         12
   116          3
   117         17
   118          3
   119          0
   127          1
   128          5
   129          4
   130          1
   131          3
   141          1
   142          1
   143          2
   144          0
   145          4
   146          0
   160         43
   161          5