##TITLE=Library Entry 34191
##JCAMP-DX=Revision 4.10 
##DATA TYPE=MASS SPECTRUM
##SAMPLE DESCRIPTION=Japan AIST/NIMC Database- Spectrum MS-NW-7539
##NAMES=HP
##CAS NAME=Cyclooctanecarboxaldehyde
##MOLFORM=C9H16O
##CAS REGISTRY NO=6688-11-5
##MP= -300
##BP= -300
##MW= 140
##$RETENTION INDEX=0
##$CONDENSED SPECTRUM=NO
##NPOINTS= 92
##XYDATA=(XY..XY) 1 
    15         11
    17          1
    18          3
    26         11
    27        192
    28         37
    29        176
    30          5
    31         10
    37          2
    38          9
    39        222
    40         34
    41        641
    42         84
    43        124
    44          9
    45          6
    46          1
    49          1
    50          9
    51         22
    52         10
    53         65
    54         75
    55        629
    56         72
    57        120
    58         52
    59          6
    60          2
    61          1
    62          2
    63          6
    64          1
    65         15
    66         15
    67        165
    68         65
    69        999
    70        115
    71         30
    72         26
    73         12
    74          3
    75          1
    77         15
    78          7
    79         52
    80         56
    81        104
    82         46
    83         98
    84         47
    85         12
    86          3
    87          4
    89          1
    91         10
    92          6
    93         70
    94         54
    95         16
    96        114
    97         50
    98         89
    99         17
   100          3
   101          1
   102          1
   105          1
   106          1
   107         32
   108          5
   109         31
   110          7
   111        130
   112         31
   113          5
   114          2
   120          2
   121          2
   122         63
   123          9
   124          1
   125          5
   126          1
   128          1
   138          5
   139          2
   140         17
   141          3