##TITLE=Library Entry 76870
##JCAMP-DX=Revision 4.10 
##DATA TYPE=MASS SPECTRUM
##SAMPLE DESCRIPTION=V.A.KOPTYUG, ATLAS OF MASS SPECTRA OF ORGANIC COMPOUNDS
##NAMES=HP
##CAS NAME=2,2-Dimethyl-1-oxa-2-sila-6-thiacyclooctanone-8
##MOLFORM=C7H14O2SSi
##CAS REGISTRY NO=66886-67-7
##MP= -300
##BP= -300
##MW= 190
##$RETENTION INDEX=0
##$CONDENSED SPECTRUM=NO
##NPOINTS= 33
##XYDATA=(XY..XY) 1 
    47         60
    58        130
    59        140
    60        180
    61         80
    73        110
    74         40
    75        340
    76        270
    77         50
    78         40
    79         10
    85         40
    94         80
    95         20
    96         60
    97         10
    98         50
   104        999
   105        300
   106        140
   131        260
   132         30
   133        290
   134         30
   135         30
   148        260
   149         80
   150         30
   175         50
   190        130
   191         20
   192         10