##TITLE=Library Entry 89327
##JCAMP-DX=Revision 4.10 
##DATA TYPE=MASS SPECTRUM
##SAMPLE DESCRIPTION=V.A.KOPTYUG, ATLAS OF MASS SPECTRA OF ORGANIC COMPOUNDS
##NAMES=HP
##CAS NAME=Piperidine, 1,2,6-trimethyl-
##MOLFORM=C8H17N
##CAS REGISTRY NO=669-81-8
##MP= -300
##BP= -300
##MW= 127
##$RETENTION INDEX=909
##$CONDENSED SPECTRUM=NO
##NPOINTS= 40
##XYDATA=(XY..XY) 1 
    27         81
    29         54
    30         49
    39         27
    40         20
    41        112
    42        347
    43        123
    51         10
    53         28
    54        370
    55        102
    56        163
    57        133
    58        122
    67         20
    68         42
    69         23
    70        203
    71         58
    72         17
    79         11
    80         12
    81         48
    82         36
    83         20
    84        102
    85         17
    94         19
    95         10
    96         40
    97         12
    98        265
    99         26
   110         38
   111         10
   112        999
   113        122
   126         37
   127         66