##TITLE=Library Entry 46866
##JCAMP-DX=Revision 4.10 
##DATA TYPE=MASS SPECTRUM
##SAMPLE DESCRIPTION=F. TURECEK,HEYROVSKY INST PHYS CHEM & ELECTROCHEM,PRAGU
E,CZECH
##NAMES=HP
##CAS NAME=1-Methyl-5-(phenylamino)-1H-tetrazole
##MOLFORM=C8H9N5
##CAS REGISTRY NO=66907-87-7
##MP= -300
##BP= -300
##MW= 175
##$RETENTION INDEX=0
##$CONDENSED SPECTRUM=NO
##NPOINTS= 59
##XYDATA=(XY..XY) 1 
    26         26
    27        111
    29         31
    30         56
    37         37
    38         96
    39        241
    40         41
    41        107
    42        144
    43        159
    44        185
    50        159
    51        415
    52        106
    53         37
    55         76
    56         22
    57         56
    62         30
    63        137
    64        289
    65        389
    66         44
    73         22
    74         37
    75         33
    76         93
    77        999
    78        156
    79         33
    83        333
    84         13
    90         54
    91        778
    92        296
    93        107
    94         15
   103         61
   104        241
   105        237
   106         72
   107         41
   117         41
   118        607
   119        456
   120         67
   121          7
   129         15
   130         30
   131         37
   132         76
   133         67
   146        644
   147        207
   148         11
   174         56
   175        667
   176         72