##TITLE=Library Entry 20677
##JCAMP-DX=Revision 4.10 
##DATA TYPE=MASS SPECTRUM
##SAMPLE DESCRIPTION=F. TURECEK,HEYROVSKY INST PHYS CHEM & ELECTROCHEM,PRAGU
E,CZECH
##NAMES=HP
##CAS NAME=1H-Tetrazol-5-amine, 1-cyclohexyl-N-phenyl-
##MOLFORM=C13H17N5
##CAS REGISTRY NO=66907-72-0
##MP= -300
##BP= -300
##MW= 243
##$RETENTION INDEX=0
##$CONDENSED SPECTRUM=NO
##NPOINTS= 100
##XYDATA=(XY..XY) 1 
    26         18
    27        191
    29        178
    30         35
    38         32
    39        335
    40         52
    41        751
    42        115
    43         89
    50         83
    51        332
    52         71
    53        115
    54        143
    55        999
    56        124
    57         13
    58        115
    62          9
    63         46
    64         54
    65        335
    66         75
    67        123
    68         74
    69        129
    70         25
    74         12
    75         20
    76         80
    77        591
    78        133
    79         91
    80         26
    81        181
    82         74
    83        769
    84         69
    86         98
    90         20
    91        143
    92        517
    93        615
    94        105
    95         23
    96         51
    97         40
    98         92
    99         11
   103         60
   104        378
   105         86
   106        120
   107         17
   109          7
   110         14
   111          8
   117         25
   118        394
   119        265
   120         32
   122         17
   123         50
   124         17
   131         25
   132         28
   133        668
   134        134
   135         11
   144         28
   145         38
   146         83
   147         10
   151        101
   152          8
   158         14
   159        111
   160         97
   161         36
   162         27
   168         23
   170          7
   171         11
   172        492
   173         98
   174         31
   186        108
   187         46
   188         10
   199          9
   200         42
   201         10
   214        554
   215        105
   216          8
   242         20
   243        551
   244         98
   245          8