##TITLE=Library Entry 56813
##JCAMP-DX=Revision 4.10 
##DATA TYPE=MASS SPECTRUM
##SAMPLE DESCRIPTION=Div. of Experiment Therapeutics WRAIR, WRAMC, Washingto
n DC 20307
##NAMES=HP
##CAS NAME=N(1),N(1)-Diethyl-N(4)-[3,4-dimethoxyphenyl]-1,4-pentanediamine
##MOLFORM=C17H30N2O2
##CAS REGISTRY NO=66910-67-6
##MP= -300
##BP= -300
##MW= 294
##$RETENTION INDEX=0
##$CONDENSED SPECTRUM=NO
##NPOINTS= 191
##XYDATA=(XY..XY) 1 
    41        327
    43        107
    44        111
    46         66
    47         24
    49         63
    51         48
    52         74
    53         16
    54         64
    55         22
    56        134
    58        248
    60         29
    61          7
    63         21
    64         27
    65         20
    66          9
    67         47
    68         19
    69         84
    70         50
    71         62
    72         99
    73        138
    74         71
    76         15
    77         40
    79        128
    80         47
    82         45
    84         65
    86        999
    87         52
    89         51
    90         21
    91         14
    92         28
    93         30
    94          9
    95         39
    96         16
    98         56
    99         93
   100         13
   101          6
   102          4
   103          2
   104         14
   105          6
   106         39
   107         33
   108         23
   110         63
   112         84
   114         41
   115          6
   117         19
   118         29
   119         15
   120         10
   122         55
   123         14
   125         44
   126         34
   128         15
   130         12
   132         23
   134         33
   135         27
   136         46
   137         43
   138         27
   140         70
   142         31
   143          3
   144          7
   145          1
   146         12
   148         25
   149         26
   150         29
   152         49
   153         82
   154          4
   155          3
   158         15
   160         20
   162         26
   164        114
   165         29
   166         18
   167          5
   168          0
   169          3
   170          1
   171          2
   172          1
   173          2
   174          9
   176         17
   178         51
   179         12
   180        460
   184          1
   185          1
   186          0
   188          8
   189          5
   190         20
   191         16
   192          8
   193         82
   194          5
   195          1
   196          0
   197          3
   199          1
   200          1
   201          1
   202          1
   203          2
   204         32
   206        179
   207         22
   208          9
   209          0
   210          0
   211          0
   212          0
   213          0
   214          0
   215          0
   216          1
   217          3
   218          2
   219          3
   220        210
   221         94
   222         12
   223          2
   226          0
   227          0
   228          0
   230          2
   232          4
   234          9
   235          1
   236          3
   237          4
   238          1
   239          1
   240          1
   241          0
   242          1
   243          1
   244          1
   246          3
   248          4
   249          0
   250          2
   252          1
   253          0
   256          0
   257          2
   258          1
   259          0
   260          0
   261          0
   262          0
   263          1
   264          1
   265          0
   266         13
   267          3
   269          0
   271          0
   273          0
   274          0
   275          0
   277          1
   278          2
   279          7
   280          1
   291          1
   292          5
   293         10
   294        143
   295         27
   296          2