##TITLE=Library Entry 56915
##JCAMP-DX=Revision 4.10 
##DATA TYPE=MASS SPECTRUM
##SAMPLE DESCRIPTION=Div. of Experiment Therapeutics WRAIR, WRAMC, Washingto
n DC 20307
##NAMES=HP
##CAS NAME=2-Bromo-4,5-dimethoxy-N-[1-methyl-4-diethylaminobutyl]aniline
##MOLFORM=C17H29BrN2O2
##CAS REGISTRY NO=66910-68-7
##MP= -300
##BP= -300
##MW= 372
##$RETENTION INDEX=0
##$CONDENSED SPECTRUM=NO
##NPOINTS= 229
##XYDATA=(XY..XY) 1 
    41        167
    42        241
    43        214
    44        217
    45        168
    46          7
    47         56
    49         75
    50         25
    51        239
    52         63
    53        102
    54         72
    55        107
    56        257
    57         60
    58        407
    59         59
    60        157
    61         88
    62          5
    63         72
    64         15
    65         63
    66         14
    67         26
    68         28
    69         48
    70         47
    71         60
    72        104
    73        131
    74         46
    75          8
    76          7
    77         20
    78         18
    79         26
    80         16
    81         14
    82         19
    84        171
    85         13
    86        999
    87         51
    88         17
    89         14
    90         10
    91         11
    92          8
    93         10
    94         19
    95          7
    96         15
    97          8
    98         55
    99        224
   100        102
   101         66
   102         19
   103          9
   104         34
   105         32
   106         62
   107         37
   108         30
   109         22
   110         15
   111          6
   112         83
   113         34
   114         23
   115          6
   116          7
   117         14
   118          9
   119          5
   120         14
   121          8
   122          9
   123          5
   124         10
   125          9
   126         11
   127          4
   128          4
   129          6
   130          7
   131          6
   132         12
   133          9
   134         11
   135          8
   136         16
   137          5
   138          5
   140         17
   141          7
   142         80
   143         10
   144          7
   145          4
   146          5
   148          4
   150          8
   151         23
   152         13
   153         15
   154          8
   155          6
   156         12
   157         36
   158         45
   159         30
   160         37
   161         29
   162         14
   163          6
   164         41
   165          7
   166          5
   171          5
   172          9
   173          5
   174          4
   175          4
   176          5
   177          4
   178          9
   179         17
   180         31
   184          4
   185          9
   186         15
   187         20
   188         38
   189         13
   190         59
   191         10
   192         46
   193         26
   200          5
   202         11
   203         10
   204         20
   205         27
   206         59
   207         22
   208          5
   212          5
   213          8
   214         11
   215         10
   216         23
   217          6
   218         13
   219          8
   220        123
   221         40
   222         60
   223         10
   226          8
   227          4
   228         13
   229          9
   230         27
   231         88
   232         26
   233         46
   234         85
   235          9
   240          5
   242         72
   243         17
   244         42
   245         11
   246         22
   250          6
   251          4
   256         22
   257         19
   258        514
   259          7
   260        660
   261         66
   262          4
   268          4
   270          5
   271         24
   272          4
   273         17
   282         12
   285         28
   286         76
   287         35
   288         21
   290         17
   291         38
   292          9
   293        117
   294         79
   295         30
   297         18
   299         36
   300        250
   301         89
   302        253
   303        104
   304         11
   307          8
   312          5
   313          9
   314         32
   315          8
   316         22
   317          7
   330          4
   332          4
   343         11
   344         13
   345         14
   346         14
   347          5
   371         21
   372        248
   373         69
   374        248
   375         47
   376          4