##TITLE=Library Entry 55757
##JCAMP-DX=Revision 4.10 
##DATA TYPE=MASS SPECTRUM
##SAMPLE DESCRIPTION=Div. of Experiment Therapeutics WRAIR, WRAMC, Washingto
n DC 20307
##NAMES=HP
##CAS NAME=6-[4-Diethylamino-1-methylamino]quinoxaline
##MOLFORM=C17H26N4
##CAS REGISTRY NO=66910-60-9
##MP= -300
##BP= -300
##MW= 286
##$RETENTION INDEX=0
##$CONDENSED SPECTRUM=NO
##NPOINTS= 161
##XYDATA=(XY..XY) 1 
    42        437
    43        119
    44         89
    45          3
    46         23
    47          9
    48          4
    49         30
    50         17
    51         43
    52         37
    53         24
    54         35
    55         49
    56        147
    57         24
    58        262
    60          5
    62         19
    63         66
    64         26
    65         19
    66          8
    67         16
    68         15
    69         38
    70         62
    71         77
    72         94
    73        107
    74         33
    75         29
    76         20
    77         16
    78         23
    79         10
    80          6
    81          3
    82         15
    84        110
    86        999
    87         67
    89         35
    90         39
    91         49
    92         11
    93          2
    94          1
    96         11
    98         53
    99         86
   100         17
   102         60
   103         23
   104          9
   105          4
   106          4
   108          1
   109          0
   110          5
   112         65
   113         13
   114         11
   115          8
   116         28
   117         63
   118         37
   119          7
   120          0
   122          0
   124          2
   126         30
   127         12
   129         56
   130         23
   131         15
   132          6
   133          0
   135          5
   136          2
   139          1
   140         31
   142         23
   143         29
   144         56
   145         47
   146         45
   147          6
   153          1
   154          1
   155         19
   156         33
   157         16
   158         55
   159          9
   160          2
   161          0
   167          0
   168          4
   169          9
   170         66
   171         20
   172        243
   173         28
   174          7
   175          0
   180          0
   181          2
   182          9
   183          6
   184         29
   185          9
   186          9
   187         16
   188          3
   189          1
   194          0
   195          2
   196         27
   197          5
   198        112
   199         17
   200         10
   201          1
   208          0
   210          3
   211          9
   212         96
   213        120
   214         53
   215         45
   216          6
   222          0
   224          3
   225          0
   226          1
   227          0
   228          0
   229          0
   230          0
   236          0
   237          0
   238          0
   240          0
   245          0
   250          0
   251          0
   255          0
   257          0
   258          3
   259          0
   269          1
   270          2
   271          1
   272          0
   274          2
   275          0
   284          1
   286        170
   287         35
   288          4