##TITLE=Library Entry 53003
##JCAMP-DX=Revision 4.10 
##DATA TYPE=MASS SPECTRUM
##SAMPLE DESCRIPTION=W.Jennings, T.Shibamoto
##NAMES=HP
##CAS NAME=2-Butenoic acid, 2-methyl-, 2-methylpropyl ester
##MOLFORM=C9H16O2
##CAS REGISTRY NO=66917-61-1
##MP= -300
##BP= -300
##MW= 156
##$RETENTION INDEX=1097
##$CONDENSED SPECTRUM=NO
##NPOINTS= 12
##XYDATA=(XY..XY) 1 
    29        119
    41        119
    55        627
    56        345
    57        151
    82          7
    83        999
    84         49
    85          7
   100         48
   101        667
   102          7