##TITLE=Library Entry 37365
##JCAMP-DX=Revision 4.10 
##DATA TYPE=MASS SPECTRUM
##SAMPLE DESCRIPTION=W.Jennings, T.Shibamoto
##NAMES=HP
##CAS NAME=iso-Amyl tiglate
##MOLFORM=C10H18O2
##CAS REGISTRY NO=66917-62-2
##MP= -300
##BP= -300
##MW= 170
##$RETENTION INDEX=1178
##$CONDENSED SPECTRUM=NO
##NPOINTS= 30
##XYDATA=(XY..XY) 1 
    25          9
    27         21
    29        122
    36         32
    39         32
    41         75
    42        143
    43        443
    44          9
    45         21
    53         19
    54         52
    55        912
    56         75
    57         42
    69         65
    70        999
    71        155
    72          8
    73          8
    82         53
    83        752
    84         75
    85         42
    99          8
   100        113
   101        592
   102         32
   113          8
   127          8