##TITLE=Library Entry 13700
##JCAMP-DX=Revision 4.10 
##DATA TYPE=MASS SPECTRUM
##SAMPLE DESCRIPTION=Div. of Experiment Therapeutics WRAIR, WRAMC, Washingto
n DC 20307
##NAMES=HP
##CAS NAME=Acetamide, N-(2-methoxy-4,5-dinitrophenyl)-
##MOLFORM=C9H9N3O6
##CAS REGISTRY NO=66910-71-2
##MP= -300
##BP= -300
##MW= 255
##$RETENTION INDEX=0
##$CONDENSED SPECTRUM=NO
##NPOINTS= 143
##XYDATA=(XY..XY) 1 
    41         21
    42          2
    43        999
    44          0
    46          9
    47          1
    48          1
    49         15
    50        105
    51         69
    52         47
    53         58
    54         19
    55         10
    56          6
    57          7
    58          6
    59          6
    61         16
    62         35
    63         34
    64         21
    65         17
    66         39
    67         16
    68         26
    69         40
    70          4
    71          1
    73          1
    74          5
    75         13
    76         34
    77         57
    78         96
    79         29
    80         25
    81          6
    82          9
    83          3
    84         10
    85          1
    86          5
    87          2
    88          5
    89          5
    90         14
    91         11
    92          9
    93         22
    94         16
    95          8
    96          8
    97          7
    98          2
    99          0
   100          0
   101          0
   102          0
   103          1
   104          5
   105          4
   106         55
   107          6
   108         16
   109         49
   110          5
   111          0
   113          2
   115          0
   116          0
   118          2
   119          2
   120         24
   121        130
   122         17
   123          2
   124          0
   125         80
   126          4
   127          0
   131          0
   132          2
   133          1
   134          6
   135          2
   136          2
   137          5
   138          2
   139          0
   140          1
   147          1
   148          1
   149          1
   150          7
   151          1
   152          3
   153          1
   154          0
   159          0
   161          0
   162          2
   163          0
   164          0
   165          0
   166          6
   167          1
   168          4
   169          0
   170          0
   178          0
   179          0
   180          1
   181          1
   183          8
   184          0
   185          0
   187          2
   195          0
   196          3
   197         32
   198          7
   199          0
   202          1
   207          1
   208          0
   210          1
   213        559
   214         64
   215         10
   216          0
   223          0
   224          0
   225          1
   226          2
   237          1
   238          0
   239          2
   240          3
   241          0
   255        187
   256         21
   257          1