##TITLE=Library Entry 4301
##JCAMP-DX=Revision 4.10 
##DATA TYPE=MASS SPECTRUM
##SAMPLE DESCRIPTION=Patti Price, Georgia Bureau of Investigation, Decatur,
 Georgia
##NAMES=HP
##CAS NAME=Hexahydrocannabinol
##MOLFORM=C21H32O2
##CAS REGISTRY NO=6692-85-9
##MP= -300
##BP= -300
##MW= 316
##$RETENTION INDEX=2407
##$CONDENSED SPECTRUM=NO
##NPOINTS= 195
##XYDATA=(XY..XY) 1 
    41        999
    42        123
    43        656
    44          9
    51         36
    52         29
    53        178
    54         29
    55        535
    56        101
    57        138
    58          7
    59         14
    63         22
    64         12
    65        152
    66         49
    67        314
    68         50
    69        450
    70         40
    71         69
    72          7
    75         10
    76         15
    77        357
    78         91
    79        325
    80         79
    81        428
    82         61
    83         84
    85          9
    87         12
    88          7
    89         40
    90         23
    91        468
    92         74
    93        256
    94         63
    95        243
    96         28
    97         40
    98          5
   101         14
   102         30
   103        119
   104         34
   105        162
   106         30
   107        342
   108         97
   109        267
   110         29
   111         20
   115        253
   116         74
   117         95
   118         19
   119         79
   120         35
   121        335
   122         92
   123        487
   124        163
   125         23
   126          7
   127         82
   128        165
   129        114
   130         37
   131        151
   132         32
   133        109
   134         31
   135        141
   136        537
   137        236
   138         70
   139         21
   140          5
   141         69
   142         32
   143         37
   144         51
   145        117
   146         33
   147        223
   148         68
   149        225
   150        174
   151         49
   152         39
   153         30
   154         11
   155         20
   156          8
   157         59
   158         33
   159         72
   160        120
   161        189
   162         53
   163        121
   164         46
   165         51
   166         11
   167          8
   168          6
   169         14
   170         10
   171         35
   172         15
   173        111
   174        176
   175        140
   176         43
   177        178
   178         70
   179         16
   180         29
   181         20
   182          7
   183         11
   184          7
   185         31
   186         20
   187         89
   188         63
   189         63
   190         21
   191         65
   192         31
   193        813
   194        130
   195         18
   197          7
   198          5
   199         27
   200         21
   201         41
   202         23
   203         95
   204         51
   205         25
   206         21
   207         59
   208         10
   211          4
   213         11
   214          9
   215         37
   216         24
   217        120
   218         42
   219         41
   220         10
   221          7
   227         10
   229         23
   230         10
   231        255
   232         44
   233        154
   234         31
   235          5
   242          4
   243         15
   244          8
   245         75
   246         31
   247         20
   248          4
   255         16
   257          5
   258          1
   259         73
   260        862
   261        154
   262         19
   272         21
   273        838
   274        379
   275         61
   276          6
   287         13
   288          5
   299         10
   301         44
   302          9
   315         12
   316        422
   317        111
   318         15