##TITLE=Library Entry 12072
##JCAMP-DX=Revision 4.10 
##DATA TYPE=MASS SPECTRUM
##SAMPLE DESCRIPTION=Chemical Concepts
##NAMES=HP
##CAS NAME=Tricyclo[4.2.1.1(2,5)]decan-9-ol, acetate, stereoisomer
##MOLFORM=C12H18O2
##CAS REGISTRY NO=66953-31-9
##MP= -300
##BP= -300
##MW= 194
##$RETENTION INDEX=0
##$CONDENSED SPECTRUM=NO
##NPOINTS= 84
##XYDATA=(XY..XY) 1 
    27         53
    28         15
    29         49
    31          9
    39         97
    40         19
    41        185
    42         17
    43        999
    44         24
    45          9
    50          4
    51         21
    52         12
    53         61
    54         30
    55         89
    56         15
    57         48
    58          5
    61          5
    63          8
    65         42
    66        193
    67        315
    68         39
    69         25
    70         36
    71         17
    73          4
    77         80
    78         94
    79        229
    80        147
    81        110
    82         18
    83         55
    84         59
    85         13
    87          6
    91        255
    92        278
    93        491
    94         56
    95         82
    96         26
    97         13
    98          4
    99          6
   100          5
   103          7
   104         18
   105        131
   106        232
   107         63
   108         39
   109         76
   110         19
   111          8
   112          4
   117         10
   118          7
   119        156
   120         17
   121         37
   122          7
   123         64
   124         34
   125         32
   126          5
   131          3
   132          6
   133         64
   134        512
   135         66
   136         11
   137          9
   150          7
   151         18
   152        368
   153         40
   165          2
   166          2
   194          3