##TITLE=Library Entry 97100
##JCAMP-DX=Revision 4.10 
##DATA TYPE=MASS SPECTRUM
##SAMPLE DESCRIPTION=H. Luftmann, Org. Chem. Inst., Westfalisch Wilhelms Uni
v., Munster, Germany
##NAMES=HP
##CAS NAME=2,5-Hexanediol, 2TMS derivative
##MOLFORM=C12H30O2Si2
##CAS REGISTRY NO=66956-94-3
##MP= -300
##BP= -300
##MW= 262
##$RETENTION INDEX=0
##$CONDENSED SPECTRUM=NO
##NPOINTS= 26
##XYDATA=(XY..XY) 1 
    40         50
    43         13
    45         10
    55         54
    73        314
    74         30
    75        110
    83         89
   115         26
   116         17
   117        999
   118        118
   119         48
   130        194
   131         53
   133         43
   147        276
   148         50
   149         62
   157        140
   158         23
   171         27
   172         16
   191         60
   192          6
   247         10