##TITLE=Library Entry 33772
##JCAMP-DX=Revision 4.10 
##DATA TYPE=MASS SPECTRUM
##SAMPLE DESCRIPTION=NIST Mass Spectrometry Data Center
##NAMES=HP
##CAS NAME=(3R,3aR,5R,6R,7aR)-3,6-Dimethyl-5-(prop-1-en-2-yl)-6-vinylhexahyd
robenzofuran-2(3H)-one
##MOLFORM=C15H22O2
##CAS REGISTRY NO=66964-63-4
##MP= -300
##BP= -300
##MW= 234
##$RETENTION INDEX=1836
##$CONDENSED SPECTRUM=NO
##NPOINTS= 118
##XYDATA=(XY..XY) 1 
    27         51
    28         13
    29         74
    38          5
    39        199
    40         61
    41        437
    42         61
    43         82
    44          6
    50         11
    51         58
    52         34
    53        298
    54         42
    55        456
    56         47
    57         26
    62          3
    63         19
    65        144
    66         51
    67        602
    68        999
    69        432
    70         78
    71         33
    74         75
    75         11
    77        302
    78         62
    79        374
    80         91
    81        284
    82         76
    83         61
    84          8
    89          6
    90          2
    91        363
    92         74
    93        736
    94        123
    95        356
    96         65
    97        176
    98         67
    99         23
   102          5
   103         26
   104         14
   105        323
   106         63
   107        264
   108        337
   109        186
   110         69
   111         42
   112         17
   113          6
   114          2
   115         28
   117         61
   118         89
   119        854
   120        128
   121        401
   122         97
   123         88
   124         21
   125         14
   128         12
   129         14
   130          8
   131        135
   132         31
   133        215
   134        255
   135         88
   136         38
   137         74
   138         31
   139         13
   143         42
   144         10
   145        330
   146         53
   147        112
   148         19
   151         79
   152         17
   153          4
   158          6
   159         60
   160        248
   161        264
   162         38
   163         36
   164         16
   165         67
   166         19
   167         10
   173         52
   174         10
   177         20
   178          9
   183          2
   188          7
   190          2
   191         19
   192         56
   193         65
   194          7
   205         17
   206         19
   219         44
   220          7
   234          4