##TITLE=Library Entry 57053
##JCAMP-DX=Revision 4.10 
##DATA TYPE=MASS SPECTRUM
##SAMPLE DESCRIPTION=HCACAV,61(3)984(1978); P. DUBS AND H-P. SCHENK
##NAMES=HP
##CAS NAME=1,3-Dioxolane, 2-methyl-2-(4-methyl-3-methylenepentyl)-
##MOLFORM=C11H20O2
##CAS REGISTRY NO=66972-05-2
##MP= -300
##BP= -300
##MW= 184
##$RETENTION INDEX=0
##$CONDENSED SPECTRUM=NO
##NPOINTS= 5
##XYDATA=(XY..XY) 1 
    39         50
    41        100
    43        380
    87        999
    99         40