##TITLE=Library Entry 39858
##JCAMP-DX=Revision 4.10 
##DATA TYPE=MASS SPECTRUM
##SAMPLE DESCRIPTION=Japan AIST/NIMC Database- Spectrum MS-NW-5562
##NAMES=HP
##CAS NAME=Ethylamine, N-methyl-N-hexadecyl-
##MOLFORM=C19H41N
##CAS REGISTRY NO=66997-40-8
##MP= -300
##BP= -300
##MW= 283
##$RETENTION INDEX=0
##$CONDENSED SPECTRUM=NO
##NPOINTS= 94
##XYDATA=(XY..XY) 1 
    14          1
    15         27
    26          2
    27         15
    28          6
    29         35
    30          6
    32          1
    39          5
    40          1
    41         50
    42         24
    43         67
    44         61
    45          5
    46          2
    53          3
    54          4
    55         39
    56         14
    57         46
    58        266
    59         21
    60          7
    67          4
    68          3
    69         20
    70         15
    71         19
    72        999
    73         52
    74          1
    79          2
    81          2
    82          3
    83         10
    84         11
    85         12
    86          2
    91          2
    92          1
    93          5
    94         31
    95          4
    96         30
    97          7
    98         27
    99          4
   100          2
   108          6
   110          6
   111          3
   112          3
   113          2
   114          3
   124          2
   125          1
   126          2
   127          1
   128          4
   135         10
   137          9
   140          2
   141          2
   142          2
   149          2
   151          2
   154          2
   155          1
   156          1
   168          1
   182          1
   184          1
   196          1
   198          1
   212          1
   224          2
   225          1
   226          2
   240          1
   252          1
   254          3
   255          2
   266          7
   267          2
   268         21
   269         11
   270          2
   280          1
   281          3
   282         14
   283         28
   284          6
   285          1