##TITLE=Library Entry 90628
##JCAMP-DX=Revision 4.10 
##DATA TYPE=MASS SPECTRUM
##SAMPLE DESCRIPTION=V.A.Korolev, Moscow, Russia
##NAMES=HP
##CAS NAME=5-Chloro-[1,2,4]triazolo[4,3-a]pyridin-3-amine
##MOLFORM=C6H5ClN4
##CAS REGISTRY NO=66999-63-1
##MP= -300
##BP= -300
##MW= 168
##$RETENTION INDEX=0
##$CONDENSED SPECTRUM=NO
##NPOINTS= 73
##XYDATA=(XY..XY) 1 
    35         63
    36         75
    37        333
    38        424
    39        298
    40        371
    41        192
    42        467
    43        118
    44         42
    47         42
    48         28
    49        137
    50        417
    51        414
    52        252
    53        149
    54         15
    55         23
    56          7
    57         15
    60         66
    61         96
    62        202
    63        191
    64        449
    65        137
    66         48
    67         12
    69          7
    70          5
    71         10
    72         34
    73         76
    74         45
    75        155
    76        555
    77        146
    78        551
    79         39
    80          6
    84         19
    85         79
    86         44
    87         38
    88         13
    89          9
    90         14
    91        129
    92         32
    97          4
    99        147
   100         17
   101         48
   103         23
   105         10
   106         11
   112        285
   113        999
   114        147
   115        321
   116         14
   126         53
   127          6
   128         26
   130          3
   139         12
   141          4
   168        659
   169         58
   170        217
   171         15
   172          8