##TITLE=Library Entry 45175
##JCAMP-DX=Revision 4.10 
##DATA TYPE=MASS SPECTRUM
##SAMPLE DESCRIPTION=MASS SPECTROMETRY CENTER, UNIV. OF UTAH ALDRICH 10040-4
##NAMES=HP
##CAS NAME=DL-Homocysteine, S-ethyl-
##MOLFORM=C6H13NO2S
##CAS REGISTRY NO=67-21-0
##MP= -300
##BP= -300
##MW= 163
##$RETENTION INDEX=0
##$CONDENSED SPECTRUM=NO
##NPOINTS= 62
##XYDATA=(XY..XY) 1 
    15         27
    18          8
    19          2
    26         20
    27        180
    28        348
    29        305
    30        126
    34         12
    35         60
    39         28
    41         79
    42        124
    43        107
    44         91
    45        118
    46         98
    47        311
    48          5
    49          6
    54         47
    55        383
    56        489
    57        195
    58         97
    59         79
    60         43
    61        351
    62         70
    63         21
    70         35
    72          2
    73         38
    74        480
    75        999
    76         57
    77         48
    83        339
    84         32
    85          3
    86         41
    87         21
    88        120
    89        238
    90         34
    91         22
    99          7
   100         41
   101        365
   102         59
   103         79
   104          2
   116        273
   117         43
   118        144
   128         44
   134         37
   145        259
   146         67
   147         13
   163        180
   164         20