##TITLE=Library Entry 73244
##JCAMP-DX=Revision 4.10 
##DATA TYPE=MASS SPECTRUM
##SAMPLE DESCRIPTION=NIST Mass Spectrometry Data Center, 1998.
##NAMES=HP
##CAS NAME=Nitrofurantoin
##MOLFORM=C8H6N4O5
##CAS REGISTRY NO=67-20-9
##MP= -300
##BP= -300
##MW= 238
##$RETENTION INDEX=0
##$CONDENSED SPECTRUM=NO
##NPOINTS= 73
##XYDATA=(XY..XY) 1 
    25         14
    26         14
    27         33
    28         87
    29         52
    30         62
    37         45
    38        131
    39         71
    41         24
    42        228
    43         52
    44         74
    45          5
    46          6
    49         13
    50        137
    51        483
    52        103
    53         44
    54         71
    55        121
    56         37
    57         73
    63         17
    64         82
    65         95
    66         35
    67         17
    68         17
    69          8
    70         32
    71          8
    72         88
    77         10
    78          8
    79        618
    80        112
    81         27
    82        169
    83         11
    93         93
    94         10
    95          3
    96         46
    97          8
    98         43
    99         14
   100        999
   101         51
   102          8
   108         16
   109         10
   110          9
   120         13
   121          8
   122         29
   123         22
   124          6
   125         20
   126         85
   127          7
   137         30
   138          7
   139         11
   151         11
   153          7
   166          5
   167        242
   168         30
   192         10
   238        186
   239         25