##TITLE=Library Entry 70467
##JCAMP-DX=Revision 4.10 
##DATA TYPE=MASS SPECTRUM
##SAMPLE DESCRIPTION=Japan AIST/NIMC Database- Spectrum MS-NW-4745
##NAMES=HP
##CAS NAME=5-Hydroxymethylfurfural
##MOLFORM=C6H6O3
##CAS REGISTRY NO=67-47-0
##MP= -300
##BP= -300
##MW= 126
##$RETENTION INDEX=1233
##$CONDENSED SPECTRUM=NO
##NPOINTS= 79
##XYDATA=(XY..XY) 1 
    12          2
    13          3
    14          8
    15         15
    16          1
    17          4
    18         15
    24          2
    25          7
    26         30
    27         66
    28         45
    29        171
    30          9
    31         74
    32          9
    33          2
    34          4
    35          1
    36          8
    37         53
    38        101
    39        358
    40         31
    41        732
    42         36
    43         37
    44          6
    45          2
    48          3
    49         19
    50         61
    51        115
    52         71
    53        145
    54          9
    55         22
    56          3
    57          1
    58          2
    60          2
    61          4
    62          4
    63          2
    64          1
    65          4
    66         17
    67         19
    68         36
    69        326
    70         19
    71          5
    75          2
    77          2
    79         29
    80         28
    81         55
    82          5
    83          1
    84          3
    91          1
    93          3
    94          3
    95         99
    96         12
    97        999
    98         62
    99          7
   108          3
   109        134
   110         34
   111          3
   112          2
   123         36
   124         24
   125        145
   126        779
   127         56
   128          7