##TITLE=Library Entry 4626
##JCAMP-DX=Revision 4.10 
##DATA TYPE=MASS SPECTRUM
##SAMPLE DESCRIPTION=Japan AIST/NIMC Database- Spectrum MS-NW-5772
##NAMES=HP
##CAS NAME=Pentetic Acid
##MOLFORM=C14H23N3O10
##CAS REGISTRY NO=67-43-6
##MP= -300
##BP= -300
##MW= 393
##$RETENTION INDEX=0
##$CONDENSED SPECTRUM=NO
##NPOINTS= 313
##XYDATA=(XY..XY) 1 
    12         46
    13          8
    14         33
    15        188
    16         38
    17         59
    18        163
    19          2
    24          2
    25          4
    26         32
    27        111
    28        282
    29         86
    30        122
    31         67
    32          1
    36          3
    37          4
    38         16
    39         55
    40         52
    41        197
    42        999
    43        186
    44        551
    45         64
    46          5
    49          6
    50          7
    51         16
    52         23
    53         21
    54         78
    55        103
    56        544
    57        156
    58        333
    59         18
    60         50
    61          3
    62          3
    63          7
    64          5
    65         15
    66         15
    67         19
    68         44
    69         33
    70        141
    71         69
    72         40
    73         11
    74         67
    75          5
    76          4
    77         10
    78          8
    79         12
    80         14
    81         22
    82         33
    83         46
    84         48
    85         76
    86        172
    87         20
    88         97
    89         13
    90          5
    91         11
    92          9
    93          9
    94         14
    95         35
    96         30
    97         50
    98         52
    99        169
   100         32
   101         75
   102        103
   103          9
   104          5
   105          6
   106          8
   107         13
   108         10
   109         17
   110         14
   111         51
   112         21
   113         54
   114        133
   115         41
   116         12
   117          9
   118          8
   119          8
   120         10
   121         14
   122         12
   123         14
   124         20
   125         32
   126         20
   127         88
   128         34
   129         26
   130          8
   131         11
   132         13
   133          9
   134          8
   135         12
   136         10
   137         13
   138         14
   139         25
   140         33
   141         27
   142         17
   143        267
   144         26
   145         14
   146         38
   147          9
   148          8
   149          9
   150         11
   151         11
   152         16
   153         15
   154         10
   155         16
   156          7
   157         53
   158         26
   159         24
   160         10
   161          8
   162          8
   163          8
   164          7
   165         11
   166          9
   167          7
   168          7
   169         13
   170         12
   171        291
   172         91
   173         20
   174          9
   175         19
   176          9
   177          8
   178          6
   179          6
   180          7
   181          6
   182          6
   183          9
   184         19
   185         30
   186         11
   187         23
   188          8
   189         13
   190          9
   191          5
   192          4
   193          5
   194          3
   195          7
   196          7
   197          7
   198          9
   199          7
   200          8
   201          6
   202          8
   203          8
   204          5
   205          4
   206          6
   207          3
   208          4
   209          5
   210          7
   211          6
   212          6
   213          6
   214          6
   215          8
   216          9
   217          4
   218          4
   219          4
   220          5
   221          3
   222          3
   223          2
   224          4
   225          6
   226          8
   227         10
   228          6
   229          7
   230          6
   231          4
   232          2
   233          4
   234          4
   235          4
   236          3
   237          3
   238          2
   239          6
   240          6
   241          5
   242          8
   243          4
   244          5
   245          3
   246          4
   247          2
   249          3
   250          3
   251          3
   253          5
   254          7
   255          9
   256          5
   257          3
   258          3
   259          4
   260          7
   261          2
   262          2
   263          3
   264          2
   265          3
   266          2
   267          2
   268          4
   269          3
   270          2
   271          3
   272          3
   273          7
   274          2
   275          3
   276          2
   277          3
   278          4
   279          2
   280          3
   281          3
   282          3
   283          4
   284          2
   285          2
   286          3
   287          2
   290          2
   291          2
   293          2
   294          3
   295          2
   296          2
   297          3
   298          5
   299          8
   300          3
   301          2
   303          2
   304          2
   305          3
   306          2
   308          4
   309          2
   310          3
   311          2
   312          7
   313          2
   318          2
   319          2
   320          2
   321          2
   322          2
   323          2
   324          4
   326          4
   328          2
   329          2
   331          3
   334          3
   335          2
   336          2
   338          3
   339          3
   340          2
   341          2
   342          2
   344          2
   345          2
   353          2
   355          3
   356          6
   357          2
   376          2
   377          2