##TITLE=Library Entry 1459
##JCAMP-DX=Revision 4.10 
##DATA TYPE=MASS SPECTRUM
##SAMPLE DESCRIPTION=Japan AIST/NIMC Database- Spectrum MS-NW- 72
##NAMES=HP
##CAS NAME=Methyl Alcohol
##MOLFORM=CH4O
##CAS REGISTRY NO=67-56-1
##MP= -300
##BP= -300
##MW= 32
##$RETENTION INDEX=354
##$CONDENSED SPECTRUM=NO
##NPOINTS= 16
##XYDATA=(XY..XY) 1 
     2          3
    12          2
    13          6
    14         16
    15        123
    16          1
    17          3
    18          7
    19          1
    28         45
    29        445
    30         64
    31        999
    32        743
    33         11
    34          1