##TITLE=Library Entry 17965
##JCAMP-DX=Revision 4.10 
##DATA TYPE=MASS SPECTRUM
##SAMPLE DESCRIPTION=Japan AIST/NIMC Database- Spectrum MS-NW-9020
##NAMES=HP
##CAS NAME=Hydroxylamine, O-methyl-
##MOLFORM=CH5NO
##CAS REGISTRY NO=67-62-9
##MP= -300
##BP= -300
##MW= 47
##$RETENTION INDEX=0
##$CONDENSED SPECTRUM=NO
##NPOINTS= 19
##XYDATA=(XY..XY) 1 
    14          3
    15         65
    16         15
    17        129
    18         36
    27          1
    28         51
    29        176
    30         90
    31        100
    32        423
    33          3
    43          2
    44         53
    45          2
    46         70
    47        999
    48         19
    49          1