##TITLE=Library Entry 97506
##JCAMP-DX=Revision 4.10 
##DATA TYPE=MASS SPECTRUM
##SAMPLE DESCRIPTION=NIST Mass Spectrometry Data Center, 1998.
##NAMES=HP
##CAS NAME=Ethane, hexachloro-
##MOLFORM=C2Cl6
##CAS REGISTRY NO=67-72-1
##MP= -300
##BP= -300
##MW= 234
##$RETENTION INDEX=1064
##$CONDENSED SPECTRUM=NO
##NPOINTS= 57
##XYDATA=(XY..XY) 1 
    12          2
    24         11
    35         99
    36          3
    37         33
    38          2
    47        236
    48          3
    49         80
    59        114
    60          3
    61         37
    64          2
    70         10
    72          7
    82        209
    83         70
    84        137
    85          8
    86         18
    94        332
    95          8
    96        218
    97          5
    98         36
   100          1
   117        999
   118         12
   119        957
   120         11
   121        307
   122          3
   123         33
   129        156
   130          4
   131        157
   132          4
   133         49
   135          5
   164        354
   165          9
   166        455
   167         11
   168        217
   169          5
   170         46
   172          4
   199        435
   200         12
   201        685
   202         16
   203        438
   204         10
   205        139
   206          3
   207         23
   209          1