##TITLE=Library Entry 11605
##JCAMP-DX=Revision 4.10 
##DATA TYPE=MASS SPECTRUM
##SAMPLE DESCRIPTION=Finnigan MAT: Toxicological Library (LIBR-TX)
##NAMES=HP
##CAS NAME=Triamcinolone diacetate
##MOLFORM=C25H31FO8
##CAS REGISTRY NO=67-78-7
##MP= -300
##BP= -300
##MW= 478
##$RETENTION INDEX=0
##$CONDENSED SPECTRUM=NO
##NPOINTS= 42
##XYDATA=(XY..XY) 1 
    41         73
    43        999
    55        101
    73         53
    77         65
    91        118
   107         53
   121        495
   122        317
   135        103
   147        126
   159         53
   160         53
   187         32
   191         31
   209         30
   223         43
   225         40
   237         35
   251         44
   261         98
   279         88
   281         25
   297         28
   299         69
   317         36
   338          7
   339         10
   356          8
   359         15
   377         55
   378         12
   398          2
   399          2
   416          3
   418          5
   441          2
   442          0
   458          7
   459          2
   479          7
   480          1