##TITLE=Library Entry 12469
##JCAMP-DX=Revision 4.10 
##DATA TYPE=MASS SPECTRUM
##SAMPLE DESCRIPTION=TAT 0118
##NAMES=HP
##CAS NAME=2H-Pyran-2-one, 3-bromo-4-methoxy-6-methyl-
##MOLFORM=C7H7BrO3
##CAS REGISTRY NO=670-35-9
##MP= -300
##BP= -300
##MW= 218
##$RETENTION INDEX=0
##$CONDENSED SPECTRUM=NO
##NPOINTS= 81
##XYDATA=(XY..XY) 1 
    15        120
    25         20
    26         30
    27         60
    28         70
    29         60
    36         20
    37        130
    38         90
    39        200
    40        110
    41         40
    42         60
    43        999
    44         50
    49         30
    50         60
    51         70
    52         40
    53        260
    54         20
    55         40
    59         50
    61         30
    62         30
    63         20
    64         40
    66         80
    67         90
    68        140
    69        150
    79         30
    80         20
    81         30
    83        130
    84         10
    91         40
    93         60
    94         30
    95         30
    96         40
   104         40
   106         40
   107         40
   109         40
   111         20
   116         50
   117         30
   118         40
   119         80
   120         30
   121         60
   122         30
   124         20
   131         20
   132         20
   133         50
   134         20
   135         30
   146         20
   147        590
   148         40
   149        580
   150         30
   161         30
   163         30
   175         90
   176        110
   177         90
   178        110
   179         20
   190        580
   191         50
   192        570
   193         40
   203         40
   205         30
   218        440
   219         40
   220        430
   221         40