##TITLE=Library Entry 48988
##JCAMP-DX=Revision 4.10 
##DATA TYPE=MASS SPECTRUM
##SAMPLE DESCRIPTION=Chemical Concepts
##NAMES=HP
##CAS NAME=Tricyclo[4.2.1.1(2,5)]dec-3-en-9-one
##MOLFORM=C10H12O
##CAS REGISTRY NO=67009-89-6
##MP= -300
##BP= -300
##MW= 148
##$RETENTION INDEX=0
##$CONDENSED SPECTRUM=NO
##NPOINTS= 98
##XYDATA=(XY..XY) 1 
    25          1
    26         33
    27        307
    28         35
    29         38
    30          1
    31          7
    37         11
    38         44
    39        403
    40         78
    41        189
    42         27
    43         82
    44         12
    45         15
    46          3
    49          4
    50         58
    51        152
    52         67
    53        121
    54         28
    55        309
    56         12
    57         21
    58         19
    59          7
    60          5
    61         10
    62         23
    63         65
    64         19
    65        179
    66        295
    67         58
    68         21
    69         15
    70         23
    71          5
    72          1
    73          4
    74         10
    75         14
    76          8
    77        449
    78        307
    79        999
    80         99
    81         30
    82        655
    83        337
    84         19
    85          2
    86          2
    87          3
    88          2
    89         18
    90         22
    91        938
    92        835
    93        308
    94         52
    95          4
    96          1
    97          1
    98          3
    99          0
   101          1
   102          6
   103         35
   104         88
   105        416
   106         51
   107         21
   108          2
   111          1
   115         29
   116          7
   117         34
   118          6
   119         96
   120        261
   121         27
   122          1
   127          2
   128          4
   129         14
   130         18
   131          9
   132          0
   133         38
   134          3
   146          1
   147         37
   148        340
   149         37
   150          2