##TITLE=Library Entry 10118
##JCAMP-DX=Revision 4.10 
##DATA TYPE=MASS SPECTRUM
##SAMPLE DESCRIPTION=Exported from NIST MS Search
##NAMES=HP
##CAS NAME=Lactonitrile, 3-chloro-, acetate
##MOLFORM=C5H6ClNO2
##CAS REGISTRY NO=6702-21-2
##MP= -300
##BP= -300
##MW= 147
##$RETENTION INDEX=0
##$CONDENSED SPECTRUM=NO
##NPOINTS= 58
##XYDATA=(XY..XY) 1 
    14          7
    15         41
    16          1
    17          2
    18          8
    25          2
    26         15
    27          8
    28         43
    29          8
    31          1
    32          7
    35          2
    36          8
    37          2
    38          4
    39          3
    40          3
    41          4
    42         24
    43        999
    44         27
    45          7
    47          3
    48          3
    49         20
    50          6
    51         16
    52         55
    53          6
    54          3
    55          2
    56          3
    57          2
    60          4
    61         31
    62          3
    63          8
    68          1
    69          2
    70          8
    71          1
    77          2
    78          2
    83          1
    85          1
    86          1
    87         44
    88        110
    89         19
    90         36
    91          2
    92          1
    97          1
    98         29
    99          2
   105          1
   112          6