##TITLE=Library Entry 40911
##JCAMP-DX=Revision 4.10 
##DATA TYPE=MASS SPECTRUM
##SAMPLE DESCRIPTION=R.ERRA BALSELLS,DEP. QUIM. ORG.,CITY UNIV. BUENOS AIRES
,ARGENT
##NAMES=HP
##CAS NAME=(SR)- or (RS)-4-methyl-2,3-pentanediol
##MOLFORM=C6H14O2
##CAS REGISTRY NO=6702-10-9
##MP= -300
##BP= -300
##MW= 118
##$RETENTION INDEX=0
##$CONDENSED SPECTRUM=NO
##NPOINTS= 13
##XYDATA=(XY..XY) 1 
    27        280
    41        260
    43        530
    44         50
    45        450
    55        680
    57        350
    59        260
    71         50
    72        260
    73        999
    84         60
    85        390