##TITLE=Library Entry 52020
##JCAMP-DX=Revision 4.10 
##DATA TYPE=MASS SPECTRUM
##SAMPLE DESCRIPTION=CONTINENTAL OIL CO., PONCA CITY, OKLA, USA
##NAMES=HP
##CAS NAME=Cyclohexane, (1-decylundecyl)-
##MOLFORM=C27H54
##CAS REGISTRY NO=6703-99-7
##MP= -300
##BP= -300
##MW= 378
##$RETENTION INDEX=0
##$CONDENSED SPECTRUM=NO
##NPOINTS= 189
##XYDATA=(XY..XY) 1 
    14          5
    15         10
    16          4
    24          1
    25          1
    26          8
    27        127
    28         54
    29        341
    30         11
    31          1
    32          1
    36          1
    37          2
    38          3
    39         61
    40         16
    41        661
    42        113
    43        967
    44         36
    45          1
    49          1
    50          2
    51          4
    52          3
    53         34
    54        100
    55        937
    56        201
    57        947
    58         41
    59          1
    63          1
    65          7
    66         11
    67        200
    68         81
    69        407
    70        132
    71        458
    72         25
    73          2
    74          1
    75          1
    76          1
    77         14
    78          6
    79         30
    80         12
    81        128
    82        698
    83        999
    84        125
    85        386
    86         20
    87          1
    89          1
    91         15
    92          7
    93          8
    94          4
    95         54
    96         84
    97        349
    98         58
    99         67
   100          5
   101          0
   103          1
   104          2
   105          3
   106          1
   107          3
   108          2
   109         36
   110         18
   111        152
   112         35
   113         43
   114          4
   115          1
   116          0
   117          1
   118          1
   119          1
   121          1
   122          1
   123          8
   124         12
   125         72
   126         23
   127         30
   128          3
   129          1
   131          1
   133          1
   135          1
   136          1
   137          4
   138          8
   139         36
   140         17
   141         25
   142          3
   143          0
   145          0
   147          0
   149          0
   150          0
   151          2
   152          7
   153         25
   154         13
   155         21
   156          1
   161          0
   163          0
   165          2
   166          5
   167         19
   168         12
   169         15
   170          2
   177          0
   178          0
   179          1
   180          4
   181         13
   182          8
   183         12
   184          2
   191          1
   192          0
   193          1
   194          4
   195         12
   196          6
   197         10
   198          1
   207          0
   208          8
   209          8
   210          4
   211          9
   212          1
   221          0
   222          8
   223         14
   224          5
   225          7
   226          1
   236        150
   237        261
   238         48
   239          9
   240          1
   249          1
   250          7
   251          9
   252          3
   253          3
   254          0
   264          2
   265          3
   266          9
   267          2
   278          1
   279          1
   280          1
   281          3
   282          1
   283          0
   291          0
   292          4
   294        245
   295        175
   296         33
   297          3
   306          0
   307          0
   336          0
   341          0
   355          0
   364          1
   376          0
   377          0
   378          2
   379          0