##TITLE=Library Entry 17465
##JCAMP-DX=Revision 4.10 
##DATA TYPE=MASS SPECTRUM
##SAMPLE DESCRIPTION=ASES Database, Dalian Institute, P.R. China
##NAMES=HP
##CAS NAME=1,4,7,10,13-Pentaoxacyclononadecan-14,19-dione
##MOLFORM=C14H24O7
##CAS REGISTRY NO=67030-22-2
##MP= -300
##BP= -300
##MW= 304
##$RETENTION INDEX=0
##$CONDENSED SPECTRUM=NO
##NPOINTS= 15
##XYDATA=(XY..XY) 1 
    42         69
    45        999
    69         30
    70         49
    71         19
    72         20
    87         99
    89         99
    99        299
   129         50
   173        159
   217         59
   261         29
   303          9
   305          9