##TITLE=Library Entry 24126
##JCAMP-DX=Revision 4.10 
##DATA TYPE=MASS SPECTRUM
##SAMPLE DESCRIPTION=Exported from NIST MS Search
##NAMES=HP
##CAS NAME=Heneicosane, 11-cyclopentyl-
##MOLFORM=C26H52
##CAS REGISTRY NO=6703-81-7
##MP= -300
##BP= -300
##MW= 364
##$RETENTION INDEX=2548
##$CONDENSED SPECTRUM=NO
##NPOINTS= 169
##XYDATA=(XY..XY) 1 
    15          6
    16          1
    17          3
    18         14
    24          1
    25          1
    26          9
    27         99
    28         28
    29        300
    30          7
    37          1
    38          2
    39         46
    40         13
    41        619
    42        100
    43        940
    44         30
    45          1
    50          2
    51          2
    52          2
    53         28
    54         63
    55        622
    56        166
    57        999
    58         43
    59          1
    65          5
    66         14
    67        184
    68        424
    69        543
    70        113
    71        574
    72         31
    73          1
    76          1
    77          5
    78          1
    79         16
    80          9
    81         81
    82        119
    83        579
    84         80
    85        364
    86         24
    87          1
    91          4
    92          1
    93          6
    94          5
    95         71
    96         47
    97        406
    98         49
    99         76
   100          6
   101          1
   103          1
   104          1
   105          1
   106          1
   107          2
   108          2
   109         22
   110         15
   111        202
   112         34
   113         50
   114          5
   115          1
   117          1
   118          1
   119          1
   120          1
   121          1
   122          2
   123         11
   124         11
   125        110
   126         21
   127         39
   128          4
   129          1
   135          1
   136          1
   137          7
   138          8
   139         61
   140         15
   141         33
   142          4
   143          1
   151          2
   152          5
   153         40
   154         11
   155         18
   156          2
   157          1
   165          2
   166          5
   167         27
   168          8
   169         13
   170          2
   179          1
   180          3
   181         10
   182          7
   183         11
   184          2
   185          1
   193          1
   194          5
   195          5
   196          4
   197          9
   198          1
   199          1
   207          1
   208          3
   209          6
   210          3
   211          8
   212          1
   213          1
   221          1
   222         74
   223        151
   224         27
   225          8
   226          1
   235          1
   236          2
   237          4
   238          4
   239          5
   240          1
   250          1
   251          2
   252          1
   253          2
   254          1
   264          1
   265          1
   266          4
   267          1
   278          1
   279          1
   280          1
   281          1
   282          1
   292          1
   293          1
   294         56
   295         51
   296         10
   297          1
   307          1
   308          1
   362          1
   363          1
   364          2
   365          1