##TITLE=Library Entry 63889
##JCAMP-DX=Revision 4.10 
##DATA TYPE=MASS SPECTRUM
##SAMPLE DESCRIPTION=C.E.A., C.E.N., GRENOBLE, FRANCE
##NAMES=HP
##CAS NAME=Heneicosane, 11-phenyl-
##MOLFORM=C27H48
##CAS REGISTRY NO=6703-80-6
##MP= -300
##BP= -300
##MW= 372
##$RETENTION INDEX=0
##$CONDENSED SPECTRUM=NO
##NPOINTS= 115
##XYDATA=(XY..XY) 1 
    27         18
    28         21
    29         48
    36          2
    39         10
    40          2
    41         82
    42         12
    43        140
    44          3
    50          1
    51          2
    52          1
    53          4
    54          4
    55         65
    56         11
    57        100
    58          4
    65          4
    67          8
    68          2
    69         33
    70          5
    71         64
    72          3
    77          6
    78          9
    79          8
    80          1
    81          5
    82          2
    83         27
    84          3
    85         40
    86          2
    89          1
    90          2
    91        999
    92         99
    93          5
    95          2
    96          1
    97         15
    98          1
    99          4
   101          1
   102          1
   103          8
   104         89
   105        216
   106         20
   107          1
   109          1
   111          3
   113          2
   115         10
   116          4
   117         63
   118         43
   119        131
   120         14
   121          1
   125          1
   127          9
   128          3
   129          5
   130          3
   131         17
   132          3
   133        103
   134         12
   135          1
   136          1
   141          1
   143          2
   145          4
   146          1
   147         98
   148         12
   155          1
   159          1
   161         67
   162          8
   165          1
   167          1
   175         37
   176          5
   181          3
   189         14
   190          2
   201          2
   202          9
   203          2
   217          1
   229          4
   230         21
   231        310
   232         78
   233          8
   234          1
   243          1
   244          2
   245          6
   246          2
   257          1
   259          1
   273          1
   356          1
   358          2
   364          2
   370          2
   372         50
   373         15
   374          2