##TITLE=Library Entry 35227
##JCAMP-DX=Revision 4.10 
##DATA TYPE=MASS SPECTRUM
##SAMPLE DESCRIPTION=SHELL OIL CO., HOUSTON, TEXAS, USA
##NAMES=HP
##CAS NAME=Cyclopentane, heneicosyl-
##MOLFORM=C26H52
##CAS REGISTRY NO=6703-82-8
##MP= -300
##BP= -300
##MW= 364
##$RETENTION INDEX=2691
##$CONDENSED SPECTRUM=NO
##NPOINTS= 173
##XYDATA=(XY..XY) 1 
    38          1
    39         73
    40         19
    41        733
    42        171
    43        973
    44          6
    45          0
    50          0
    51          2
    52          2
    53         49
    54        104
    55        755
    56        270
    57        697
    58         30
    59          0
    62          0
    63          0
    65          6
    66         11
    67        169
    68        978
    69        999
    70        199
    71        290
    72         15
    73          0
    76          0
    77          4
    78          1
    79         10
    80          6
    81         47
    82        316
    83        683
    84        124
    85        166
    86         10
    87          0
    88          0
    90          0
    91          2
    92          0
    93          2
    94          2
    95         41
    96         67
    97        315
    98         67
    99         26
   100          1
   101          0
   104          0
   105          0
   106          0
   107          0
   108          0
   109         13
   110         22
   111        128
   112         41
   113         15
   114          1
   121          0
   122          0
   123          5
   124         12
   125         56
   128         26
   129          9
   130          0
   131          0
   135          0
   136          0
   137          3
   138          9
   139         23
   140         17
   141          6
   142          0
   149          0
   150          0
   151          1
   152          6
   153         13
   154         12
   155          4
   156          0
   165          0
   166          4
   167          8
   168          9
   169          3
   170          0
   175          0
   176          0
   179          0
   180          3
   181          6
   182          7
   183          2
   184          0
   190          0
   193          0
   194          3
   195          4
   196          6
   197          2
   198          0
   199          0
   200          0
   201          0
   202          0
   207          0
   208          3
   209          3
   210          5
   211          2
   212          0
   221          0
   222          2
   223          3
   224          4
   225          1
   226          0
   236          2
   237          2
   238          3
   239          1
   240          0
   249          0
   250          2
   251          2
   252          3
   253          1
   254          0
   264          2
   265          1
   266          3
   267          1
   268          0
   272          0
   278          1
   279          1
   280          3
   281          1
   282          0
   292          1
   293          1
   294          4
   295          4
   296          1
   306          1
   307          1
   308          2
   309          0
   320          0
   321          0
   322          1
   323          0
   334          0
   335          0
   336         12
   337          3
   338          0
   362          1
   363          0
   364         47
   365         12
   366          1
   367          0