##TITLE=Library Entry 24041
##JCAMP-DX=Revision 4.10 
##DATA TYPE=MASS SPECTRUM
##SAMPLE DESCRIPTION=Exported from NIST MS Search
##NAMES=HP
##CAS NAME=Cyclopentane, (2-decyldodecyl)-
##MOLFORM=C27H54
##CAS REGISTRY NO=6703-79-3
##MP= -300
##BP= -300
##MW= 378
##$RETENTION INDEX=0
##$CONDENSED SPECTRUM=NO
##NPOINTS= 183
##XYDATA=(XY..XY) 1 
    12          6
    13          8
    15         40
    16         37
    17         30
    19          2
    20          3
    24          5
    25         17
    26         97
    27        268
    29        333
    30         15
    31          2
    36          3
    37         13
    38         24
    39        184
    40         50
    41        820
    42        234
    43        984
    44         36
    49          3
    50         11
    51         15
    52          9
    53         58
    54        104
    55        772
    56        307
    57        999
    58         46
    63          1
    65          9
    66         36
    67        258
    68        153
    69        684
    70        144
    71        503
    72         28
    73          1
    77          8
    78          3
    79         23
    80         13
    81        107
    82        231
    83        737
    84         96
    85        339
    86         22
    87          1
    91         13
    92          2
    93          8
    94          8
    95        106
    96         64
    97        522
    98         63
    99         82
   100          6
   103          1
   104          1
   105          2
   106          1
   107          2
   108          4
   109         38
   110         24
   111        251
   112         37
   113         49
   114          4
   115          1
   117          1
   118          1
   119          1
   120          1
   121          2
   122          4
   123         22
   124         19
   125        119
   126         26
   127         34
   128          4
   135          1
   136          3
   137         16
   138         12
   139         60
   140         19
   141         30
   142          4
   147          4
   148          1
   149          1
   150          1
   151          4
   152          6
   153         41
   154         15
   155         27
   156          3
   165          3
   166          7
   167         34
   168         16
   169         16
   170          3
   179          4
   180          7
   181         20
   182         14
   183         15
   184          3
   193          2
   194          6
   195          9
   196          4
   197         10
   198          2
   207          2
   208         13
   209          8
   210          9
   211          9
   212          2
   221          1
   222         12
   223         17
   224          6
   225          8
   226          1
   233          1
   234          1
   235          8
   236        381
   237        364
   238         63
   239         11
   240          1
   250         11
   251         10
   252          6
   253          5
   254          1
   264          1
   265          4
   266          6
   267          3
   268          1
   278          2
   279          2
   280          4
   281          5
   282          1
   292          2
   293          2
   294        140
   295        164
   296         34
   297          4
   300          1
   301          1
   302          1
   306          1
   307          1
   308          8
   309         10
   310          2
   319          1
   320          1
   321          1
   358          1
   359          1
   376          2
   377          1
   378          8
   379          2