##TITLE=Library Entry 97829
##JCAMP-DX=Revision 4.10 
##DATA TYPE=MASS SPECTRUM
##SAMPLE DESCRIPTION=Exported from NIST MS Search
##NAMES=HP
##CAS NAME=10-Heneicosene, 11-phenyl-
##MOLFORM=C27H46
##CAS REGISTRY NO=6703-78-2
##MP= -300
##BP= -300
##MW= 370
##$RETENTION INDEX=0
##$CONDENSED SPECTRUM=NO
##NPOINTS= 232
##XYDATA=(XY..XY) 1 
    38         10
    39        134
    40         25
    41        545
    42        103
    43        676
    44         36
    45          8
    46          1
    47          1
    48          1
    49          1
    50         11
    51         32
    52          9
    53         40
    54         23
    55        260
    56         71
    57        266
    58         15
    59          2
    60          5
    61          2
    62          2
    63          5
    64          3
    65         22
    66          7
    67         61
    68         19
    69        119
    70         37
    71         91
    72          7
    73          5
    74          3
    75          3
    76          5
    77         83
    78         28
    79         24
    80          5
    81         46
    82         17
    83         64
    84         14
    85         49
    86          4
    87          2
    88          1
    89          5
    90          4
    91        651
    92         61
    93          9
    94          3
    95         34
    96         10
    97         24
    98         13
    99          3
   100          1
   102          8
   103         41
   104         61
   105        214
   106         24
   107          5
   108          1
   109          9
   110          4
   111          7
   112          5
   113          4
   114          5
   115         91
   116         33
   117        440
   118        999
   119        123
   120        118
   121         13
   122          2
   123          4
   124          4
   125          9
   126          3
   127         18
   128         69
   129        153
   130         63
   131        151
   132         30
   133         45
   134          6
   135          1
   136          1
   137          8
   138          2
   139          2
   140          2
   141         36
   142         21
   143         93
   144         30
   145         36
   146          7
   147         34
   148          5
   149          1
   150          1
   151          3
   152          4
   153          6
   154          5
   155         73
   156         13
   157         27
   158          8
   159         11
   160          3
   161         10
   162          2
   163          1
   164          1
   165          3
   166          2
   167          5
   168          2
   169         31
   170          6
   171          8
   172          3
   173          3
   174          1
   175          4
   176          1
   177          1
   178          1
   179          1
   180          1
   181          3
   182          1
   183          2
   184          1
   185          3
   186          1
   187          2
   188          1
   189          3
   190          1
   191          1
   192          1
   193          1
   194          1
   195          1
   196          1
   197          1
   203          2
   205          1
   207          1
   209          1
   211          1
   212          1
   213          1
   214          1
   215          1
   216          2
   217          4
   218          1
   221          1
   222          1
   223          1
   224          1
   225          1
   226          1
   227         11
   228          4
   229         64
   230         18
   231          9
   232          4
   233          1
   234          1
   235          1
   236          1
   237          1
   238          1
   239          2
   240          1
   241          3
   242          6
   243          3
   244         33
   245          8
   246          9
   247          2
   248          1
   251          1
   252          1
   253          1
   254          1
   255         18
   256          5
   257         18
   258          5
   259          1
   260          3
   261          1
   266          1
   267          1
   268          2
   269         10
   270          5
   271          5
   272          2
   273          1
   278          1
   279          1
   280          1
   281          1
   282          1
   283          3
   284          1
   285          1
   286          1
   295          1
   296          1
   297          1
   357          3
   358          1