##TITLE=Library Entry 76941
##JCAMP-DX=Revision 4.10 
##DATA TYPE=MASS SPECTRUM
##SAMPLE DESCRIPTION=A.A.Kutin, Moscow, Russia
##NAMES=HP
##CAS NAME=2H-Tetrazole-2-acetic acid, 5-phenyl-, (phenylmethylene)hydrazide
##MOLFORM=C16H14N6O
##CAS REGISTRY NO=67037-02-9
##MP= -300
##BP= -300
##MW= 306
##$RETENTION INDEX=0
##$CONDENSED SPECTRUM=NO
##NPOINTS= 186
##XYDATA=(XY..XY) 1 
    33          0
    34          1
    35          0
    36          4
    37         10
    38         27
    39        122
    40         25
    41         26
    42        229
    43         29
    44         23
    45          4
    46          0
    48          0
    49          6
    50         91
    51        209
    52         39
    53          6
    54          2
    55          6
    56          2
    57          7
    58          1
    59          0
    60          2
    61          9
    62         41
    63        113
    64         44
    65        129
    66         14
    67          2
    68          1
    69          3
    70          2
    71          3
    72          1
    73          6
    74         15
    75         34
    76        122
    77        551
    78         54
    79          6
    80          2
    81          1
    82          2
    83          2
    84          1
    85          2
    86          6
    87          7
    89        143
    90        109
    91         47
    92         73
    93         14
    94          1
    95          0
    96          0
    97          1
    98          1
    99          2
   100          2
   101          3
   102         27
   103        174
   104        999
   105        229
   106         32
   107          3
   108          0
   109          0
   110          0
   111          0
   112          1
   113          0
   114          0
   115          1
   116          3
   117         16
   118         64
   119         68
   120         19
   121          2
   122          0
   123          0
   124          0
   125          1
   126          0
   127          1
   128         10
   129          6
   131        447
   132         42
   133          5
   134          0
   135          0
   136          0
   137          0
   138          0
   139          1
   140          0
   142          1
   144         21
   145        155
   146         47
   147         18
   148          2
   149          0
   150          0
   151          0
   152          1
   153          0
   154          0
   155          0
   156          3
   157          0
   158          0
   159          2
   160          5
   161          2
   162          0
   163          0
   164          0
   165          1
   166          0
   167          0
   169          0
   170          0
   171          2
   172          1
   173          2
   174         10
   175          8
   176          1
   177          0
   178          1
   179          1
   180          2
   181          0
   182          0
   185          0
   186          0
   187          0
   189          0
   190          0
   191          0
   192          0
   193          1
   194          0
   199          0
   201          0
   203          0
   204          0
   205          0
   206          0
   207          1
   208          0
   210          0
   219          0
   221          2
   222          1
   223          0
   233          0
   234          0
   235          0
   247          0
   249         10
   250          2
   251          0
   260          0
   275          0
   276          0
   277          3
   278         52
   279          9
   280          1
   281          0
   283          0
   284          0
   306         10
   307          2
   308          0