##TITLE=Library Entry 7223
##JCAMP-DX=Revision 4.10 
##DATA TYPE=MASS SPECTRUM
##SAMPLE DESCRIPTION=Exported from NIST MS Search
##NAMES=HP
##CAS NAME=Cyclohexane, (2-decyldodecyl)-
##MOLFORM=C28H56
##CAS REGISTRY NO=6704-00-3
##MP= -300
##BP= -300
##MW= 392
##$RETENTION INDEX=0
##$CONDENSED SPECTRUM=NO
##NPOINTS= 175
##XYDATA=(XY..XY) 1 
    37          1
    38          1
    39         51
    40         12
    41        635
    42        110
    43        999
    44         33
    45          1
    50          1
    51          2
    52          2
    53         29
    54         83
    55        901
    56        191
    57        868
    58         37
    59          1
    63          1
    64          1
    65          5
    66          7
    67        152
    68         61
    69        401
    70        101
    71        477
    72         25
    73          1
    77          5
    78          2
    79         15
    80         12
    81        108
    82        152
    83        754
    84         86
    85        321
    86         20
    87          1
    89          1
    90          1
    91         49
    92         21
    93          6
    94          4
    95         49
    96        195
    97        534
    98         56
    99         75
   100          5
   101          1
   103          1
   104          2
   105          4
   106          1
   107          2
   108          3
   109         41
   110         18
   111        218
   112         28
   113         44
   114          4
   115          1
   116          1
   117          3
   118          1
   119          1
   120          1
   121          1
   122          1
   123         11
   124         10
   125        101
   126         17
   127         27
   128          3
   129          1
   130          1
   131          1
   132          1
   133          1
   135          1
   136          1
   137          5
   138          8
   139         47
   140         12
   141         18
   142          2
   143          1
   145          1
   147          1
   150          1
   151          3
   152          5
   153         30
   154          8
   155         17
   156          2
   161          1
   165          1
   166          3
   167         23
   168         10
   169         16
   170          2
   178          1
   179          1
   180          2
   181         15
   182          6
   183          8
   184          1
   191          1
   193          1
   194          2
   195          9
   196          3
   197          5
   198          1
   207          1
   208          2
   209          4
   210          1
   211          4
   212          1
   221          1
   222          6
   223          5
   224          1
   225          3
   226          1
   235          1
   236          3
   237          4
   238          1
   239          2
   240          1
   249          4
   250        151
   251        197
   252         35
   253          4
   254          1
   264          3
   265          3
   266          3
   267          1
   278          1
   279          2
   280          2
   281          2
   282          1
   292          1
   293          1
   294         54
   295         59
   296         12
   306          1
   307          1
   308          4
   309          4
   319          1
   320          1
   321          1
   322          1
   386          2
   390          1
   391          1
   392          1
   393          1