##TITLE=Library Entry 4437
##JCAMP-DX=Revision 4.10 
##DATA TYPE=MASS SPECTRUM
##SAMPLE DESCRIPTION=CARL DJERASSI DEPT OF CHEM STANFORD UNIV STANFORD CALIF
 94305
##NAMES=HP
##CAS NAME=6-Oxabicyclo[3.1.0]hexan-2-one
##MOLFORM=C5H6O2
##CAS REGISTRY NO=6705-52-8
##MP= -300
##BP= -300
##MW= 98
##$RETENTION INDEX=0
##$CONDENSED SPECTRUM=NO
##NPOINTS= 29
##XYDATA=(XY..XY) 1 
    25         20
    26        190
    27        380
    28        215
    29        340
    37         70
    38        100
    39        500
    40        100
    41        760
    42        999
    43        170
    44         30
    49         10
    50         50
    51         40
    52         20
    53         40
    54         30
    55        190
    56         10
    57         10
    68         20
    69        190
    70         30
    83         30
    97         10
    98        260
    99         10