##TITLE=Library Entry 81932
##JCAMP-DX=Revision 4.10 
##DATA TYPE=MASS SPECTRUM
##SAMPLE DESCRIPTION=Chemical Concepts
##NAMES=HP
##CAS NAME=3-Trityloxypropanal
##MOLFORM=C22H20O2
##CAS REGISTRY NO=67057-68-5
##MP= -300
##BP= -300
##MW= 316
##$RETENTION INDEX=0
##$CONDENSED SPECTRUM=NO
##NPOINTS= 206
##XYDATA=(XY..XY) 1 
    25          9
    26         23
    27         66
    28         35
    29         72
    30          3
    31         12
    37          7
    38          3
    39         27
    40          5
    41         27
    42          6
    43         35
    44          8
    45         10
    46          2
    50         14
    51         95
    52         10
    53          7
    54          2
    55         32
    56         27
    57         47
    58          3
    59          3
    60          6
    61          3
    62          4
    63         16
    64          5
    65         15
    66         11
    67          7
    68          2
    69         20
    70          9
    71         13
    72          4
    73          6
    74         10
    75         12
    76         26
    77        462
    78         51
    79          8
    80          4
    81         10
    82          4
    83         11
    84          3
    85          7
    86          2
    87          9
    88          7
    89         12
    90          4
    91         41
    93          5
    94          5
    95          8
    96          3
    97          8
    98          4
    99          4
   100          5
   101         15
   102          9
   103          3
   104         11
   105        999
   106         78
   107         24
   108         22
   109          7
   110         21
   111          6
   112         22
   113         25
   114         13
   115         40
   116          4
   117          2
   118          4
   119         12
   120         18
   121          8
   122          3
   123          3
   125          2
   126          8
   127          6
   128          7
   129          4
   130          2
   133          2
   134          2
   135          3
   136          2
   137          4
   138          3
   139         27
   140          7
   141          8
   142          3
   143          2
   144          2
   146          2
   147          2
   150         11
   151         23
   152         53
   153         34
   154        106
   155         69
   156          9
   157          3
   159          2
   160          2
   161          3
   162         11
   163         31
   164         30
   165        460
   166         95
   167        114
   168         15
   169          4
   170          2
   171          2
   174          2
   175          3
   176         11
   177          6
   178          6
   179          2
   180          4
   181         41
   182         81
   183        508
   184         71
   185          8
   186          2
   187          7
   188          3
   189         15
   190          4
   191          3
   192          2
   193          2
   194          3
   195          2
   197          9
   198          2
   200          8
   201          6
   202         27
   203          7
   204          3
   205          6
   206          2
   207          2
   208          2
   209          5
   210          5
   211          6
   212          6
   213         18
   214          7
   215         49
   216         12
   217          2
   219          2
   220          2
   223          7
   224          4
   225          4
   226         28
   227         17
   228         51
   229         14
   230          5
   231          2
   232          2
   234          2
   235          2
   236          3
   237         14
   238          8
   239        373
   240        104
   241         98
   242         61
   243        693
   244        247
   245         45
   246          3
   257          3
   258         35
   259        408
   260        213
   261         34
   262          4
   316         68
   317         11