##TITLE=Library Entry 18838
##JCAMP-DX=Revision 4.10 
##DATA TYPE=MASS SPECTRUM
##SAMPLE DESCRIPTION=P.A. Leclercq, Lab. Instrum. Anal., Tech. Univ. Eindhov
en, Netherlands
##NAMES=HP
##CAS NAME=7-Oxabicyclo[4.1.0]heptan-2-one
##MOLFORM=C6H8O2
##CAS REGISTRY NO=6705-49-3
##MP= -300
##BP= -300
##MW= 112
##$RETENTION INDEX=0
##$CONDENSED SPECTRUM=NO
##NPOINTS= 44
##XYDATA=(XY..XY) 1 
    15         27
    16         25
    17         10
    18         21
    19          8
    25         13
    26         97
    27        386
    28        288
    29        354
    30         13
    31         19
    37         33
    38         66
    39        353
    40         73
    41        250
    42        178
    43         53
    44         13
    49          7
    50         55
    51         47
    53         74
    55        999
    56        180
    57        225
    58         16
    61          9
    63         12
    65         15
    66         32
    67         35
    68         92
    69         58
    70         14
    71         12
    81         32
    82         34
    83        200
    84         35
    97         13
   112        299
   113         17