##TITLE=Library Entry 5964
##JCAMP-DX=Revision 4.10 
##DATA TYPE=MASS SPECTRUM
##SAMPLE DESCRIPTION=NIST Mass Spectrometry Data Center, 1990.
##NAMES=HP
##CAS NAME=2,5-Furandione, dihydro-3-(2-octadecenyl)-
##MOLFORM=C22H38O3
##CAS REGISTRY NO=67066-88-0
##MP= -300
##BP= -300
##MW= 350
##$RETENTION INDEX=0
##$CONDENSED SPECTRUM=NO
##NPOINTS= 125
##XYDATA=(XY..XY) 1 
    17         19
    27        130
    28         68
    29        355
    39        144
    41        854
    42        161
    43        999
    44         77
    52         21
    53        131
    54        305
    55        754
    56        201
    57        542
    58         25
    65         36
    66         82
    67        509
    68        347
    69        413
    70        140
    71        219
    72         24
    73         22
    77         73
    78         36
    79        318
    80        168
    81        400
    82        408
    83        605
    84        120
    85        108
    91         67
    92         36
    93        188
    94        121
    95        416
    96        394
    97        376
    98        111
    99         83
   100         94
   104         13
   105         46
   106         34
   107        128
   108         95
   109        247
   110        134
   111        126
   112         57
   113         39
   117         53
   118         21
   119         74
   120         39
   121        149
   122         79
   123        204
   124        129
   125         72
   126         41
   127         41
   128        271
   129         33
   131         42
   133         59
   134         35
   135        121
   136        107
   137        163
   138        108
   139         72
   140        104
   141        307
   142        144
   145         32
   147         25
   148         22
   149        100
   150         55
   151         73
   152         72
   153         54
   154        197
   155         96
   156         28
   159         22
   161         14
   162         22
   163         68
   164        130
   165         57
   166         58
   167        347
   168         71
   169         20
   177         74
   178        104
   179         32
   180         43
   181         52
   182         25
   191         60
   192         78
   194         33
   195         36
   196         18
   205         36
   206         44
   209         21
   219         29
   220         30
   222         60
   277         27
   287         30
   291         24
   304         27
   305         71
   306         20
   332         61
   350        324
   351         81