##TITLE=Library Entry 25742
##JCAMP-DX=Revision 4.10 
##DATA TYPE=MASS SPECTRUM
##SAMPLE DESCRIPTION=Japan AIST/NIMC Database- Spectrum MS-IW-2911
##NAMES=HP
##CAS NAME=3,3-Dimethylheptanoic acid
##MOLFORM=C9H18O2
##CAS REGISTRY NO=67061-30-7
##MP= -300
##BP= -300
##MW= 158
##$RETENTION INDEX=0
##$CONDENSED SPECTRUM=NO
##NPOINTS= 92
##XYDATA=(XY..XY) 1 
    15          5
    17          1
    18          2
    26          2
    27         61
    28         17
    29        141
    30          3
    31          6
    32          1
    37          1
    38          3
    39         78
    40         13
    41        309
    42         27
    43        152
    44          5
    45         55
    46          2
    47          1
    48          1
    50          3
    51          6
    52          2
    53         17
    54          4
    55        137
    56        257
    57        999
    58         59
    59         92
    60        203
    61         18
    62          1
    63          3
    64          1
    65          3
    66          1
    67          9
    68          2
    69         48
    70          6
    71         16
    72          2
    73         12
    74          4
    75          1
    77          3
    78          1
    79          3
    81          5
    82          3
    83        444
    84         30
    85         11
    86          1
    87         33
    88          5
    89          3
    91          1
    95          2
    96          1
    97         48
    98          8
    99         19
   100          3
   101         60
   102         68
   103        164
   104          9
   105          2
   106          1
   107          2
   109          1
   111          4
   113          1
   114          2
   115         35
   116          2
   125         71
   126          6
   127          2
   128          1
   129          7
   130          1
   139          3
   141          6
   142          1
   143         49
   144          4
   158          1