##TITLE=Library Entry 50226
##JCAMP-DX=Revision 4.10 
##DATA TYPE=MASS SPECTRUM
##SAMPLE DESCRIPTION=FOOD RESEARCH REPORT 118, K.E. MURRAY & COLLEAGUES, DIV
. OF FOOD RESEARCH, CSIRO, AUSTRALIA
##NAMES=HP
##CAS NAME=3-Hepten-2-ol, (E)-
##MOLFORM=C7H14O
##CAS REGISTRY NO=67077-39-8
##MP= -300
##BP= -300
##MW= 114
##$RETENTION INDEX=1090
##$CONDENSED SPECTRUM=NO
##NPOINTS= 73
##XYDATA=(XY..XY) 1 
    25          3
    26         48
    27        465
    28        237
    29        242
    30          8
    31         34
    32         23
    37         17
    38         59
    39        690
    40        107
    41        761
    42        101
    43        563
    44        296
    45        118
    46          8
    47          6
    48          3
    49          6
    50         62
    51        121
    52         62
    53        310
    54        873
    55        437
    56         45
    57        423
    58        192
    59         42
    60          3
    61          8
    62         20
    63         48
    64         11
    65        135
    66         65
    67        620
    68        135
    69         56
    70         25
    71        986
    72         76
    73          6
    74          6
    75          6
    76          3
    77         96
    78         23
    79        206
    80         31
    81        999
    82         65
    83         11
    84          3
    85         56
    86         14
    91         20
    92          3
    93          8
    94          6
    95         48
    96        563
    97         93
    98          8
    99         51
   100          3
   110          3
   112         17
   113          3
   114         14
   115          3