##TITLE=Library Entry 13925
##JCAMP-DX=Revision 4.10 
##DATA TYPE=MASS SPECTRUM
##SAMPLE DESCRIPTION=N.Klyuev, Institute of Ecology & Evolution, RAS, Moscow
##NAMES=HP
##CAS NAME=N-[3-(2-Oxopropyl)-2(3H)-benzothiazolylidene]acetamide
##MOLFORM=C12H12N2O2S
##CAS REGISTRY NO=67073-25-0
##MP= -300
##BP= -300
##MW= 248
##$RETENTION INDEX=0
##$CONDENSED SPECTRUM=NO
##NPOINTS= 23
##XYDATA=(XY..XY) 1 
    39         62
    43        999
    51         60
    57         95
    65        107
    69         77
   108         79
   109        158
   111         51
   134         89
   135        246
   162        491
   163        110
   174         72
   188        151
   189         65
   190        193
   205         95
   206         79
   233        508
   234         91
   248        324
   249         70