##TITLE=Library Entry 47454
##JCAMP-DX=Revision 4.10 
##DATA TYPE=MASS SPECTRUM
##SAMPLE DESCRIPTION=A.A.Kutin, Moscow, Russia
##NAMES=HP
##CAS NAME=Mercury, chloro[2-methoxy-2-(2-nitrophenyl)ethyl]-
##MOLFORM=C9H10ClHgNO3
##CAS REGISTRY NO=67083-11-8
##MP= -300
##BP= -300
##MW= 417
##$RETENTION INDEX=0
##$CONDENSED SPECTRUM=NO
##NPOINTS= 230
##XYDATA=(XY..XY) 1 
    33          9
    35         13
    36         20
    37         15
    38         39
    39        141
    40         47
    41         28
    42         28
    43        109
    45        124
    46          4
    47          0
    48          1
    49         23
    50        172
    51        314
    52         64
    53         30
    54          3
    55          8
    57         59
    58         51
    59         56
    61         62
    62         48
    63        162
    64         66
    65        270
    66         48
    67          9
    68          2
    69          3
    70          1
    71          2
    73         34
    74         94
    75        115
    76        157
    77        999
    78        171
    79         61
    80          7
    81          3
    82          1
    83          2
    84          3
    86         11
    87         11
    89        209
    90        255
    91        454
    92        226
    93         92
    94         16
    95          6
    96          1
    97          2
    98          9
    99          8
   100          5
   101         38
   102        129
   103        458
   104        206
   105        106
   106         32
   107         33
   108          9
   109          3
   111         24
   112          4
   113          7
   114          2
   115          3
   116          4
   117         13
   118         80
   119        164
   120        253
   121         58
   122         13
   123          2
   124          1
   125         23
   127         10
   128          1
   130         23
   131         10
   132        197
   133         84
   134         71
   135         58
   136         12
   137          3
   138         12
   139          3
   140          3
   141          1
   142          1
   144          0
   146         12
   148        885
   149        144
   150         27
   151          4
   152          2
   153          0
   157          0
   162         21
   163        109
   164         15
   166        442
   167         40
   168          5
   170          2
   171          3
   172          0
   180         94
   181          9
   182          1
   198         11
   199         20
   200         27
   201         17
   202         34
   203          2
   204          7
   207          0
   212          0
   213          2
   214          3
   215          2
   216          3
   217          0
   218          0
   232          0
   233          7
   234         12
   235         19
   236         13
   237         26
   238          4
   239         13
   241          1
   248          0
   249          0
   250          0
   251          1
   253          0
   263          1
   264          3
   265          5
   266          3
   267          7
   268          2
   269          3
   270          1
   271          1
   272          2
   273          1
   275          4
   276          2
   277          3
   278          2
   279          4
   280          1
   281          2
   283          1
   289          0
   290          0
   291          2
   292          4
   293          5
   294          4
   295          7
   296          2
   297          4
   299          0
   309          1
   310          1
   311          2
   312          1
   313          2
   314          0
   315          0
   317          0
   318          1
   319          0
   320          1
   321          0
   323          0
   324          0
   325          1
   326          1
   327          2
   328          0
   329          1
   336          0
   337          1
   338          1
   339          2
   340          2
   341          3
   342          0
   343          1
   352          0
   353          0
   354          0
   355          1
   356          1
   357          0
   358          0
   365          0
   366          1
   367          2
   368          2
   369          2
   370          2
   371          1
   372          0
   382          0
   383          1
   384          2
   385          1
   386          3
   387          0
   388          1
   398          0
   400          0