##TITLE=Library Entry 48172
##JCAMP-DX=Revision 4.10 
##DATA TYPE=MASS SPECTRUM
##SAMPLE DESCRIPTION=Humboldt-Universitat zu Berlin, Department of Chemistry
, Analytical Group
##NAMES=HP
##CAS NAME=cis-Bicyclo[2.2.2]oct-5-en-2,3-dicarboxylic acid, anhydride
##MOLFORM=C10H10O3
##CAS REGISTRY NO=6708-37-8
##MP= -300
##BP= -300
##MW= 178
##$RETENTION INDEX=0
##$CONDENSED SPECTRUM=NO
##NPOINTS= 121
##XYDATA=(XY..XY) 1 
    12          1
    13          0
    14          1
    15         12
    16          1
    17          8
    18         31
    19          0
    24          0
    25          3
    26         45
    27        123
    28         47
    29         10
    30          0
    31          1
    32          1
    33          0
    34          0
    36          1
    37          9
    38         29
    39        191
    40         19
    41         39
    42          4
    43         28
    44         11
    45          9
    48          0
    49          5
    50         77
    51        155
    52        113
    53         40
    54          8
    55         18
    56          3
    57          3
    58          0
    59          0
    60          2
    61          3
    62         11
    63         32
    64          6
    65         35
    66          8
    67          3
    68          2
    69          2
    70          1
    71          2
    72          5
    73          2
    74          9
    75          6
    76         11
    77        120
    78        999
    79        216
    80        274
    81         21
    82          2
    83          1
    84          0
    85          1
    86          1
    87          1
    88          0
    89          5
    91        112
    92         20
    93          2
    94          0
    95          1
    96          0
    97          3
    98          1
   100        123
   101          6
   102          3
   103         13
   104          5
   105         32
   106        221
   107         19
   108          2
   109          0
   110          0
   111          0
   112          0
   113          0
   115          2
   116          1
   117          0
   118          0
   119          1
   120          0
   121          0
   122          0
   123          0
   127          0
   128          0
   129          0
   131          1
   132          0
   133          3
   134         19
   135          2
   136          0
   137          0
   149          0
   150          7
   151          0
   152          0
   160          0
   171          0
   178         55
   179          7
   180          0