##TITLE=Library Entry 48850
##JCAMP-DX=Revision 4.10 
##DATA TYPE=MASS SPECTRUM
##SAMPLE DESCRIPTION=Chemical Concepts
##NAMES=HP
##CAS NAME=Bicyclobutylidene
##MOLFORM=C8H12
##CAS REGISTRY NO=6708-14-1
##MP= -300
##BP= -300
##MW= 108
##$RETENTION INDEX=0
##$CONDENSED SPECTRUM=NO
##NPOINTS= 75
##XYDATA=(XY..XY) 1 
    25          5
    26        140
    27        458
    28        131
    29         91
    30          2
    34          4
    36          4
    37         36
    38        100
    39        541
    40        213
    41        284
    42         29
    43         12
    44          7
    45          9
    46          3
    48          3
    49         26
    50        293
    51        435
    52        637
    53        307
    54        152
    55         71
    56         14
    57          5
    58          4
    59          3
    60          4
    61         20
    62         51
    63        128
    64         29
    65        278
    66        158
    67        263
    68         72
    69         11
    70          3
    73          9
    74         39
    75         33
    76         16
    77        569
    78        231
    79        999
    80        757
    81        175
    82         10
    83          4
    85          4
    86          4
    87          5
    89         13
    90          4
    91        406
    92         80
    93        463
    94         76
    95          6
    96          5
    97          6
    98          4
   102          3
   103         12
   104          5
   105         62
   106         12
   107        116
   108        583
   109        124
   110          8
   111          3