##TITLE=Library Entry 34352
##JCAMP-DX=Revision 4.10 
##DATA TYPE=MASS SPECTRUM
##SAMPLE DESCRIPTION=Chemical Concepts
##NAMES=HP
##CAS NAME=1,5-Heptadiene, 2,6-dimethyl-
##MOLFORM=C9H16
##CAS REGISTRY NO=6709-39-3
##MP= -300
##BP= -300
##MW= 124
##$RETENTION INDEX=856
##$CONDENSED SPECTRUM=NO
##NPOINTS= 83
##XYDATA=(XY..XY) 1 
    26          3
    27         95
    28          4
    29         60
    30          1
    31          2
    37          1
    38          3
    39        118
    40         20
    41        701
    42         29
    43         28
    44          1
    45          1
    49          0
    50          5
    51         18
    52          7
    53         69
    54         10
    55         45
    56         12
    57          6
    58          3
    59         17
    60          0
    61          1
    62          1
    63          4
    64          1
    65         19
    66          6
    67        146
    68         65
    69        999
    70         53
    71          7
    72          4
    73          1
    74          0
    75          0
    76          0
    77         17
    78          3
    79         30
    80         94
    81        388
    82         43
    83          6
    84          1
    85          8
    86          1
    87          0
    89          0
    91         17
    92          2
    93          6
    94          1
    95          9
    96          3
    97          2
    98          0
    99          0
   100          0
   101          0
   102          0
   103          0
   104          0
   105          3
   106          2
   107          4
   108          1
   109         33
   110          3
   111          0
   115          0
   119          0
   121          0
   122          1
   123          1
   124          4
   125          2