##TITLE=Library Entry 65114
##JCAMP-DX=Revision 4.10 
##DATA TYPE=MASS SPECTRUM
##SAMPLE DESCRIPTION=Chemical Concepts
##NAMES=HP
##CAS NAME=Tricyclo[3.3.1.1(3,7)]decanone, 6-hydroxy-
##MOLFORM=C10H14O2
##CAS REGISTRY NO=67092-78-8
##MP= -300
##BP= -300
##MW= 166
##$RETENTION INDEX=1617
##$CONDENSED SPECTRUM=NO
##NPOINTS= 104
##XYDATA=(XY..XY) 1 
    26         13
    27        223
    28         92
    29        143
    30          5
    31         61
    37          4
    38         15
    39        274
    40         57
    41        385
    42         69
    43        115
    44         88
    45          9
    50         20
    51         68
    52         35
    53        118
    54         60
    55        239
    56         27
    57        202
    58         23
    59         12
    60          6
    61          2
    62          4
    63         19
    64          5
    65         71
    66        148
    67        228
    68         54
    69        107
    70        203
    71         40
    72          4
    73          6
    74          4
    75          5
    76          5
    77        160
    78        384
    79        950
    80        124
    81        113
    82         43
    83         65
    84         21
    85         15
    86          3
    87          2
    88          1
    89          5
    90          4
    91        455
    92        999
    93        129
    94         60
    95        132
    96         48
    97         85
    98          9
    99         11
   102          3
   103         10
   104         47
   105        146
   106         66
   107         58
   108         14
   109         37
   110         16
   111         10
   112          3
   113          3
   115         21
   116          5
   117         74
   118         15
   119         91
   120        283
   121         39
   122          9
   123          9
   124          3
   125          6
   127          3
   128          4
   129         29
   130         98
   131         19
   132         28
   133         36
   134          4
   147         11
   148        376
   149         53
   164          2
   165          5
   166        473
   167         64
   168          8