##TITLE=Library Entry 100377
##JCAMP-DX=Revision 4.10 
##DATA TYPE=MASS SPECTRUM
##SAMPLE DESCRIPTION=Zaikin V.G., TIPS RAS, Moscow, Russia
##NAMES=HP
##CAS NAME=m-Toluic acid, hexyl ester
##MOLFORM=C14H20O2
##CAS REGISTRY NO=67101-63-7
##MP= -300
##BP= -300
##MW= 220
##$RETENTION INDEX=1707
##$CONDENSED SPECTRUM=NO
##NPOINTS= 50
##XYDATA=(XY..XY) 1 
    26          3
    27         20
    28          8
    29         22
    39         29
    40          4
    41         51
    42         27
    43         39
    44          3
    50          4
    51          9
    52          3
    53          5
    54          4
    55         47
    56         73
    57          7
    62          3
    63         16
    64          6
    65         82
    66          5
    67          4
    69         31
    70          3
    77         11
    83          7
    84         42
    85          3
    89         29
    90         25
    91        421
    92         53
    93         49
    94          3
   105          6
   118         12
   119        999
   120         80
   121          7
   135         10
   136        962
   137        772
   138         55
   139          4
   149         12
   177          5
   220         35
   221          6