##TITLE=Library Entry 97946
##JCAMP-DX=Revision 4.10 
##DATA TYPE=MASS SPECTRUM
##SAMPLE DESCRIPTION=NIST Mass Spectrometry Data Center, 1994
##NAMES=HP
##CAS NAME=Indenone ethylene ketal
##MOLFORM=C11H10O2
##CAS REGISTRY NO=6710-43-6
##MP= -300
##BP= -300
##MW= 174
##$RETENTION INDEX=0
##$CONDENSED SPECTRUM=NO
##NPOINTS= 70
##XYDATA=(XY..XY) 1 
    13          3
    14          5
    15         56
    16          1
    18          2
    26          9
    29          7
    30         17
    37          7
    38         25
    39         55
    40          1
    42          9
    43         21
    49          8
    50        132
    51        108
    52         30
    53         12
    55          2
    57         17
    58         20
    61         17
    62         67
    63        117
    64         29
    65         12
    71          7
    73          3
    74         50
    75        117
    76        166
    77         41
    78          2
    85          7
    86         24
    87         32
    88         64
    89         82
    90        314
    91         34
    92          6
    98          9
    99          4
   101         66
   102        189
   103         38
   104         35
   105          5
   110          3
   113         66
   114        143
   115        221
   116         79
   117          3
   118        999
   119         89
   120          5
   129         28
   130         27
   131         12
   143          2
   144          9
   145          3
   146         30
   147          9
   148          2
   174        194
   175         24
   176          2