##TITLE=Library Entry 13384
##JCAMP-DX=Revision 4.10 
##DATA TYPE=MASS SPECTRUM
##SAMPLE DESCRIPTION=Humboldt-Universitat zu Berlin, Department of Chemistry
, Analytical Group
##NAMES=HP
##CAS NAME=5-(3,4-Dimethoxyphenylmethylidene)-2,2-dimethyl-1,3-dioxan-4,6-di
one
##MOLFORM=C15H16O6
##CAS REGISTRY NO=67101-91-1
##MP= -300
##BP= -300
##MW= 292
##$RETENTION INDEX=0
##$CONDENSED SPECTRUM=NO
##NPOINTS= 169
##XYDATA=(XY..XY) 1 
    12          7
    13          6
    14         30
    15        372
    16         18
    17         38
    18        139
    26         29
    27         99
    28         83
    29         94
    30         10
    31         59
    32          4
    37         11
    38         42
    39        148
    40         15
    41         87
    42         66
    43        999
    44         72
    45         30
    46          2
    49          8
    50        257
    51        151
    52         20
    53        115
    54         13
    55         27
    56          9
    57         17
    58         26
    59         30
    60         10
    61         19
    62        123
    63        148
    64         38
    65        321
    66         38
    67         11
    68          2
    69         30
    70          3
    71          3
    73          8
    74         67
    75        145
    76        334
    77        132
    78         35
    79         55
    80          8
    81          6
    82          3
    83          3
    84         10
    85          9
    86         22
    87         40
    88         74
    89        176
    90         38
    91        589
    92         84
    93         16
    94          5
    95         27
    96          4
    97          3
    98          7
    99          6
   100          9
   101        114
   102        122
   103         83
   104        119
   105         41
   106         11
   107         24
   108          6
   109          4
   110          2
   114          9
   115         17
   116         84
   117         64
   118         35
   119        456
   120         61
   121         11
   122          4
   123         14
   124         11
   125          2
   127          2
   128          6
   129         80
   130         90
   131        173
   132        187
   133         72
   134         14
   135         20
   136         10
   137          3
   138          8
   139         11
   143         15
   144         51
   145         70
   146         32
   147        304
   148         33
   149         13
   150          6
   151          8
   152          1
   155          4
   156          2
   157          7
   158          2
   159         42
   160         49
   161         84
   162         32
   163         30
   164          6
   165          4
   166         12
   167          7
   171          3
   172          1
   173         16
   174          9
   175        299
   176         40
   177          6
   178         10
   179          1
   187          2
   188          3
   189        106
   190        955
   191        108
   192         16
   193          2
   203         53
   204          7
   205          2
   206         31
   207          4
   208          2
   217          1
   219         10
   220          1
   233          9
   234        225
   235         98
   236         12
   237          2
   251          2
   277          6
   278          0
   292        111
   293         18
   294          3