##TITLE=Library Entry 2928
##JCAMP-DX=Revision 4.10 
##DATA TYPE=MASS SPECTRUM
##SAMPLE DESCRIPTION=P.F. Vlad, Inst. Chem., Acad. Sci. Moldavian SSR, Kishi
nev, USSR
##NAMES=HP
##CAS NAME=Methyl (1R,8aS)-2-oxo-5,5,8a-trimethyl-trans-decalin-1-acetate
##MOLFORM=C16H26O3
##CAS REGISTRY NO=67119-91-9
##MP= -300
##BP= -300
##MW= 266
##$RETENTION INDEX=0
##$CONDENSED SPECTRUM=NO
##NPOINTS= 75
##XYDATA=(XY..XY) 1 
    39        220
    41        999
    42        100
    43        270
    53        240
    55        860
    56        140
    57        100
    59        190
    65        120
    66         70
    67        450
    68        180
    69        690
    70        100
    77        210
    78         70
    79        360
    80        100
    81        720
    83        180
    85        120
    87         70
    88         70
    91        210
    92        100
    93        400
    94        120
    95        550
    96        140
    97        260
    98        240
    99         90
   105        140
   106         70
   107        240
   108         70
   109        450
   110        140
   111        290
   112         70
   115        210
   119        100
   121        380
   122        100
   123        430
   124        140
   125        100
   130        190
   131        100
   133         70
   135        120
   136        760
   137        810
   138        120
   143        480
   149         70
   151         80
   166        140
   174         70
   189         70
   191        100
   195         70
   201        100
   207        120
   219        380
   220         60
   233        360
   234        100
   235        170
   236         50
   248        310
   249         50
   251        120
   266        210