##TITLE=Library Entry 28678
##JCAMP-DX=Revision 4.10 
##DATA TYPE=MASS SPECTRUM
##SAMPLE DESCRIPTION=Chuck Anderson, Aldrich Chemical Co.
##NAMES=HP
##CAS NAME=1,3-Propanediamine, N'-[3-(dimethylamino)propyl]-N,N-dimethyl-
##MOLFORM=C10H25N3
##CAS REGISTRY NO=6711-48-4
##MP= -300
##BP= -300
##MW= 187
##$RETENTION INDEX=0
##$CONDENSED SPECTRUM=NO
##NPOINTS= 61
##XYDATA=(XY..XY) 1 
    14          1
    15          5
    18          4
    26          1
    27          7
    28         26
    29         16
    30         45
    31          1
    32          1
    39          7
    40          2
    41         42
    42        111
    43         57
    44        132
    45         26
    46         12
    54          4
    55          6
    56         44
    57        105
    58        999
    59         77
    60          4
    67          3
    68         17
    69         13
    70        184
    71         75
    72        195
    73         10
    80          0
    81          1
    82         20
    83         15
    84        251
    85        433
    86         47
    87          4
    96          4
    97          3
    98          6
    99         27
   100          3
   101         23
   102          4
   103         55
   104          2
   112          0
   113          1
   114          0
   115          9
   116          4
   129          3
   141          1
   142         26
   143          2
   172          3
   187         13
   188          1