##TITLE=Library Entry 30874
##JCAMP-DX=Revision 4.10 
##DATA TYPE=MASS SPECTRUM
##SAMPLE DESCRIPTION=P. VAINIOTALO. DEPT. CHEM., UNIV. JOENSUU, JOENSUU, FIN
LAND
##NAMES=HP
##CAS NAME=1,3-Oxathiolane, 2-ethyl-2-methyl-
##MOLFORM=C6H12OS
##CAS REGISTRY NO=6712-26-1
##MP= -300
##BP= -300
##MW= 132
##$RETENTION INDEX=0
##$CONDENSED SPECTRUM=NO
##NPOINTS= 22
##XYDATA=(XY..XY) 1 
    15         27
    26         34
    27        130
    39         33
    41         38
    42         29
    43        946
    45        231
    55         84
    57        192
    58         77
    59        356
    60        999
    61        144
    62         54
    72        173
    73        115
   103        575
   104         34
   105         28
   117         36
   132        149