##TITLE=Library Entry 97873
##JCAMP-DX=Revision 4.10 
##DATA TYPE=MASS SPECTRUM
##SAMPLE DESCRIPTION=Chuck Anderson, Aldrich Chemical Co.
##NAMES=HP
##CAS NAME=2-Propanol, 1-[bis(2-hydroxyethyl)amino]-
##MOLFORM=C7H17NO3
##CAS REGISTRY NO=6712-98-7
##MP= -300
##BP= -300
##MW= 163
##$RETENTION INDEX=0
##$CONDENSED SPECTRUM=NO
##NPOINTS= 66
##XYDATA=(XY..XY) 1 
    15         23
    17          3
    18         14
    19         19
    20          5
    26          6
    27         58
    28         64
    29         59
    30        101
    31         63
    32          1
    39         11
    40          4
    41         64
    42        138
    43         72
    44         91
    45        145
    46          3
    54          5
    55          6
    56        212
    57         19
    58         25
    59         47
    60          5
    67          0
    68          4
    69          1
    70         58
    71          6
    72         19
    73          7
    74        377
    75         19
    82          3
    84         13
    85          3
    86         23
    87          4
    88         67
    89          3
    96          1
    98          1
    99          2
   100         24
   101          2
   102         26
   103          3
   104          3
   112          3
   114         11
   116         12
   118        999
   119         56
   120          6
   130         19
   132        347
   133         24
   134          2
   144          2
   146          2
   148         13
   162          3
   163          6