##TITLE=Library Entry 50778
##JCAMP-DX=Revision 4.10 
##DATA TYPE=MASS SPECTRUM
##SAMPLE DESCRIPTION=ACCUSTANDARD Chemicals / NIST MS Data Center.
##NAMES=HP
##CAS NAME=Metazachlor
##MOLFORM=C14H16ClN3O
##CAS REGISTRY NO=67129-08-2
##MP= -300
##BP= -300
##MW= 277
##$RETENTION INDEX=2043
##$CONDENSED SPECTRUM=NO
##NPOINTS= 128
##XYDATA=(XY..XY) 1 
    12          2
    15         18
    18          1
    26         49
    27        239
    28         13
    29         12
    30         27
    35          5
    36         12
    37         11
    38         35
    39        152
    40         32
    41         76
    42         62
    43         20
    44          1
    49        119
    50         32
    51        129
    52        106
    53        221
    54        215
    55         21
    56          6
    61          2
    62         13
    63         43
    64         23
    65         90
    66         20
    67         12
    68         31
    69         50
    74          5
    75         11
    76         45
    77        289
    78         84
    79        157
    80          5
    81        999
    82         52
    87          3
    89         36
    90         35
    91        129
    92         25
    93         12
    94          3
    95          5
    97          2
   101          4
   102         29
   103         97
   104         43
   105        154
   106         23
   107          6
   115         18
   116         43
   117        227
   118        106
   119         41
   120         18
   121         27
   122          5
   127          1
   128          6
   130         85
   132        693
   133        824
   134        331
   135         28
   141          3
   142         14
   143          6
   144         23
   145         13
   146         38
   147         15
   148         30
   149          2
   155          2
   156          5
   157          5
   158          6
   159          2
   160        125
   161         17
   166          4
   167          3
   168          3
   170          4
   171         13
   172         18
   173         14
   174         39
   175          7
   178          4
   179          3
   180          4
   181          3
   182          4
   183          4
   184          7
   185         10
   186          3
   194          2
   196          7
   197          9
   198          6
   199          5
   200          8
   209        552
   210         83
   211        184
   212         23
   228         50
   229          6
   242          6
   243          2
   262          5
   277         68
   278         14
   279         24
   280          5