##TITLE=Library Entry 79796
##JCAMP-DX=Revision 4.10 
##DATA TYPE=MASS SPECTRUM
##SAMPLE DESCRIPTION=A.A.Kutin, Moscow, Russia
##NAMES=HP
##CAS NAME=Benzamide, N-(3-benzofuryl)-
##MOLFORM=C15H11NO2
##CAS REGISTRY NO=67138-68-5
##MP= -300
##BP= -300
##MW= 237
##$RETENTION INDEX=0
##$CONDENSED SPECTRUM=NO
##NPOINTS= 179
##XYDATA=(XY..XY) 1 
    34          1
    35          0
    37          2
    38          4
    39         13
    40         23
    41          5
    42          3
    43          9
    44          4
    45          1
    47          0
    49          1
    51        193
    52         13
    53          4
    54          1
    55          2
    56          1
    57          4
    58          0
    59          0
    60          0
    61          1
    62          6
    63         13
    64          3
    65          4
    66          1
    67          1
    68          0
    69          1
    70          2
    71          2
    72          0
    74         19
    75         21
    77        611
    78         37
    79          3
    80          1
    81          1
    82          1
    83          1
    84          1
    85          1
    86          1
    87          2
    88          1
    89          7
    90          2
    91          6
    92          2
    93          1
    94          0
    95          1
    96          1
    97          1
    98          0
    99          1
   100          1
   102         10
   103         34
   105        999
   106         71
   107          4
   108          1
   109          1
   110          0
   111          1
   112          1
   113          0
   114          0
   115          2
   116          1
   117          2
   118          1
   119          3
   120          3
   121          7
   122          1
   123          0
   124          0
   125          1
   126          1
   127          1
   128          2
   130          3
   132         29
   133          5
   134          3
   135          1
   136          0
   137          0
   138          0
   139          1
   140          0
   141          0
   143          1
   144          0
   145          0
   146          1
   147          0
   148          0
   149          2
   150          2
   151          4
   152          7
   153          3
   154          1
   156          0
   157          0
   158          0
   159          2
   160          0
   161          1
   162          0
   163          3
   164          1
   165          4
   166          1
   167          0
   168          0
   170          0
   171          1
   172          0
   175          0
   176          0
   177          1
   178          3
   179          2
   180          9
   181          3
   182          0
   183          0
   184          0
   185          2
   186          0
   187          0
   189          0
   190          1
   191          0
   192          0
   193          0
   194          1
   195          0
   197          0
   198          0
   203          0
   204          0
   205          0
   206          0
   207          2
   208         13
   209          6
   210          1
   211          0
   213          0
   214          0
   218          1
   219          0
   220          0
   221          0
   222          0
   223          0
   224          0
   225          0
   227          0
   228          0
   229          0
   230          0
   232          0
   234          0
   235          1
   236          5
   237        562
   238         95
   239         10
   240          0