##TITLE=Library Entry 9687
##JCAMP-DX=Revision 4.10 
##DATA TYPE=MASS SPECTRUM
##SAMPLE DESCRIPTION=HCACAV,61(3)1039(1978); H. SCHMID ET AL
##NAMES=HP
##CAS NAME=Heptanamide, N-(2-cyanoethyl)-N-hexyl-
##MOLFORM=C16H30N2O
##CAS REGISTRY NO=67138-89-0
##MP= -300
##BP= -300
##MW= 266
##$RETENTION INDEX=0
##$CONDENSED SPECTRUM=NO
##NPOINTS= 15
##XYDATA=(XY..XY) 1 
    43        999
    55        250
    83        600
    97        130
   113        380
   114        350
   126        160
   139         50
   156        180
   181        340
   196        250
   209        150
   223         60
   237         30
   266        100