##TITLE=Library Entry 62904
##JCAMP-DX=Revision 4.10 
##DATA TYPE=MASS SPECTRUM
##SAMPLE DESCRIPTION=A.A.Kutin, Moscow, Russia
##NAMES=HP
##CAS NAME=Adamantan-2-ol, 4-chloro-
##MOLFORM=C10H15ClO
##CAS REGISTRY NO=67144-78-9
##MP= -300
##BP= -300
##MW= 186
##$RETENTION INDEX=0
##$CONDENSED SPECTRUM=NO
##NPOINTS= 126
##XYDATA=(XY..XY) 1 
    35          5
    36         16
    37          8
    38         39
    39        519
    40         88
    41        515
    42         50
    43        137
    44         47
    45         12
    46          3
    47          2
    49         29
    50         40
    51        152
    52         67
    53        234
    54        118
    55        265
    56         50
    57        155
    58         12
    59          5
    60          7
    61         10
    62         14
    63         49
    64         24
    65        184
    66         95
    67        281
    68         37
    69         46
    70         26
    71         30
    72         16
    73         11
    74          7
    75         47
    77        429
    78        200
    79        800
    80        184
    81        174
    82         20
    83         34
    84          6
    85          6
    86          2
    87          5
    88          7
    89         23
    90         38
    91        999
    92        246
    93        170
    94         38
    95         66
    96         14
    97          6
    98          1
    99          3
   100          8
   101         13
   102          9
   103         28
   104         76
   105        164
   106         35
   107         64
   108         17
   109         26
   110          5
   111          4
   112         53
   113         62
   114         63
   115         46
   116         29
   117        109
   118         18
   119        142
   120         15
   121         21
   122          4
   123          6
   124          2
   125         31
   126        145
   127         54
   128         52
   129         20
   130          3
   131         37
   132        142
   133        392
   134         43
   135          4
   136          0
   137          1
   139          9
   140          5
   141          3
   142          2
   143          1
   149          6
   150         14
   151         13
   152          2
   153         11
   154          1
   155          4
   156          0
   157          0
   166          7
   168        854
   169        103
   170        262
   171         29
   172          1
   185         13
   186         16
   187          5
   188          4
   189          0