##TITLE=Library Entry 12623
##JCAMP-DX=Revision 4.10 
##DATA TYPE=MASS SPECTRUM
##SAMPLE DESCRIPTION=TNO Volatile Compounds in Food - Chemical Concepts
##NAMES=HP
##CAS NAME=Phenol, 2-methyl-4-nitro-, acetate (ester)
##MOLFORM=C9H9NO4
##CAS REGISTRY NO=67141-99-5
##MP= -300
##BP= -300
##MW= 195
##$RETENTION INDEX=0
##$CONDENSED SPECTRUM=NO
##NPOINTS= 71
##XYDATA=(XY..XY) 1 
    37          2
    38         19
    39         52
    41         11
    42         22
    43        999
    44         37
    45          5
    46          1
    48          0
    50         35
    51         73
    52         72
    53         47
    54         11
    55         31
    61          3
    62         12
    63         43
    64          8
    65         26
    66         11
    67         16
    68         20
    69          3
    70          0
    71          1
    73          3
    74          5
    75          4
    76          6
    77        109
    78         38
    79         24
    80         63
    81         48
    82          9
    83          0
    87          3
    89         11
    90         11
    91          5
    92          6
    93          3
    94          7
    95          4
    96          2
    97          0
   105          4
   106          5
   107         34
   108         47
   109         30
   110          1
   119          0
   120          1
   121          6
   122          1
   123         13
   124          3
   135          0
   136        391
   137         51
   138          4
   153        417
   154         31
   155          4
   178          3
   195        124
   196         18
   197          2