##TITLE=Library Entry 61686
##JCAMP-DX=Revision 4.10 
##DATA TYPE=MASS SPECTRUM
##SAMPLE DESCRIPTION=V.Zaikin,Inst.Petrochem.Synth.,RAS,Moscow
##NAMES=HP
##CAS NAME=Benzyl o-toluate
##MOLFORM=C15H14O2
##CAS REGISTRY NO=67157-60-2
##MP= -300
##BP= -300
##MW= 226
##$RETENTION INDEX=1858
##$CONDENSED SPECTRUM=NO
##NPOINTS= 104
##XYDATA=(XY..XY) 1 
    25          3
    26          8
    27         27
    28          5
    29         27
    30          3
    39        134
    40         16
    41         57
    42          5
    43         34
    44          7
    50         40
    51         92
    52         23
    53         13
    54          2
    55         23
    56         12
    57         22
    58          3
    59          6
    61          7
    62         22
    63         77
    64         25
    65        254
    66         19
    67          3
    68          2
    69         12
    70         29
    71         51
    72          3
    73          3
    74         10
    75         11
    76          8
    77         68
    78         14
    79         40
    80          3
    81          3
    82          5
    83          3
    84         11
    85         11
    86          3
    87          3
    88          5
    89         74
    90         94
    91        999
    92        137
    93          6
    95          2
    96          3
    97          3
    98          3
   101          5
   102          6
   103          3
   104          8
   105         33
   106         10
   107         35
   108          4
   112          2
   113          4
   115          3
   117          3
   118         94
   119        720
   120         69
   121          7
   126          9
   127          4
   128          3
   130         12
   131          2
   133          3
   134          8
   135         75
   136         73
   137         18
   147          5
   148         14
   149          2
   152          3
   165          6
   166          5
   167         12
   180          5
   181         19
   182          3
   206          2
   207          9
   208        267
   209         44
   210          6
   211          7
   212          2
   226         37
   227          7