##TITLE=Library Entry 77378
##JCAMP-DX=Revision 4.10 
##DATA TYPE=MASS SPECTRUM
##SAMPLE DESCRIPTION=E. DZIWINSKI, INST. HEAVY ORG. SYNTH., BLACHOWNIA, POLA
ND
##NAMES=HP
##CAS NAME=2-Methylbenzyl p-toluate
##MOLFORM=C16H16O2
##CAS REGISTRY NO=67157-61-3
##MP= -300
##BP= -300
##MW= 240
##$RETENTION INDEX=0
##$CONDENSED SPECTRUM=NO
##NPOINTS= 13
##XYDATA=(XY..XY) 1 
    39         58
    51         36
    65         77
    77         85
    91        175
   104        999
   105        450
   119        351
   136         23
   195          7
   222          4
   225          2
   240          4