##TITLE=Library Entry 79121
##JCAMP-DX=Revision 4.10 
##DATA TYPE=MASS SPECTRUM
##SAMPLE DESCRIPTION=A.A.Kutin, Moscow, Russia
##NAMES=HP
##CAS NAME=4-Thiazolidinecarboxylic acid, 2-(p-tolyl)-
##MOLFORM=C11H13NO2S
##CAS REGISTRY NO=67189-37-1
##MP= -300
##BP= -300
##MW= 223
##$RETENTION INDEX=0
##$CONDENSED SPECTRUM=NO
##NPOINTS= 75
##XYDATA=(XY..XY) 1 
    38          8
    39         77
    40         16
    41         46
    42          9
    43         30
    44         48
    45          2
    47          4
    48          3
    50         24
    51         56
    52         22
    53         29
    54          2
    55         22
    56          2
    57         12
    58          7
    59         96
    60          8
    62         10
    63         48
    64         21
    65         84
    66          8
    67          2
    69          8
    71          9
    72         36
    73          8
    75         14
    76         20
    77        190
    78         88
    79        119
    80          9
    82          2
    83          8
    85          7
    86         11
    89         45
    90         30
    91        100
    92         14
   101          5
   102         27
   103        118
   104         91
   105        999
   106        188
   107         16
   111         22
   114          2
   115          4
   116         13
   117         10
   118         26
   119          4
   128          6
   130         35
   131         72
   132         17
   133          2
   165         16
   166          3
   178          6
   179          5
   180          5
   207          2
   208         29
   209          2
   222         85
   223        162
   224         26