##TITLE=Library Entry 22259
##JCAMP-DX=Revision 4.10 
##DATA TYPE=MASS SPECTRUM
##SAMPLE DESCRIPTION=A.A.Kutin, Moscow, Russia
##NAMES=HP
##CAS NAME=2-Aminocyanoacetamide
##MOLFORM=C3H5N3O
##CAS REGISTRY NO=6719-21-7
##MP= -300
##BP= -300
##MW= 99
##$RETENTION INDEX=0
##$CONDENSED SPECTRUM=NO
##NPOINTS= 13
##XYDATA=(XY..XY) 1 
    33         10
    38         16
    39         19
    40         15
    41          5
    44        336
    46          0
    51          0
    53         71
    56        999
    67          5
    68          0
    73          9