##TITLE=Library Entry 84608
##JCAMP-DX=Revision 4.10 
##DATA TYPE=MASS SPECTRUM
##SAMPLE DESCRIPTION=T. SASAKI, INST. APPL. ORG. CHEM., NAGOYA UNIV., NAGOYA
, JAPAN
##NAMES=HP
##CAS NAME=9-Thianoradamantane 9,9-dioxide
##MOLFORM=C8H12O2S
##CAS REGISTRY NO=67194-74-5
##MP= -300
##BP= -300
##MW= 172
##$RETENTION INDEX=0
##$CONDENSED SPECTRUM=NO
##NPOINTS= 23
##XYDATA=(XY..XY) 1 
    39        995
    41        827
    52        241
    54        245
    65        283
    66        414
    67        990
    68        138
    78        234
    79        200
    80        890
    81        759
    87        192
    92        397
    94        190
   106        169
   108        999
   109        155
   139        224
   156        241
   172        105
   173         29
   174         14