##TITLE=Library Entry 89696
##JCAMP-DX=Revision 4.10 
##DATA TYPE=MASS SPECTRUM
##SAMPLE DESCRIPTION=Japan AIST/NIMC Database- Spectrum MS-NW-8914
##NAMES=HP
##CAS NAME=2H-Pyran-2-one, 4-methoxy-6-methyl-
##MOLFORM=C7H8O3
##CAS REGISTRY NO=672-89-9
##MP= -300
##BP= -300
##MW= 140
##$RETENTION INDEX=1297
##$CONDENSED SPECTRUM=NO
##NPOINTS= 74
##XYDATA=(XY..XY) 1 
    14          4
    15         69
    16          1
    18          2
    25          2
    26         31
    27         58
    28         20
    29         23
    30          2
    31          4
    37         17
    38         68
    39        110
    40         24
    41         77
    42         40
    43        445
    44         11
    45          3
    48          2
    49          4
    50         16
    51         18
    52         10
    53        124
    54         37
    55         27
    56          4
    57         17
    58          1
    59        264
    60          6
    61          5
    62          9
    63          9
    64          2
    65          8
    66         49
    67         26
    68         25
    69        553
    70         25
    71          3
    77          1
    79          1
    80          2
    81          5
    82         65
    83         85
    84          6
    85          2
    93          8
    94          1
    95         17
    96          2
    97         87
    98         30
    99          2
   100          1
   109          4
   110          2
   111         25
   112        999
   113         66
   114          6
   123          2
   124          2
   125        573
   126         37
   127          4
   140        597
   141         52
   142          5