##TITLE=Library Entry 68721
##JCAMP-DX=Revision 4.10 
##DATA TYPE=MASS SPECTRUM
##SAMPLE DESCRIPTION=Japan AIST/NIMC Database- Spectrum MS-IW-6369
##NAMES=HP
##CAS NAME=Alpha-pyrone-6-carboxylic acid
##MOLFORM=C6H4O4
##CAS REGISTRY NO=672-67-3
##MP= -300
##BP= -300
##MW= 140
##$RETENTION INDEX=0
##$CONDENSED SPECTRUM=NO
##NPOINTS= 42
##XYDATA=(XY..XY) 1 
    17          2
    18         10
    25          2
    26          5
    27          1
    28         22
    29          4
    33          6
    36          3
    37         19
    38         36
    39        245
    40         13
    41          7
    42          7
    44         31
    45         16
    47          9
    48          1
    49          5
    50          8
    51          4
    52          1
    53          7
    54          1
    55          2
    65          1
    66          6
    67         29
    68         19
    69          2
    77          1
    80          1
    84          1
    95        999
    96         71
    97          6
   112          4
   123          1
   140        337
   141         23
   142          3