##TITLE=Library Entry 64894
##JCAMP-DX=Revision 4.10 
##DATA TYPE=MASS SPECTRUM
##SAMPLE DESCRIPTION=Humboldt-Universitat zu Berlin, Department of Chemistry
, Analytical Group
##NAMES=HP
##CAS NAME=1,3-Cyclopentadiene, 1,2,3,4,5-pentabenzyl-
##MOLFORM=C40H36
##CAS REGISTRY NO=67209-29-4
##MP= -300
##BP= -300
##MW= 516
##$RETENTION INDEX=0
##$CONDENSED SPECTRUM=NO
##NPOINTS= 211
##XYDATA=(XY..XY) 1 
    12          1
    16          5
    17         34
    18        124
    26          0
    27          3
    28          4
    29          3
    31          0
    36          0
    38          1
    39         12
    40          1
    41          9
    42          1
    43          5
    44         15
    45          1
    50          1
    51          6
    52          1
    53          1
    55          3
    56          1
    57          4
    60          0
    62          0
    63          5
    65         74
    66          3
    67          1
    69          1
    70          1
    71          1
    75          1
    76          1
    77         13
    78          7
    79          3
    81          0
    82          0
    83          1
    84          1
    85          0
    89          9
    91        999
    92         84
    93          3
    95          0
    97          1
   101          1
   102          3
   103          9
   104          1
   105          9
   106          1
   111          1
   113          1
   114          1
   115         61
   116          6
   117         20
   118          2
   119          1
   120          1
   125          1
   126          5
   127         10
   128         17
   129         24
   130          2
   131          3
   133          1
   134          1
   139          6
   140          1
   141         35
   142          5
   143          4
   149          1
   150          1
   151          5
   152         21
   153          9
   154          2
   155          2
   163          3
   164          7
   165        216
   166         46
   167         91
   168         13
   169          1
   171          1
   176          6
   177          5
   178         35
   179         37
   180          8
   181         51
   182          7
   183          0
   188          1
   189          8
   190          4
   191          9
   192          2
   193          6
   194          1
   200          2
   201          2
   202         33
   203         16
   204          6
   205         23
   206          5
   207          2
   213          3
   214          2
   215         54
   216         15
   217         34
   218          8
   219         11
   220          2
   225          1
   226         18
   227         21
   228         88
   229         31
   230          6
   231         13
   232          3
   233          1
   237          1
   238          1
   239         49
   240         29
   241         70
   242         41
   243        160
   244         32
   245          7
   246          1
   250          2
   251          1
   252         21
   253         22
   254         15
   255         57
   256         23
   257         17
   258          3
   263          1
   264          0
   265          3
   266          1
   267          1
   269         10
   270          2
   276          2
   277          1
   278          1
   279          0
   281          1
   289          3
   290          1
   291          3
   292          1
   293          1
   295          0
   300          1
   301          1
   302          3
   303          2
   304          1
   305          1
   306          0
   307          1
   313          2
   314          1
   315          2
   316          1
   317          1
   318          1
   319          1
   321          4
   322          1
   326          1
   327          1
   328          1
   329          1
   330          0
   331          1
   332          1
   333         24
   334         53
   335         15
   336          2
   347         11
   348          3
   423          1
   425        937
   426        332
   427         60
   428          7
   429          0
   516        144
   517         63
   518         13
   519          2