##TITLE=Library Entry 91209
##JCAMP-DX=Revision 4.10 
##DATA TYPE=MASS SPECTRUM
##SAMPLE DESCRIPTION=A.A.Kutin, Moscow, Russia
##NAMES=HP
##CAS NAME=Indeno[1,2-b]furazano[3,4-E]pyrazin-9-one,
##MOLFORM=C11H4N4O2
##CAS REGISTRY NO=67200-34-4
##MP= -300
##BP= -300
##MW= 224
##$RETENTION INDEX=0
##$CONDENSED SPECTRUM=NO
##NPOINTS= 117
##XYDATA=(XY..XY) 1 
    34          1
    36          6
    37         54
    38        110
    39        215
    40         38
    41         21
    42         19
    43         31
    44         61
    45          5
    49         35
    50        171
    51         93
    52         39
    53         25
    54         10
    55         13
    56         10
    57         22
    58          5
    59          1
    60          7
    61         79
    62         95
    63        123
    64         87
    65         11
    66          3
    67          3
    68          3
    69          7
    70          6
    71         12
    72          5
    73         32
    74         87
    75        144
    76        118
    77         26
    78         16
    81          2
    82          1
    83          5
    84         10
    85         23
    86         51
    87        127
    88        166
    89         21
    90         10
    91          1
    93          1
    96          1
    97          6
    98         11
    99         44
   100         43
   101         35
   102         80
   103         12
   104          9
   105          4
   106          0
   107          0
   109          2
   110          5
   111         15
   112         38
   113         67
   114        999
   115         91
   116          2
   121          1
   122          1
   123          3
   124          3
   126         45
   127          6
   128         16
   129          4
   130         24
   131          3
   132          4
   138          5
   139         41
   140         32
   142         44
   143          3
   144          0
   149          2
   154          3
   157          0
   158          8
   159          2
   160          1
   164          4
   165         13
   166        313
   167         41
   168         22
   169          2
   171          3
   184          1
   185          6
   186         11
   192          8
   194        921
   195        122
   196          7
   212         17
   213          2
   222          4
   223          7
   224        797
   225        100
   226         11