##TITLE=Library Entry 69613
##JCAMP-DX=Revision 4.10 
##DATA TYPE=MASS SPECTRUM
##SAMPLE DESCRIPTION=J. Daly, M. Garraffo, T. Spande, LBC-NIDDK-NIH, Bethesd
a, MD
##NAMES=HP
##CAS NAME=Histrionicotoxin 259
##MOLFORM=C17H25NO
##CAS REGISTRY NO=67217-83-8
##MP= -300
##BP= -300
##MW= 259
##$RETENTION INDEX=0
##$CONDENSED SPECTRUM=NO
##NPOINTS= 143
##XYDATA=(XY..XY) 1 
    51         40
    52         21
    53         83
    54         63
    55        140
    56        141
    57         54
    58          5
    62          6
    63         32
    64         17
    65        106
    66         40
    67         95
    68         59
    69         33
    70         84
    71         10
    75          4
    76          8
    77        134
    78         48
    79        129
    80         74
    81         77
    82         81
    83         26
    84         15
    86          5
    89         28
    90         13
    91        171
    92         29
    93         55
    94         80
    95         40
    96        999
    97         78
    98          8
   102         12
   103         45
   104         30
   105         69
   106         52
   107         50
   108        108
   109         45
   110         80
   111         12
   115         79
   116         28
   117         75
   118         44
   119         30
   120         47
   121         29
   122         78
   123         18
   124        106
   125         12
   127         13
   128         44
   129         72
   130         59
   131         59
   132         44
   133         31
   134         39
   135         15
   136         33
   137         40
   138          9
   141         46
   142         28
   143         32
   144         74
   145         47
   146         52
   147         16
   148         16
   150        178
   151         22
   153          6
   154          8
   155         26
   156         14
   157         37
   158         34
   159         15
   160         26
   161         15
   162         20
   163         11
   164         91
   165         13
   166         51
   167         10
   168         13
   169          7
   170         17
   171         12
   172         39
   173         10
   174         22
   175         14
   176         41
   177          7
   180          4
   182          4
   183         14
   184         14
   185          6
   186         12
   187          7
   188         25
   190         40
   191          6
   192         12
   194         14
   198         20
   200        140
   201         25
   202         12
   203          4
   204         14
   205          7
   212         15
   213          5
   214          5
   216         69
   218        297
   219         44
   230         14
   231          6
   233          2
   240         25
   242         42
   243          8
   244         15
   245          3
   258         25
   259         51
   260         10