##TITLE=Library Entry 11926
##JCAMP-DX=Revision 4.10 
##DATA TYPE=MASS SPECTRUM
##SAMPLE DESCRIPTION=Chemical Concepts
##NAMES=HP
##CAS NAME=Lyxopyranose, tetraacetate
##MOLFORM=C13H18O9
##CAS REGISTRY NO=67226-03-3
##MP= -300
##BP= -300
##MW= 318
##$RETENTION INDEX=0
##$CONDENSED SPECTRUM=NO
##NPOINTS= 103
##XYDATA=(XY..XY) 1 
    25          0
    26          2
    27          6
    28          8
    29         13
    30          1
    31          5
    37          0
    38          1
    39          8
    40          1
    41         10
    42         19
    43        999
    44         23
    45          8
    46          0
    47          0
    50          0
    51          0
    52          0
    53          1
    54          0
    55          5
    56          1
    57         10
    58          2
    59          0
    60          6
    61          6
    66          0
    67          0
    68         35
    69         40
    70          4
    71          5
    72          0
    73         18
    74          1
    81          1
    82          2
    83          0
    84          1
    85         16
    86         36
    87          2
    89          0
    95          0
    96          1
    97         39
    98          7
    99          4
   100          6
   101          1
   102          5
   103         37
   104          1
   105          0
   110          0
   111          0
   112          0
   113          5
   114         14
   115         67
   116          4
   117          0
   124          0
   126          0
   127          7
   128         97
   129          7
   130          0
   131          2
   132          0
   134          0
   138          0
   139         19
   140          1
   141          0
   142          1
   143          1
   144          0
   145         10
   146          0
   155          0
   156          6
   157         40
   158          3
   159          0
   170         77
   171          7
   172          1
   173          3
   174          0
   187          0
   199          5
   200          0
   212          0
   216          4
   217          0
   259          4
   260          0
   275          0