##TITLE=Library Entry 57694
##JCAMP-DX=Revision 4.10 
##DATA TYPE=MASS SPECTRUM
##SAMPLE DESCRIPTION=NIST Mass Spectrometry Data Center
##NAMES=HP
##CAS NAME=Ethyl 9-decenoate
##MOLFORM=C12H22O2
##CAS REGISTRY NO=67233-91-4
##MP= -300
##BP= -300
##MW= 198
##$RETENTION INDEX=1387
##$CONDENSED SPECTRUM=NO
##NPOINTS= 108
##XYDATA=(XY..XY) 1 
    26          3
    27         85
    28         36
    29        210
    30          2
    31          7
    39        191
    40         37
    41        614
    42        131
    43         98
    45        101
    46          4
    47          4
    50          3
    51         11
    52         10
    53         84
    54        170
    55        928
    56        163
    57         36
    58          9
    59         24
    60        139
    61        243
    62         12
    63          5
    64          2
    65         25
    66         15
    67        326
    68        313
    69        704
    70        411
    72          4
    73        180
    74         47
    75         10
    76          2
    77          6
    79         49
    81        133
    82        186
    83        363
    84        376
    85         64
    86          7
    87         59
    88        999
    89         83
    90          8
    91         11
    92         10
    93         42
    94         40
    95        115
    96        302
    97        152
    98         84
   100         20
   101        487
   102         56
   103          9
   104          4
   105          8
   106          7
   107         41
   108        115
   109        164
   110        597
   111        183
   113         28
   114         16
   115         39
   116         13
   119         16
   123        146
   124         96
   125         12
   126          3
   127         71
   128         36
   130          5
   133         20
   134         53
   135        355
   136         42
   137         31
   138          8
   141         35
   142         27
   145         28
   146          5
   149          3
   151         21
   152        277
   153         69
   154         13
   155         42
   156         21
   157         18
   158          2
   165          2
   169         12
   170          4
   183          2
   198          3