##TITLE=Library Entry 84829
##JCAMP-DX=Revision 4.10 
##DATA TYPE=MASS SPECTRUM
##SAMPLE DESCRIPTION=Japan AIST/NIMC Database- Spectrum MS-NW-7512
##NAMES=HP
##CAS NAME=Formamide, N-methyl-N-2-pyridinyl-
##MOLFORM=C7H8N2O
##CAS REGISTRY NO=67242-59-5
##MP= -300
##BP= -300
##MW= 136
##$RETENTION INDEX=0
##$CONDENSED SPECTRUM=NO
##NPOINTS= 84
##XYDATA=(XY..XY) 1 
    12          1
    13          1
    14          5
    15         54
    16          1
    17          1
    18          3
    25          3
    26         36
    27         90
    28        151
    29         66
    30        170
    31          3
    32          2
    34          1
    36          2
    37         33
    38         70
    39        203
    40         68
    41         64
    42         45
    43          8
    44         17
    45         15
    46         20
    48          3
    49         14
    50         79
    51        256
    52        268
    53        102
    54         50
    55         34
    56          4
    57          4
    58          2
    59          1
    60          1
    61          2
    62          5
    63         10
    64         41
    65         35
    66         54
    67        182
    68         10
    69          1
    73          1
    74          2
    75         14
    76         20
    77          8
    78        595
    79        805
    80        384
    81         25
    82          2
    85          1
    89          1
    90          1
    91          6
    92         34
    93         13
    94          9
    95          1
    96          1
   103          1
   104          1
   105         10
   106          5
   107        800
   108        999
   109         75
   110          3
   119          1
   120          1
   121          6
   122          2
   135          3
   136        206
   137         20
   138          2