##TITLE=Library Entry 54501
##JCAMP-DX=Revision 4.10 
##DATA TYPE=MASS SPECTRUM
##SAMPLE DESCRIPTION=L. Cohen, LC, NIDDK, NIH, Bethesda, MD 20892
##NAMES=HP
##CAS NAME=DL-Proline, 5-oxo-, pentachlorophenyl ester
##MOLFORM=C11H6Cl5NO3
##CAS REGISTRY NO=67246-71-3
##MP= -300
##BP= -300
##MW= 375
##$RETENTION INDEX=0
##$CONDENSED SPECTRUM=NO
##NPOINTS= 86
##XYDATA=(XY..XY) 1 
    41         48
    42          8
    43          5
    44          9
    45          8
    47         11
    49          7
    54         13
    55         21
    56         54
    57          2
    60         13
    61         11
    65          2
    71          9
    73          7
    82         11
    83         20
    84        999
    85         51
    86          2
    87         12
    94          2
    95         26
    96         11
    97         12
    98          9
    99          9
   100         10
   101         10
   102          2
   106         11
   107          8
   108          7
   109          4
   115          2
   117          8
   118          4
   119          7
   124          2
   129          5
   130         32
   131         12
   132         25
   133         13
   134          6
   141         15
   142          7
   143         22
   145          3
   149          2
   165         71
   166          2
   167         67
   168          7
   169         25
   200         30
   201         15
   202         39
   203         17
   204         20
   205          9
   224         11
   226          7
   228         18
   230         32
   232         24
   234          6
   235         21
   237         32
   239         21
   241         10
   249          2
   263          5
   264        215
   265         21
   266        358
   267         27
   268        229
   269         16
   270         74
   272         13
   347         28
   349         42
   351         29
   353          9