##TITLE=Library Entry 28978
##JCAMP-DX=Revision 4.10 
##DATA TYPE=MASS SPECTRUM
##SAMPLE DESCRIPTION=Div. of Experiment Therapeutics WRAIR, WRAMC, Washingto
n DC 20307
##NAMES=HP
##CAS NAME=N-[3-Dimethylaminopropyl]-2-aminobenzamide
##MOLFORM=C12H19N3O
##CAS REGISTRY NO=6725-12-8
##MP= -300
##BP= -300
##MW= 221
##$RETENTION INDEX=0
##$CONDENSED SPECTRUM=NO
##NPOINTS= 107
##XYDATA=(XY..XY) 1 
    41         13
    42         60
    43         17
    44         43
    45          6
    46          3
    47          1
    49          7
    50          2
    51          5
    52          7
    53          2
    54          2
    55          2
    56         21
    57         14
    58        999
    59         47
    60          3
    62          2
    63         10
    64         10
    65         89
    66         11
    67          1
    68          2
    69          1
    70         50
    71         14
    72        126
    73          6
    74          1
    75          2
    76          3
    77          5
    78          1
    79          0
    80          2
    82          2
    83          2
    84         43
    85         29
    86          6
    87          1
    88          0
    89          2
    90          6
    91         12
    92        100
    93         15
    94          1
    99          3
   101         21
   102          2
   103          1
   104          1
   105          1
   106          2
   107          5
   111          1
   115          6
   116          0
   117          0
   118          4
   119         36
   120        242
   121         21
   122          1
   126          1
   127          3
   128          5
   129          3
   130          2
   131          3
   132          6
   133          2
   134          1
   136          2
   137          2
   139          3
   141         15
   142         10
   143          1
   145          0
   146          1
   147          5
   149         11
   150         27
   151          2
   154          1
   162          5
   163          5
   164          1
   170         15
   171         12
   172          1
   175          1
   176          3
   177          4
   178          2
   189          1
   206          4
   207          0
   208          0
   221        152
   222         29
   223          2