##TITLE=Library Entry 97801
##JCAMP-DX=Revision 4.10 
##DATA TYPE=MASS SPECTRUM
##SAMPLE DESCRIPTION=Chemical Concepts
##NAMES=HP
##CAS NAME=1,3,5-Triazine, 2,4,6-tris(4-methylphenyl)-
##MOLFORM=C24H21N3
##CAS REGISTRY NO=6726-45-0
##MP= -300
##BP= -300
##MW= 351
##$RETENTION INDEX=0
##$CONDENSED SPECTRUM=NO
##NPOINTS= 175
##XYDATA=(XY..XY) 1 
    25          0
    26          0
    27          5
    28          1
    29          1
    30          6
    31          0
    37          0
    38          1
    39         16
    41          5
    42          8
    43          4
    44         16
    45          0
    46          0
    47          0
    50          2
    51          6
    52          2
    53          1
    54          0
    55          1
    56          1
    57          2
    58          0
    59          0
    60          0
    61          0
    62          3
    63         15
    64          6
    65         24
    66          2
    67          0
    68          0
    69          2
    70          0
    71          1
    72          0
    73         11
    74          0
    75          2
    76          3
    77          4
    78          1
    79          0
    81          0
    82          1
    83          1
    84          1
    85          0
    86          0
    87          1
    88          4
    89         65
    90        138
    91         51
    92          3
    93          0
    95          0
    96          0
    97          1
    98          0
    99          0
   100          0
   101          0
   102          2
   103          1
   104          0
   105          0
   107          0
   109          0
   110          0
   111          0
   112          0
   113          0
   114          2
   115          6
   116        157
   117        999
   118        392
   119         29
   120          1
   121          0
   123          0
   124          0
   125          0
   127          0
   128          0
   129          0
   130          0
   131          0
   132          0
   133          0
   134          0
   135          0
   137          0
   139          0
   140          0
   141          0
   142          0
   143          7
   144          0
   145          0
   147          0
   149          1
   150          0
   151          0
   152          0
   153          0
   154          0
   155          0
   156          0
   159          0
   160          0
   161          0
   162          0
   163          0
   164          0
   165          0
   166          0
   167          1
   168          1
   175          1
   176          6
   177          0
   178          0
   179          0
   187          0
   189          0
   190          1
   191          0
   192          0
   193          0
   202          0
   204          0
   205          0
   206          0
   207          1
   208          0
   216          0
   217          0
   218          1
   219          3
   220          0
   229          0
   231          0
   232          2
   233         16
   234          8
   235          1
   243          0
   245          0
   247          0
   258          0
   260          0
   267          0
   272          0
   275          0
   281          0
   295          0
   304          0
   317          0
   334          0
   335          0
   336          0
   337          2
   338          0
   349          0
   350          7
   351        481
   352        133
   353         17
   354          1