##TITLE=Library Entry 23590
##JCAMP-DX=Revision 4.10 
##DATA TYPE=MASS SPECTRUM
##SAMPLE DESCRIPTION=Chemical Concepts
##NAMES=HP
##CAS NAME=1-Aziridinecarboxylic acid, 2-cyano-, 1,1-dimethylethyl ester
##MOLFORM=C8H12N2O2
##CAS REGISTRY NO=67276-82-8
##MP= -300
##BP= -300
##MW= 168
##$RETENTION INDEX=0
##$CONDENSED SPECTRUM=NO
##NPOINTS= 39
##XYDATA=(XY..XY) 1 
    27         53
    28         32
    29        138
    30          3
    31          7
    37          3
    38         13
    39        113
    40         90
    41        328
    42         21
    43        105
    44         15
    45          2
    50          4
    51          9
    52         12
    53         10
    54          4
    55         24
    56         47
    57        999
    58         39
    59        192
    60          5
    65          2
    66         17
    67         27
    68        123
    69          4
    91          3
    95        144
    96          6
   109          2
   111          4
   113         14
   153         83
   154          6
   155          1