##TITLE=Library Entry 2283
##JCAMP-DX=Revision 4.10 
##DATA TYPE=MASS SPECTRUM
##SAMPLE DESCRIPTION=Japan AIST/NIMC Database- Spectrum MS-NW-5339
##NAMES=HP
##CAS NAME=2-Hexenal, (E)-
##MOLFORM=C6H10O
##CAS REGISTRY NO=6728-26-3
##MP= -300
##BP= -300
##MW= 98
##$RETENTION INDEX=854
##$CONDENSED SPECTRUM=NO
##NPOINTS= 74
##XYDATA=(XY..XY) 1 
    13          2
    14          7
    15         31
    17          1
    18          8
    25          4
    26         61
    27        445
    28         59
    29        397
    30          9
    31         19
    32          3
    33          1
    36          2
    37         29
    38         66
    39        521
    40        106
    41        999
    42        580
    43        172
    44         22
    45          5
    46          1
    47          2
    48          1
    49          7
    50         38
    51         52
    52         21
    53        103
    54         96
    55        460
    56        113
    57        404
    58         19
    59          4
    60          6
    61          9
    62         12
    63         15
    64          3
    65         26
    66         10
    67         44
    68         54
    69        468
    70        158
    71         17
    72          2
    73         18
    74          3
    75          1
    77         17
    78          4
    79         76
    80         81
    81         26
    82          5
    83        504
    84         27
    85          4
    86          2
    91          7
    92          1
    93          4
    94          1
    95          8
    96          5
    97        108
    98        206
    99         20
   100          1