##TITLE=Library Entry 3239
##JCAMP-DX=Revision 4.10 
##DATA TYPE=MASS SPECTRUM
##SAMPLE DESCRIPTION=TNO Volatile Compounds in Food - Chemical Concepts
##NAMES=HP
##CAS NAME=4-Heptenal, (Z)-
##MOLFORM=C7H12O
##CAS REGISTRY NO=6728-31-0
##MP= -300
##BP= -300
##MW= 112
##$RETENTION INDEX=900
##$CONDENSED SPECTRUM=NO
##NPOINTS= 60
##XYDATA=(XY..XY) 1 
    26         48
    27        587
    28        116
    29        645
    31         26
    32          4
    34          9
    35          1
    36          2
    37          3
    38         38
    39        571
    40         98
    41        999
    42        268
    43        123
    44         21
    47          4
    48          5
    50         28
    51         55
    52         36
    53        190
    54         51
    55        629
    56        221
    57        104
    58         10
    59         11
    62          9
    63          9
    65         30
    66         29
    67        270
    68        663
    69        120
    70         64
    71          8
    72          7
    73          3
    75          3
    76          4
    77         22
    78          5
    79         65
    80          5
    81         33
    83        173
    84        231
    85         12
    86          2
    89          2
    93          4
    94         53
    95          6
    96          5
    97         13
   110          2
   111          4
   112         10