##TITLE=Library Entry 40892
##JCAMP-DX=Revision 4.10 
##DATA TYPE=MASS SPECTRUM
##SAMPLE DESCRIPTION=Chemical Concepts
##NAMES=HP
##CAS NAME=Bromohydroquinone, 2TMS derivative
##MOLFORM=C12H21BrO2Si2
##CAS REGISTRY NO=67289-10-5
##MP= -300
##BP= -300
##MW= 332
##$RETENTION INDEX=0
##$CONDENSED SPECTRUM=NO
##NPOINTS= 231
##XYDATA=(XY..XY) 1 
    27         18
    28         38
    29         43
    30          5
    31         13
    34          0
    36          0
    38          2
    39         17
    40          5
    41          6
    42         15
    43        150
    44         66
    45        360
    46         21
    47         27
    48          0
    50          9
    51         21
    52          5
    53         32
    54          8
    55         32
    56          6
    57         26
    58         26
    59         38
    60          6
    61          9
    62         11
    63         38
    64          7
    65          8
    66          6
    67         14
    68          8
    69         18
    70          7
    71          8
    72         22
    73        999
    74         88
    75         92
    76         12
    77         28
    78         46
    79         20
    80          2
    81          7
    82          8
    83         91
    84         13
    85         14
    87          2
    88          0
    89         14
    90          7
    91         22
    92          5
    93         15
    94          2
    95         14
    96          4
    97         11
    98          1
    99          4
   100          2
   102          0
   103         11
   104         15
   105         35
   106          5
   107         19
   108          4
   109         47
   110          9
   111         21
   112          9
   113          0
   115          3
   116          0
   117          6
   118          0
   119         14
   120          3
   121         14
   122          5
   123         18
   124          4
   125         18
   126          0
   127          0
   128          0
   129          1
   131          4
   132          1
   133         29
   134          6
   135         22
   136         12
   137        128
   138         13
   139        113
   140          7
   141          8
   143          6
   144          5
   145          5
   146          0
   147         14
   148          8
   149         32
   150          6
   151         40
   152         34
   153          5
   157          1
   158          0
   159          1
   161         12
   162          3
   163         35
   164         10
   165         51
   166         11
   167          6
   168          0
   169          1
   171          0
   173          3
   174          0
   175          3
   176          4
   177         10
   178          7
   179         51
   180         11
   181          6
   182          1
   183          2
   184          0
   185          1
   189          0
   191          3
   192          0
   193         10
   194          3
   195          7
   197          7
   198          1
   199          9
   200          0
   201          2
   203          0
   205          0
   207          7
   208          2
   209         11
   210          1
   211          2
   213          3
   215          2
   216          2
   217          2
   218          2
   219          2
   220          0
   221         18
   222          6
   223         38
   224         11
   225          4
   227          1
   228          1
   229          2
   230          0
   233          0
   234          0
   235          5
   236          3
   237        360
   238        217
   239        110
   240         27
   241          7
   242          0
   243          4
   244          7
   245          6
   246          8
   247          1
   252         25
   253          8
   254         38
   255          8
   256          3
   259          5
   261          5
   273          0
   275          0
   285          1
   286          0
   287          6
   288          2
   289          8
   290          1
   291          3
   297          0
   301         66
   302         17
   303         80
   304         18
   305         11
   306          4
   307          0
   314          0
   315          0
   316          8
   317        112
   318         30
   319        113
   320         25
   321         11
   322          2
   332        282
   333         64
   334        302
   335         66
   336         24
   337          4