##TITLE=Library Entry 27750
##JCAMP-DX=Revision 4.10 
##DATA TYPE=MASS SPECTRUM
##SAMPLE DESCRIPTION=Exported from NIST MS Search
##NAMES=HP
##CAS NAME=1H-Imidazole-4-ethanamine, N,N-dimethyl-
##MOLFORM=C7H13N3
##CAS REGISTRY NO=673-46-1
##MP= -300
##BP= -300
##MW= 139
##$RETENTION INDEX=0
##$CONDENSED SPECTRUM=NO
##NPOINTS= 32
##XYDATA=(XY..XY) 1 
    28        180
    29         30
    30        130
    39         60
    41         80
    42        210
    43         60
    44         60
    54         50
    55         20
    56         30
    57         80
    58        999
    59        140
    67         20
    68         50
    69         10
    81         50
    82         20
    83         10
    93         20
    94         40
    95        120
    96         20
   107         10
   108         10
   109         10
   122         10
   123         10
   124         10
   139        100
   140         10