##TITLE=Library Entry 1074
##JCAMP-DX=Revision 4.10 
##DATA TYPE=MASS SPECTRUM
##SAMPLE DESCRIPTION=NIST Mass Spectrometry Data Center
##NAMES=HP
##CAS NAME=2-Azacyclooctanone
##MOLFORM=C7H13NO
##CAS REGISTRY NO=673-66-5
##MP= -300
##BP= -300
##MW= 127
##$RETENTION INDEX=0
##$CONDENSED SPECTRUM=NO
##NPOINTS= 80
##XYDATA=(XY..XY) 1 
    15         25
    16          1
    18         14
    25          1
    26         38
    27        269
    28        215
    29        162
    30        999
    31         21
    32          1
    34          1
    37          7
    38         23
    39        340
    40         77
    41        589
    42        575
    43        455
    44        183
    45         47
    46          2
    48          6
    50         15
    51         25
    52         17
    53         71
    54        117
    55        866
    56        619
    57         66
    58         30
    59         19
    60          7
    61          1
    62          2
    63          4
    64          1
    65          9
    66          8
    67         79
    68         68
    69        263
    70        342
    71        189
    72         24
    73         16
    74          1
    77          4
    78          2
    79         18
    80        110
    81         68
    82         46
    83        116
    84         79
    85         57
    86         23
    87          1
    92          1
    94          2
    95          9
    96          6
    97         56
    98        295
    99        655
   100         39
   101          2
   106          1
   107          1
   108          2
   109          4
   110          9
   111          1
   112         29
   113          1
   126          8
   127        194
   128         25
   129          1