##TITLE=Library Entry 97436
##JCAMP-DX=Revision 4.10 
##DATA TYPE=MASS SPECTRUM
##SAMPLE DESCRIPTION=Tox21 Consortium/NIST Mass Spectrometry Data Center, 20
12
##NAMES=HP
##CAS NAME=Phenprobamate
##MOLFORM=C10H13NO2
##CAS REGISTRY NO=673-31-4
##MP= -300
##BP= -300
##MW= 179
##$RETENTION INDEX=0
##$CONDENSED SPECTRUM=NO
##NPOINTS= 78
##XYDATA=(XY..XY) 1 
    15          1
    16          2
    17          1
    18          2
    19          1
    26          3
    27         18
    28          7
    29         12
    30          2
    31         17
    37          1
    38          5
    39         50
    40          5
    41         21
    42          8
    43         30
    44        101
    45         27
    46          1
    49          1
    50         21
    51         65
    52         17
    53          9
    54          1
    55          3
    57          7
    59          1
    61          2
    62         14
    63         30
    64          8
    65         95
    66          7
    67          1
    74          8
    75          7
    76          8
    77         90
    78         65
    79         49
    80          4
    85          1
    86          2
    87          2
    88          3
    89         28
    90         13
    91        402
    92         78
    93          5
    94          1
    95          1
   101          2
   102         10
   103         76
   104         29
   105         39
   106          5
   107          8
   108          1
   113          1
   114          1
   115         89
   116         24
   117        999
   118        840
   119         76
   120          3
   131          1
   132          1
   133          1
   134          1
   136         18
   137          1
   179          1