##TITLE=Library Entry 19531
##JCAMP-DX=Revision 4.10 
##DATA TYPE=MASS SPECTRUM
##SAMPLE DESCRIPTION=Chemical Concepts
##NAMES=HP
##CAS NAME=13-Hexyloxacyclotridecan-2-one
##MOLFORM=C18H34O2
##CAS REGISTRY NO=673-02-9
##MP= -300
##BP= -300
##MW= 282
##$RETENTION INDEX=0
##$CONDENSED SPECTRUM=NO
##NPOINTS= 209
##XYDATA=(XY..XY) 1 
    26          6
    27        155
    28         69
    29        354
    30         10
    31         13
    37          2
    38          3
    39        114
    40         31
    41        846
    42        239
    43        656
    44         39
    45         36
    46          3
    47          2
    48          1
    50          4
    51          5
    52          5
    53         77
    54        164
    55        999
    56        314
    57        344
    58        153
    59         65
    60         64
    61         19
    62          2
    63          2
    64          2
    65         13
    66         16
    67        276
    68        209
    69        598
    70        257
    71        220
    72         31
    73         85
    74         37
    75         10
    76          4
    77         15
    78          7
    79         57
    80         39
    81        317
    82        205
    83        466
    84        305
    85        134
    86         34
    87         54
    88        108
    89         20
    90          2
    91         13
    92          6
    93         44
    94         52
    95        344
    96        180
    97        370
    98        451
    99         67
   100         45
   101        101
   102         14
   103          2
   104          3
   105          9
   106          4
   107         29
   108         69
   109        141
   110        176
   111        359
   112        186
   113         71
   114         59
   115         35
   116         10
   117          3
   118          2
   119         14
   120          5
   121         37
   122         17
   123         50
   124         56
   125        276
   126         70
   127         49
   128         43
   129         36
   130          7
   131          2
   132          3
   133         16
   134         16
   135         34
   136         19
   137         49
   138         43
   139         60
   140         32
   141         25
   142          8
   143         21
   144          6
   145          3
   146          2
   147         11
   148         12
   149         27
   150         27
   151         45
   152         35
   153         41
   154         21
   155         13
   156          7
   157         20
   158          5
   159          2
   161         32
   162          9
   163         10
   164          8
   165         24
   166         25
   167         20
   168        364
   169        117
   170         16
   171         11
   172          6
   173          2
   175          7
   176         15
   177          7
   178          5
   179         35
   180         33
   181         15
   182          9
   183         10
   184          8
   185         10
   186         10
   187          3
   189          4
   190          5
   191          3
   192          2
   193         14
   194         19
   195         12
   196          7
   197        719
   198        110
   199         18
   200          5
   203          2
   205          2
   206          2
   207         12
   208         13
   209          6
   210          5
   211          7
   212         11
   213          8
   214          4
   220         35
   221         19
   222         44
   223         12
   224          2
   225          7
   226          2
   227          4
   229          2
   235         11
   236          9
   237          1
   239          5
   240          2
   241          2
   246         17
   247          8
   248          2
   253          4
   254          5
   255          4
   256          1
   263          2
   264        249
   265         52
   266          6
   267          9
   268          2
   281          2
   282         32
   283         14
   284          3