##TITLE=Library Entry 71621
##JCAMP-DX=Revision 4.10 
##DATA TYPE=MASS SPECTRUM
##SAMPLE DESCRIPTION=NIST Mass Spectral Data Center
##NAMES=HP
##CAS NAME=Fenpropidin
##MOLFORM=C19H31N
##CAS REGISTRY NO=67306-00-7
##MP= -300
##BP= -300
##MW= 273
##$RETENTION INDEX=1928
##$CONDENSED SPECTRUM=NO
##NPOINTS= 37
##XYDATA=(XY..XY) 1 
    41         37
    42         51
    44         24
    55         31
    56         14
    69         12
    70        135
    77         10
    79         16
    82         10
    84         12
    91         56
    96         39
    98        999
    99         77
   104         10
   105         23
   110         17
   115         48
   116         17
   117        155
   119         13
   124         13
   128         26
   129         18
   131         32
   132         29
   143         11
   145        164
   146         16
   147         25
   159         29
   160         33
   173         57
   174         14
   187         13
   273         29