##TITLE=Library Entry 43128
##JCAMP-DX=Revision 4.10 
##DATA TYPE=MASS SPECTRUM
##SAMPLE DESCRIPTION=O A MAMER, MCGILL UNIVERSITY, MONTRE
##NAMES=HP
##CAS NAME=Prosta-5,13-dien-1-oic acid, 9,11,15,19-tetrakis[(trimethylsilyl)
oxy]-, methyl ester, (5Z,9.alpha.,11.alpha.,13E,15S)-
##MOLFORM=C33H68O6Si4
##CAS REGISTRY NO=67356-00-7
##MP= -300
##BP= -300
##MW= 672
##$RETENTION INDEX=0
##$CONDENSED SPECTRUM=NO
##NPOINTS= 463
##XYDATA=(XY..XY) 1 
    14          6
    15         10
    18          0
    25          3
    26         11
    27          6
    28         18
    29          7
    30          2
    31          3
    32          2
    37          2
    38          3
    39         11
    40          5
    41         28
    42          6
    43         17
    44          8
    45         24
    46          2
    47         10
    49          3
    50         10
    51          5
    52          5
    53          6
    54          5
    55         46
    56          5
    57          5
    58          3
    59         35
    60          3
    61         12
    62          2
    63          4
    65          5
    66          6
    67         57
    68         16
    69         25
    70          3
    71          8
    72         11
    73        999
    74         93
    75        187
    76         16
    77         19
    78         12
    79         43
    80         12
    81         77
    82          9
    83          9
    85         13
    87          5
    88          2
    89         26
    90          4
    91         74
    92         16
    93         36
    94         10
    95         18
    96          3
    97         12
    98          3
    99         23
   100          2
   101         30
   102          5
   103         77
   104         21
   105         51
   106         19
   107         20
   108          5
   109         27
   110          4
   111          7
   113          9
   114          2
   115         21
   116         16
   117        205
   118         34
   119         37
   120          7
   121         14
   122          2
   123          9
   124          2
   125          5
   126          2
   127         12
   128          8
   129        264
   130         50
   131         57
   132         12
   133         55
   134          9
   135         13
   136          2
   137          5
   139          5
   140          5
   141         22
   142         19
   143        205
   144         36
   145         62
   146         21
   147        244
   148         40
   149         43
   150          6
   151         16
   152          4
   153          8
   154         10
   155         60
   156         38
   157         32
   158         10
   159         48
   160         12
   161         17
   162          3
   163         15
   164          3
   165         12
   166          8
   167         40
   168         28
   169         84
   170         22
   171         59
   172         13
   173         17
   174          4
   175          8
   176          2
   177          8
   178          4
   179         35
   180         17
   181         47
   182         25
   183         36
   184         41
   185         39
   186         14
   187         13
   188          4
   189          6
   190          3
   191        366
   192         81
   193         67
   194         24
   195         30
   196         14
   197         57
   198         18
   199         17
   200          5
   201          7
   202          3
   203         25
   204          9
   205         25
   206         10
   207         53
   208         20
   209         25
   210          9
   211         31
   212         12
   213          8
   214          3
   215          8
   216          8
   217        182
   218         77
   219         52
   220         16
   221         23
   222          9
   223         14
   224          5
   225          9
   226          4
   227          4
   228          5
   229         31
   230         15
   231         15
   232          7
   233         13
   234          7
   235         76
   236         21
   237         15
   238          5
   239          7
   240          3
   241          6
   242         10
   243         97
   244         26
   245         15
   246          7
   247          9
   248          5
   249          8
   250          3
   251          4
   252          4
   253          8
   254          6
   255         76
   256         55
   257         51
   258         15
   259         19
   260          7
   261         82
   262         24
   263         14
   264          4
   265          6
   266          3
   267          8
   268          9
   269         22
   270         16
   271         16
   272          9
   273         10
   274          5
   275         29
   276          8
   277          6
   278          2
   279          7
   280          6
   281         29
   282         21
   283         14
   284         13
   285          8
   286         16
   287         28
   288          7
   289          5
   290          2
   291          4
   292          3
   293         18
   294         10
   295         52
   296         17
   297         11
   298          5
   299          7
   300          3
   301         16
   302          5
   303          4
   304          3
   305          8
   306         16
   307        148
   308        113
   309         36
   310         12
   311          8
   312         23
   313         28
   314          7
   315          5
   316          2
   317          4
   318          2
   319          7
   320          6
   321         20
   322          7
   323          7
   324          6
   325         26
   326         10
   327          5
   328          2
   329          4
   330          3
   331          4
   333        144
   334         41
   335         19
   336          6
   337          5
   338          3
   339          2
   341          2
   342          3
   343          3
   344          2
   345          5
   346          3
   347          6
   349         11
   350          8
   351         23
   352         10
   353          6
   354          2
   355          5
   356          3
   357          3
   358          2
   359          4
   360          5
   361          9
   362          6
   363          8
   364          5
   365          7
   366          3
   367          5
   368          7
   369          6
   370          4
   371         12
   372          4
   373          3
   374          2
   375          7
   376         18
   377         27
   378          9
   379          4
   380          2
   381          7
   382          7
   383         40
   384         14
   385         29
   386         10
   387          8
   388          4
   389          3
   390          2
   391          4
   392          2
   393          3
   394          3
   395          8
   396         18
   397         95
   398         36
   399         16
   400          5
   401         12
   402         38
   403         29
   404          9
   405          5
   406          2
   407          2
   409          4
   410          3
   411          4
   412          2
   414          4
   415          8
   416          5
   417          3
   423        287
   424        106
   425         43
   426         11
   427          4
   428          2
   429          3
   435          3
   436          2
   437          3
   438          2
   439          5
   440          8
   441         29
   442         13
   443          6
   444          2
   448          2
   449          3
   450          3
   451          5
   452          3
   453          4
   454          3
   455          3
   457         12
   458          5
   459          2
   461          9
   462          4
   463          3
   464          2
   465          3
   466         14
   467         15
   468          7
   469          4
   470          2
   471          3
   477         16
   478          8
   479          5
   480          2
   481          5
   482          3
   484          2
   492         71
   493         33
   494         13
   495          5
   513        124
   514         53
   515         26
   516          8
   517          2
   525          2
   531         11
   532          5
   533          3
   538          2
   539          2
   541          6
   542          3
   543          2
   551          8
   552          4
   553          2
   555          3
   557          9
   558          5
   559          2
   567         21
   568         10
   569          5
   570          2
   582        210
   583        104
   584         49
   585         15
   586          4
   657          4
   658          2