##TITLE=Library Entry 84157
##JCAMP-DX=Revision 4.10 
##DATA TYPE=MASS SPECTRUM
##SAMPLE DESCRIPTION=W.Vetter ET AL. Helv.Chim.Acta, 61,1287(1978)
##NAMES=HP
##CAS NAME=3-[(Z)-6-Octadecenylamino]pyridine
##MOLFORM=C23H40N2
##CAS REGISTRY NO=67374-04-3
##MP= -300
##BP= -300
##MW= 344
##$RETENTION INDEX=0
##$CONDENSED SPECTRUM=NO
##NPOINTS= 94
##XYDATA=(XY..XY) 1 
    41        160
    42          8
    43        171
    51         11
    52         11
    53          8
    55        121
    56          8
    57         50
    65          2
    66         11
    67         92
    68          5
    69         42
    71         14
    73         42
    78         84
    79          5
    80         19
    81         42
    83         11
    84          2
    91          2
    92          2
    93         14
    94        230
    95         81
    96          2
   105          8
   106         11
   107        999
   108        112
   109         11
   119         11
   120         53
   121         84
   122         11
   123          2
   131          5
   132          2
   133        304
   134         42
   135         22
   136         14
   145          2
   146          2
   147         48
   148          8
   149         29
   150         49
   151          2
   159          2
   161          8
   162          2
   163         15
   164          4
   173          2
   175         10
   176          2
   177          9
   178          3
   188          2
   189         28
   190          7
   191          5
   193          1
   203         29
   204         24
   205          2
   217         99
   218         18
   219          2
   231         15
   232          4
   245         13
   246          4
   259         13
   260          4
   273         15
   274          4
   287         19
   288          4
   301         22
   302          7
   303          1
   315         13
   316          3
   329          5
   341          4
   342          2
   343         35
   344        109
   345         22
   346          3