##TITLE=Library Entry 66351
##JCAMP-DX=Revision 4.10 
##DATA TYPE=MASS SPECTRUM
##SAMPLE DESCRIPTION=W.Vetter ET AL. Helv.Chim.Acta, 61,1287(1978)
##NAMES=HP
##CAS NAME=2-Heptadecylpyridine
##MOLFORM=C22H39N
##CAS REGISTRY NO=67373-93-7
##MP= -300
##BP= -300
##MW= 317
##$RETENTION INDEX=0
##$CONDENSED SPECTRUM=NO
##NPOINTS= 50
##XYDATA=(XY..XY) 1 
    42         87
    44        103
    55          5
    56         56
    58         42
    79         33
    80         11
    92         33
    93        999
    94         92
   106        255
   107         64
   118         22
   120        112
   130          1
   131          1
   132          9
   133          6
   134         21
   135          7
   146          3
   147          2
   148         31
   149          8
   160          1
   162         24
   163          6
   176         13
   177          3
   190          8
   191          2
   193          1
   204          8
   205          1
   218          7
   219          1
   232          5
   233          1
   246          4
   247          1
   260          3
   261          1
   274          9
   275          2
   288          4
   289          2
   302          1
   316         12
   317         10
   318          1