##TITLE=Library Entry 83379
##JCAMP-DX=Revision 4.10 
##DATA TYPE=MASS SPECTRUM
##SAMPLE DESCRIPTION=W.Vetter ET AL. Helv.Chim.Acta, 61,1287(1978)
##NAMES=HP
##CAS NAME=3-Hexadecylaminopyridine
##MOLFORM=C21H38N2
##CAS REGISTRY NO=67373-98-2
##MP= -300
##BP= -300
##MW= 318
##$RETENTION INDEX=0
##$CONDENSED SPECTRUM=NO
##NPOINTS= 57
##XYDATA=(XY..XY) 1 
    41         70
    42          2
    43         92
    51          5
    53          2
    55         45
    56          5
    57         19
    66          5
    67          2
    69         14
    71          5
    78         45
    79          5
    80          2
    92          5
    93          5
    94         84
    95         11
   105          5
   106         11
   107        999
   108         92
   109          5
   119          5
   120         14
   121         33
   122          5
   132          1
   133         12
   134          3
   135         12
   136          8
   137          1
   147          2
   149          8
   150          6
   162          1
   163         14
   164          5
   165          1
   175          1
   176          1
   177         14
   178          7
   179          1
   189          1
   190          2
   191         14
   192          7
   193          1
   205         12
   206          6
   207          1
   218          1
   219         14
   220          7