##TITLE=Library Entry 83835
##JCAMP-DX=Revision 4.10 
##DATA TYPE=MASS SPECTRUM
##SAMPLE DESCRIPTION=W.Vetter ET AL. Helv.Chim.Acta, 61,1287(1978)
##NAMES=HP
##CAS NAME=2-[(Z)-9-Octadecenylamino]pyridine
##MOLFORM=C23H40N2
##CAS REGISTRY NO=67374-01-0
##MP= -300
##BP= -300
##MW= 344
##$RETENTION INDEX=0
##$CONDENSED SPECTRUM=NO
##NPOINTS= 89
##XYDATA=(XY..XY) 1 
    41        239
    42         30
    43        140
    44         14
    51         14
    52         11
    53         11
    54         22
    55        211
    56         30
    57         39
    66          2
    67         92
    68         14
    69         59
    70         11
    73         92
    74          2
    75          2
    77          2
    78        171
    79         47
    80         39
    81         30
    82          2
    83         14
    93         11
    94        650
    95         70
    96         22
   106          2
   107        999
   108        346
   109         11
   119         45
   120          8
   121        264
   122         30
   133         17
   134          8
   135         50
   136          8
   137          1
   147          3
   148          1
   149         80
   150          8
   151          1
   161          5
   162          4
   163         34
   164         10
   165          2
   175          4
   176          5
   177         39
   178         14
   179          6
   191        100
   192          8
   193          6
   205          8
   206          2
   217         14
   218          6
   231          9
   232          4
   245         61
   246         14
   247          2
   249          2
   251          2
   259         32
   260         12
   273          8
   274          2
   287          8
   288          2
   301         12
   302          5
   315          9
   316          2
   328         13
   329          7
   342          4
   343          8
   344         89
   345         18
   346          2