##TITLE=Library Entry 73419
##JCAMP-DX=Revision 4.10 
##DATA TYPE=MASS SPECTRUM
##SAMPLE DESCRIPTION=W.Vetter ET AL. Helv.Chim.Acta, 61,1287(1978)
##NAMES=HP
##CAS NAME=3-Hexadecyl-2-imino-4-thiazoline
##MOLFORM=C19H36N2S
##CAS REGISTRY NO=67373-94-8
##MP= -300
##BP= -300
##MW= 324
##$RETENTION INDEX=0
##$CONDENSED SPECTRUM=NO
##NPOINTS= 95
##XYDATA=(XY..XY) 1 
    41        325
    42         53
    43        379
    44         14
    45         11
    53          8
    54         14
    55         14
    56        300
    57        123
    58         14
    59         36
    60         53
    61          2
    62          8
    63         14
    66          2
    67         25
    68          5
    69         84
    70         14
    71         33
    72         22
    73         11
    74          2
    81         25
    82          5
    83         25
    84          5
    85          8
    86         64
    87          5
    88          5
    94          2
    95          8
    96          8
    97         14
    99          5
   100        999
   101        216
   102         53
   103         14
   109         14
   110          5
   111          5
   112          5
   113         42
   114        480
   115         36
   116         22
   123         14
   125          5
   126          5
   127        126
   128         73
   129          5
   137          5
   140         14
   141        146
   142        154
   143         14
   144          5
   154          5
   155        376
   156        146
   157         22
   158          2
   169        196
   170         53
   171          2
   183        123
   184         22
   185          2
   197        115
   198          8
   199          2
   211         73
   212         11
   225         53
   226          2
   239         42
   240          5
   253         33
   254          2
   267         30
   268          5
   281         19
   291         61
   292          2
   295         19
   308         42
   309         11
   323         28
   324        106
   325         16