##TITLE=Library Entry 83834
##JCAMP-DX=Revision 4.10 
##DATA TYPE=MASS SPECTRUM
##SAMPLE DESCRIPTION=W.Vetter ET AL. Helv.Chim.Acta, 61,1287(1978)
##NAMES=HP
##CAS NAME=2-Hexadecylaminopyridine
##MOLFORM=C21H38N2
##CAS REGISTRY NO=67373-97-1
##MP= -300
##BP= -300
##MW= 318
##$RETENTION INDEX=0
##$CONDENSED SPECTRUM=NO
##NPOINTS= 68
##XYDATA=(XY..XY) 1 
    41        194
    42         19
    43        245
    51         11
    55        121
    56         19
    57         73
    67         33
    68          5
    69         30
    70          5
    71         11
    78        152
    79         64
    80         42
    93         11
    94        676
    95        132
   107        999
   108        366
   109          8
   119         33
   120         11
   121        256
   122         33
   132          2
   133         14
   134          7
   135         50
   136         18
   137          1
   147          5
   148          1
   149         70
   150         14
   151          1
   152          2
   161          2
   162          2
   163         46
   164          9
   165          1
   176          1
   177         45
   178          8
   190          1
   191         26
   192          5
   205         23
   206          3
   219         15
   220          3
   233         14
   234          3
   240          1
   247         12
   248          2
   261         10
   262          2
   275         12
   276          2
   288          1
   289          8
   302         33
   303         10
   317         21
   318         55
   319         12