##TITLE=Library Entry 66169
##JCAMP-DX=Revision 4.10 
##DATA TYPE=MASS SPECTRUM
##SAMPLE DESCRIPTION=V.Zaikin,Topchiev Inst.Petrochem.Synth.,Moscow
##NAMES=HP
##CAS NAME=Dimethylthexylsilyl chloride
##MOLFORM=C8H19ClSi
##CAS REGISTRY NO=67373-56-2
##MP= -300
##BP= -300
##MW= 178
##$RETENTION INDEX=0
##$CONDENSED SPECTRUM=NO
##NPOINTS= 103
##XYDATA=(XY..XY) 1 
    26         11
    27        120
    28          5
    29         49
    30          2
    31          7
    36          4
    37          6
    38         16
    39        161
    40         28
    41        325
    42         79
    43        681
    44         34
    45         42
    46          4
    47         20
    48          2
    49          2
    50          5
    51         15
    52          6
    53         52
    54         14
    55        160
    56         42
    57        136
    58         38
    59         65
    60         14
    61         16
    62          2
    63        127
    64         18
    65        171
    66         21
    67         77
    68          9
    69        567
    70        318
    71         24
    72         13
    73        206
    74         23
    75        395
    76         31
    77         28
    78         55
    79         74
    80         27
    81         33
    82          5
    83         34
    84        996
    85        891
    86         55
    87          3
    89          2
    91          4
    92         24
    93        999
    94        108
    95        489
    96         34
    97         20
    99          8
   100         55
   101          9
   102          6
   103        120
   104         13
   105         32
   106          8
   107          9
   108          4
   109          2
   111          7
   113          9
   115          6
   117          4
   119         44
   120         18
   121         18
   122          7
   123          3
   127          3
   133          3
   134          6
   136          6
   137          4
   143         26
   144          4
   145          4
   161          3
   163         32
   164          5
   165         11
   177          3
   178         39
   179          4
   180         13
   181          2