##TITLE=Library Entry 9136
##JCAMP-DX=Revision 4.10 
##DATA TYPE=MASS SPECTRUM
##SAMPLE DESCRIPTION=NIST Mass Spectrometry Data Center
##NAMES=HP
##CAS NAME=1-Methylallyl acetate
##MOLFORM=C6H10O2
##CAS REGISTRY NO=6737-11-7
##MP= -300
##BP= -300
##MW= 114
##$RETENTION INDEX=761
##$CONDENSED SPECTRUM=NO
##NPOINTS= 42
##XYDATA=(XY..XY) 1 
    14          4
    15         28
    19          1
    25          1
    26         20
    27        110
    28         30
    29         87
    30          2
    31          3
    37          4
    38         10
    39        147
    40         10
    41         11
    42         30
    43        999
    44         27
    45         17
    49          3
    50         19
    51         24
    52         10
    53         71
    54        127
    55        274
    56         14
    57         75
    58          7
    61         46
    62          1
    68          1
    70          2
    71        132
    72        391
    73         19
    74          1
    85          2
    86          8
    87          6
    99         61
   100          3