##TITLE=Library Entry 114374
##JCAMP-DX=Revision 4.10 
##DATA TYPE=MASS SPECTRUM
##SAMPLE DESCRIPTION=HCACAV,61(3)1050(1978); A. GUGGISBERG ET AL
##NAMES=HP
##CAS NAME=Acetamide, N-[3-(2-oxoazacycloundec-1-yl)propyl]-
##MOLFORM=C15H28N2O2
##CAS REGISTRY NO=67370-81-4
##MP= -300
##BP= -300
##MW= 268
##$RETENTION INDEX=0
##$CONDENSED SPECTRUM=NO
##NPOINTS= 16
##XYDATA=(XY..XY) 1 
    56        400
    70        170
    84        100
   100        500
   115        150
   129        999
   140        200
   154        340
   168        250
   182        420
   196        440
   211        230
   225        200
   240        200
   253         40
   268        550