##TITLE=Library Entry 15520
##JCAMP-DX=Revision 4.10 
##DATA TYPE=MASS SPECTRUM
##SAMPLE DESCRIPTION=LAC, NIDDK, NIH, Bethesda, MD 20892
##NAMES=HP
##CAS NAME=Acetic acid, hydroxy[(1-oxo-2-propenyl)amino]-
##MOLFORM=C5H7NO4
##CAS REGISTRY NO=6737-24-2
##MP= -300
##BP= -300
##MW= 145
##$RETENTION INDEX=0
##$CONDENSED SPECTRUM=NO
##NPOINTS= 34
##XYDATA=(XY..XY) 1 
    41         13
    42         42
    43        102
    44        999
    45         96
    46         20
    47          4
    48         11
    49         10
    50          1
    51         10
    52         14
    53         23
    54         18
    55        244
    56         14
    57          4
    58         17
    59          5
    60         24
    64         14
    70         12
    71        180
    72        102
    73         14
    74          4
    75          9
    80         13
    84          9
    86          5
    88          3
    99         12
   100          4
   145          3