##TITLE=Library Entry 84578
##JCAMP-DX=Revision 4.10 
##DATA TYPE=MASS SPECTRUM
##SAMPLE DESCRIPTION=W.Vetter ET AL. Helv.Chim.Acta, 61,1287(1978)
##NAMES=HP
##CAS NAME=3-[(3,7,11,15-Tetramethylhexadecyl)amino]pyridine
##MOLFORM=C25H46N2
##CAS REGISTRY NO=67374-05-4
##MP= -300
##BP= -300
##MW= 374
##$RETENTION INDEX=0
##$CONDENSED SPECTRUM=NO
##NPOINTS= 61
##XYDATA=(XY..XY) 1 
    41         87
    42          8
    43        192
    55         79
    56         19
    57        112
    66         11
    69         31
    71         31
    73         11
    78         39
    79         14
    80         11
    81          8
    94        192
    95         19
   107        999
   108        138
   120         42
   121        124
   122         11
   133          8
   135         10
   148          4
   149         12
   150         19
   161          2
   163          8
   164          3
   177         12
   178         12
   191         32
   192          8
   193          2
   219         15
   220         19
   221          3
   233         26
   234          7
   247         10
   248         15
   259          1
   261         35
   262         10
   289         28
   290         17
   291          3
   303        410
   317         15
   318         11
   319          3
   331         17
   332          9
   333          2
   359         41
   360          8
   372          3
   373         31
   374        119
   375         33
   376          3