##TITLE=Library Entry 10921
##JCAMP-DX=Revision 4.10 
##DATA TYPE=MASS SPECTRUM
##SAMPLE DESCRIPTION=ORMSBG, 13(9)504(1978); H. DEMIAN ET AL
##NAMES=HP
##CAS NAME=Ethanone, 1-[4-(hydroxymethyl)-2-phenyl-5-thiazolyl]-
##MOLFORM=C12H11NO2S
##CAS REGISTRY NO=67387-02-4
##MP= -300
##BP= -300
##MW= 233
##$RETENTION INDEX=0
##$CONDENSED SPECTRUM=NO
##NPOINTS= 36
##XYDATA=(XY..XY) 1 
    43        999
    44        140
    45        100
    50         50
    51        140
    57         90
    58        150
    59        300
    69        100
    70        140
    71         70
    76         80
    77        320
    84         80
    86         50
    87        300
    88         60
   103        120
   104        450
   105        750
   106         50
   110         60
   121        220
   130         10
   162        140
   188         80
   190        310
   204        240
   215         50
   216         40
   217         40
   218         50
   232         40
   233        750
   234        100
   235         50