##TITLE=Library Entry 40848
##JCAMP-DX=Revision 4.10 
##DATA TYPE=MASS SPECTRUM
##SAMPLE DESCRIPTION=ATLAS OF MASS SPECTRA OF ORGANIC COMPOUNDS, V. A. KOPTY
UG, ED.
##NAMES=HP
##CAS NAME=Hydrazine, 1-ethyl-1-(2-methylpropyl)-
##MOLFORM=C6H16N2
##CAS REGISTRY NO=67398-35-0
##MP= -300
##BP= -300
##MW= 116
##$RETENTION INDEX=829
##$CONDENSED SPECTRUM=NO
##NPOINTS= 28
##XYDATA=(XY..XY) 1 
    27         51
    28         67
    29         83
    30         92
    31         26
    39         28
    41         61
    42         43
    43         43
    44         83
    45        266
    46          7
    54          5
    55         10
    56         64
    57         38
    58         20
    59         30
    70          3
    71          4
    72          4
    73        999
    74         48
    84          5
   101         14
   115          4
   116        142
   117         18