##TITLE=Library Entry 4721
##JCAMP-DX=Revision 4.10 
##DATA TYPE=MASS SPECTRUM
##SAMPLE DESCRIPTION=NIST Mass Spectrometry Data Center
##NAMES=HP
##CAS NAME=2-Oxetanone, 4-methylene-
##MOLFORM=C4H4O2
##CAS REGISTRY NO=674-82-8
##MP= -300
##BP= -300
##MW= 84
##$RETENTION INDEX=709
##$CONDENSED SPECTRUM=NO
##NPOINTS= 34
##XYDATA=(XY..XY) 1 
    14         24
    15          4
    16          1
    19          1
    24          4
    25         17
    26         68
    27         58
    28        104
    29         26
    30          1
    36         16
    37         70
    38         94
    39        303
    40        254
    41         49
    42        999
    43         57
    44         25
    45          5
    48          1
    49          3
    50          2
    52          4
    53         12
    54          1
    56        560
    57         20
    58          2
    68          1
    69          8
    84         59
    85          3