##TITLE=Library Entry 8913
##JCAMP-DX=Revision 4.10 
##DATA TYPE=MASS SPECTRUM
##SAMPLE DESCRIPTION=Japan AIST/NIMC Database- Spectrum MS-NW-5353
##NAMES=HP
##CAS NAME=dl-Mevalonic acid lactone
##MOLFORM=C6H10O3
##CAS REGISTRY NO=674-26-0
##MP= -300
##BP= -300
##MW= 130
##$RETENTION INDEX=0
##$CONDENSED SPECTRUM=NO
##NPOINTS= 76
##XYDATA=(XY..XY) 1 
    13          2
    14         15
    15         56
    16          2
    17          3
    18         10
    19          1
    25          2
    26         17
    27         95
    28         49
    29         55
    30          7
    31         51
    32          8
    35          1
    36          1
    37          6
    38         13
    39         84
    40         22
    41        110
    42        138
    43        999
    44         31
    45         27
    46          1
    49          2
    50          8
    51          9
    52          4
    53        113
    54         30
    55         40
    56         20
    57         46
    58        257
    59         17
    60         14
    61         51
    62          2
    63          1
    65          2
    66          2
    67         10
    68          5
    69         24
    70         37
    71        629
    72         35
    73         30
    74          2
    79          1
    81          1
    82         61
    83          7
    84         22
    85         55
    86          5
    87         33
    88          9
    89         10
    91          1
    92          1
    97          1
   101          1
   102         34
   103         55
   104          3
   111          3
   112         31
   113          4
   115         18
   116          1
   130          4
   131          2