##TITLE=Library Entry 49645
##JCAMP-DX=Revision 4.10 
##DATA TYPE=MASS SPECTRUM
##SAMPLE DESCRIPTION=LAC, NIDDK, NIH, Bethesda, MD 20892
##NAMES=HP
##CAS NAME=4(H)-Pyridine, N-acetyl-
##MOLFORM=C7H9NO
##CAS REGISTRY NO=67402-83-9
##MP= -300
##BP= -300
##MW= 123
##$RETENTION INDEX=1038
##$CONDENSED SPECTRUM=NO
##NPOINTS= 54
##XYDATA=(XY..XY) 1 
    41         19
    42         34
    43        183
    47          2
    48          3
    49          3
    50         36
    51         50
    52         54
    53         85
    54         13
    56          6
    57          5
    60          4
    61          2
    63         13
    65          7
    66          9
    67          4
    68          5
    70          8
    73          6
    75          5
    76          2
    77          4
    78         64
    79         48
    80        999
    81        202
    82         15
    83         10
    84          7
    85          6
    86          6
    93          5
    97          3
    98          6
    99          7
   101          3
   104          3
   106          2
   107          5
   108          4
   109          2
   110          7
   117          6
   118          5
   119          7
   120          2
   122         88
   123        410
   124         40
   125         12
   126          3