##TITLE=Library Entry 70961
##JCAMP-DX=Revision 4.10 
##DATA TYPE=MASS SPECTRUM
##SAMPLE DESCRIPTION=Chemical Concepts
##NAMES=HP
##CAS NAME=10-Hexyl-oxecan-2-one
##MOLFORM=C15H28O2
##CAS REGISTRY NO=67401-20-1
##MP= -300
##BP= -300
##MW= 240
##$RETENTION INDEX=0
##$CONDENSED SPECTRUM=NO
##NPOINTS= 186
##XYDATA=(XY..XY) 1 
    26          4
    27        108
    28         12
    29        206
    30          6
    31         12
    36          1
    37          1
    38          2
    39         90
    40         22
    41        434
    42        143
    43        277
    44         33
    45         19
    46          1
    47          0
    48          1
    49          2
    50          1
    51          5
    52          3
    53         46
    54         77
    55        534
    56        162
    57        134
    58         29
    59         28
    60         17
    61          3
    62          1
    63          2
    64          1
    65          9
    66          8
    67        203
    68        120
    69        269
    70        146
    71         69
    72          9
    73         31
    74          3
    75          2
    76          2
    77         11
    78          4
    79         37
    80         27
    81         96
    82        243
    83        255
    84        329
    85         56
    86          7
    87         16
    88          3
    89          1
    91         12
    92          4
    93         44
    94         26
    95         75
    96         71
    97        232
    98        999
    99         94
   100         21
   101         24
   102          5
   103          1
   104          1
   105          5
   106          2
   107         11
   108         36
   109        202
   110         67
   111        148
   112         51
   113         36
   114         39
   115         18
   116          5
   117          1
   118          1
   119         26
   120          5
   121          9
   122         11
   123         37
   124         44
   125         39
   126        133
   127        399
   128         53
   129         18
   130          4
   131          2
   132          1
   133         11
   134         19
   135         11
   136          6
   137         55
   138         46
   139         26
   140         10
   141         18
   142          7
   143          7
   144          5
   145          1
   147         10
   148         10
   149          7
   150          3
   151         27
   152         34
   153         18
   154          5
   155        391
   156         50
   157         10
   158          4
   159          1
   161          7
   162          3
   163          2
   164          1
   165         22
   166         10
   167          6
   168          5
   169          6
   170         11
   171          5
   172          2
   173          1
   174          1
   175          5
   176          3
   177          1
   178         50
   179         22
   180         42
   181         11
   182          1
   183          5
   184          2
   185          1
   186          0
   189          1
   190          0
   191          1
   192          1
   193         13
   194          8
   195          1
   196          0
   197         10
   198          3
   199          0
   202          1
   203          2
   204         25
   205          6
   206          1
   207          2
   208          0
   211          4
   212          4
   213          1
   221          4
   222        214
   223         42
   224          4
   225          1
   238          1
   239          3
   240         31
   241         23
   242          4
   243          1