##TITLE=Library Entry 69140
##JCAMP-DX=Revision 4.10 
##DATA TYPE=MASS SPECTRUM
##SAMPLE DESCRIPTION=Japan AIST/NIMC Database- Spectrum MS-IW-7762
##NAMES=HP
##CAS NAME=N-Nitro-N',N'-tetramethyleneguanidine
##MOLFORM=C5H10N4O2
##CAS REGISTRY NO=67405-01-0
##MP= -300
##BP= -300
##MW= 158
##$RETENTION INDEX=0
##$CONDENSED SPECTRUM=NO
##NPOINTS= 90
##XYDATA=(XY..XY) 1 
    12          1
    13          2
    14         12
    15         55
    16          6
    17         56
    18        294
    19          1
    25          3
    26         43
    27        215
    28        517
    29         45
    30        104
    31          1
    32          4
    33          5
    34          2
    36          1
    37         12
    38         27
    39        184
    40        101
    41        721
    42        996
    43        636
    44        797
    45         57
    46         21
    47          2
    48          2
    49          1
    50          6
    51         12
    52         12
    53        138
    54         59
    55        237
    56         42
    57          7
    58          2
    59          1
    62          2
    63          1
    64          4
    65          4
    66         23
    67        127
    68        621
    69        484
    70        770
    71        104
    72          6
    73          2
    77          1
    78         67
    79          6
    80          2
    81          9
    82          9
    83          8
    84          5
    85         20
    86         40
    87          3
    88          1
    92          4
    93         23
    94         10
    95        513
    96        999
    97        101
    98         27
    99          8
   100          1
   109          1
   110          5
   111         15
   112        420
   113         38
   114         87
   115          7
   126          2
   137          1
   141          1
   142          2
   156          1
   158        197
   159         32
   160          2