##TITLE=Library Entry 9715
##JCAMP-DX=Revision 4.10 
##DATA TYPE=MASS SPECTRUM
##SAMPLE DESCRIPTION=JAFCAU, 26(5)1173(1978); R. SEIFERT, ET AL
##NAMES=HP
##CAS NAME=1,3-Dithiolo[4,5-b]furan, tetrahydro-3a-methyl-
##MOLFORM=C6H10OS2
##CAS REGISTRY NO=67411-25-0
##MP= -300
##BP= -300
##MW= 162
##$RETENTION INDEX=1245
##$CONDENSED SPECTRUM=NO
##NPOINTS= 23
##XYDATA=(XY..XY) 1 
    39         90
    41         60
    43        999
    44         40
    45        140
    46         50
    47         30
    53         40
    55         70
    58         20
    59         30
    69         30
    71         40
    73         40
    74         20
    83        120
    84        340
    99         10
   116         15
   117         10
   162         40
   163          4
   164          4