##TITLE=Library Entry 23788
##JCAMP-DX=Revision 4.10 
##DATA TYPE=MASS SPECTRUM
##SAMPLE DESCRIPTION=D. GUPTA, DEP. CHEM., GOV. COLL., AJMER, INDIA
##NAMES=HP
##CAS NAME=Methyl isobutyl disulphide
##MOLFORM=C5H12S2
##CAS REGISTRY NO=67421-83-4
##MP= -300
##BP= -300
##MW= 136
##$RETENTION INDEX=995
##$CONDENSED SPECTRUM=NO
##NPOINTS= 31
##XYDATA=(XY..XY) 1 
    27        190
    29        560
    32        160
    38         40
    39        220
    40         50
    41        830
    42         80
    43        140
    44        220
    45        220
    46        100
    47        140
    48         50
    53         30
    55        120
    56        160
    57        999
    58         40
    61         30
    64         60
    73         50
    79        120
    80        550
    82         50
    87         40
    93         50
    94         60
   136        570
   137         40
   138         70