##TITLE=Library Entry 66037
##JCAMP-DX=Revision 4.10 
##DATA TYPE=MASS SPECTRUM
##SAMPLE DESCRIPTION=JACSAT, 100(11)3426(1978); B. M. TROST
##NAMES=HP
##CAS NAME=(E,E,E)-(5-Phenylsulfonylgeranyl)geraniol
##MOLFORM=C26H38O3S
##CAS REGISTRY NO=67428-43-7
##MP= -300
##BP= -300
##MW= 430
##$RETENTION INDEX=0
##$CONDENSED SPECTRUM=NO
##NPOINTS= 15
##XYDATA=(XY..XY) 1 
    55        480
    75        750
    77        250
    79        280
    81        650
    91        210
    93        999
    95        310
   105        200
   107        410
   109        600
   121        310
   135        350
   203        100
   271         90