##TITLE=Library Entry 65132
##JCAMP-DX=Revision 4.10 
##DATA TYPE=MASS SPECTRUM
##SAMPLE DESCRIPTION=Japan AIST/NIMC Database- Spectrum MS-NW-5308
##NAMES=HP
##CAS NAME=Benzene, undecyl-
##MOLFORM=C17H28
##CAS REGISTRY NO=6742-54-7
##MP= -300
##BP= -300
##MW= 232
##$RETENTION INDEX=1783
##$CONDENSED SPECTRUM=NO
##NPOINTS= 91
##XYDATA=(XY..XY) 1 
    26          1
    27         36
    28          3
    29         68
    30          1
    39         31
    40          4
    41        116
    42         18
    43        182
    44          7
    50          3
    51         12
    52          4
    53          8
    54          4
    55         51
    56         18
    57        118
    58          5
    62          1
    63          6
    64          2
    65         44
    66          4
    67          6
    68          3
    69         17
    70         11
    71         39
    72          2
    74          1
    75          1
    76          1
    77         25
    78         42
    79         26
    80          7
    81          3
    82          3
    83          9
    84          7
    85         28
    86          2
    89          7
    90          5
    91        749
    92        999
    93         80
    94          9
    95          2
    96          2
    97          5
    98          3
    99          2
   102          2
   103         13
   104         36
   105        105
   106         28
   107          4
   110          1
   111          2
   112          1
   115          7
   116          3
   117         14
   118          6
   119         26
   120          8
   121          1
   128          1
   129          1
   131          2
   132          2
   133         61
   134         16
   135          2
   138          1
   140          1
   147          9
   148          4
   161          3
   166          1
   175          2
   178          2
   189          3
   190          1
   232        162
   233         30
   234          3