##TITLE=Library Entry 17236
##JCAMP-DX=Revision 4.10 
##DATA TYPE=MASS SPECTRUM
##SAMPLE DESCRIPTION=Chemical Concepts
##NAMES=HP
##CAS NAME=1-Hexyne, 6-(1-ethoxyethoxy)-
##MOLFORM=C10H18O2
##CAS REGISTRY NO=67448-61-7
##MP= -300
##BP= -300
##MW= 170
##$RETENTION INDEX=0
##$CONDENSED SPECTRUM=NO
##NPOINTS= 104
##XYDATA=(XY..XY) 1 
    25          4
    26         48
    27        337
    28         53
    29        214
    30         13
    31        169
    36          1
    37          8
    38         22
    39        235
    40         52
    41        366
    42         57
    43        306
    44        216
    45        999
    46         50
    47         33
    49          5
    50         51
    51        102
    52        101
    53        500
    54         76
    55        139
    56         65
    57         32
    58          8
    59         13
    60          3
    61         26
    62         11
    63         24
    64          7
    65        102
    66         58
    67         86
    68         25
    69         98
    70         24
    71         17
    72        111
    73        983
    74         57
    75         32
    76          4
    77        123
    78         29
    79        493
    80        163
    81        491
    82         59
    83        164
    84         12
    85         15
    86          4
    87          1
    89         11
    90          1
    91          8
    92          3
    93          8
    94          5
    95         44
    96         73
    97         54
    98         44
    99         37
   100          4
   101          7
   105          4
   106          3
   107          6
   108          3
   109         59
   110          6
   111         28
   112          4
   113         12
   114          6
   115          4
   117          3
   119          2
   121          3
   122          2
   123          6
   124         84
   125        222
   126         25
   127         26
   128          3
   133          1
   135          2
   136          4
   137          1
   139         14
   140          2
   141          7
   142          3
   155        189
   156         21
   157          3
   169          3