##TITLE=Library Entry 9490
##JCAMP-DX=Revision 4.10 
##DATA TYPE=MASS SPECTRUM
##SAMPLE DESCRIPTION=Japan AIST/NIMC Database- Spectrum MS-IW-2306
##NAMES=HP
##CAS NAME=cis-5-Decen-1-yl acetate
##MOLFORM=C12H22O2
##CAS REGISTRY NO=67446-07-5
##MP= -300
##BP= -300
##MW= 198
##$RETENTION INDEX=1591
##$CONDENSED SPECTRUM=NO
##NPOINTS= 137
##XYDATA=(XY..XY) 1 
    14          4
    15         40
    16          1
    26          9
    27        137
    28        109
    29        178
    30          6
    31         32
    32         30
    37          1
    38          5
    39        145
    40         32
    41        537
    42        121
    43        999
    44         81
    45         31
    46          1
    47          1
    50          4
    51         13
    52          9
    53        100
    54        652
    55        809
    56        121
    57        173
    58         41
    59         12
    60         25
    61         89
    62          3
    63          3
    64          1
    65         32
    66         78
    67        844
    68        718
    69        261
    70         76
    71        176
    72         18
    73         37
    74          3
    75          3
    76          1
    77         34
    78          9
    79        131
    80         60
    81        931
    82        572
    83        174
    84         68
    85        155
    86         26
    87         93
    88          7
    89          2
    91         23
    92          7
    93         58
    94         29
    95        655
    96        289
    97        346
    98         49
    99         35
   100          8
   101         50
   102          5
   103          3
   104          2
   105          7
   106          2
   107         21
   108         11
   109        198
   110        571
   111        219
   112         42
   113        138
   114         12
   115          8
   116          2
   117          2
   118          1
   119          3
   120          1
   121         28
   122          6
   123         94
   124         23
   125         22
   126         32
   127         88
   128          9
   129         12
   130          2
   131          1
   133          2
   134          3
   135          4
   136         12
   137         30
   138        268
   139         37
   140          4
   141          7
   142          3
   143          3
   144          1
   145          4
   147          1
   148          2
   149          5
   150          8
   151          6
   152         79
   153         16
   154          5
   155          5
   156          1
   157          2
   165          1
   166          2
   167          1
   168          1
   169          9
   170         12
   171          4
   172          1
   183          1
   194          1
   196          1