##TITLE=Library Entry 28842
##JCAMP-DX=Revision 4.10 
##DATA TYPE=MASS SPECTRUM
##SAMPLE DESCRIPTION=Chemical Concepts
##NAMES=HP
##CAS NAME=4-Pentenamide, N,N-diethyl-
##MOLFORM=C9H17NO
##CAS REGISTRY NO=67449-88-1
##MP= -300
##BP= -300
##MW= 155
##$RETENTION INDEX=0
##$CONDENSED SPECTRUM=NO
##NPOINTS= 106
##XYDATA=(XY..XY) 1 
    25          2
    26         26
    27        183
    28         87
    29        268
    30        109
    31          1
    37          1
    38          5
    39         85
    40         11
    41         70
    42        104
    43         28
    44        136
    45          6
    46          4
    47          0
    49          1
    50          8
    51         13
    52          7
    53         50
    54         41
    55        450
    56         87
    57         23
    58        999
    59         38
    60          1
    63          0
    64          1
    65          2
    66          1
    67          5
    68         11
    69         15
    70         84
    71         23
    72        415
    73         54
    74         78
    75          3
    76          1
    77          0
    78          1
    79          2
    80          2
    81         13
    82         11
    83         83
    84         33
    85         25
    86         31
    87          9
    88          7
    90          0
    91          4
    92          2
    93          0
    94          1
    95          4
    96          4
    97          1
    98         18
    99          5
   100        457
   101         31
   102          2
   103          0
   104          2
   106          0
   107          1
   108          1
   109          1
   110          2
   111          3
   112         97
   113         17
   114         36
   115          8
   116          1
   117          0
   118          1
   119          1
   120          3
   122          1
   124          2
   125          1
   126        218
   127         59
   128         18
   129          1
   135          1
   138          1
   140        180
   141         18
   142          1
   143          0
   147          1
   152          0
   153          0
   154         23
   155        188
   156         32
   157          3