##TITLE=Library Entry 15061
##JCAMP-DX=Revision 4.10 
##DATA TYPE=MASS SPECTRUM
##SAMPLE DESCRIPTION=Chemical Concepts
##NAMES=HP
##CAS NAME=1,4-Dioxa-7,18-diazacycloeicosane-6,19-dione, 7,18-dihexyl-
##MOLFORM=C28H54N2O4
##CAS REGISTRY NO=67456-25-1
##MP= -300
##BP= -300
##MW= 482
##$RETENTION INDEX=0
##$CONDENSED SPECTRUM=NO
##NPOINTS= 422
##XYDATA=(XY..XY) 1 
    26          5
    27         44
    28         67
    29        146
    30        200
    31         34
    38          4
    39         29
    40          7
    41        347
    42        258
    43        999
    44        495
    45         93
    46          7
    49          1
    50          2
    51          4
    52          2
    53         18
    54         28
    55        442
    56        198
    57        276
    58        194
    59         74
    60         32
    61          7
    62          1
    63          0
    64          1
    65          9
    66          4
    67         74
    68         39
    69        199
    70        162
    71         82
    72         95
    73         69
    74         18
    75         14
    76         10
    77          9
    78          5
    79         16
    80         11
    81         68
    82         41
    83        125
    84        127
    85        110
    86         62
    87         71
    88         25
    89         13
    90          1
    91         34
    92          5
    93         14
    94         12
    95         51
    96         36
    97         54
    98        108
    99         49
   100        111
   101         39
   102         40
   103         12
   104          5
   105          8
   106         14
   107          9
   108          6
   109         20
   110         23
   111         27
   112        203
   113         52
   114        242
   115         40
   116         25
   117          8
   118          3
   119          6
   120          6
   121         10
   122          6
   123         13
   124         16
   125         17
   126        176
   127         61
   128        125
   129         28
   130         35
   131          8
   132          2
   133          3
   134          6
   135          8
   136         10
   137          9
   138         15
   139         11
   140        168
   141         42
   142        129
   143         23
   144         21
   146          4
   147          6
   148          9
   149         72
   150         10
   151          4
   152         20
   153         10
   154        188
   155         50
   156         89
   157         18
   158         35
   159          8
   160         11
   161          4
   162          3
   163          6
   164          5
   165          5
   166         21
   167         11
   168        105
   169         43
   170         80
   171         17
   172         32
   173          6
   174          2
   175          2
   176          4
   177         12
   178          4
   179          3
   180         15
   181         10
   182         92
   183         58
   184         99
   185         26
   186         73
   187         15
   188          7
   189          1
   190          1
   191          4
   192          7
   193          2
   194         16
   195          9
   196         64
   197         54
   198         81
   199         21
   200         37
   201         10
   202          4
   203          2
   204          5
   205          4
   206          8
   207          3
   208         11
   209         12
   210         49
   211         56
   212         71
   213         17
   214         18
   215          5
   216          7
   217          5
   218          4
   219          2
   220          1
   221          2
   222          8
   223         10
   224         99
   225         42
   226         88
   227         24
   228         23
   229          7
   230          6
   231          3
   232          1
   233          1
   234          2
   235          3
   236         15
   237         10
   238         84
   239         36
   240        143
   241         41
   242         31
   243          9
   244          8
   245          3
   246          0
   247          0
   248          1
   249          1
   250          7
   251          9
   252         54
   253         38
   254        138
   255         42
   256         40
   257         12
   258         10
   259          2
   260          1
   261          1
   262          2
   263          1
   264         12
   265         14
   266        114
   267         83
   268        131
   269         52
   270         41
   271         14
   272         12
   273          5
   274          1
   275          2
   276          1
   277          2
   278          5
   279         20
   280         39
   281        104
   282        102
   283         51
   284         82
   285         26
   286         20
   287          8
   288          2
   289          1
   290          4
   291          2
   292          2
   293         12
   294         11
   295        106
   296        134
   297         69
   298         83
   299         30
   300         32
   301         11
   302          3
   305          3
   306          3
   307         15
   308          9
   309        110
   310        148
   311         89
   312         63
   313         51
   314         47
   315         14
   316          5
   317          1
   318          1
   319          2
   320          2
   321         10
   322         14
   323         70
   324         58
   325        133
   326         79
   327         80
   328         97
   329         26
   330          5
   331          2
   332          2
   333          2
   334          1
   335         10
   336          7
   337        113
   338         39
   339        187
   340        112
   341         85
   342         88
   343         27
   344         10
   345          4
   346          3
   347          4
   348          5
   349         15
   350          7
   351         47
   352         18
   353        406
   354        129
   355        192
   356         51
   357         18
   358          5
   359          4
   360          1
   361          2
   362          2
   363         14
   364          6
   365         92
   366         44
   367        195
   368         61
   369        217
   370         60
   371         33
   372         10
   373          4
   374          3
   375          6
   376          6
   377         22
   378         12
   379        134
   380         48
   381        119
   382         41
   383        513
   384        142
   385        102
   386         22
   387          4
   388          1
   389          2
   390          3
   391          5
   392          4
   393         68
   394         28
   395        589
   396        184
   397        454
   398        149
   399         52
   400         13
   401          7
   402          3
   403          1
   404          2
   405          4
   406          5
   407         93
   408         35
   409         88
   410         31
   411        287
   412         93
   413         17
   414          3
   418          1
   419          3
   420          4
   421         26
   422         18
   423        476
   424        160
   425        723
   426        215
   427         42
   428          8
   429          4
   434          3
   436          9
   437        256
   438         82
   439        756
   440        212
   441         51
   442          8
   443          2
   449          3
   450          3
   451         34
   452         53
   453        566
   454        241
   455         52
   456          8
   457          1
   458          1
   463          4
   464         14
   465          6
   466          3
   467         55
   468         18
   469          3
   480          6
   481        138
   482        814
   483        274
   484         55
   485          7