##TITLE=Library Entry 14880
##JCAMP-DX=Revision 4.10 
##DATA TYPE=MASS SPECTRUM
##SAMPLE DESCRIPTION=Chemical Concepts
##NAMES=HP
##CAS NAME=1,4-Dioxa-7,10-diazacyclododecane-6,11-dione, 7,10-dihexyl-
##MOLFORM=C20H38N2O4
##CAS REGISTRY NO=67456-23-9
##MP= -300
##BP= -300
##MW= 370
##$RETENTION INDEX=0
##$CONDENSED SPECTRUM=NO
##NPOINTS= 258
##XYDATA=(XY..XY) 1 
    26          6
    27         89
    28        249
    29        261
    30        225
    31         65
    35         13
    39         42
    40          7
    41        406
    42        613
    43        999
    44        607
    45        145
    46          5
    47         51
    48         22
    49         15
    50          9
    51          6
    52          2
    53         15
    54         28
    55        274
    56        410
    57        352
    58        277
    59         70
    60         42
    61          9
    66          2
    67         20
    68         31
    69        136
    70        172
    71         97
    72        114
    73         72
    74         26
    75         13
    76          8
    77          7
    79          5
    80          4
    81         15
    82         41
    83        172
    84        165
    85        184
    86         99
    87         81
    88         46
    89         22
    93          4
    94          4
    95         12
    96         35
    97         44
    98        124
    99        148
   100        253
   101         80
   102         67
   103         10
   104          7
   105          5
   107          4
   108          3
   109          8
   110         33
   111         58
   112        360
   113        156
   114        388
   115         77
   116         54
   117          9
   118          5
   119          5
   120          7
   121          8
   122          6
   123          6
   124         46
   125        167
   126        597
   127        159
   128        327
   129         75
   130        242
   131         31
   132          7
   133          4
   134          7
   135          3
   136          4
   137          5
   138         24
   139         75
   140        153
   141         81
   142        239
   143         51
   144         34
   145          8
   146         30
   147          5
   148          5
   149        101
   150         10
   151          3
   152         34
   153         38
   154        539
   155        128
   156        199
   157         52
   158        218
   159         48
   160         26
   161          7
   162          4
   163          3
   164          3
   165          4
   166          9
   167        146
   168        116
   169        121
   170        167
   171         66
   172        158
   173         22
   174          5
   179          4
   180          5
   181         13
   182         28
   183        475
   184        432
   185        115
   186        304
   187         64
   188         37
   189          5
   193          2
   194          4
   195          8
   196         22
   197         56
   198         70
   199         43
   200        200
   201         42
   202         27
   203          8
   204        133
   205         21
   206          3
   207          2
   208          3
   209          8
   210         22
   211         47
   212         88
   213         65
   214         49
   215         18
   216         80
   217         27
   218         75
   219         11
   220          2
   223         14
   224          5
   225         65
   226         21
   227         96
   228         78
   229         46
   230        306
   231         53
   232         53
   233          9
   234          2
   235          3
   236          5
   237         12
   238          7
   239         25
   240          8
   241        129
   242         65
   243         33
   244         22
   245          9
   246          2
   251          9
   252          4
   253        121
   254         64
   255        178
   256         35
   257         23
   258         14
   259          7
   265          6
   266         12
   267        138
   268         39
   269         34
   270         24
   271         90
   272         18
   273         30
   274          6
   281         80
   282         20
   283        403
   284         86
   285         62
   286         26
   287         25
   295         39
   296          9
   297         20
   298          5
   299        181
   300        205
   301         35
   302          5
   309          5
   310         16
   311        273
   312         74
   313        118
   314         25
   315          4
   325         31
   326          9
   327         67
   328         16
   329          4
   339          6
   340         75
   341         96
   342         87
   343         15
   352          4
   353          0
   354          2
   355         23
   356          5
   369         44
   370        643
   371        164
   372         27
   373          4