##TITLE=Library Entry 62560
##JCAMP-DX=Revision 4.10 
##DATA TYPE=MASS SPECTRUM
##SAMPLE DESCRIPTION=A.A.Kutin, Moscow, Russia
##NAMES=HP
##CAS NAME=1-Propanol, 2,3-epoxy-, p-toluenesulfonate
##MOLFORM=C10H12O4S
##CAS REGISTRY NO=6746-81-2
##MP= -300
##BP= -300
##MW= 228
##$RETENTION INDEX=0
##$CONDENSED SPECTRUM=NO
##NPOINTS= 105
##XYDATA=(XY..XY) 1 
    37          1
    38          8
    39         85
    40          6
    41         23
    42         10
    43         23
    44          0
    45         32
    48          1
    50         19
    51         38
    52         11
    53         10
    54          0
    55         10
    56         31
    57         17
    58          1
    62         16
    63         54
    64         25
    65        259
    66         17
    67          7
    68          0
    69          1
    70          0
    71          6
    72          3
    73         13
    74          5
    75          4
    76          4
    77         45
    78          6
    79         18
    80          9
    81          3
    82          1
    85          1
    86          3
    87          3
    89         79
    91        999
    92        149
    93         12
    94          1
    95          2
   102          0
   103          3
   104          1
   105         26
   106          1
   107         49
   108         46
   109         32
   110          3
   111          6
   112          0
   115          0
   116          0
   117          0
   118          0
   119          5
   120          0
   121          3
   122          2
   123          0
   124          1
   131          0
   132          0
   133          2
   134          1
   135          0
   136          0
   137          0
   139         95
   140         10
   141          4
   145          0
   147          0
   148          1
   151         22
   152          3
   155        656
   156         69
   157         40
   158          3
   159          0
   169          0
   170          3
   172        138
   173         97
   174         15
   175          5
   176          0
   181          0
   185          1
   193          0
   226          0
   228        146
   229         18
   230          8
   231          1