##TITLE=Library Entry 97577
##JCAMP-DX=Revision 4.10 
##DATA TYPE=MASS SPECTRUM
##SAMPLE DESCRIPTION=Div. of Experiment Therapeutics WRAIR, WRAMC, Washingto
n DC 20307
##NAMES=HP
##CAS NAME=2-Nitro-4,4'-dicyanostilbene
##MOLFORM=C16H9N3O2
##CAS REGISTRY NO=67466-65-3
##MP= -300
##BP= -300
##MW= 275
##$RETENTION INDEX=0
##$CONDENSED SPECTRUM=NO
##NPOINTS= 122
##XYDATA=(XY..XY) 1 
    41         18
    43          5
    45         11
    49         13
    50         86
    51         99
    52         40
    53          3
    61         18
    62         84
    63        101
    64         52
    65         49
    69         15
    74         61
    75        105
    76         81
    77         29
    81          9
    82         13
    86         27
    87        118
    88         99
    89        146
    90         36
    94          3
    95         10
    98         17
    99         33
   100         54
   101         95
   102        163
   103         45
   104          3
   110          3
   111         13
   112         15
   113         20
   114         67
   115         65
   116        480
   117        999
   118         80
   119         17
   122          5
   123         24
   124         23
   125         27
   126         23
   127         51
   129        433
   130        518
   131         54
   132          6
   135          4
   136          4
   137         17
   138         24
   139          8
   140         25
   141          3
   142          3
   143          5
   144        621
   145         88
   146          6
   147         16
   148          4
   149         25
   150         32
   151         32
   152         11
   153          4
   155         20
   159         33
   162          4
   163         14
   164         25
   165          4
   173         14
   174         54
   175        156
   176        183
   177        102
   178         20
   179          6
   186          4
   187          7
   188         61
   189         55
   190         84
   191         33
   192          4
   199         33
   200         78
   201        179
   202        104
   203         47
   204          7
   205          6
   213          3
   215         66
   216         19
   217         14
   218          3
   226         30
   227         44
   228         77
   229         85
   230        119
   231         22
   243          3
   246         38
   247          3
   256          4
   258        210
   259         36
   274         40
   275        496
   276        111
   277         32
   278          3