##TITLE=Library Entry 53949
##JCAMP-DX=Revision 4.10 
##DATA TYPE=MASS SPECTRUM
##SAMPLE DESCRIPTION=HCACAV, 61(4)1342(1978); U. KRAMER ET AL
##NAMES=HP
##CAS NAME=Azacyclotridecan-2-one, 1-[3-[[3-[(3-aminopropyl)amino]propyl]ami
no]propyl]-
##MOLFORM=C21H44N4O
##CAS REGISTRY NO=67473-75-0
##MP= -300
##BP= -300
##MW= 368
##$RETENTION INDEX=0
##$CONDENSED SPECTRUM=NO
##NPOINTS= 22
##XYDATA=(XY..XY) 1 
    70        900
    84        999
    98        520
   112        360
   127        250
   141        170
   154        140
   158        220
   168        150
   182        150
   198        450
   210        350
   224        350
   238        900
   255        300
   267        650
   281        240
   294         50
   311         20
   324         40
   368         70
   369         20