##TITLE=Library Entry 11994
##JCAMP-DX=Revision 4.10 
##DATA TYPE=MASS SPECTRUM
##SAMPLE DESCRIPTION=Tox21 Consortium/NIST Mass Spectrometry Data Center, 20
12
##NAMES=HP
##CAS NAME=N-(3-Oxotetrahydrothiophen-2-yl)acetamide
##MOLFORM=C6H9NO2S
##CAS REGISTRY NO=674786-06-2
##MP= -300
##BP= -300
##MW= 159
##$RETENTION INDEX=0
##$CONDENSED SPECTRUM=NO
##NPOINTS= 87
##XYDATA=(XY..XY) 1 
    14          4
    15         31
    16          1
    18          3
    25          1
    26         13
    27         45
    28        148
    29         22
    30         28
    31          1
    32          6
    33          4
    34          3
    35          5
    36          1
    37          3
    38          7
    39         31
    40         10
    41         37
    42         92
    43        999
    44         63
    45         65
    46         25
    47         17
    48          1
    49          1
    50          1
    51          3
    52         11
    53          4
    54         29
    55         24
    56        543
    57        126
    58         25
    59         27
    60         29
    61        256
    62          9
    63         12
    67          1
    68          3
    69          5
    70          4
    71         11
    72         16
    73          9
    74          2
    75          7
    76          2
    77          1
    78          1
    81          1
    82          2
    83          1
    84          6
    85         22
    86          8
    88        248
    89         89
    90         15
    91          4
    98         45
    99         12
   100          3
   101          3
   103        143
   104          7
   105          7
   112         11
   113          1
   115          4
   116          8
   117          7
   118          1
   129          1
   131        803
   132         54
   133         39
   134          2
   141          1
   157          1
   159         10
   160          1