##TITLE=Library Entry 41089
##JCAMP-DX=Revision 4.10 
##DATA TYPE=MASS SPECTRUM
##SAMPLE DESCRIPTION=Japan AIST/NIMC Database- Spectrum MS-IW-3904
##NAMES=HP
##CAS NAME=.beta.-D-Arabinopyranose
##MOLFORM=C5H10O5
##CAS REGISTRY NO=6748-95-4
##MP= -300
##BP= -300
##MW= 150
##$RETENTION INDEX=0
##$CONDENSED SPECTRUM=NO
##NPOINTS= 78
##XYDATA=(XY..XY) 1 
    12          1
    13          3
    14         15
    15         84
    16          2
    17          9
    18         40
    19          5
    25          2
    26         14
    27         57
    28         49
    29        208
    30         44
    31        356
    32         68
    33         12
    37          2
    38          3
    39         21
    40         16
    41         35
    42        167
    43        354
    44        128
    45        106
    46          4
    47         39
    49          8
    50          1
    51          1
    53          5
    54         12
    55         69
    56         65
    57        166
    58         45
    59         13
    60        614
    61        320
    62         15
    63          1
    68         27
    69         24
    70          3
    71        193
    72        110
    73        999
    74         89
    75          9
    76          2
    77         10
    79          1
    83          9
    84          3
    85         28
    86         79
    87         12
    88          3
    89         20
    90         24
    91         47
    92          2
    95          1
    96          1
    97          1
    98          1
   101         69
   102         24
   103         29
   104          4
   114         13
   115          3
   119         60
   120          3
   121          1
   132          2
   133          3