##TITLE=Library Entry 22274
##JCAMP-DX=Revision 4.10 
##DATA TYPE=MASS SPECTRUM
##SAMPLE DESCRIPTION=Exported from NIST MS Search
##NAMES=HP
##CAS NAME=Androst-5-ene-3.beta.,17.beta.-diamine
##MOLFORM=C19H32N2
##CAS REGISTRY NO=6748-15-8
##MP= -300
##BP= -300
##MW= 288
##$RETENTION INDEX=0
##$CONDENSED SPECTRUM=NO
##NPOINTS= 115
##XYDATA=(XY..XY) 1 
    41        180
    42         80
    43        300
    44        600
    45         70
    51         10
    52         10
    53         70
    54         10
    55        130
    56        999
    57        180
    58         20
    59         10
    60         20
    61        100
    64         20
    65         10
    66         90
    67         30
    68         30
    69        100
    70         20
    71         10
    75        100
    76         20
    77        100
    78         20
    79        100
    80         50
    81         20
    82         30
    89        150
    90         20
    91         80
    92         60
    93         60
    94         60
    95         10
    96         10
   100         50
   103         10
   104         10
   105        120
   106         40
   107         50
   108         30
   109         30
   110         30
   115         20
   116         10
   117         50
   118         10
   119        100
   120         80
   121         50
   122         20
   123         10
   128         10
   129         10
   130         10
   131         20
   132         20
   133         30
   134         10
   135         10
   136         10
   141         10
   142         10
   143         20
   144         10
   145         50
   146         10
   147         10
   148         10
   157         20
   158         10
   159         40
   160         10
   161         10
   171         10
   172         10
   173         20
   174         10
   185         10
   187         10
   198         10
   200         10
   201         20
   211         10
   213         20
   214         10
   215         20
   216         20
   217         10
   230         30
   231         20
   232         70
   233        400
   234         70
   239         30
   240         10
   244         10
   245         50
   246         10
   256         50
   257         20
   271         10
   273        300
   274         80
   285         10
   286         10
   287         10
   288        200
   289         50