##TITLE=Library Entry 68260
##JCAMP-DX=Revision 4.10 
##DATA TYPE=MASS SPECTRUM
##SAMPLE DESCRIPTION=A.A.Kutin, Moscow, Russia
##NAMES=HP
##CAS NAME=Tricyclo[3,3,1,1(3,7)]decane, 1-ol-3-aminomethyl-
##MOLFORM=C11H19NO
##CAS REGISTRY NO=67496-96-2
##MP= -300
##BP= -300
##MW= 181
##$RETENTION INDEX=0
##$CONDENSED SPECTRUM=NO
##NPOINTS= 98
##XYDATA=(XY..XY) 1 
    39        292
    40         18
    41        629
    42        151
    43        353
    44         55
    45         24
    46          3
    47          2
    48          1
    50         33
    51        112
    52         60
    53        251
    54         95
    55        342
    56        100
    57         63
    58         34
    59         92
    60          7
    61          5
    65        178
    66         73
    67        273
    68         68
    69         93
    70         39
    71         19
    72          8
    73          3
    74         10
    75          6
    77        361
    78         86
    79        280
    80         62
    81        242
    82         47
    83         36
    84         11
    85          7
    86        126
    87          8
    89         14
    90         10
    91        311
    92        133
    93        688
    95        999
    96         71
    97         13
    98          4
    99          2
   100          5
   101          2
   102          5
   103         18
   104         11
   105         83
   106         54
   107        415
   108        118
   109        154
   111         16
   112          2
   113          1
   115         18
   116          6
   117         14
   119         40
   120         32
   121         29
   122         13
   123         19
   124          5
   125          5
   126          1
   127          3
   133         58
   134        218
   135         29
   136          5
   150         10
   151        306
   152        110
   153         15
   154          2
   155          0
   163        301
   164         42
   165          3
   166          0
   180          8
   181        146
   182         22
   183          1
   184          0