##TITLE=Library Entry 71808
##JCAMP-DX=Revision 4.10 
##DATA TYPE=MASS SPECTRUM
##SAMPLE DESCRIPTION=NIST Mass Spectrometry Data Center, 2011
##NAMES=HP
##CAS NAME=2-Piperidinone
##MOLFORM=C5H9NO
##CAS REGISTRY NO=675-20-7
##MP= -300
##BP= -300
##MW= 99
##$RETENTION INDEX=1174
##$CONDENSED SPECTRUM=NO
##NPOINTS= 53
##XYDATA=(XY..XY) 1 
    14          4
    15         17
    16          1
    25          2
    26         40
    27        156
    28        377
    29         84
    30        518
    31          9
    36          1
    37         15
    38         33
    39        214
    40         69
    41        525
    42        674
    43        580
    44         49
    45          4
    49          3
    50         14
    51         19
    52         18
    53         35
    54         48
    55        372
    56        148
    57         11
    58         64
    59          4
    62          1
    63          1
    64          1
    65          1
    66          2
    67          4
    68         22
    69         10
    70        217
    71         96
    72          4
    78          2
    80          1
    81          6
    82         17
    83          2
    84          3
    96          1
    98        179
    99        999
   100         60
   101          3