##TITLE=Library Entry 6740
##JCAMP-DX=Revision 4.10 
##DATA TYPE=MASS SPECTRUM
##SAMPLE DESCRIPTION=L. Cohen, LC, NIDDK, NIH, Bethesda, MD 20892
##NAMES=HP
##CAS NAME=Propenoic acid, 2-trifluoroacetylamino-
##MOLFORM=C5H4F3NO3
##CAS REGISTRY NO=675-00-3
##MP= -300
##BP= -300
##MW= 183
##$RETENTION INDEX=0
##$CONDENSED SPECTRUM=NO
##NPOINTS= 99
##XYDATA=(XY..XY) 1 
    41         46
    42        127
    43        999
    44        911
    45        174
    46         13
    47         31
    48         14
    49        136
    50         64
    51        205
    52          5
    53          9
    54          6
    55          3
    56         14
    57          2
    58          9
    59          1
    60          8
    61          3
    62          1
    63          1
    64          1
    65          4
    66          8
    67          2
    68         24
    69        251
    70          8
    71          3
    72          2
    73          1
    74          2
    76          1
    77          6
    78         15
    79          1
    81          1
    82          3
    83          6
    84        117
    85          7
    86         88
    87          5
    88         51
    89          8
    90          5
    91          1
    92          0
    94         56
    95          5
    96         13
    97         36
    98          3
    99          7
   100          0
   102          0
   103          0
   107          0
   108          1
   109          3
   110          1
   111          1
   112          2
   113         55
   114         36
   115          2
   116          0
   122          1
   123          1
   124          1
   125          3
   126          1
   127          2
   128          0
   131          1
   132          0
   133          0
   134          0
   137          3
   138          3
   139          1
   140          8
   141          1
   142          1
   148          0
   150          0
   152          0
   156          1
   162          0
   164          1
   165         28
   166          3
   167          0
   182          0
   183         15
   184          1
   185          0