##TITLE=Library Entry 35865
##JCAMP-DX=Revision 4.10 
##DATA TYPE=MASS SPECTRUM
##SAMPLE DESCRIPTION=Japan AIST/NIMC Database- Spectrum MS-IW-1773
##NAMES=HP
##CAS NAME=2H-Pyran-2-one, 4-hydroxy-6-methyl-
##MOLFORM=C6H6O3
##CAS REGISTRY NO=675-10-5
##MP= -300
##BP= -300
##MW= 126
##$RETENTION INDEX=0
##$CONDENSED SPECTRUM=NO
##NPOINTS= 71
##XYDATA=(XY..XY) 1 
    12          1
    13          4
    14         14
    15         33
    24          1
    25          9
    26         42
    27         85
    28         27
    29         48
    30          2
    31          7
    36          5
    37         32
    38         56
    39        102
    40         28
    41         92
    42        321
    43        863
    44         28
    45          6
    46          1
    47          2
    48          1
    49          9
    50         19
    51         15
    52         10
    53         37
    54         13
    55        177
    56         29
    57          3
    58         13
    60          2
    61          6
    62          6
    63          5
    64          1
    65          3
    66         12
    67          6
    68         19
    69        999
    70         52
    71          6
    77          1
    79          1
    80          9
    81          2
    82          3
    83          9
    84        107
    85        514
    86         24
    87          3
    93          1
    95          1
    97         21
    98        952
    99         55
   100          5
   111        318
   112         17
   113          2
   124          1
   125          1
   126        851
   127         59
   128          7