##TITLE=Library Entry 6443
##JCAMP-DX=Revision 4.10 
##DATA TYPE=MASS SPECTRUM
##SAMPLE DESCRIPTION=Chemical Concepts
##NAMES=HP
##CAS NAME=1H-Cycloprop[e]azulen-7-ol, decahydro-1,1,7-trimethyl-4-methylene
-, [1ar-(1a.alpha.,4a.alpha.,7.beta.,7a.beta.,7b.alpha.)]-
##MOLFORM=C15H24O
##CAS REGISTRY NO=6750-60-3
##MP= -300
##BP= -300
##MW= 220
##$RETENTION INDEX=1576
##$CONDENSED SPECTRUM=NO
##NPOINTS= 142
##XYDATA=(XY..XY) 1 
    41        627
    42         27
    43        999
    44         19
    45         32
    50          7
    51         31
    52         16
    53        146
    54         23
    55        267
    56         17
    57         57
    58         40
    59         31
    60          2
    61          1
    62          0
    63          8
    64          7
    65         84
    66         29
    67        279
    68         26
    69        347
    70         27
    71        206
    72         18
    73          5
    74          1
    75          3
    76          1
    77        192
    78         65
    79        349
    80         69
    81        234
    82        185
    83         99
    84         20
    85         46
    86          5
    87          1
    88          1
    89          5
    90          1
    91        503
    92        129
    93        482
    94        128
    95        233
    96         46
    97         60
    98          7
    99         31
   100          4
   102          3
   103         34
   104         58
   105        400
   106        247
   107        359
   108         89
   109        140
   110         32
   111         20
   112          3
   113          1
   115         35
   116         15
   117        171
   118         61
   119        569
   120        174
   121        230
   122         60
   123         91
   124         15
   125         32
   126          4
   127          7
   128         22
   129         28
   130         17
   131        227
   132         65
   133        219
   134        148
   135        156
   136         42
   137         39
   138         10
   139          4
   141          5
   142          5
   143         13
   144         16
   145        208
   146        235
   147        325
   148         52
   149        185
   150         56
   151         25
   152          4
   153          1
   156          0
   157          9
   158          8
   159        427
   160        124
   161         42
   162        391
   163         89
   164         22
   165          5
   166          1
   171          1
   172          1
   173         39
   174         35
   175          9
   176          5
   177        168
   178         23
   179          2
   187        263
   188         35
   189          6
   190          2
   191          7
   192         14
   201          3
   202        261
   203         57
   204          5
   205        614
   206         94
   207          7
   219          0
   220        147
   221         23