##TITLE=Library Entry 78661
##JCAMP-DX=Revision 4.10 
##DATA TYPE=MASS SPECTRUM
##SAMPLE DESCRIPTION=Chemical Concepts
##NAMES=HP
##CAS NAME=2-Propyn-1-ol, benzoate
##MOLFORM=C10H8O2
##CAS REGISTRY NO=6750-04-5
##MP= -300
##BP= -300
##MW= 160
##$RETENTION INDEX=1262
##$CONDENSED SPECTRUM=NO
##NPOINTS= 84
##XYDATA=(XY..XY) 1 
    25          2
    26          7
    27         22
    28          0
    29          5
    30          0
    31          0
    36          1
    37         15
    38         37
    39        127
    40          5
    41          1
    42          0
    43          1
    44          3
    45          2
    49          4
    50         84
    51        219
    52         12
    53          8
    54          1
    55          3
    56          0
    57          0
    60          0
    61          1
    62          3
    63          5
    64          2
    65          5
    66          1
    67          1
    68          0
    69          1
    70          0
    71          0
    72          0
    73          3
    74         18
    75         15
    76         24
    77        436
    78         38
    79          2
    87          0
    88          1
    89          3
    90          1
    91          1
    92          1
    93          0
    94          0
   101          1
   102          3
   103          4
   104          5
   105        999
   106         90
   107          5
   111          1
   113          1
   114          5
   115         93
   116         14
   117          1
   119          1
   120          0
   122          2
   123          0
   129          0
   130          0
   131          6
   132          4
   133          0
   139          2
   141          1
   142          2
   143          0
   159          2
   160         99
   161         11
   162          1