##TITLE=Library Entry 49730
##JCAMP-DX=Revision 4.10 
##DATA TYPE=MASS SPECTRUM
##SAMPLE DESCRIPTION=Exported from NIST MS Search
##NAMES=HP
##CAS NAME=2,4-Nonadienal
##MOLFORM=C9H14O
##CAS REGISTRY NO=6750-03-4
##MP= -300
##BP= -300
##MW= 138
##$RETENTION INDEX=1213
##$CONDENSED SPECTRUM=NO
##NPOINTS= 44
##XYDATA=(XY..XY) 1 
    15         25
    18         14
    26         25
    27        325
    28         48
    29        148
    31         12
    38          7
    39        270
    40         49
    41        424
    42         31
    43        115
    44         12
    50         20
    51         48
    52         24
    53        118
    54        107
    55        102
    56         59
    57         17
    63         13
    65         49
    66         48
    67        169
    68         70
    69         21
    70         18
    77         37
    78         12
    79         51
    80          8
    81        999
    82        107
    83         95
    84         10
    91         14
    94         12
    95         72
    96         19
   109         27
   138         68
   139          7