##TITLE=Library Entry 149
##JCAMP-DX=Revision 4.10 
##DATA TYPE=MASS SPECTRUM
##SAMPLE DESCRIPTION=NIST Mass Spectrometry Data Center, 1994
##NAMES=HP
##CAS NAME=4-Fluoro-3-(trifluoromethyl)benzylamine
##MOLFORM=C8H7F4N
##CAS REGISTRY NO=67515-74-6
##MP= -300
##BP= -300
##MW= 193
##$RETENTION INDEX=0
##$CONDENSED SPECTRUM=NO
##NPOINTS= 112
##XYDATA=(XY..XY) 1 
    15          1
    16         12
    17         12
    18          5
    26          2
    28        999
    29        441
    30        971
    31         48
    32          0
    37         20
    38         27
    39         40
    40          6
    41         13
    42          3
    48         23
    49         11
    50         91
    51         71
    52         29
    53          6
    54         13
    56         14
    57         62
    58          4
    61         26
    62         43
    63         59
    64          8
    65          7
    68         51
    69        203
    70         23
    71         11
    73         12
    74         58
    75        160
    76         25
    77         35
    78          7
    79          5
    80         15
    81         46
    82          6
    83          5
    85          8
    87         34
    88         15
    89          7
    92         15
    93         56
    94         70
    95         75
    96         44
    97         43
    98          8
    99         42
   100         15
   101         31
   102         14
   104         12
   105         16
   106         12
   107         64
   108         12
   112         13
   113         47
   114         33
   117          7
   118          5
   119          9
   121          4
   122         43
   124        747
   125        121
   126         34
   127        129
   128          9
   132         10
   134         14
   137         30
   138          9
   143         54
   144         31
   145        363
   146         42
   150          5
   151          7
   152         33
   153         29
   154         28
   155          6
   156         15
   157         17
   158          7
   163         74
   164         19
   165          4
   170         15
   172         64
   173        221
   174        211
   175         24
   176         15
   177        157
   178         12
   189          6
   190         74
   192        613
   193        143
   194          9