##TITLE=Library Entry 67943
##JCAMP-DX=Revision 4.10 
##DATA TYPE=MASS SPECTRUM
##SAMPLE DESCRIPTION=NIST Mass Spectrometry Data Center, 2010
##NAMES=HP
##CAS NAME=5,7-Octadien-4-one, 2,6-dimethyl-, (E)-
##MOLFORM=C10H16O
##CAS REGISTRY NO=6752-80-3
##MP= -300
##BP= -300
##MW= 152
##$RETENTION INDEX=1146
##$CONDENSED SPECTRUM=NO
##NPOINTS= 38
##XYDATA=(XY..XY) 1 
    26          3
    27         40
    29         26
    37          2
    38         11
    39        176
    40         31
    41        326
    42         25
    50         12
    51         34
    52         18
    53         23
    62          5
    63         13
    64          2
    65        145
    66         41
    67        580
    68         61
    77         12
    79         11
    90          1
    91         12
    94          4
    95        999
    96         91
   107          9
   109        118
   110         64
   111          7
   123          8
   124         12
   137         72
   138          6
   151          6
   152         51
   153          3