##TITLE=Library Entry 58144
##JCAMP-DX=Revision 4.10 
##DATA TYPE=MASS SPECTRUM
##SAMPLE DESCRIPTION=NIST Mass Spectrometry Data Center, 1994
##NAMES=HP
##CAS NAME=n-Hexyl-2,2'-iminodiethanol
##MOLFORM=C10H23NO2
##CAS REGISTRY NO=6752-33-6
##MP= -300
##BP= -300
##MW= 189
##$RETENTION INDEX=0
##$CONDENSED SPECTRUM=NO
##NPOINTS= 82
##XYDATA=(XY..XY) 1 
    14          0
    15         38
    16          4
    17          3
    18         17
    19         32
    27        174
    28        134
    29        261
    30        153
    31         46
    32          3
    38          5
    39         75
    41        273
    42        327
    43        370
    44        233
    45        197
    46          6
    51          8
    52          6
    53         21
    54         19
    55        109
    56        344
    57         77
    58         56
    60          9
    67         12
    68         10
    69         17
    70         52
    71         10
    72         26
    73         41
    74        339
    75         20
    77          7
    79          3
    80          4
    81          4
    82          7
    83          9
    84         32
    85          3
    86        101
    87          3
    88        999
    89         59
    90          4
    98         52
    99          4
   100         19
   101          6
   102          6
   104          7
   105          8
   112         13
   114         38
   115          7
   116         15
   117          6
   118        290
   119         19
   120          4
   124          4
   126         20
   128         12
   129          5
   130         28
   143          4
   144         22
   156         20
   158        573
   159         63
   160          7
   174         14
   188          7
   189          7
   190          3
   192          3