##TITLE=Library Entry 57018
##JCAMP-DX=Revision 4.10 
##DATA TYPE=MASS SPECTRUM
##SAMPLE DESCRIPTION=J. SHAW, BORRISTON RESEARCH, ROCKVILLE, MD, USA
##NAMES=HP
##CAS NAME=Butanoic acid, 4-[(2,4-dichlorophenyl)oxy]-, butyl ester
##MOLFORM=C14H18Cl2O3
##CAS REGISTRY NO=6753-24-8
##MP= -300
##BP= -300
##MW= 304
##$RETENTION INDEX=2094
##$CONDENSED SPECTRUM=NO
##NPOINTS= 141
##XYDATA=(XY..XY) 1 
    12          1
    15         28
    17          9
    18         36
    19          1
    20          1
    25          1
    26         19
    27        192
    28         86
    29        488
    30         16
    31         28
    32          1
    35          2
    36          6
    37          6
    38         13
    39        139
    40         38
    41        602
    42        211
    43        490
    44         20
    45        173
    46          4
    47          2
    48          1
    49          4
    50         12
    51         13
    52          2
    53         13
    54          4
    55         69
    56         51
    57        206
    58         14
    59          7
    60         18
    61         12
    62         20
    63         85
    64          7
    65          5
    66          2
    67          1
    69        275
    70         21
    71         13
    72          7
    73         37
    74         20
    75         36
    76          4
    77          8
    78          1
    79          2
    81          1
    83         11
    84          7
    85         34
    87        999
    88         69
    89         11
    90          1
    91          6
    92          1
    93          1
    94          1
    95          1
    96          2
    97         12
    98         28
    99         20
   100         13
   101         15
   102         18
   105          1
   107          6
   109         31
   110          7
   111         25
   112          6
   113         10
   114          2
   115          7
   116         10
   119          1
   121          1
   123          1
   125          8
   126         11
   127          5
   128         10
   129          2
   130          2
   131          1
   133         38
   135         28
   137          6
   138          1
   139          2
   140          1
   141          2
   143        244
   144         23
   145         17
   147         17
   149          7
   150          2
   151          1
   153          2
   154          2
   155          1
   159          1
   162        142
   163         18
   164         77
   165          7
   166         12
   167          1
   168          2
   169          1
   175         11
   177          8
   178          1
   179          1
   185          1
   187          1
   188          1
   189          3
   191          2
   231         37
   233         26
   234          2
   235          3
   304          4
   305          3
   306          2
   307          2