##TITLE=Library Entry 66140
##JCAMP-DX=Revision 4.10 
##DATA TYPE=MASS SPECTRUM
##SAMPLE DESCRIPTION=Chemical Concepts
##NAMES=HP
##CAS NAME=Humulene
##MOLFORM=C15H24
##CAS REGISTRY NO=6753-98-6
##MP= -300
##BP= -300
##MW= 204
##$RETENTION INDEX=1454
##$CONDENSED SPECTRUM=NO
##NPOINTS= 88
##XYDATA=(XY..XY) 1 
    27         74
    28         21
    29        104
    30          2
    39         72
    40         22
    41        279
    42         19
    43        120
    44          3
    50          2
    51         16
    52         11
    53        111
    54         13
    55        116
    56         11
    57          8
    58          1
    63          4
    64          3
    65         31
    66         14
    67        115
    68         28
    69         43
    70          4
    71          2
    72          1
    75          3
    77        107
    78         18
    79        111
    80        292
    81         70
    82         68
    83          7
    84          1
    89          4
    90          3
    91        114
    92        162
    93        999
    94        102
    95         73
    96          8
    97          1
   102          1
   103          8
   104          3
   105         78
   106         27
   107        111
   108         41
   109        104
   110         12
   111          4
   115          5
   116          2
   117          7
   118          2
   119         49
   120         13
   121        277
   122         70
   123         18
   124          2
   128          2
   129          2
   131          2
   133         13
   134         18
   135         26
   136         44
   137          4
   145          1
   146          5
   147        112
   148         29
   149          6
   161         19
   162          5
   175          4
   176          1
   189         12
   190          2
   204         44
   205          8