##TITLE=Library Entry 77623
##JCAMP-DX=Revision 4.10 
##DATA TYPE=MASS SPECTRUM
##SAMPLE DESCRIPTION=PYTCAS, 17(3)511(1978); M. A. DE ALVARENGA
##NAMES=HP
##CAS NAME=1H-2-Benzopyran-1-one, 3,4-dihydro-8-methoxy-3,7-dimethyl-, (R)-
##MOLFORM=C12H14O3
##CAS REGISTRY NO=67549-57-9
##MP= -300
##BP= -300
##MW= 206
##$RETENTION INDEX=0
##$CONDENSED SPECTRUM=NO
##NPOINTS= 11
##XYDATA=(XY..XY) 1 
   104        999
   132        470
   145        910
   160        900
   162        420
   163        190
   173        380
   177        110
   188        120
   191        140
   206        510