##TITLE=Library Entry 57313
##JCAMP-DX=Revision 4.10 
##DATA TYPE=MASS SPECTRUM
##SAMPLE DESCRIPTION=ATLAS OF MASS SPECTRA OF ORGANIC COMPOUNDS, V. A. KOPTY
UG, ED.
##NAMES=HP
##CAS NAME=Hydrazine, 1,1-diethyl-2-sec-hexyl-
##MOLFORM=C10H24N2
##CAS REGISTRY NO=67552-94-7
##MP= -300
##BP= -300
##MW= 172
##$RETENTION INDEX=0
##$CONDENSED SPECTRUM=NO
##NPOINTS= 33
##XYDATA=(XY..XY) 1 
    27         46
    28         28
    29         90
    30         31
    31         34
    39         11
    41         47
    42         72
    43         80
    44        106
    45         10
    55         13
    56         27
    57         26
    58         39
    59        262
    60         12
    70          9
    71         12
    72         51
    73         60
    85         12
    86          6
    87        999
    88         72
    99          9
   100         11
   115         96
   116          8
   143         28
   157         41
   172        208
   173         33