##TITLE=Library Entry 5993
##JCAMP-DX=Revision 4.10 
##DATA TYPE=MASS SPECTRUM
##SAMPLE DESCRIPTION=S.MILLER, DMNB, NINDS, NIH, Bethesda, MD 20892
##NAMES=HP
##CAS NAME=2-Myristynoic acid
##MOLFORM=C14H24O2
##CAS REGISTRY NO=67587-19-3
##MP= -300
##BP= -300
##MW= 224
##$RETENTION INDEX=0
##$CONDENSED SPECTRUM=NO
##NPOINTS= 127
##XYDATA=(XY..XY) 1 
    41        904
    43        999
    44         59
    45         41
    46          1
    47          7
    49          0
    50         11
    51         36
    52         24
    53        115
    54         93
    55        621
    56        151
    57        399
    58         20
    59          9
    60         11
    61         13
    63          7
    64          2
    65         49
    66        111
    67        340
    68        120
    69        228
    70         75
    71         81
    72          2
    73         42
    74         10
    75          5
    77         76
    78          5
    79        284
    80        287
    81        338
    82         96
    83        158
    84        105
    85         50
    86        483
    87         28
    88          3
    89          2
    91         52
    92         12
    93        135
    94        177
    95        195
    96         50
    97        247
    98         41
    99         79
   100         45
   101          6
   102          2
   103          2
   105         13
   106          2
   107         90
   108        111
   109         84
   110         23
   111        103
   112         48
   113         24
   114         12
   115          4
   116         11
   117          4
   118          1
   119          7
   121         92
   122         51
   123         42
   125        125
   126        146
   127         37
   128          8
   129          4
   130          0
   131          3
   133          3
   134          0
   135         55
   136         12
   137         20
   138          3
   139        106
   140        217
   141         21
   142          4
   143          2
   145          0
   147          2
   148          2
   149         16
   150          6
   151          4
   153         28
   154         40
   155          4
   156          1
   157          0
   159          0
   163          5
   164         19
   165          4
   167         13
   168          4
   169          1
   175          1
   177          3
   179          3
   181         11
   182          2
   183          0
   195          6
   196          0
   205          0
   207         14
   208          2
   209          1
   211          2
   225         14
   226          1