##TITLE=Library Entry 84365
##JCAMP-DX=Revision 4.10 
##DATA TYPE=MASS SPECTRUM
##SAMPLE DESCRIPTION=P.A. Leclercq, Lab. Instrum. Anal., Eindhoven Univ. Tec
hnol., Netherlands
##NAMES=HP
##CAS NAME=Cyclohexanecarboxylic acid, 4-pentyl-, 4-pentylphenyl ester, tran
s-
##MOLFORM=C23H36O2
##CAS REGISTRY NO=67589-72-4
##MP= -300
##BP= -300
##MW= 344
##$RETENTION INDEX=0
##$CONDENSED SPECTRUM=NO
##NPOINTS= 83
##XYDATA=(XY..XY) 1 
    27        111
    28         10
    29        272
    30          8
    39         88
    41        456
    42         36
    43        320
    44         12
    51         15
    52         16
    53         60
    54         88
    55        510
    56         37
    57        197
    58          7
    63          6
    65         64
    67        259
    68         50
    69        287
    70         23
    71        190
    72          9
    77        103
    78         86
    79        105
    81        312
    82         80
    83        641
    84         42
    85         29
    89         11
    90         12
    91         87
    92         18
    93         52
    94         23
    95        150
    96         94
    97        942
    98         66
    99          8
   103         12
   105         23
   107        999
   108        102
   109        112
   110         40
   111        222
   112         20
   115          6
   117          7
   119         16
   120         13
   121         25
   122          6
   123         19
   124         15
   125          6
   133         23
   134         10
   135         10
   137         10
   138         16
   147         10
   149         51
   150          8
   151         16
   153        224
   154         28
   162         43
   164        960
   165        127
   166          7
   180        532
   181        176
   182         21
   229          5
   344         57
   345         14
   346          1