##TITLE=Library Entry 18717
##JCAMP-DX=Revision 4.10 
##DATA TYPE=MASS SPECTRUM
##SAMPLE DESCRIPTION=NIST Mass Spectrometry Data Center, 1990.
##NAMES=HP
##CAS NAME=1,5,9-Cyclododecatriene, (E,E,E)-
##MOLFORM=C12H18
##CAS REGISTRY NO=676-22-2
##MP= -300
##BP= -300
##MW= 162
##$RETENTION INDEX=1258
##$CONDENSED SPECTRUM=NO
##NPOINTS= 76
##XYDATA=(XY..XY) 1 
    14          6
    16          3
    26          8
    27        100
    28        109
    29         25
    32         24
    37          2
    39        393
    40         49
    41        286
    42         14
    43          4
    44          5
    50         26
    51         77
    52         49
    53        198
    54        999
    55         78
    56          3
    62          5
    63         25
    65        132
    66        104
    67        427
    68         29
    69          3
    74          3
    75          4
    77        151
    78         87
    79        401
    80        317
    81         49
    82          4
    83          1
    89          6
    91        214
    92         74
    93        333
    94         69
    95         35
    96          9
   102          2
   103          7
   104          6
   105         58
   106         31
   107         25
   108         49
   109          3
   115          8
   116          2
   117          7
   118          8
   119        115
   120         60
   121         48
   122          5
   128          4
   129          4
   130          4
   131          4
   133        137
   134         97
   135         10
   147         17
   148          2
   152          2
   153          2
   157          1
   158          2
   161         10
   162         37
   163          4