##TITLE=Library Entry 31538
##JCAMP-DX=Revision 4.10 
##DATA TYPE=MASS SPECTRUM
##SAMPLE DESCRIPTION=ASES Database, Dalian Institute, P.R. China
##NAMES=HP
##CAS NAME=Methanesulfinyl chloride
##MOLFORM=CH3ClOS
##CAS REGISTRY NO=676-85-7
##MP= -300
##BP= -300
##MW= 98
##$RETENTION INDEX=0
##$CONDENSED SPECTRUM=NO
##NPOINTS= 10
##XYDATA=(XY..XY) 1 
    36        155
    38         56
    45        279
    48        351
    61        155
    63        999
    83        196
    85         72
    98        345
   100        121