##TITLE=Library Entry 17912
##JCAMP-DX=Revision 4.10 
##DATA TYPE=MASS SPECTRUM
##SAMPLE DESCRIPTION=Exported from NIST MS Search
##NAMES=HP
##CAS NAME=Dimethylphosphine
##MOLFORM=C2H7P
##CAS REGISTRY NO=676-59-5
##MP= -300
##BP= -300
##MW= 62
##$RETENTION INDEX=0
##$CONDENSED SPECTRUM=NO
##NPOINTS= 17
##XYDATA=(XY..XY) 1 
    15         13
    27         66
    29         33
    32         20
    33         33
    34         33
    44        120
    45        533
    46        999
    47        233
    56         13
    57        180
    58         66
    59        253
    60         20
    61        153
    62        786