##TITLE=Library Entry 58493
##JCAMP-DX=Revision 4.10 
##DATA TYPE=MASS SPECTRUM
##SAMPLE DESCRIPTION=Dennis Rohrbaugh, CBDCOM/ERDEC, Edgewood, MD
##NAMES=HP
##CAS NAME=Methylarsine dibromide
##MOLFORM=CH3AsBr2
##CAS REGISTRY NO=676-70-0
##MP= -300
##BP= -300
##MW= 248
##$RETENTION INDEX=0
##$CONDENSED SPECTRUM=NO
##NPOINTS= 30
##XYDATA=(XY..XY) 1 
    75        386
    76         30
    79        170
    81        187
    87         52
    88        592
    89        999
    90        206
    91         16
   110         10
   125         44
   127          9
   154        283
   156        257
   166         10
   167         26
   168         43
   169        488
   170         34
   171        439
   189         13
   191         24
   204          8
   206         16
   233        168
   235        328
   237        165
   248        194
   250        379
   252        187