##TITLE=Library Entry 81375
##JCAMP-DX=Revision 4.10 
##DATA TYPE=MASS SPECTRUM
##SAMPLE DESCRIPTION=ASES Database, Dalian Institute, P.R. China
##NAMES=HP
##CAS NAME=3-Pyridin-2-yl-4-methyl-1,2,5-oxadiazole
##MOLFORM=C8H7N3O
##CAS REGISTRY NO=67615-76-3
##MP= -300
##BP= -300
##MW= 161
##$RETENTION INDEX=0
##$CONDENSED SPECTRUM=NO
##NPOINTS= 25
##XYDATA=(XY..XY) 1 
    41        151
    50         90
    51        168
    52        111
    53         29
    57         30
    62         30
    63         89
    64         60
    65         39
    75         19
    76         50
    77        151
    78        440
    79        130
    90        109
   103         20
   104        238
   105        999
   120         40
   121         20
   131         60
   144        470
   161        498
   162         50