##TITLE=Library Entry 69587
##JCAMP-DX=Revision 4.10 
##DATA TYPE=MASS SPECTRUM
##SAMPLE DESCRIPTION=Japan AIST/NIMC Database- Spectrum MS-IW-5737
##NAMES=HP
##CAS NAME=2-Methylthiophene-3-sulfonamide
##MOLFORM=C5H7NO2S2
##CAS REGISTRY NO=67618-87-5
##MP= -300
##BP= -300
##MW= 177
##$RETENTION INDEX=0
##$CONDENSED SPECTRUM=NO
##NPOINTS= 92
##XYDATA=(XY..XY) 1 
    16          1
    26          2
    27         24
    28          9
    30          1
    32          2
    34          1
    37          4
    38          7
    39         24
    40          1
    41          4
    42          2
    43          2
    44          6
    45        139
    46          9
    47          9
    48          3
    49          2
    50         12
    51         29
    52         16
    53        205
    54         10
    55          2
    56          3
    57          4
    58         12
    59         25
    60          3
    61          6
    62          9
    63         19
    64         11
    65         12
    66          1
    67          2
    68         13
    69         38
    70         99
    71         20
    72          6
    73          2
    76          3
    78          1
    80         16
    81          5
    82          9
    83          2
    84         15
    85         15
    86          3
    87          2
    91          5
    92          1
    93          9
    94          1
    95         34
    96        999
    97        264
    98         60
    99         11
   103          1
   110          2
   111          2
   112        169
   113        175
   114         18
   115         12
   116          1
   117          3
   127          2
   128          2
   129          1
   130          2
   131          1
   140          4
   142          4
   143          8
   144          2
   145          3
   160         46
   161        118
   162         11
   163         10
   176          2
   177        409
   178         32
   179         39
   180          3
   181          1