##TITLE=Library Entry 32948
##JCAMP-DX=Revision 4.10 
##DATA TYPE=MASS SPECTRUM
##SAMPLE DESCRIPTION=W.Jennings, T.Shibamoto
##NAMES=HP
##CAS NAME=Carbonic acid, 3-hexenyl methyl ester, (Z)-
##MOLFORM=C8H14O3
##CAS REGISTRY NO=67633-96-9
##MP= -300
##BP= -300
##MW= 158
##$RETENTION INDEX=0
##$CONDENSED SPECTRUM=NO
##NPOINTS= 27
##XYDATA=(XY..XY) 1 
    27          7
    29         79
    31          7
    36          7
    39         28
    40          7
    41        321
    42         39
    43         28
    45        208
    53         39
    54        149
    55        392
    56         19
    57          7
    59        131
    65         19
    66         19
    67        999
    68         91
    69         48
    71          7
    77         28
    79          7
    81        109
    82        652
    83        119