##TITLE=Library Entry 52919
##JCAMP-DX=Revision 4.10 
##DATA TYPE=MASS SPECTRUM
##SAMPLE DESCRIPTION=James Little,Eastman Chem.Co.,Kingsport,TN
##NAMES=HP
##CAS NAME=1-(S-Triazin-3-yl)-hexane
##MOLFORM=C8H15N3
##CAS REGISTRY NO=67646-18-8
##MP= -300
##BP= -300
##MW= 153
##$RETENTION INDEX=0
##$CONDENSED SPECTRUM=NO
##NPOINTS= 36
##XYDATA=(XY..XY) 1 
    27        233
    29        216
    39        195
    40         42
    41        299
    42        168
    43        201
    52         38
    53         76
    54        105
    55        185
    56         64
    57         23
    67         34
    68         40
    69         37
    70         23
    82        141
    83        999
    84        124
    95         20
    96        899
    97        362
    98         23
   108         22
   109         23
   110        498
   111         65
   122         33
   123         16
   124        303
   125         42
   138        166
   152         57
   153        237
   154         27