##TITLE=Library Entry 66484
##JCAMP-DX=Revision 4.10 
##DATA TYPE=MASS SPECTRUM
##SAMPLE DESCRIPTION=Flavors and Fragrances (Eds.B.Lawrence ET AL.),1986
##NAMES=HP
##CAS NAME=Bicyclogermacrene
##MOLFORM=C15H24
##CAS REGISTRY NO=67650-90-2
##MP= -300
##BP= -300
##MW= 204
##$RETENTION INDEX=1499
##$CONDENSED SPECTRUM=NO
##NPOINTS= 70
##XYDATA=(XY..XY) 1 
    29        271
    33         39
    39        457
    40        133
    41        911
    42         77
    43        201
    44         16
    50         33
    51        103
    52         65
    53        341
    54         58
    55        291
    56         36
    57         43
    63         42
    64         28
    65        171
    66         71
    67        400
    68         92
    69        238
    70         27
    77        453
    78        117
    79        567
    80        135
    81        323
    82         60
    83         29
    89         18
    92        572
    93        999
    94        283
    95        118
    96         24
   103         43
   105        389
   106        116
   107        570
   108        144
   109        103
   110         21
   115         47
   116         23
   117         42
   120        301
   121        926
   122        148
   123         73
   128         21
   129         21
   130         14
   131         26
   133        117
   134         69
   135         59
   136        145
   137         23
   145         23
   147         75
   148         55
   149         23
   161        223
   162         55
   176         14
   189         73
   204        115
   205         28