##TITLE=Library Entry 14252
##JCAMP-DX=Revision 4.10 
##DATA TYPE=MASS SPECTRUM
##SAMPLE DESCRIPTION=Chemical Concepts
##NAMES=HP
##CAS NAME=9.beta.,10.alpha.-Androst-4-en-3-one, 4-bromo-17.beta.-hydroxy-,
 acetate
##MOLFORM=C21H29BrO3
##CAS REGISTRY NO=6765-86-2
##MP= -300
##BP= -300
##MW= 408
##$RETENTION INDEX=0
##$CONDENSED SPECTRUM=NO
##NPOINTS= 292
##XYDATA=(XY..XY) 1 
    26          3
    27         41
    29         92
    30          4
    31         16
    34          2
    35         10
    36         60
    37          4
    38         24
    39         57
    40         11
    41        242
    42         24
    43        999
    44         47
    45         26
    46          2
    48          2
    50          7
    51         23
    52         14
    53         72
    54         14
    55        286
    56         24
    57         52
    58          5
    59          9
    60          7
    61          3
    62          2
    63          9
    64         10
    65         65
    66         20
    67        139
    68         21
    69         71
    70         10
    71         31
    72          4
    73          4
    74          3
    75          5
    76          9
    77        132
    78         41
    79        168
    80         28
    81        146
    82         22
    83         32
    84         10
    85         14
    86          7
    87          3
    88          3
    89         16
    90          8
    91        214
    92         55
    93        194
    94         52
    95         96
    96         17
    97         45
    98          7
    99          6
   100          2
   101          3
   102          6
   103         25
   104         20
   105        167
   106         48
   107        139
   108         33
   109         56
   110         16
   111         32
   112          6
   113          4
   114          2
   115         27
   116         18
   117         54
   118         23
   119         90
   120         36
   121        112
   122         52
   123         71
   124         34
   125         10
   126          2
   127          9
   128         22
   129         34
   130         14
   131         77
   132         26
   133        147
   134         46
   135         49
   136         22
   137         35
   138          8
   139          5
   140          3
   141         15
   142         13
   143         44
   144         29
   145        217
   146         65
   147        261
   148         48
   149         56
   150         13
   151         19
   152          9
   153          9
   154          5
   155         32
   156         10
   157         39
   158         12
   159         62
   160         21
   161         73
   162         59
   163         35
   164         13
   165         34
   166          7
   167          8
   168          4
   169         21
   170          7
   171         32
   172         13
   173         64
   174         32
   175         61
   176         19
   177         13
   178         14
   179         27
   180         21
   181         12
   182          5
   183         14
   184          5
   185         29
   186          9
   187         43
   188         15
   189         23
   190          6
   191          4
   192          4
   193          8
   194         14
   195         23
   196          6
   197         22
   198          7
   199         26
   200         16
   201         24
   202         87
   203         20
   204         83
   205         12
   206          3
   207          7
   208          5
   209         18
   210          7
   211         25
   212          8
   213         18
   214          9
   215         19
   216          7
   217          7
   218          3
   219          2
   220          3
   221          9
   222          4
   223         10
   224          4
   225         26
   226         11
   227         83
   228         30
   229         10
   230          2
   231          2
   232          1
   233          4
   234          4
   235          5
   236          2
   237          3
   238          2
   239          8
   240          5
   241         28
   242          9
   243          9
   244          3
   245         11
   246          4
   247          1
   249          2
   250          5
   251        103
   252         31
   253         15
   254          5
   255          4
   256          3
   257          3
   258          1
   259          2
   260          2
   264          8
   265         12
   266          2
   267          5
   268         14
   269        420
   270         98
   271         18
   272          2
   273          1
   277          0
   278          0
   279          2
   281          3
   285          3
   286          7
   287        102
   288         31
   289          4
   290          1
   291          1
   293          2
   294          1
   295          1
   296          2
   297          1
   298          2
   300          1
   301          1
   302          1
   303          1
   304          1
   307          1
   309          3
   311          4
   328          6
   329        124
   330         37
   331          7
   333          6
   334          1
   335          4
   336          1
   346          3
   347          1
   348         15
   349          6
   350         11
   351         10
   352          3
   353          8
   354          2
   365          1
   366         23
   367          6
   368         26
   369          5
   370          0
   408         26
   409          8
   410         27
   411          7
   412          1