##TITLE=Library Entry 48336
##JCAMP-DX=Revision 4.10 
##DATA TYPE=MASS SPECTRUM
##SAMPLE DESCRIPTION=Chemical Concepts
##NAMES=HP
##CAS NAME=Benzene, (1-propenylsulfinyl)-, (Z)-
##MOLFORM=C9H10OS
##CAS REGISTRY NO=67653-00-3
##MP= -300
##BP= -300
##MW= 166
##$RETENTION INDEX=0
##$CONDENSED SPECTRUM=NO
##NPOINTS= 114
##XYDATA=(XY..XY) 1 
    27        120
    29         28
    30          2
    31          4
    34          4
    35         11
    37         43
    38         84
    39        732
    40         23
    41        356
    42         14
    43         29
    44         16
    45        359
    46         15
    47         34
    48         12
    49         21
    50        222
    51        670
    52         66
    53         57
    54          5
    55          9
    56          6
    57         22
    58         40
    59         69
    60         11
    61         35
    62         27
    63         58
    64         15
    65        223
    66        123
    67          9
    68          6
    69        108
    70         15
    71         91
    72         81
    73         91
    74         91
    75         54
    76         40
    77        506
    78        999
    79         77
    80          5
    81         22
    82         26
    83         15
    84         40
    85          4
    86          5
    87          7
    88          5
    89         35
    90         13
    91        157
    92         18
    93         12
    94         60
    95         12
    96          4
    97        133
    98         10
    99          5
   102         10
   103         57
   104         20
   105        114
   106         11
   107          9
   108         34
   109        530
   110        291
   111         44
   112         15
   113          7
   114          4
   115        196
   116        256
   117        482
   118        467
   119         42
   120          3
   121         42
   122          9
   123         20
   124          4
   125         89
   126        114
   127         13
   128          7
   132          2
   133          6
   134        116
   135        189
   136         22
   137        230
   138         22
   139         11
   146          3
   147         91
   148         24
   149        760
   150        350
   151         64
   152         15
   166        310
   167         38
   168         17