##TITLE=Library Entry 2413
##JCAMP-DX=Revision 4.10 
##DATA TYPE=MASS SPECTRUM
##SAMPLE DESCRIPTION=Exported from NIST MS Search
##NAMES=HP
##CAS NAME=1-Heptadecene
##MOLFORM=C17H34
##CAS REGISTRY NO=6765-39-5
##MP= -300
##BP= -300
##MW= 238
##$RETENTION INDEX=1692
##$CONDENSED SPECTRUM=NO
##NPOINTS= 127
##XYDATA=(XY..XY) 1 
    14         21
    15         20
    24          1
    25          2
    26         16
    27        277
    28        200
    29        662
    30         12
    36          4
    37          3
    38          7
    39        213
    40         44
    41        999
    42        231
    43        959
    44         34
    50          4
    51          9
    52          7
    53         77
    54        152
    55        866
    56        462
    57        719
    58         33
    59          1
    63          2
    64          1
    65         11
    66         13
    67        139
    68        140
    69        589
    70        421
    71        337
    72         19
    73          2
    74          1
    75          1
    76          1
    77          8
    78          3
    79         14
    80          7
    81         67
    82        185
    83        701
    84        311
    85        200
    86         13
    87          1
    91          7
    92          2
    93          4
    94          4
    95         41
    96        103
    97        671
    98        242
    99         40
   100          3
   104          1
   105          2
   106          1
   107          2
   108          2
   109         15
   110         44
   111        280
   112        146
   113         23
   114          2
   115          1
   117          1
   119          1
   120          1
   121          1
   122          2
   123          6
   124         22
   125        110
   126         89
   127         14
   128          2
   129          1
   136          1
   137          3
   138         14
   139         35
   140         53
   141          9
   142          1
   151          2
   152         10
   153         19
   154         37
   155          6
   156          1
   165          1
   166          6
   167         12
   168         28
   169          5
   170          1
   180          4
   181          6
   182         14
   183          3
   184          1
   185          1
   194          3
   195          4
   196         16
   197          4
   198          1
   200          1
   202          1
   210         25
   211          5
   212          1
   236          1
   237          1
   238         61
   239         12
   240          2