##TITLE=Library Entry 55879
##JCAMP-DX=Revision 4.10 
##DATA TYPE=MASS SPECTRUM
##SAMPLE DESCRIPTION=ATLAS OF MASS SPECTRA OF ORGANIC COMPOUNDS, V. A. KOPTY
UG, ED.
##NAMES=HP
##CAS NAME=Heptanal, dimethylhydrazone
##MOLFORM=C9H20N2
##CAS REGISTRY NO=67660-53-1
##MP= -300
##BP= -300
##MW= 156
##$RETENTION INDEX=0
##$CONDENSED SPECTRUM=NO
##NPOINTS= 47
##XYDATA=(XY..XY) 1 
    29        128
    30         56
    39         72
    40         22
    41        183
    42        350
    43        445
    44        890
    45        350
    46         42
    53         16
    54         21
    55        106
    56         89
    57         30
    58         89
    59        411
    60        333
    61         12
    67         13
    68         21
    69         28
    70         39
    71        150
    72         39
    73         72
    82         27
    83         44
    84         27
    85        721
    86        999
    87         67
    95         14
    96         11
    97         24
    98         10
    99        205
   100         33
   112         67
   113        122
   114         31
   127        119
   128         23
   141         50
   155         19
   156        556
   157         75