##TITLE=Library Entry 76826
##JCAMP-DX=Revision 4.10 
##DATA TYPE=MASS SPECTRUM
##SAMPLE DESCRIPTION=V.G. Zaikin, TIPS RAS, Moscow, Russia
##NAMES=HP
##CAS NAME=Propanoic acid, 2,2-dimethyl-, 2-phenylethyl ester
##MOLFORM=C13H18O2
##CAS REGISTRY NO=67662-96-8
##MP= -300
##BP= -300
##MW= 206
##$RETENTION INDEX=1400
##$CONDENSED SPECTRUM=NO
##NPOINTS= 49
##XYDATA=(XY..XY) 1 
    26         17
    27         89
    28          5
    29        135
    31          3
    36          8
    37          8
    38         13
    39        162
    40         14
    41        217
    42         38
    43         14
    44         26
    45          8
    50         44
    51         95
    52         33
    53         25
    55         22
    56         14
    57        609
    58         27
    62         15
    63         35
    64         17
    65         68
    66          6
    69         15
    70          6
    74         13
    75          8
    76         13
    77        129
    78         65
    79         68
    83          2
    85         16
    89         18
    90         11
    91        137
    92         27
    93          8
   102          8
   103         69
   104        999
   105        288
   106         19
   121          2