##TITLE=Library Entry 62550
##JCAMP-DX=Revision 4.10 
##DATA TYPE=MASS SPECTRUM
##SAMPLE DESCRIPTION=RADIAN CORP
##NAMES=HP
##CAS NAME=2-Propanol, 1,1,1,3,3,3-hexafluoro-, 4-methylbenzenesulfonate
##MOLFORM=C10H8F6O3S
##CAS REGISTRY NO=67674-48-0
##MP= -300
##BP= -300
##MW= 322
##$RETENTION INDEX=0
##$CONDENSED SPECTRUM=NO
##NPOINTS= 48
##XYDATA=(XY..XY) 1 
    27          5
    29         17
    38          4
    39         82
    41         22
    45          2
    48          1
    50         20
    51         39
    52         13
    53          7
    62         13
    63         70
    64         22
    65        272
    66         16
    67         10
    69         81
    74          3
    75          4
    76          3
    77         38
    78         18
    79         20
    87          2
    88          1
    89         90
    90         19
    91        999
    92         91
    93          1
    97          1
   106          1
   107         24
   108          1
   109          1
   111          1
   139         24
   141          1
   151          4
   155        695
   156         63
   157         36
   158          1
   195          1
   322        180
   323         17
   324          9