##TITLE=Library Entry 107692
##JCAMP-DX=Revision 4.10 
##DATA TYPE=MASS SPECTRUM
##SAMPLE DESCRIPTION=NIST Mass Spectrometry Data Center, 1994
##NAMES=HP
##CAS NAME=p-Octyloxybenzyl alcohol
##MOLFORM=C15H24O2
##CAS REGISTRY NO=67698-68-4
##MP= -300
##BP= -300
##MW= 236
##$RETENTION INDEX=0
##$CONDENSED SPECTRUM=NO
##NPOINTS= 84
##XYDATA=(XY..XY) 1 
     6          1
    15          4
    17          2
    18          3
    26          9
    27        203
    28         56
    29        377
    30          7
    32          0
    37          2
    38         12
    39        179
    40         40
    41        612
    42         77
    43        386
    44         12
    50         20
    51         58
    52         23
    53         43
    54          2
    55        194
    56         33
    57        161
    58          8
    62          5
    63         26
    64         11
    65         65
    66         41
    67         92
    68         14
    69         70
    70         17
    71         65
    72          3
    75          4
    77        205
    78        117
    79         49
    80          4
    81          9
    82          2
    83         11
    84          4
    85          1
    89         80
    90         11
    91         16
    92          6
    93         14
    94          1
    95        569
    96         48
    97          5
   103          2
   105        121
   106        498
   107        258
   108         23
   109          2
   112          1
   119          5
   121         28
   123        373
   124        999
   125         77
   126          6
   133          3
   135          2
   137         21
   138          1
   147          2
   149          2
   150          1
   165          1
   219          1
   233          1
   234          3
   236        153
   237         25
   238          1