##TITLE=Library Entry 36866
##JCAMP-DX=Revision 4.10 
##DATA TYPE=MASS SPECTRUM
##SAMPLE DESCRIPTION=A.Pleshkova, Nesmeyanov Inst.Org.Elem.Cpds, Moscow
##NAMES=HP
##CAS NAME=Propane, 1,1,1,2,3,3,3-heptafluoro-2-iodo-
##MOLFORM=C3F7I
##CAS REGISTRY NO=677-69-0
##MP= -300
##BP= -300
##MW= 296
##$RETENTION INDEX=0
##$CONDENSED SPECTRUM=NO
##NPOINTS= 35
##XYDATA=(XY..XY) 1 
    43         90
    44         10
    50         16
    58         31
    69        999
    70         11
    81          4
    93          6
    97        146
    98         22
   100        149
   101         19
   119         43
   120          8
   127         45
   131        135
   132          2
   146          6
   150        111
   151          2
   158         18
   169         64
   170          2
   177        154
   178         21
   185        156
   186         21
   196         16
   208         14
   227        124
   228         12
   277         80
   278         17
   296        716
   297         16