##TITLE=Library Entry 55239
##JCAMP-DX=Revision 4.10 
##DATA TYPE=MASS SPECTRUM
##SAMPLE DESCRIPTION=Exported from NIST MS Search
##NAMES=HP
##CAS NAME=Propane, 1,2,2,3-tetrachloro-1,1,3,3-tetrafluoro-
##MOLFORM=C3Cl4F4
##CAS REGISTRY NO=677-68-9
##MP= -300
##BP= -300
##MW= 252
##$RETENTION INDEX=0
##$CONDENSED SPECTRUM=NO
##NPOINTS= 109
##XYDATA=(XY..XY) 1 
    24          1
    28          4
    31         40
    32          2
    35          9
    36          2
    37          3
    43          3
    47         40
    48          1
    49         13
    50          7
    55          5
    59          4
    61          1
    62          2
    66          6
    67          1
    68          2
    69         95
    70          1
    71          1
    72          1
    73          1
    74          3
    75         11
    76          1
    78         16
    80          5
    82         23
    83          1
    84         15
    85        999
    86         13
    87        318
    88          3
    90          1
    91          1
    92          1
    93         30
    94          9
    96          5
    97         13
    98          1
    99          4
   100          1
   101         38
   102          1
   103         25
   104          1
   105          4
   109          6
   110          1
   111          2
   112          7
   113         10
   115          6
   116          1
   117         48
   118          1
   119         45
   120          1
   121         15
   123          1
   125          1
   128          1
   129         18
   130          1
   131         17
   132         34
   133         13
   134         22
   135          5
   136         35
   137          1
   147         79
   148         66
   149         27
   150         62
   151          2
   152         20
   153          1
   154          2
   159          1
   161          1
   163          7
   164         22
   165          5
   166         28
   167         93
   168         15
   169         88
   170          5
   171         28
   172          1
   173          3
   182          1
   183          2
   184          1
   185          2
   187          1
   189          1
   217         72
   218          2
   219         69
   220          2
   221         22
   222          1
   223          2