##TITLE=Library Entry 98161
##JCAMP-DX=Revision 4.10 
##DATA TYPE=MASS SPECTRUM
##SAMPLE DESCRIPTION=NIST Mass Spectrometry Data Center, 1994
##NAMES=HP
##CAS NAME=Methyl dichlorophosphate
##MOLFORM=CH3Cl2O2P
##CAS REGISTRY NO=677-24-7
##MP= -300
##BP= -300
##MW= 148
##$RETENTION INDEX=0
##$CONDENSED SPECTRUM=NO
##NPOINTS= 58
##XYDATA=(XY..XY) 1 
    15        277
    16          5
    17          2
    18          2
    28         27
    29        160
    30         29
    31        114
    32          3
    33          2
    34          2
    35         63
    36          9
    37         19
    38          2
    44          1
    45          1
    47        406
    48         39
    49         18
    50          4
    51          5
    59          0
    63         60
    64          2
    66         34
    67          2
    68         12
    77         27
    78          3
    82         53
    83        117
    84         20
    85         39
    86          1
    98         51
    99          7
   100         17
   101         10
   103          5
   105          1
   113        736
   115        250
   117        281
   118        999
   119        233
   120        671
   121         63
   122        109
   123          6
   133         11
   135          7
   137          1
   147         25
   148          3
   149         19
   150          2
   151          5