##TITLE=Library Entry 30650
##JCAMP-DX=Revision 4.10 
##DATA TYPE=MASS SPECTRUM
##SAMPLE DESCRIPTION=Japan AIST/NIMC Database- Spectrum MS-IW-3122
##NAMES=HP
##CAS NAME=4a,trans-8a-Perhydro-cis-2-(2-hydroxy-2-propyl)-4a,cis-8-dimethyl
naphthalene
##MOLFORM=C15H28O
##CAS REGISTRY NO=6770-16-7
##MP= -300
##BP= -300
##MW= 224
##$RETENTION INDEX=1653
##$CONDENSED SPECTRUM=NO
##NPOINTS= 110
##XYDATA=(XY..XY) 1 
    15          2
    17          6
    18         31
    27         16
    28          5
    29         32
    31         21
    39         24
    40          5
    41        125
    42          9
    43         87
    44          2
    45          9
    51          4
    52          2
    53         29
    54          8
    55        153
    56         14
    57         13
    58         78
    59        999
    60         37
    61          3
    62          2
    63          1
    65         10
    66         12
    67        111
    68         39
    69         79
    70          9
    71         18
    72          1
    76          4
    77         21
    78          4
    79         39
    80         10
    81        148
    82         59
    83         71
    84          7
    85          3
    90          2
    91         22
    92          4
    93         40
    94         13
    95        210
    96        218
    97         72
    98          9
    99          1
   103          1
   104          1
   105          9
   106          2
   107         29
   108         18
   109        622
   110        206
   111         23
   112          1
   115          1
   117          1
   119          4
   120          1
   121         30
   122         12
   123        137
   124         41
   125          9
   133          2
   134          1
   135         35
   136          6
   137         18
   138          4
   139          1
   147          2
   149         23
   150         11
   151        196
   152         23
   153          1
   161          1
   162          1
   163         16
   164         37
   165         18
   166        745
   167         99
   168          6
   175          1
   177          2
   189          1
   190          1
   191         83
   192         12
   193          1
   204          1
   205          3
   206         15
   207          5
   208          1
   209         27
   210          4
   224          1