##TITLE=Library Entry 7412
##JCAMP-DX=Revision 4.10 
##DATA TYPE=MASS SPECTRUM
##SAMPLE DESCRIPTION=Chemical Concepts
##NAMES=HP
##CAS NAME=Cyclohexanone, 2-(1-methyl-2-oxopropyl)-
##MOLFORM=C10H16O2
##CAS REGISTRY NO=67722-25-2
##MP= -300
##BP= -300
##MW= 168
##$RETENTION INDEX=0
##$CONDENSED SPECTRUM=NO
##NPOINTS= 74
##XYDATA=(XY..XY) 1 
    27        221
    29        150
    31          4
    37          2
    38         11
    39        218
    41        319
    42         83
    43        999
    44         15
    45         11
    50          9
    51         28
    52          9
    53         94
    54         50
    55        758
    56         51
    57         45
    58         11
    59          5
    62          6
    63          8
    64          2
    65         17
    66         13
    67        106
    68         36
    69        173
    70         32
    71         17
    72        116
    73          6
    74          6
    75          6
    76          0
    77         22
    78         26
    79        135
    80         19
    81        122
    82         33
    83        122
    84         94
    85         58
    86         19
    87          6
    91         21
    92         10
    93        100
    94         11
    95         19
    96         22
    97        735
    98        190
    99         12
   105         10
   107         26
   108        125
   109         18
   110          6
   111        249
   112         24
   121          7
   122         26
   125        210
   126        174
   127         22
   135          8
   149          5
   150         13
   153         13
   168         73
   169          8