##TITLE=Library Entry 5731
##JCAMP-DX=Revision 4.10 
##DATA TYPE=MASS SPECTRUM
##SAMPLE DESCRIPTION=H.J. MOECKEL & J. WEISS, HAHN-MEITNER-INST. BERLIN, W.
 G
##NAMES=HP
##CAS NAME=Disulfide, pentyl propyl
##MOLFORM=C8H18S2
##CAS REGISTRY NO=67727-99-5
##MP= -300
##BP= -300
##MW= 178
##$RETENTION INDEX=1304
##$CONDENSED SPECTRUM=NO
##NPOINTS= 87
##XYDATA=(XY..XY) 1 
    15         23
    23          0
    24          0
    25          1
    26         24
    27        351
    29        284
    30         20
    33          1
    34          0
    35          6
    37          3
    38         19
    39        217
    40         21
    41        638
    42        135
    43        999
    44         73
    45        115
    46         62
    47         82
    48          4
    49          4
    50          1
    51          3
    52          1
    53         14
    54          6
    55         73
    56          4
    58         14
    59         28
    60         13
    61         12
    62          1
    63          2
    64         17
    65          7
    66         35
    67         10
    68          8
    69         31
    70         17
    71        156
    72         13
    73         38
    74         17
    75          7
    76          1
    77          0
    78          6
    79         26
    80          1
    81          1
    86          0
    87          6
    88          0
    89          0
    91          0
    92          0
    93          1
    94          0
    99          0
   101          3
   102          6
   103         23
   104          2
   105          1
   106          2
   107         17
   108        183
   109         11
   110         16
   111          0
   112          0
   121          0
   135          0
   136         12
   137          1
   138          1
   177          5
   178        124
   179         17
   180         12
   181          1
   182          0