##TITLE=Library Entry 29539
##JCAMP-DX=Revision 4.10 
##DATA TYPE=MASS SPECTRUM
##SAMPLE DESCRIPTION=Chemical Concepts
##NAMES=HP
##CAS NAME=Propanedioic acid, diazo-, dimethyl ester
##MOLFORM=C5H6N2O4
##CAS REGISTRY NO=6773-29-1
##MP= -300
##BP= -300
##MW= 158
##$RETENTION INDEX=0
##$CONDENSED SPECTRUM=NO
##NPOINTS= 44
##XYDATA=(XY..XY) 1 
    26         69
    27        110
    28        359
    29        286
    30         62
    31         79
    32         24
    33          1
    40        123
    41         75
    42         34
    43        146
    44         34
    45         37
    51          1
    52          1
    53          4
    54         19
    55         35
    56         14
    58          9
    59        999
    60         21
    61          3
    68         98
    69        124
    70         11
    71          2
    74         10
    76          2
    77          5
    79          3
    83          5
    85          3
    92          1
    99         86
   100          4
   101          1
   107          1
   127        111
   128          5
   158        206
   159         11
   160          1