##TITLE=Library Entry 96571
##JCAMP-DX=Revision 4.10 
##DATA TYPE=MASS SPECTRUM
##SAMPLE DESCRIPTION=Chemical Concepts
##NAMES=HP
##CAS NAME=Butanoic acid, 2-ethyl-2,3,3-trimethyl-, methyl ester
##MOLFORM=C10H20O2
##CAS REGISTRY NO=67732-11-0
##MP= -300
##BP= -300
##MW= 172
##$RETENTION INDEX=0
##$CONDENSED SPECTRUM=NO
##NPOINTS= 103
##XYDATA=(XY..XY) 1 
    25          1
    26          3
    27         72
    28          9
    29        149
    30          6
    31          2
    33          1
    34          1
    35          0
    36          1
    37          1
    38          7
    39         76
    40         12
    41        314
    42         17
    43         88
    44          6
    45         11
    46          0
    47          1
    49          1
    50          3
    51          8
    52          2
    53         31
    54          8
    55        136
    56         28
    57        517
    58         28
    59        106
    60          5
    61          1
    62          2
    63          2
    64          2
    65          3
    66          5
    67         17
    68          6
    69         87
    70          6
    71         22
    72          2
    73        137
    74         10
    75          0
    76          1
    77          3
    78          1
    79          4
    80          2
    81          4
    82          4
    83         58
    84         23
    85          6
    86          1
    87         34
    88          9
    91          1
    92          0
    93          3
    94          1
    95          3
    96          4
    97         92
    98         19
    99          2
   101        929
   102         52
   103          4
   104          1
   105          0
   107          0
   108          0
   109          1
   110          2
   111          3
   112          0
   113         86
   114          8
   115         44
   116        999
   117         78
   118          5
   119          2
   120          1
   125          7
   126          1
   127          3
   128          1
   129          7
   130          1
   141         16
   142          2
   157         30
   158          4
   159          1
   173          1
   174          1