##TITLE=Library Entry 8723
##JCAMP-DX=Revision 4.10 
##DATA TYPE=MASS SPECTRUM
##SAMPLE DESCRIPTION=NIST Mass Spectrometry Data Center, 1995
##NAMES=HP
##CAS NAME=Prochloraz
##MOLFORM=C15H16Cl3N3O2
##CAS REGISTRY NO=67747-09-5
##MP= -300
##BP= -300
##MW= 375
##$RETENTION INDEX=0
##$CONDENSED SPECTRUM=NO
##NPOINTS= 210
##XYDATA=(XY..XY) 1 
    11          1
    12          1
    13          2
    15         38
    17          3
    18         14
    27        195
    28        101
    29         48
    30         47
    35          2
    36          9
    37          4
    38          9
    39         46
    40        198
    41        364
    42        252
    43        999
    44         95
    45          0
    48          1
    49          3
    50          3
    51          3
    52          4
    53         10
    54         26
    55         18
    56        159
    57         23
    58          4
    60          2
    61         10
    62         19
    63         13
    65          3
    66          5
    67         28
    68        152
    69         78
    70        812
    71         37
    72         23
    73         16
    74         12
    75          9
    77          1
    79          2
    81         76
    82         12
    83         14
    84         35
    85         46
    86         20
    87          3
    89          6
    90          2
    93          2
    94         10
    95         88
    96         13
    97         53
    98         15
    99         22
   100          5
   101          1
   106          3
   107         20
   108          8
   109         31
   110          8
   111         12
   112         10
   113          4
   118          1
   119          2
   120          1
   121          2
   123          7
   124          5
   125         11
   126          5
   127          3
   128          2
   131          4
   132         21
   133         17
   134         16
   135         10
   136          7
   137          4
   138         57
   139         11
   143         17
   144          7
   145         17
   146         10
   147          8
   148          5
   149          2
   150          4
   151          2
   152          3
   153          4
   158          2
   159         14
   160         11
   161         16
   162         29
   163          7
   164         15
   165          2
   166          2
   167         38
   168          2
   169         35
   170          3
   171         12
   172          2
   173          5
   174          2
   175          7
   176          2
   177          4
   178         12
   179          2
   180        663
   181         82
   182         10
   183          5
   184          2
   187          4
   188          9
   189          6
   190          7
   191          3
   192          1
   193          6
   194          1
   195         36
   196         63
   197         49
   198         61
   199         29
   200         22
   201          7
   202         11
   203          3
   204          5
   205          2
   206          1
   207          3
   208          1
   209          5
   210          2
   211          4
   212          1
   216         10
   218          6
   219          1
   220          1
   222          3
   223         54
   224          7
   225         51
   226          5
   227         20
   228          4
   229          3
   230          4
   231          2
   232          2
   238          3
   240          4
   242          2
   244         10
   245          6
   246          7
   247          4
   248          1
   252          3
   254          3
   255          1
   256          1
   263          1
   264          1
   266        226
   267         32
   268        216
   269         26
   270         69
   271          8
   272          6
   273          4
   275          2
   280          5
   281          2
   282          4
   308        603
   309         88
   310        597
   311         80
   312        205
   313         27
   314         23
   315          3
   319          5
   321          4
   323          2