##TITLE=Library Entry 32970
##JCAMP-DX=Revision 4.10 
##DATA TYPE=MASS SPECTRUM
##SAMPLE DESCRIPTION=Chemical Concepts
##NAMES=HP
##CAS NAME=9-Borabicyclo[3.3.1]nonane, 9-cyclooctyl-
##MOLFORM=C16H29B
##CAS REGISTRY NO=67753-92-8
##MP= -300
##BP= -300
##MW= 232
##$RETENTION INDEX=0
##$CONDENSED SPECTRUM=NO
##NPOINTS= 148
##XYDATA=(XY..XY) 1 
    25          4
    26         35
    27        229
    28         49
    29        130
    30          6
    36         12
    37         40
    38         39
    39        320
    40        129
    41        673
    42         74
    43         41
    44          2
    45          3
    49          5
    50         52
    51        135
    52        139
    53        395
    54        504
    55        333
    56         78
    57         14
    59         10
    60          3
    61          7
    62         10
    63         41
    64         92
    65        283
    66        293
    67        999
    68        289
    69        255
    70         25
    71          5
    73          6
    74          6
    75          5
    76         47
    77        200
    78        182
    79        520
    80        377
    81        744
    82        863
    83         86
    84          5
    86          4
    87          9
    88         12
    89         41
    90         79
    91        280
    92        311
    93        659
    94        639
    95        298
    96         57
    97         25
    98          2
    99          4
   100          2
   101          2
   102          5
   103         14
   104         24
   105         68
   106         79
   107        119
   108        192
   109        185
   110        534
   111         90
   112          8
   113          8
   114          4
   115          6
   116          6
   117         18
   118         29
   119        112
   120        231
   121        288
   122        392
   123         75
   124         14
   125          6
   126          3
   127          6
   128          2
   130          3
   131          8
   132         18
   133         59
   134         77
   135         33
   136         21
   137          7
   138         12
   139          2
   141          2
   143          4
   144          2
   145          5
   146         17
   147         49
   148         57
   149         30
   150         17
   151          3
   153          3
   156          3
   157          2
   158          2
   159          4
   160          6
   161         18
   162         29
   163          5
   164          4
   173          3
   174          5
   175         17
   176         13
   177          7
   180          2
   183          2
   187          3
   188          8
   189         15
   190         13
   191          4
   195          3
   202          2
   203          8
   204         14
   215          4
   216          3
   217          9
   218          2
   229          3
   231         52
   232        219
   233         37
   234          2