##TITLE=Library Entry 76199
##JCAMP-DX=Revision 4.10 
##DATA TYPE=MASS SPECTRUM
##SAMPLE DESCRIPTION=L. CARLSEN, CHEM. DEP., RISO NATL. LAB., ROSKILDE, DENM
A
##NAMES=HP
##CAS NAME=Tetrathiafulvalene S-oxide
##MOLFORM=C6H4OS4
##CAS REGISTRY NO=67761-49-3
##MP= -300
##BP= -300
##MW= 220
##$RETENTION INDEX=0
##$CONDENSED SPECTRUM=NO
##NPOINTS= 31
##XYDATA=(XY..XY) 1 
    57        165
    58        310
    59         45
    60         45
    64        110
    68        146
    69        145
    76        575
    78         50
    88        325
    89         40
    90        115
   101         70
   102        999
   103        165
   104        114
   127         94
   128         37
   130         45
   134        135
   140         60
   146        522
   147         72
   148        101
   159        259
   161         42
   178        116
   204        934
   205        199
   206         85
   220        133