##TITLE=Library Entry 5120
##JCAMP-DX=Revision 4.10 
##DATA TYPE=MASS SPECTRUM
##SAMPLE DESCRIPTION=Div. of Experiment Therapeutics WRAIR, WRAMC, Washingto
n DC 20307
##NAMES=HP
##CAS NAME=3-[4-Chlorophenyl]-6-[4-morpholinyl]-1,2,4,5-tetrazine
##MOLFORM=C12H12ClN5O
##CAS REGISTRY NO=67766-73-8
##MP= -300
##BP= -300
##MW= 277
##$RETENTION INDEX=0
##$CONDENSED SPECTRUM=NO
##NPOINTS= 69
##XYDATA=(XY..XY) 1 
    42        999
    43         48
    44         28
    45          9
    47          8
    49         40
    50         48
    51         64
    53         77
    54        156
    55        351
    56          3
    57        104
    58          9
    60          4
    61          5
    62         18
    63         11
    67         31
    68          6
    69         14
    70         32
    72         31
    73         19
    74          3
    75         99
    76         41
    77          5
    78          1
    79          1
    81         23
    82         54
    84         42
    85         24
    86         27
    87         11
    88          7
    89          1
    91          1
    97          7
    99         10
   100         14
   101          2
   102        150
   103         10
   104          1
   105          1
   107          1
   109          3
   110         10
   111         46
   112        577
   113         55
   114          4
   115          1
   123          6
   125          3
   137        205
   139        129
   140          9
   141         18
   142          1
   149          2
   170          1
   196          1
   277        174
   278         24
   279         62
   280          7