##TITLE=Library Entry 26729
##JCAMP-DX=Revision 4.10 
##DATA TYPE=MASS SPECTRUM
##SAMPLE DESCRIPTION=W.Jennings, T.Shibamoto
##NAMES=HP
##CAS NAME=Benzeneethanol, .alpha.,.alpha.-dimethyl-, propanoate
##MOLFORM=C13H18O2
##CAS REGISTRY NO=67785-77-7
##MP= -300
##BP= -300
##MW= 206
##$RETENTION INDEX=0
##$CONDENSED SPECTRUM=NO
##NPOINTS= 23
##XYDATA=(XY..XY) 1 
    29        229
    55         28
    56          7
    57        999
    58        122
    59         79
    63          7
    91        229
    92         59
   104         19
   105          7
   115        211
   116         19
   117        187
   118         19
   131         19
   132        412
   133        209
   134         19
   135         39
   148        139
   149          7
   191          7