##TITLE=Library Entry 89219
##JCAMP-DX=Revision 4.10 
##DATA TYPE=MASS SPECTRUM
##SAMPLE DESCRIPTION=James Little,Eastman Chem.Co.,Kingsport,TN
##NAMES=HP
##CAS NAME=3-Methyl-5-hydrazinopyrazine
##MOLFORM=C4H8N4
##CAS REGISTRY NO=67790-09-4
##MP= -300
##BP= -300
##MW= 112
##$RETENTION INDEX=0
##$CONDENSED SPECTRUM=NO
##NPOINTS= 30
##XYDATA=(XY..XY) 1 
    28        202
    35        250
    37         98
    39        169
    40         80
    41        297
    42        273
    51         17
    52         57
    53         15
    54         27
    55         15
    56         26
    65         14
    66         91
    67        239
    68         25
    69          5
    75          9
    81         31
    82         55
    83         18
    88          8
    95         11
    96         62
    97         40
   110          7
   111         20
   112        999
   113         66