##TITLE=Library Entry 36182
##JCAMP-DX=Revision 4.10 
##DATA TYPE=MASS SPECTRUM
##SAMPLE DESCRIPTION=Exported from NIST MS Search
##NAMES=HP
##CAS NAME=Pentane, dodecafluoro-
##MOLFORM=C5F12
##CAS REGISTRY NO=678-26-2
##MP= -300
##BP= -300
##MW= 288
##$RETENTION INDEX=0
##$CONDENSED SPECTRUM=NO
##NPOINTS= 24
##XYDATA=(XY..XY) 1 
    19          1
    31         61
    50         23
    55          1
    62          3
    69        999
    74          2
    81          5
    93         16
   100         65
   112          3
   119        299
   124          1
   125          1
   131         66
   143          1
   150         12
   162          1
   169        105
   181         33
   200          3
   219          3
   269          8
   288          1