##TITLE=Library Entry 1552
##JCAMP-DX=Revision 4.10 
##DATA TYPE=MASS SPECTRUM
##SAMPLE DESCRIPTION=Japan AIST/NIMC Database- Spectrum MS-IW-7454
##NAMES=HP
##CAS NAME=1H,1H,2H,2H-Perfluorodecan-1-ol
##MOLFORM=C10H5F17O
##CAS REGISTRY NO=678-39-7
##MP= -300
##BP= -300
##MW= 464
##$RETENTION INDEX=0
##$CONDENSED SPECTRUM=NO
##NPOINTS= 164
##XYDATA=(XY..XY) 1 
    15          3
    17          1
    18          3
    19          5
    20          5
    26          1
    27         20
    28         23
    29        121
    30         23
    31        999
    32         25
    33          9
    39          2
    41          2
    42          6
    43         14
    44         15
    45         24
    46          3
    47         22
    49         93
    50          4
    51         52
    55          6
    56          1
    57          9
    58         18
    59          7
    63          1
    64         38
    65        204
    66          4
    67         17
    68          1
    69        339
    70          4
    71          1
    73          3
    74          1
    75         59
    76          5
    77        100
    78          5
    79          9
    81          3
    82          1
    83          3
    85          5
    86          1
    87          1
    88          1
    89          3
    91          4
    93         27
    94          3
    95        677
    96         22
    97          8
   100         53
   101          2
   104          1
   105          7
   106          3
   107         10
   108          4
   109          8
   111          1
   112          3
   113         13
   115         12
   117          1
   119         96
   120          3
   122          3
   123          2
   124          4
   125          3
   126          9
   127        160
   128          7
   131        120
   132          3
   133          8
   135          4
   137          4
   138          1
   139          3
   141          1
   143          3
   144          1
   145         18
   147          1
   150          2
   151          1
   155          1
   157         17
   158          1
   162          4
   163          6
   165          1
   169         39
   170          1
   175          3
   176          1
   177          2
   181         21
   183          1
   188          1
   193          1
   195          6
   207          2
   213          2
   219          7
   225          1
   231         10
   237          1
   243          1
   245          1
   255          1
   257          1
   263          4
   269          6
   281          6
   287          1
   295          1
   307          3
   313          7
   319          5
   325          4
   327          1
   331          8
   345          1
   347          1
   357          2
   359          2
   363          3
   367          2
   375          1
   376          2
   377          4
   394          8
   395         30
   396         38
   397          3
   405         36
   406          4
   414         21
   415         11
   416          1
   424          1
   425          1
   427          8
   441          3
   442          1
   443          1
   444         40
   445          4
   454          1
   461          3
   463         24
   464          3
   465          9
   466          1