##TITLE=Library Entry 31603
##JCAMP-DX=Revision 4.10 
##DATA TYPE=MASS SPECTRUM
##SAMPLE DESCRIPTION=NIST Mass Spectrometry Data Center, 1994
##NAMES=HP
##CAS NAME=Hexafluoroglutaryl chloride
##MOLFORM=C5Cl2F6O2
##CAS REGISTRY NO=678-77-3
##MP= -300
##BP= -300
##MW= 276
##$RETENTION INDEX=0
##$CONDENSED SPECTRUM=NO
##NPOINTS= 64
##XYDATA=(XY..XY) 1 
    12          2
    14          0
    28         38
    31        202
    32          4
    35         63
    36          8
    37         19
    38          3
    40          2
    43          8
    44          1
    47         18
    50        116
    55         10
    59          1
    63        999
    65        316
    66         12
    69        454
    70          9
    71         12
    74         19
    75         22
    78         20
    81         54
    82          2
    83          4
    84          2
    85        472
    86          2
    87        155
    88          2
    89          7
    90          4
    93         47
    94          2
    97         12
   100        400
   101         15
   103          4
   109         61
   110          2
   112          7
   113          1
   116         16
   118          4
   119          3
   131         36
   132          1
   135         32
   137         12
   147          4
   150         47
   151          2
   185        198
   187         62
   188          2
   201          4
   203          2
   213        336
   214         16
   215        111
   216          4