##TITLE=Library Entry 66496
##JCAMP-DX=Revision 4.10 
##DATA TYPE=MASS SPECTRUM
##SAMPLE DESCRIPTION=NIST Mass Spectrometry Data Center, 1994
##NAMES=HP
##CAS NAME=Ethyl N-phenylformimidate
##MOLFORM=C9H11NO
##CAS REGISTRY NO=6780-49-0
##MP= -300
##BP= -300
##MW= 149
##$RETENTION INDEX=0
##$CONDENSED SPECTRUM=NO
##NPOINTS= 74
##XYDATA=(XY..XY) 1 
    12          2
    13          2
    14         11
    15         37
    16          2
    17          1
    18          6
    19          4
    26         61
    27        287
    28        100
    29        275
    30         18
    37         38
    38         91
    39        290
    40         53
    41         34
    42         10
    43         20
    44          3
    46          2
    49         10
    50        139
    51        341
    52         75
    53         15
    54         19
    55          2
    56          2
    61         11
    62         29
    63        101
    64        119
    65        302
    66        455
    67         48
    68          2
    73          4
    74         21
    75         25
    76         63
    77        426
    78        130
    79         32
    80          4
    87          1
    88          4
    89          2
    90          9
    91         70
    92         98
    93        999
    94        110
    95          5
   104        444
   105        122
   106        122
   107         14
   118          5
   119         19
   120        125
   121        467
   122         39
   123          2
   130          7
   131         14
   132         39
   133          2
   134         48
   135          5
   149        281
   150         30
   151          2