##TITLE=Library Entry 81179
##JCAMP-DX=Revision 4.10 
##DATA TYPE=MASS SPECTRUM
##SAMPLE DESCRIPTION=Japan AIST/NIMC Database- Spectrum MS-NW-9931
##NAMES=HP
##CAS NAME=Benzene, 2-chloro-1,3-dimethyl-
##MOLFORM=C8H9Cl
##CAS REGISTRY NO=6781-98-2
##MP= -300
##BP= -300
##MW= 140
##$RETENTION INDEX=1050
##$CONDENSED SPECTRUM=NO
##NPOINTS= 72
##XYDATA=(XY..XY) 1 
    26          2
    27         19
    28          1
    29          1
    36          2
    37          4
    38         10
    39         45
    40          3
    41          3
    43          1
    49          5
    50         30
    51        118
    52         22
    53         14
    60          1
    61          8
    62         17
    63         42
    64          7
    65         13
    66          2
    68          2
    69         16
    70          9
    71          1
    72          1
    73         10
    74         13
    75         20
    76         11
    77        139
    78         79
    79         79
    80          5
    84          1
    85          3
    86          4
    87          6
    88          1
    89         20
    90          4
    91          9
    92          2
    97          2
    98          3
    99          8
   100          1
   101          9
   102         23
   103        148
   104         62
   105        999
   106         89
   107          8
   111          1
   112          1
   113          1
   121          2
   122          6
   123          1
   125         59
   126          5
   127         18
   128          1
   138          2
   139         51
   140        441
   141         54
   142        141
   143         12