##TITLE=Library Entry 49995
##JCAMP-DX=Revision 4.10 
##DATA TYPE=MASS SPECTRUM
##SAMPLE DESCRIPTION=Chemical Concepts
##NAMES=HP
##CAS NAME=1-Iododec-1-yne
##MOLFORM=C10H17I
##CAS REGISTRY NO=67826-81-7
##MP= -300
##BP= -300
##MW= 264
##$RETENTION INDEX=0
##$CONDENSED SPECTRUM=NO
##NPOINTS= 112
##XYDATA=(XY..XY) 1 
    26         19
    27        238
    28         20
    29        300
    30          8
    37         13
    38         96
    39        259
    40         48
    41        645
    42         94
    43        434
    44         25
    47          1
    48          1
    49          3
    50         40
    51        105
    52        126
    53        183
    54         68
    55        795
    56         97
    57        237
    58         12
    61          2
    62          6
    63         18
    64         15
    66        211
    67        627
    68         71
    69        210
    70         40
    71         22
    72          1
    74          2
    75          2
    76          2
    77         94
    78         23
    79        258
    80        173
    81        999
    82         99
    83         36
    84          7
    85          3
    89          2
    90          1
    91         40
    92          6
    93         63
    94         30
    95        466
    96         45
    97         25
    98          4
    99          2
   103          1
   105          4
   106          2
   107          9
   108          5
   109         16
   110          6
   111          1
   112          1
   117          1
   119          2
   121          2
   122          1
   123          2
   127         22
   128         16
   129          1
   130          1
   133          1
   134          1
   135          2
   136          2
   137         20
   138          3
   141          2
   142          1
   149          3
   152          3
   153          3
   155          2
   156          1
   165        161
   166         40
   167         23
   168          2
   176          1
   177          2
   178          7
   179          6
   180         81
   181          6
   191          2
   192          3
   193         25
   194          5
   206          2
   207         26
   208         19
   209          2
   210          1
   221          1
   264          6
   265          0