##TITLE=Library Entry 96547
##JCAMP-DX=Revision 4.10 
##DATA TYPE=MASS SPECTRUM
##SAMPLE DESCRIPTION=NIST Mass Spectrometry Data Center, 1994
##NAMES=HP
##CAS NAME=4-Bromo-2-methylbenzonitrile
##MOLFORM=C8H6BrN
##CAS REGISTRY NO=67832-11-5
##MP= -300
##BP= -300
##MW= 195
##$RETENTION INDEX=0
##$CONDENSED SPECTRUM=NO
##NPOINTS= 77
##XYDATA=(XY..XY) 1 
    14          4
    15          8
    25          4
    26         22
    27         29
    37         61
    38         88
    39        160
    40         11
    41          7
    43         15
    44         14
    48          4
    49         29
    50        134
    51         84
    52         30
    53          4
    58         61
    60         10
    61         72
    62        135
    63        230
    64         68
    65         27
    66          5
    72          3
    73         12
    74         36
    75         53
    76         33
    77          4
    79         15
    80          6
    81         15
    82          4
    83          2
    84          8
    85         24
    86         34
    87         62
    88        104
    89        384
    90         64
    91          5
    93          3
    95          2
    98         11
    99         15
   100         11
   101          3
   102          1
   104          2
   105          1
   106          2
   110          2
   111          5
   112          3
   113          1
   114         68
   115          1
   116        999
   117         96
   118          8
   119          8
   128          1
   130          2
   141          2
   143          2
   167          2
   168          5
   169          3
   170          6
   195        375
   196         59
   197        373
   198         32