##TITLE=Library Entry 34448
##JCAMP-DX=Revision 4.10 
##DATA TYPE=MASS SPECTRUM
##SAMPLE DESCRIPTION=Chemical Concepts
##NAMES=HP
##CAS NAME=4,8-Decadien-3-ol, 5,9-dimethyl-
##MOLFORM=C12H22O
##CAS REGISTRY NO=67845-54-9
##MP= -300
##BP= -300
##MW= 182
##$RETENTION INDEX=0
##$CONDENSED SPECTRUM=NO
##NPOINTS= 115
##XYDATA=(XY..XY) 1 
    26         11
    27        130
    28         22
    29        224
    30         10
    31         35
    36          4
    37          3
    38          7
    39        196
    40         41
    41        642
    42         63
    43        270
    44         37
    45         17
    50         11
    51         40
    52         25
    53        174
    54         39
    55        213
    56         46
    57        251
    58         41
    59        160
    60         12
    61          4
    62          4
    63         15
    64          8
    65         57
    66         25
    67        209
    68         70
    69        999
    70        137
    71        117
    72         22
    73         12
    74          4
    75          5
    76          4
    77        116
    78         29
    79        201
    80         56
    81        220
    82         88
    83        151
    84         43
    85         72
    86          8
    87          5
    91        113
    92         21
    93        253
    94         58
    95        567
    96        261
    97         76
    98         18
    99        220
   100         21
   101          5
   102          3
   103         10
   104          5
   105         54
   106         14
   107        154
   108        157
   109        107
   110         63
   111         31
   112         46
   113         13
   114          3
   115          9
   116          5
   117         10
   119         25
   120         52
   121        299
   122         62
   123         79
   124         99
   125         38
   126         10
   127         12
   128         12
   129          6
   133         12
   134         10
   135        131
   136         29
   137         12
   138          7
   139         25
   140          7
   141         11
   148          5
   149         75
   150         14
   153         61
   154         10
   164        184
   165         32
   166          4
   167         10
   168          2
   180          4
   181          4
   182         25
   183          5