##TITLE=Library Entry 34126
##JCAMP-DX=Revision 4.10 
##DATA TYPE=MASS SPECTRUM
##SAMPLE DESCRIPTION=Chemical Concepts
##NAMES=HP
##CAS NAME=3,7-Nonadien-2-ol, 4,8-dimethyl-
##MOLFORM=C11H20O
##CAS REGISTRY NO=67845-50-5
##MP= -300
##BP= -300
##MW= 168
##$RETENTION INDEX=1329
##$CONDENSED SPECTRUM=NO
##NPOINTS= 98
##XYDATA=(XY..XY) 1 
    26          8
    27        141
    28         39
    29        112
    30          3
    31         12
    37          3
    38          8
    39        187
    40         35
    41        832
    42         54
    43        530
    44         17
    45         60
    46          2
    50         10
    51         27
    52         13
    53        100
    54         28
    55        128
    56         29
    57         34
    58         10
    59         42
    60          2
    61          2
    62          2
    63          8
    64          3
    65         29
    66         13
    67        230
    68         56
    69        999
    70         87
    71         29
    72          5
    73          2
    75          2
    76          3
    77         32
    78          7
    79         55
    80         14
    81         87
    82        217
    83        121
    84         19
    85        113
    86         11
    91         40
    92          7
    93         61
    94        105
    95         80
    96         12
    97         46
    98         90
    99         23
   100          2
   103          3
   104          3
   105         17
   106         24
   107        227
   108         31
   109         37
   110         83
   111         64
   112         10
   113          4
   115          2
   117          2
   119          7
   120          2
   121         29
   122          7
   123         35
   124          6
   125         18
   126          3
   133          2
   134          2
   135        102
   136         12
   137          2
   141          3
   142          2
   149          3
   150         26
   151          6
   152          2
   153         21
   154          3
   168         23
   169          3