##TITLE=Library Entry 90240
##JCAMP-DX=Revision 4.10 
##DATA TYPE=MASS SPECTRUM
##SAMPLE DESCRIPTION=Exported from NIST MS Search
##NAMES=HP
##CAS NAME=Androst-5-en-17-one, 3,8,12,14-tetrahydroxy-, (3.beta.,12.beta.,1
4.beta.)-
##MOLFORM=C19H28O5
##CAS REGISTRY NO=6785-38-2
##MP= -300
##BP= -300
##MW= 336
##$RETENTION INDEX=0
##$CONDENSED SPECTRUM=NO
##NPOINTS= 224
##XYDATA=(XY..XY) 1 
    26         27
    27        264
    28        139
    29        333
    31         70
    39        277
    40         58
    41        458
    42         66
    43        406
    44         87
    45         41
    50         25
    51        141
    52         58
    53        285
    54         56
    55        479
    56         79
    57        208
    63         83
    64         31
    65        270
    66         95
    67        406
    68         62
    69        152
    70         37
    71         79
    75         35
    76         41
    77        549
    78        170
    79        549
    80         77
    81        233
    82         77
    83        145
    84         37
    85        170
    89         70
    90         25
    91        735
    92        229
    93        266
    94         87
    95        241
    96         91
    97        250
    98         37
    99         37
   101         37
   102         37
   103        120
   104         75
   105        720
   106        175
   107        222
   108         89
   109        129
   110        125
   111         58
   112         45
   113        999
   114        125
   115        291
   116         95
   117        183
   118         66
   119        200
   120        610
   121        304
   122        118
   123        152
   124         41
   125         62
   126        100
   127        118
   128        262
   129        245
   130         77
   131        162
   132         62
   133        120
   134         87
   135         83
   136         50
   137         45
   138        216
   139        100
   140         25
   141        187
   142        108
   143        162
   144        100
   145        191
   146         75
   147        327
   148         72
   149         56
   150         25
   151         58
   152        120
   153        104
   154         45
   155        116
   156         45
   157        120
   158         58
   159        150
   160         58
   161        162
   162        195
   163        225
   164         54
   165        204
   166         70
   167         83
   168         41
   169         68
   170         37
   171        104
   172         37
   173         75
   174         66
   175         62
   176         54
   177         70
   178        108
   179        104
   180        187
   181        118
   182         41
   183         68
   184         25
   185         54
   186         41
   187         50
   188         37
   189        129
   190         37
   191         66
   192         45
   193         68
   194         37
   195         62
   196         27
   197         62
   198         25
   199         41
   200         20
   201         25
   202         41
   203         41
   204         66
   205         77
   206         41
   207         83
   208         37
   209         50
   210         29
   211         58
   212         20
   213         37
   215         37
   216         16
   217         16
   218         12
   219         20
   220         14
   221         66
   222        254
   223         87
   224         29
   225         50
   226         25
   227         25
   228         12
   229         12
   231         72
   232         16
   233         16
   234         12
   235         12
   236         16
   237         12
   238         16
   239         45
   240         16
   241         16
   243         14
   246         14
   247         14
   248          8
   249         79
   250         20
   251         16
   253         14
   254         20
   257         14
   262         14
   264         68
   265         16
   266         27
   267         97
   280         12
   282        129
   283         31
   284         16
   285        183
   286         37
   300         79
   301         31
   302         16
   303        125
   304         20
   318        243
   319         45
   320          4
   321        131
   322         20
   336        535
   337        104
   338         14