##TITLE=Library Entry 35222
##JCAMP-DX=Revision 4.10 
##DATA TYPE=MASS SPECTRUM
##SAMPLE DESCRIPTION=Exported from NIST MS Search
##NAMES=HP
##CAS NAME=Cyclopentane, undecyl-
##MOLFORM=C16H32
##CAS REGISTRY NO=6785-23-5
##MP= -300
##BP= -300
##MW= 224
##$RETENTION INDEX=1660
##$CONDENSED SPECTRUM=NO
##NPOINTS= 71
##XYDATA=(XY..XY) 1 
    39        160
    40         30
    41        910
    42        170
    43        630
    44         20
    53         80
    54        110
    55        800
    56        360
    57        550
    58         30
    65         20
    66         40
    67        380
    68        970
    69        999
    70        350
    71        250
    72         10
    77         20
    78         10
    79         40
    80         10
    81        100
    82        480
    83        780
    84        250
    85        150
    91         20
    92         10
    93         10
    94         10
    95         80
    96        120
    97        440
    98        160
    99         40
   109         20
   110         60
   111        250
   112        110
   113         30
   123         20
   124         40
   125        150
   126         80
   127         20
   137         10
   138         30
   139         70
   140         60
   141         20
   152         20
   153         40
   154         60
   155         20
   166         10
   167         30
   168         30
   169         10
   180         10
   181         20
   182         20
   183         10
   195         10
   196         60
   197         10
   222         20
   224        160
   225         30