##TITLE=Library Entry 77041
##JCAMP-DX=Revision 4.10 
##DATA TYPE=MASS SPECTRUM
##SAMPLE DESCRIPTION=R.A. CORRAL, DIV. QUIM. ORG., UNIV. NAC. LA PLATA
##NAMES=HP
##CAS NAME=1-Methyl-3-.beta.-phenylethyl-2,4,5-trioxoimidazolidine
##MOLFORM=C12H12N2O3
##CAS REGISTRY NO=67867-43-0
##MP= -300
##BP= -300
##MW= 232
##$RETENTION INDEX=0
##$CONDENSED SPECTRUM=NO
##NPOINTS= 23
##XYDATA=(XY..XY) 1 
    41         20
    50         10
    51         30
    52         10
    56         80
    57         20
    58         10
    63         20
    64         10
    65         70
    70         10
    77         40
    78         30
    79         10
    89         10
    90         10
    91        420
    92         40
   103         30
   104        999
   105        100
   147         10
   232         50