##TITLE=Library Entry 63750
##JCAMP-DX=Revision 4.10 
##DATA TYPE=MASS SPECTRUM
##SAMPLE DESCRIPTION=R.A. CORRAL, DIV. QUIM. ORG., UNIV. NAC. LA PLATA
##NAMES=HP
##CAS NAME=1-Benzyl-3-methyl-2,4,5-trioxoimidazolidine
##MOLFORM=C11H10N2O3
##CAS REGISTRY NO=67867-42-9
##MP= -300
##BP= -300
##MW= 218
##$RETENTION INDEX=0
##$CONDENSED SPECTRUM=NO
##NPOINTS= 38
##XYDATA=(XY..XY) 1 
    40         10
    41         30
    43         10
    44         20
    50         40
    51        100
    52         20
    56         40
    57         30
    58         90
    62         10
    63         40
    64         10
    65        160
    66         10
    70         40
    74         10
    75         10
    76         20
    77        100
    78         50
    89         40
    90         30
    91        999
    92         90
   103         10
   104         40
   105         90
   106         20
   118         20
   132        130
   133        440
   134         40
   161        170
   162         20
   190        110
   191         10
   218        770