##TITLE=Library Entry 44762
##JCAMP-DX=Revision 4.10 
##DATA TYPE=MASS SPECTRUM
##SAMPLE DESCRIPTION=LAC, NIDDK, NIH, Bethesda, MD 20892
##NAMES=HP
##CAS NAME=9-Bromononanoic acid, methyl(ester)
##MOLFORM=C10H19BrO2
##CAS REGISTRY NO=67878-15-3
##MP= -300
##BP= -300
##MW= 250
##$RETENTION INDEX=0
##$CONDENSED SPECTRUM=NO
##NPOINTS= 122
##XYDATA=(XY..XY) 1 
    41        233
    42         61
    43        202
    44         17
    45         42
    49          1
    51          2
    53         29
    54         24
    55        321
    56         44
    57         92
    58          8
    59        160
    60         11
    61          2
    65          7
    67         49
    68         27
    69        177
    70         27
    71         39
    72          4
    73         35
    74        999
    75         71
    76          2
    77         11
    79         21
    80         10
    81         41
    82         23
    83         89
    84         82
    85         33
    87        383
    88         37
    89         13
    91          9
    93         17
    94         10
    95         38
    96         30
    97        100
    98         87
    99         16
   100          2
   101         40
   102          2
   103          5
   105          7
   107         23
   108          1
   109         30
   110         16
   111         39
   112         15
   113         11
   114          6
   115         22
   116          6
   117          2
   119          8
   120          4
   121         25
   122          3
   123         10
   124         14
   125         68
   126          9
   127          9
   129         24
   133         10
   134          4
   135         15
   137         17
   138         56
   139         83
   140         10
   141          4
   142          2
   143         24
   144         10
   147          2
   148         10
   149         11
   150          4
   151          8
   154          2
   155          7
   156          3
   157         53
   158         10
   161          9
   165          2
   166         38
   167          7
   169          2
   170          9
   171         85
   172         11
   174          3
   176          7
   178          4
   187          6
   191          2
   198          7
   199         78
   200         11
   205          3
   207         29
   209         28
   219         48
   221         62
   222          7
   223         10
   225          1
   227          1
   249          2
   250          7
   252          8
   253          2