##TITLE=Library Entry 55549
##JCAMP-DX=Revision 4.10 
##DATA TYPE=MASS SPECTRUM
##SAMPLE DESCRIPTION=JACSAT, 100(17)5512(1978); B. M. TROST ET AL.
##NAMES=HP
##CAS NAME=1H-Inden-5-ol, 2,3,5,6,7,7a-hexahydro-7a-methyl-1-[(tetrahydro-2H
-pyran-2-yl)oxy]-, (1.alpha.,5.alpha.,7a.alpha.)-
##MOLFORM=C15H24O3
##CAS REGISTRY NO=67884-35-9
##MP= -300
##BP= -300
##MW= 252
##$RETENTION INDEX=0
##$CONDENSED SPECTRUM=NO
##NPOINTS= 15
##XYDATA=(XY..XY) 1 
    84         50
    85        999
    86         70
   106         90
   108         60
   132        140
   133         30
   135         20
   150        800
   151        110
   152         10
   166         60
   167         20
   168         20
   234        100