##TITLE=Library Entry 81018
##JCAMP-DX=Revision 4.10 
##DATA TYPE=MASS SPECTRUM
##SAMPLE DESCRIPTION=NIST Mass Spectrometry Data Center
##NAMES=HP
##CAS NAME=Benzoic acid, hexyl ester
##MOLFORM=C13H18O2
##CAS REGISTRY NO=6789-88-4
##MP= -300
##BP= -300
##MW= 206
##$RETENTION INDEX=1580
##$CONDENSED SPECTRUM=NO
##NPOINTS= 65
##XYDATA=(XY..XY) 1 
    26          1
    27         30
    28          2
    29         37
    30          1
    31          1
    38          2
    39         34
    40          5
    41         83
    42         44
    43         61
    44          3
    45          1
    50         31
    51        117
    52          8
    53          9
    54          8
    55         84
    56        165
    57         12
    62          1
    63          1
    65          5
    66          1
    67          6
    68          2
    69         78
    70          4
    74          9
    75          9
    76         26
    77        460
    78         39
    79         81
    80          5
    82          1
    83         10
    84        114
    85          7
    91          3
    92          1
    93          1
    94          2
   103          1
   105        999
   106         88
   107          8
   118          1
   120          3
   121          3
   122        181
   123        996
   124         83
   125          6
   133          1
   135          9
   136          2
   149          2
   163          7
   164          1
   189          1
   206         14
   207          3