##TITLE=Library Entry 2118
##JCAMP-DX=Revision 4.10 
##DATA TYPE=MASS SPECTRUM
##SAMPLE DESCRIPTION=TNO Volatile Compounds in Food - Chemical Concepts
##NAMES=HP
##CAS NAME=3-Hexenal, (Z)-
##MOLFORM=C6H10O
##CAS REGISTRY NO=6789-80-6
##MP= -300
##BP= -300
##MW= 98
##$RETENTION INDEX=800
##$CONDENSED SPECTRUM=NO
##NPOINTS= 54
##XYDATA=(XY..XY) 1 
    26         53
    27        417
    28         87
    29        249
    30          4
    31         14
    32          3
    35          5
    37         20
    38         46
    39        472
    40         56
    41        999
    42        442
    43        136
    44         25
    45          5
    48          4
    50         32
    51         36
    52          9
    53         94
    54         67
    55        406
    56         77
    57         75
    58          5
    60          2
    61          8
    62          5
    63         12
    65         17
    67         45
    68         24
    69        358
    70        105
    71          6
    75          4
    76          2
    77          8
    78          4
    79         27
    80         64
    81         21
    82          3
    83        134
    84          5
    93          2
    94          4
    95          1
    96          4
    97         27
    98         77
    99          2