##TITLE=Library Entry 40024
##JCAMP-DX=Revision 4.10 
##DATA TYPE=MASS SPECTRUM
##SAMPLE DESCRIPTION=Japan AIST/NIMC Database- Spectrum MS-NW-5750
##NAMES=HP
##CAS NAME=3-Piperidinamine, 1-ethyl-
##MOLFORM=C7H16N2
##CAS REGISTRY NO=6789-94-2
##MP= -300
##BP= -300
##MW= 128
##$RETENTION INDEX=0
##$CONDENSED SPECTRUM=NO
##NPOINTS= 73
##XYDATA=(XY..XY) 1 
    13          1
    15         30
    26          8
    27         58
    28        111
    29         57
    30        130
    31          2
    37          1
    38          2
    39         28
    40          8
    41         68
    42        345
    43        227
    44        173
    45          7
    50          2
    51          3
    52          4
    53         10
    54         24
    55         29
    56        113
    57        354
    58        150
    59          7
    60          1
    65          3
    66          2
    67         12
    68         27
    69         38
    70        274
    71         34
    72        999
    73         50
    74          1
    77          2
    78          1
    79          3
    80          9
    81          5
    82         36
    83         15
    84         72
    85        743
    86         46
    87          1
    91          2
    93          1
    94          3
    95          3
    96         71
    97         10
    98         42
    99         17
   100          2
   105          1
   106          3
   107          2
   108          4
   109          2
   110         32
   111         19
   112          8
   113         54
   114          5
   125          2
   126          3
   127          9
   128        119
   129         10