##TITLE=Library Entry 49693
##JCAMP-DX=Revision 4.10 
##DATA TYPE=MASS SPECTRUM
##SAMPLE DESCRIPTION=Exported from NIST MS Search
##NAMES=HP
##CAS NAME=Ethane, 2-bromo-2-chloro-1,1-difluoro-1-methoxy-
##MOLFORM=C3H4BrClF2O
##CAS REGISTRY NO=679-89-0
##MP= -300
##BP= -300
##MW= 208
##$RETENTION INDEX=0
##$CONDENSED SPECTRUM=NO
##NPOINTS= 85
##XYDATA=(XY..XY) 1 
    13          2
    14          3
    15        123
    16          2
    17          2
    18          7
    26          1
    27          5
    28         17
    29         16
    30          3
    31         14
    32          6
    33          1
    35          2
    36          5
    38          2
    41          2
    42          1
    43          2
    44         10
    45          2
    47         29
    48         13
    49          6
    50          6
    51         14
    60          2
    63         14
    64          2
    65          2
    66          1
    67         30
    69         10
    76          4
    78          3
    79         13
    80          3
    81        999
    82         24
    83          3
    85          2
    91          5
    92          7
    93          7
    94          8
    95         19
    96          2
    97         10
    98         51
    99          3
   100         17
   110         16
   111         11
   112          6
   113         11
   120          1
   122          2
   123          2
   125          2
   126          3
   127         58
   128          4
   129         86
   130          2
   131         23
   139          6
   141          7
   142         10
   143          2
   144         10
   145          2
   147          2
   176          3
   177         24
   178          4
   179         30
   180          2
   181          8
   189          5
   191          7
   193          2
   208         11
   210         14
   212          4