##TITLE=Library Entry 43042
##JCAMP-DX=Revision 4.10 
##DATA TYPE=MASS SPECTRUM
##SAMPLE DESCRIPTION=G.S. KING, CHEM. PATHOL. DEP., QUEEN CHARLOTTE'S HOSP.,
 LONDON
##NAMES=HP
##CAS NAME=Ethyl (2-hydroxyphenyl)acetate, TMS derivative
##MOLFORM=C13H20O3Si
##CAS REGISTRY NO=67903-47-3
##MP= -300
##BP= -300
##MW= 252
##$RETENTION INDEX=0
##$CONDENSED SPECTRUM=NO
##NPOINTS= 121
##XYDATA=(XY..XY) 1 
    40         16
    41         44
    42         32
    43        148
    44        108
    45        256
    46         12
    47         56
    51         20
    52          8
    53         12
    55         20
    56         20
    57         16
    58         12
    59        100
    60         12
    61         52
    63         12
    64          8
    65         16
    66          8
    67         12
    68         12
    69         12
    70         12
    71          8
    72         40
    73        999
    74         96
    75        480
    76         44
    77        104
    78         40
    79         16
    81         12
    82         28
    83          8
    84         12
    85          8
    89         44
    90         28
    91         72
    93         12
    95          8
    97         12
   101          8
   102         12
   103         60
   104         12
   105         84
   106         76
   107         24
   114          8
   115          8
   116         28
   117         12
   118          8
   119         20
   121         32
   123          8
   128          8
   131         20
   132          8
   133         72
   134        252
   135         96
   136         12
   137         16
   144         12
   147        160
   148         32
   149        180
   150         36
   151         52
   152          8
   153          8
   156          8
   157          8
   158          8
   161         44
   162          8
   163        416
   164        116
   165        204
   166         32
   167         12
   169          8
   172          8
   175         16
   176          8
   177         92
   178         20
   179        360
   180         48
   181        584
   182         84
   183         28
   184          8
   185          8
   187          8
   188         12
   191         12
   192          8
   193         40
   206         32
   207         88
   208         24
   209        480
   210         76
   211         20
   217          8
   223          8
   225          8
   237        480
   238         88
   239         20
   252        372
   253         96
   254         28
   257          8