##TITLE=Library Entry 83650
##JCAMP-DX=Revision 4.10 
##DATA TYPE=MASS SPECTRUM
##SAMPLE DESCRIPTION=Chemical Concepts
##NAMES=HP
##CAS NAME=Benzenemethanol, .alpha.-(phosphinomethyl)-
##MOLFORM=C8H11OP
##CAS REGISTRY NO=6790-04-1
##MP= -300
##BP= -300
##MW= 154
##$RETENTION INDEX=0
##$CONDENSED SPECTRUM=NO
##NPOINTS= 89
##XYDATA=(XY..XY) 1 
    29         24
    31         38
    33         62
    34        189
    35         36
    37          8
    38         17
    39         79
    40          4
    41          8
    42          0
    43         24
    44         15
    45         55
    46         44
    47         96
    48         73
    49         20
    50         86
    51        231
    52         68
    53         19
    54          1
    55          1
    56          3
    57         11
    60          2
    61         36
    62        102
    63         43
    64         11
    65         36
    66          4
    67          4
    68          2
    69          3
    71          0
    73          5
    74         30
    75         24
    76         37
    77        402
    78        300
    79        604
    80         33
    81          7
    82          1
    83          5
    84          0
    85          1
    86          2
    87          4
    88          0
    89         14
    90          3
    91        131
    92         17
    93          2
    94          1
    95          2
    96          1
    97          1
    98          3
    99          2
   100          1
   101          4
   102         40
   103        272
   104        555
   105         79
   106         21
   107        999
   108         79
   109         21
   110         15
   111          0
   119          1
   120          5
   121          5
   122          0
   133         16
   134          4
   135         13
   136         59
   137          9
   139          0
   151          1
   154         15
   155          1