##TITLE=Library Entry 32417
##JCAMP-DX=Revision 4.10 
##DATA TYPE=MASS SPECTRUM
##SAMPLE DESCRIPTION=D.HENNEBERG, MAX-PLANCK INSTITUTE, MULHEIM, WEST GERMAN
Y
##NAMES=HP
##CAS NAME=3-Dodecyne
##MOLFORM=C12H22
##CAS REGISTRY NO=6790-27-8
##MP= -300
##BP= -300
##MW= 166
##$RETENTION INDEX=1212
##$CONDENSED SPECTRUM=NO
##NPOINTS= 111
##XYDATA=(XY..XY) 1 
    22          0
    23          0
    25          2
    26          9
    27        155
    28         22
    29        212
    30          4
    31          0
    34          0
    35          1
    36          0
    37          5
    38          7
    39        180
    40         49
    41        546
    42         74
    43        274
    44          4
    45          0
    48          1
    49          1
    50          9
    51         36
    52         28
    53        127
    54        106
    55        469
    56         72
    57        135
    58          5
    60          0
    61          1
    62          3
    63         15
    64          6
    65         68
    66         75
    67        999
    68        352
    69        156
    70         29
    71          4
    72          0
    73          0
    74          1
    75          5
    76          2
    77         74
    78         33
    79        160
    80         47
    81        457
    82        258
    83         43
    84          6
    85          1
    89          1
    90          0
    91         47
    92          8
    93         43
    94         14
    95        306
    96         65
    97         13
    98          2
   102          0
   103          1
   104          1
   105         10
   106          2
   107         21
   108          8
   109        258
   110         93
   111          7
   115          3
   116          0
   117          3
   118          0
   119          4
   120          0
   121          7
   122          2
   123         57
   124         18
   125          1
   127          0
   128          2
   129          1
   131          2
   133          1
   135          8
   136          1
   137         41
   138          4
   141          1
   143          0
   151          1
   152          1
   153          1
   154          0
   155          0
   156          0
   160          0
   162          3
   164          6
   165          0
   166          3