##TITLE=Library Entry 54026
##JCAMP-DX=Revision 4.10 
##DATA TYPE=MASS SPECTRUM
##SAMPLE DESCRIPTION=Humboldt-Universitat zu Berlin, Department of Chemistry
, Analytical Group
##NAMES=HP
##CAS NAME=1-.beta.-d-Ribofuranosyl-4-imidazolin-2(3H)-one
##MOLFORM=C8H12N2O5
##CAS REGISTRY NO=67908-94-5
##MP= -300
##BP= -300
##MW= 216
##$RETENTION INDEX=0
##$CONDENSED SPECTRUM=NO
##NPOINTS= 125
##XYDATA=(XY..XY) 1 
    12          1
    13          1
    14          4
    15         28
    16          3
    17          5
    18          7
    19         23
    26         11
    27         41
    28         93
    29        140
    30         38
    31         99
    32          3
    37          1
    38          3
    39         15
    40         31
    41         66
    42         73
    43         89
    44         23
    45         60
    46          4
    47          3
    49          3
    50          0
    51          0
    52          5
    53          5
    54         17
    55         43
    56        130
    57         99
    58         26
    59         15
    60         18
    61         50
    62          1
    66          1
    67          6
    68         27
    69         66
    70         27
    71         46
    73         85
    74          7
    75          4
    76          1
    77          3
    78          0
    79          1
    80          2
    81          8
    82         11
    84        999
    85        357
    86         22
    87          9
    88          2
    89          4
    91          1
    93          1
    94          1
    95          8
    97         51
    98         10
    99         17
   100          2
   101          3
   102          1
   103          7
   104          1
   105          5
   106          0
   108          1
   109          4
   110          7
   111         10
   113         83
   114         18
   115         19
   116          2
   117          1
   122          2
   123          2
   125         22
   126         22
   127         36
   128          4
   129          2
   131          4
   133         24
   134          2
   135          1
   137          1
   139         13
   140          1
   141          1
   142          3
   143         13
   144          3
   149          1
   150          2
   151          6
   152          1
   154          1
   155          8
   156          0
   163          0
   167          4
   168          0
   169          0
   180          0
   181          2
   185          3
   186         10
   187          1
   188          0
   198          1
   214          0
   216         70
   217          7
   218          1