##TITLE=Library Entry 55528
##JCAMP-DX=Revision 4.10 
##DATA TYPE=MASS SPECTRUM
##SAMPLE DESCRIPTION=JACSAT, 100(17)5512(1978); B. M. TROST ET AL.
##NAMES=HP
##CAS NAME=Indeno[3a,4-b]oxiren-2-ol, octahydro-4a-methyl-5-[(tetrahydro-2H-
pyran-2-yl)oxy]-, (1a.alpha.,2.beta.,4a.beta.,5.beta.,7aS*)-
##MOLFORM=C15H24O4
##CAS REGISTRY NO=67920-65-4
##MP= -300
##BP= -300
##MW= 268
##$RETENTION INDEX=0
##$CONDENSED SPECTRUM=NO
##NPOINTS= 23
##XYDATA=(XY..XY) 1 
    84         50
    85        999
    86         50
    91         16
    93         23
    95         16
    97         20
   105         10
   107         35
   109         15
   122         17
   123         16
   136         10
   137          9
   138         11
   140         68
   141          8
   149         16
   150         10
   166         63
   167         25
   183         25
   184          6