##TITLE=Library Entry 66154
##JCAMP-DX=Revision 4.10 
##DATA TYPE=MASS SPECTRUM
##SAMPLE DESCRIPTION=NIST Mass Spectrometry Data Center
##NAMES=HP
##CAS NAME=(3E,7E,11E)-1-Isopropyl-4,8,12-trimethylcyclotetradeca-3,7,11-tri
enol
##MOLFORM=C20H34O
##CAS REGISTRY NO=67921-02-2
##MP= -300
##BP= -300
##MW= 290
##$RETENTION INDEX=2162
##$CONDENSED SPECTRUM=NO
##NPOINTS= 165
##XYDATA=(XY..XY) 1 
    26          1
    27         41
    29         92
    30          3
    31         93
    37          1
    38          3
    39        140
    40         58
    41        575
    42         54
    43        444
    44         11
    45         16
    49          1
    50          4
    51         29
    52         16
    53        333
    54         34
    55        487
    56         32
    57         89
    58         12
    59        948
    60         32
    61          3
    62          2
    63          8
    64          2
    65        108
    66         52
    67        878
    68        758
    69        529
    70         52
    71        280
    72         25
    73          3
    75          1
    76          1
    77        258
    78         52
    79        665
    80        340
    81        981
    82        153
    83        133
    84         40
    85         39
    86          2
    89          3
    90          1
    91        295
    92        156
    93        999
    94        339
    95        559
    96        105
    97         63
    98          9
   102          2
   103         19
   104          6
   105        311
   106        132
   107        854
   108        348
   109        430
   110         62
   111         31
   112          2
   113          2
   115         18
   116          7
   117         24
   118         12
   119        347
   120        141
   121        910
   122        505
   123        485
   124         46
   128          5
   129          8
   130          4
   131         31
   132         23
   133        356
   134        219
   135        463
   136        492
   137        179
   138         21
   139         16
   142          2
   143          3
   144          2
   145         62
   146         31
   147        275
   148        221
   149        196
   150         46
   151         18
   152          6
   153          9
   154          2
   158          2
   159         76
   160         28
   161        233
   162         99
   163         83
   164         42
   165         16
   166          2
   173         61
   174         19
   175         91
   176         50
   177         39
   178         19
   179          6
   187         63
   188         25
   189        163
   190         53
   191         33
   192          7
   193          4
   195          1
   201         62
   202         99
   203         65
   204         23
   205          4
   207          1
   215         38
   216         32
   217         51
   218          5
   221          3
   228          1
   229        133
   230         31
   231          8
   232         19
   233          4
   234          1
   243         15
   244         12
   247          4
   256          1
   257        137
   258         32
   259          2
   261          1
   272        274
   273         60
   274          5
   275         21
   276          4
   290          8
   291          2