##TITLE=Library Entry 59610
##JCAMP-DX=Revision 4.10 
##DATA TYPE=MASS SPECTRUM
##SAMPLE DESCRIPTION=NIST Mass Spectrometry Data Center, 1994
##NAMES=HP
##CAS NAME=4-Benzyloxybromobenzene
##MOLFORM=C13H11BrO
##CAS REGISTRY NO=6793-92-6
##MP= -300
##BP= -300
##MW= 262
##$RETENTION INDEX=0
##$CONDENSED SPECTRUM=NO
##NPOINTS= 62
##XYDATA=(XY..XY) 1 
    14          0
    18          1
    26          3
    27          5
    28          7
    29          1
    32          1
    37          5
    38         29
    39         68
    40          5
    41         16
    42          0
    46          0
    50         28
    51         34
    52          9
    53          3
    61          5
    62         21
    63         85
    64         37
    65        152
    66          9
    73          1
    74          9
    75         14
    76         14
    77         11
    78          2
    79          1
    81          0
    85          0
    86          0
    87          1
    89         27
    91        999
    92         84
    93          4
    95          0
   105          1
   115          1
   117          7
   119          6
   128          0
   143         13
   145         13
   146          0
   151          0
   152          2
   153          2
   154          1
   155          2
   157          1
   171          4
   173          4
   174          0
   181          1
   262         20
   263          3
   264         20
   265          2