##TITLE=Library Entry 66778
##JCAMP-DX=Revision 4.10 
##DATA TYPE=MASS SPECTRUM
##SAMPLE DESCRIPTION=V.G. Zaikin, TIPS RAS, Moscow, Russia
##NAMES=HP
##CAS NAME=2,3-Dichlorophenol, TMS derivative
##MOLFORM=C9H12Cl2OSi
##CAS REGISTRY NO=67947-14-2
##MP= -300
##BP= -300
##MW= 234
##$RETENTION INDEX=1399
##$CONDENSED SPECTRUM=NO
##NPOINTS= 137
##XYDATA=(XY..XY) 1 
    26         13
    27         28
    29         42
    30          6
    31         12
    35          8
    36          9
    37         18
    38         17
    39         28
    41         12
    42         28
    43        107
    44         38
    45        138
    46          7
    47         15
    49          9
    50         19
    51         28
    52          8
    53         38
    54          9
    55         19
    56          8
    57         15
    58         18
    59         16
    60          8
    61         19
    62         45
    63        143
    64         12
    65        129
    66         12
    67         32
    68          5
    69          9
    70          5
    71          8
    72         32
    73        315
    74         65
    75         55
    76         11
    77         31
    78         22
    79         68
    80         12
    81         25
    82          5
    83          7
    84         14
    85          9
    86          8
    87          9
    89         23
    90          9
    91         18
    92         18
    93        999
    94         85
    95        367
    96         32
    97         37
    98         26
    99         15
   100         14
   101          6
   102          6
   103         13
   105         18
   106          5
   107         16
   108         23
   109         37
   110         14
   111         32
   112         13
   113         26
   115         22
   116          5
   117          7
   119          7
   121          7
   123          7
   125         41
   126         27
   127         17
   128         11
   129          5
   133         38
   134          6
   135         22
   136          6
   137         11
   139          8
   141          5
   143          5
   147         17
   148         15
   149         18
   150          5
   153          5
   155         18
   157          8
   159          8
   161         24
   162          8
   163         14
   164         11
   165          5
   167          5
   168          5
   169         15
   171          9
   181          5
   183         56
   184         14
   185         23
   186          8
   189         14
   191          5
   218         13
   219        609
   220         96
   221        431
   222         59
   223         92
   224         12
   225          5
   234        163
   235         25
   236        107
   237         15
   238         19
   239          5