##TITLE=Library Entry 38230
##JCAMP-DX=Revision 4.10 
##DATA TYPE=MASS SPECTRUM
##SAMPLE DESCRIPTION=A.Pleshkova, Nesmeyanov Inst.Org.Elem.Cpds, Moscow
##NAMES=HP
##CAS NAME=1,2-Dimethyldiaziridine
##MOLFORM=C3H8N2
##CAS REGISTRY NO=6794-95-2
##MP= -300
##BP= -300
##MW= 72
##$RETENTION INDEX=0
##$CONDENSED SPECTRUM=NO
##NPOINTS= 16
##XYDATA=(XY..XY) 1 
    27         94
    28        125
    29         35
    30        331
    31         14
    41         43
    42        786
    43        201
    44         65
    57        380
    58         27
    70         45
    71        999
    72        445
    73         25
    74          3