##TITLE=Library Entry 22012
##JCAMP-DX=Revision 4.10 
##DATA TYPE=MASS SPECTRUM
##SAMPLE DESCRIPTION=D.HENNEBERG, MAX-PLANCK INSTITUTE, MULHEIM, WEST GERMAN
Y
##NAMES=HP
##CAS NAME=Nonane, 5-methylene-
##MOLFORM=C10H20
##CAS REGISTRY NO=6795-79-5
##MP= -300
##BP= -300
##MW= 140
##$RETENTION INDEX=975
##$CONDENSED SPECTRUM=NO
##NPOINTS= 58
##XYDATA=(XY..XY) 1 
    23          0
    24          0
    25          1
    26          3
    27        101
    28          8
    29         99
    30          5
    31          0
    33          0
    34          0
    36          0
    38          1
    39         75
    40         15
    41        236
    42         41
    43        106
    44          1
    49          0
    50          3
    51          6
    52          3
    53         26
    54         16
    55        231
    56        999
    57        176
    58          6
    63          1
    65          5
    66          2
    67         21
    68          9
    69        103
    70        139
    71          8
    75          0
    77          3
    78          0
    79          4
    80          0
    81          6
    82          4
    83         34
    84         13
    85          3
    91          0
    95          1
    96          0
    97          3
    98         19
    99          2
   109          0
   111          2
   112          2
   140         29
   141          3