##TITLE=Library Entry 29541
##JCAMP-DX=Revision 4.10 
##DATA TYPE=MASS SPECTRUM
##SAMPLE DESCRIPTION=Exported from NIST MS Search
##NAMES=HP
##CAS NAME=Butane, 2-methoxy-
##MOLFORM=C5H12O
##CAS REGISTRY NO=6795-87-5
##MP= -300
##BP= -300
##MW= 88
##$RETENTION INDEX=0
##$CONDENSED SPECTRUM=NO
##NPOINTS= 57
##XYDATA=(XY..XY) 1 
     2          4
    12          2
    13          6
    14         23
    15        163
    16          4
    17          1
    18          1
    24          1
    25          3
    26         40
    27        191
    28         57
    29        350
    30         14
    31        117
    32          2
    33         10
    34          1
    35          1
    36          1
    37          5
    38         10
    39         77
    40         10
    41        175
    42         26
    43        115
    44          6
    45        113
    46          2
    47          1
    48          1
    49          2
    50          7
    51          7
    52          2
    53          9
    54          3
    55         32
    56         35
    57         53
    58         49
    59        999
    60         32
    61          2
    69          1
    70          1
    71          4
    72          2
    73        132
    74          5
    85          1
    86          1
    87         11
    88         14
    89          1