##TITLE=Library Entry 19464
##JCAMP-DX=Revision 4.10 
##DATA TYPE=MASS SPECTRUM
##SAMPLE DESCRIPTION=RADIAN CORP
##NAMES=HP
##CAS NAME=Pentane, 3,3-bis(bromomethyl)-
##MOLFORM=C7H14Br2
##CAS REGISTRY NO=67969-84-0
##MP= -300
##BP= -300
##MW= 256
##$RETENTION INDEX=0
##$CONDENSED SPECTRUM=NO
##NPOINTS= 72
##XYDATA=(XY..XY) 1 
    15         13
    26         22
    27        401
    29        395
    30          3
    37          2
    38         15
    39        389
    40         63
    41        985
    42         67
    43        236
    44          6
    50         11
    51         44
    52         23
    53        196
    54         37
    55        999
    56         63
    57        103
    58          4
    63          4
    65         89
    66         25
    67        560
    68         59
    69        203
    70         13
    71          4
    77          9
    79         21
    80          9
    81         25
    82         13
    83        610
    84        149
    85          8
    93         52
    94          1
    95         55
    97        647
    98         51
   105          3
   107         53
   108          1
   109         47
   117          2
   119         59
   121        133
   122          2
   123         73
   133          5
   135         32
   137         26
   147        136
   148         13
   149        133
   150         14
   163        264
   164          6
   165        262
   166         11
   177         22
   179         21
   187          1
   227          6
   229         14
   231          6
   256          3
   258          8
   260          1