##TITLE=Library Entry 32848
##JCAMP-DX=Revision 4.10 
##DATA TYPE=MASS SPECTRUM
##SAMPLE DESCRIPTION=V.G.Zaikin, TIPS, Russian Acad. Sci.
##NAMES=HP
##CAS NAME=Hexen-1-ylcyclohexane
##MOLFORM=C12H22
##CAS REGISTRY NO=67975-92-2
##MP= -300
##BP= -300
##MW= 166
##$RETENTION INDEX=0
##$CONDENSED SPECTRUM=NO
##NPOINTS= 47
##XYDATA=(XY..XY) 1 
    39        240
    41        702
    42        114
    43        552
    51         42
    52         27
    53        144
    54        186
    55        648
    56        183
    57        396
    58         36
    65         48
    66         90
    67        999
    68        315
    69        288
    70         78
    71        156
    77         66
    79        126
    80         96
    81        876
    82        747
    83        126
    84         60
    85         87
    91         60
    93         54
    94         30
    95        285
    96        279
    97         54
    98         18
    99         21
   105         18
   107         24
   108         24
   109        618
   110        186
   111         42
   123         78
   124        360
   125         45
   166        168
   167         22
   168          1