##TITLE=Library Entry 11529
##JCAMP-DX=Revision 4.10 
##DATA TYPE=MASS SPECTRUM
##SAMPLE DESCRIPTION=NIST Mass Spectrometry Data Center
##NAMES=HP
##CAS NAME=(1R,5S,6R)-2,7,7-Trimethylbicyclo[3.1.1]hept-2-en-6-yl acetate
##MOLFORM=C12H18O2
##CAS REGISTRY NO=67999-48-8
##MP= -300
##BP= -300
##MW= 194
##$RETENTION INDEX=1262
##$CONDENSED SPECTRUM=NO
##NPOINTS= 83
##XYDATA=(XY..XY) 1 
    15          1
    27         45
    29         43
    31          6
    38          5
    39        126
    40         24
    41        223
    42         23
    43        999
    44         25
    45         13
    50         11
    51         49
    52         19
    53         90
    54         14
    55        101
    57         28
    59        183
    60          7
    61          4
    62          5
    63         18
    64          4
    65         87
    66         19
    67        113
    69        136
    71         12
    72         42
    75          2
    76          2
    77        139
    78         31
    79        151
    80        149
    81        253
    82         65
    83         64
    84         68
    85          6
    86          3
    89          6
    90          2
    91        234
    92         95
    93        155
    94         92
    95        134
    96         84
    97         24
   101         35
   102          6
   103         21
   104          7
   105        108
   106         30
   107        155
   108         48
   109        318
   110         32
   114         14
   115         15
   116          4
   117         22
   118          6
   119        871
   120         91
   121        180
   122         22
   123        110
   124         16
   133         19
   134        253
   135         35
   136          6
   137         90
   138          9
   151         10
   152          9
   179          2
   194          1