##TITLE=Library Entry 12811
##JCAMP-DX=Revision 4.10 
##DATA TYPE=MASS SPECTRUM
##SAMPLE DESCRIPTION=NIST Mass Spectrometry Data Center
##NAMES=HP
##CAS NAME=.gamma.-Eudesmol acetate
##MOLFORM=C17H28O2
##CAS REGISTRY NO=67996-61-6
##MP= -300
##BP= -300
##MW= 264
##$RETENTION INDEX=1794
##$CONDENSED SPECTRUM=NO
##NPOINTS= 134
##XYDATA=(XY..XY) 1 
    27         40
    28         11
    29         65
    31         16
    38         12
    39        157
    40         37
    41        329
    42         25
    43        999
    44         22
    50         13
    51         49
    52         31
    53        154
    54         18
    55        207
    56         13
    57         18
    58          5
    59        202
    60         10
    61         27
    62          6
    63         35
    64         16
    65        144
    66         40
    67        239
    68         68
    69        117
    70         14
    71         19
    73          8
    74          6
    75         19
    76          5
    77        286
    78         68
    79        382
    80         64
    81        232
    82         41
    83         15
    84          8
    89         14
    91        400
    92         65
    93        250
    94         53
    95        231
    97         10
    98          6
   101        148
   102         23
   103         54
   104         29
   105        289
   106         61
   107        262
   108        269
   109        178
   110         15
   113          7
   115         97
   116         36
   117         69
   118         34
   119        219
   120         70
   121        206
   122        331
   125         19
   126          6
   127         28
   128         68
   129         76
   130         24
   131         76
   132         34
   133        274
   134        292
   135        128
   136         42
   141         27
   142         24
   143         26
   145         80
   146         30
   147        135
   148        130
   149        195
   150         63
   151         10
   153         17
   154         19
   155         26
   156         22
   157         19
   158         11
   159         37
   160         23
   161        735
   162        116
   163         65
   164          8
   165         10
   166          7
   169         27
   170         25
   171         24
   172         33
   173         44
   174         12
   175         74
   176         25
   181          6
   183          8
   184         11
   186          4
   187         59
   188         10
   189        481
   190         98
   191         66
   192         10
   193         10
   194          6
   203         10
   204        619
   205        128
   206         16
   231         29
   264          8