##TITLE=Library Entry 40685
##JCAMP-DX=Revision 4.10 
##DATA TYPE=MASS SPECTRUM
##SAMPLE DESCRIPTION=NIST Mass Spectrometry Data Center, 1990.
##NAMES=HP
##CAS NAME=Formamide, N,N-dimethyl-
##MOLFORM=C3H7NO
##CAS REGISTRY NO=68-12-2
##MP= -300
##BP= -300
##MW= 73
##$RETENTION INDEX=783
##$CONDENSED SPECTRUM=NO
##NPOINTS= 28
##XYDATA=(XY..XY) 1 
    13         14
    14         20
    15        158
    16          5
    17          5
    18        161
    26          9
    27         60
    28        285
    29        160
    30        248
    31         11
    32          3
    38         15
    39         34
    40         77
    41         81
    42        422
    43        114
    44        887
    45         24
    52          6
    55          5
    56         25
    58         65
    72         97
    73        999
    74         40