##TITLE=Library Entry 8141
##JCAMP-DX=Revision 4.10 
##DATA TYPE=MASS SPECTRUM
##SAMPLE DESCRIPTION=Japan AIST/NIMC Database- Spectrum MS-IW-1284
##NAMES=HP
##CAS NAME=Cycloserine
##MOLFORM=C3H6N2O2
##CAS REGISTRY NO=68-41-7
##MP= -300
##BP= -300
##MW= 102
##$RETENTION INDEX=0
##$CONDENSED SPECTRUM=NO
##NPOINTS= 55
##XYDATA=(XY..XY) 1 
    12          2
    13          4
    14         12
    15         62
    16         20
    17         51
    18         57
    19          1
    25          3
    26         16
    27         64
    28        733
    29        612
    30        529
    31         73
    32         24
    33          9
    34          2
    38          8
    39          9
    40         27
    41         67
    42        325
    43        999
    44         78
    45         63
    46          7
    47          2
    51          1
    52          2
    53          8
    54          6
    55         15
    56          3
    57         26
    58         59
    59        791
    60        149
    61          5
    68          1
    69          2
    70          6
    71          5
    72         19
    73         15
    74        349
    75         21
    76          1
    80          1
    82          1
    85          4
    86          1
   102        316
   103         28
   104          1