##TITLE=Library Entry 33221
##JCAMP-DX=Revision 4.10 
##DATA TYPE=MASS SPECTRUM
##SAMPLE DESCRIPTION=Chemical Concepts
##NAMES=HP
##CAS NAME=Triaziquone
##MOLFORM=C12H13N3O2
##CAS REGISTRY NO=68-76-8
##MP= -300
##BP= -300
##MW= 231
##$RETENTION INDEX=0
##$CONDENSED SPECTRUM=NO
##NPOINTS= 129
##XYDATA=(XY..XY) 1 
    26         15
    27         65
    28        644
    29         31
    30         17
    39         67
    40         43
    41        155
    42        452
    43         59
    44         28
    51         20
    52        136
    53        178
    54        310
    55        164
    56         69
    57          9
    58         14
    63         10
    64         26
    65        101
    66        169
    67        999
    68        642
    69         78
    70         38
    71          6
    76         11
    77         59
    78        124
    79        225
    80        454
    81        144
    82         57
    83         12
    84          4
    85          4
    89          6
    90         24
    91         49
    92        113
    93        162
    94        203
    95        224
    96         51
    97         10
   102          6
   103          9
   104         44
   105         97
   106        131
   107        106
   108         82
   109         44
   110          8
   116          9
   117         75
   118         58
   119        172
   120        122
   121        103
   122         59
   123         20
   124         12
   129          5
   130          9
   131         31
   132         58
   133        106
   134        126
   135         78
   136         24
   137          9
   141          9
   142          5
   143          7
   144         13
   145         35
   146         93
   147        263
   148        112
   149         92
   150         26
   156          6
   157          9
   158         12
   159         30
   160         71
   161         92
   162         77
   163         39
   164          8
   171         10
   172         15
   173         34
   174        148
   175        177
   176         95
   177         42
   178         16
   184          6
   185          8
   186         24
   187         20
   188        107
   189        109
   190         31
   191          6
   198          4
   199          6
   200         21
   201         32
   202        183
   203        254
   204         51
   205          7
   210          4
   211          4
   213          8
   214         17
   216        124
   217         16
   218          3
   229         25
   230        181
   231        986
   232        151
   233         22