##TITLE=Library Entry 37246
##JCAMP-DX=Revision 4.10 
##DATA TYPE=MASS SPECTRUM
##SAMPLE DESCRIPTION=H.FR.GRUTZMACHER, HAMBURG UNIV., HAMBURG, GERMANY, F.R.
G.
##NAMES=HP
##CAS NAME=L-Proline, 1-acetyl-
##MOLFORM=C7H11NO3
##CAS REGISTRY NO=68-95-1
##MP= -300
##BP= -300
##MW= 157
##$RETENTION INDEX=0
##$CONDENSED SPECTRUM=NO
##NPOINTS= 66
##XYDATA=(XY..XY) 1 
    14         17
    15        106
    25          1
    26         16
    27         60
    28         85
    29         21
    30         31
    31          7
    37          4
    38         11
    39         84
    40         27
    41        193
    42        106
    43        631
    44         51
    45         54
    46          2
    50          2
    51          4
    52          5
    53         10
    54         10
    55         19
    56         16
    57          8
    58          5
    59          2
    60          6
    64          2
    65          1
    66          3
    67         11
    68         97
    69         40
    70        999
    71         73
    72         14
    73          3
    80          1
    81          2
    82          2
    83          6
    84          2
    85        145
    86          8
    87          4
    94          1
    95          1
    96          5
    97          3
    98          6
    99          1
   100          1
   110          1
   111          8
   112        193
   113        276
   114         26
   115          1
   116          1
   139          2
   156         10
   157         22
   158          2