##TITLE=Library Entry 19566
##JCAMP-DX=Revision 4.10 
##DATA TYPE=MASS SPECTRUM
##SAMPLE DESCRIPTION=NIST Mass Spectrometry Data Center
##NAMES=HP
##CAS NAME=Pentafluoropropionic acid, pentyl ester
##MOLFORM=C8H11F5O2
##CAS REGISTRY NO=680-29-5
##MP= -300
##BP= -300
##MW= 234
##$RETENTION INDEX=800
##$CONDENSED SPECTRUM=NO
##NPOINTS= 82
##XYDATA=(XY..XY) 1 
    15          5
    26         15
    27        179
    28         64
    29        300
    30         10
    31         26
    32          1
    33          8
    37          2
    38          9
    39        185
    40         44
    41        664
    42        930
    43        849
    44         40
    45         18
    47          8
    50         28
    51         15
    52          4
    53         40
    54         28
    55        999
    56         55
    57         62
    58          3
    59          5
    60          1
    61          8
    62          2
    63          1
    64          1
    65          4
    66          2
    67         25
    68         15
    69        340
    70        874
    71        354
    72         18
    73          1
    77          1
    78         11
    80          2
    81         10
    82          1
    83          1
    85          3
    87          1
    90          1
    93          3
    97         14
    99          3
   100        101
   101          3
   109          7
   115         15
   116          1
   117          5
   119        818
   120         17
   127          1
   128         16
   129          1
   131          1
   145          2
   147         77
   148          2
   149         24
   150          2
   163          3
   165          5
   169          1
   175          1
   177          3
   190          1
   191          9
   192          1
   205         32
   206          2