##TITLE=Library Entry 17837
##JCAMP-DX=Revision 4.10 
##DATA TYPE=MASS SPECTRUM
##SAMPLE DESCRIPTION=NIST Mass Spectrometry Data Center, 1994
##NAMES=HP
##CAS NAME=Hexa(methoxymethyl)melamine
##MOLFORM=C15H30N6O6
##CAS REGISTRY NO=68002-20-0
##MP= -300
##BP= -300
##MW= 390
##$RETENTION INDEX=0
##$CONDENSED SPECTRUM=NO
##NPOINTS= 103
##XYDATA=(XY..XY) 1 
    14          4
    15         24
    28          8
    29         44
    30         12
    31          7
    32          4
    41          4
    42         52
    43          5
    44          4
    45        999
    46         22
    54          3
    55         34
    57          9
    68         10
    69         80
    70          4
    71          4
    72         12
    75          7
    80         15
    81          5
    82         11
    84          5
    85         35
    96         14
    98          8
    99         13
   107          4
   109          3
   110         13
   121          3
   122          2
   123          7
   134         10
   148          6
   149          4
   150          6
   151          3
   161          7
   163        404
   164         39
   165          8
   166          5
   175          4
   177        334
   178         43
   179          9
   180         11
   191         15
   192          5
   193         53
   194          7
   195          5
   205          5
   207        628
   208         74
   209         16
   210          4
   221          7
   222         20
   223         23
   224          4
   237        284
   238         41
   239        116
   240         14
   251          5
   252         38
   253         28
   254          5
   267        750
   268        107
   269         20
   281          6
   283        247
   284         40
   285          5
   297          5
   298          7
   299          5
   311          6
   312         14
   313        124
   314         21
   315          4
   327          5
   328         51
   329         17
   343        992
   344        165
   345         35
   346          4
   358         25
   359        193
   360         46
   361          6
   375        335
   376         58
   377          9
   390          4