##TITLE=Library Entry 67972
##JCAMP-DX=Revision 4.10 
##DATA TYPE=MASS SPECTRUM
##SAMPLE DESCRIPTION=NIST Mass Spectrometry Data Center, 1990.
##NAMES=HP
##CAS NAME=5-Methyl-5-hexen-3-yn-2-ol
##MOLFORM=C7H10O
##CAS REGISTRY NO=68017-33-4
##MP= -300
##BP= -300
##MW= 110
##$RETENTION INDEX=0
##$CONDENSED SPECTRUM=NO
##NPOINTS= 56
##XYDATA=(XY..XY) 1 
    14         21
    15         69
    16         22
    18         15
    26         34
    27        146
    28         75
    29        109
    31         14
    32          4
    37         49
    38         94
    39        475
    40        115
    41        610
    42         67
    43        618
    44         47
    45         33
    48         10
    49         32
    50        171
    51        262
    52         83
    53        159
    54         23
    55         84
    60          7
    61         48
    62         82
    63        139
    64          7
    65        373
    66        150
    67        636
    68         53
    69         26
    73         13
    74         45
    75         19
    76         15
    77        161
    78         36
    79         65
    80         13
    81         25
    82         11
    91        109
    92         34
    93         58
    94         11
    95        999
    96         62
   109        129
   110        127
   111         11