##TITLE=Library Entry 60585
##JCAMP-DX=Revision 4.10 
##DATA TYPE=MASS SPECTRUM
##SAMPLE DESCRIPTION=Chemical Concepts
##NAMES=HP
##CAS NAME=7,7-Dibromo-bicyclo[4.1.0]hept-3-ene
##MOLFORM=C7H8Br2
##CAS REGISTRY NO=6802-78-4
##MP= -300
##BP= -300
##MW= 250
##$RETENTION INDEX=0
##$CONDENSED SPECTRUM=NO
##NPOINTS= 96
##XYDATA=(XY..XY) 1 
    26         17
    27         62
    28          5
    29          2
    37         20
    38         57
    39        229
    40         28
    41         50
    42          3
    43          6
    44         15
    45         47
    46          6
    49          9
    50         66
    51        114
    52         39
    53         35
    54         10
    55          4
    57          2
    61         20
    62         47
    63        109
    64         30
    66        483
    67         41
    74          8
    75         11
    76          7
    77         77
    78        102
    79        644
    80         50
    81         16
    82         15
    84         10
    85         23
    86         15
    87          6
    89         56
    90         53
    91        999
    92        794
    93         66
    94          2
    95          4
   104          3
   105          4
   106          4
   107          4
   116          2
   117         27
   118          4
   119         32
   121          6
   129          3
   130          4
   131         13
   132          2
   133          8
   143         18
   144         16
   145         17
   146         15
   155          2
   156         21
   157          9
   158         21
   159          7
   169         11
   170         13
   171        261
   172         33
   173        244
   174         20
   195          3
   199          6
   201          2
   210          3
   211          2
   212          3
   223          3
   235         12
   236          1
   237         24
   238          2
   239         12
   240          1
   250         31
   251          4
   252         62
   253          5
   254         30
   255          2