##TITLE=Library Entry 76368
##JCAMP-DX=Revision 4.10 
##DATA TYPE=MASS SPECTRUM
##SAMPLE DESCRIPTION=NIST Mass Spectrometry Data Center, 2010
##NAMES=HP
##CAS NAME=Butanoic acid, 2-methyl-, pentyl ester
##MOLFORM=C10H20O2
##CAS REGISTRY NO=68039-26-9
##MP= -300
##BP= -300
##MW= 172
##$RETENTION INDEX=1142
##$CONDENSED SPECTRUM=NO
##NPOINTS= 62
##XYDATA=(XY..XY) 1 
    15          2
    26          6
    27         74
    28         35
    29        157
    30          4
    31          5
    37          1
    38          3
    39         65
    40         14
    41        251
    42        113
    43        316
    44         13
    45         11
    47          4
    51          3
    53         14
    54          8
    55        156
    56         73
    57        580
    58         27
    59          6
    60          1
    61          4
    67          5
    68          3
    69         51
    70        358
    71         82
    72          6
    73         19
    74        168
    75         22
    76          1
    83          2
    85        538
    86         31
    87         91
    88          4
    97          1
    99          1
   100          2
   101          4
   102         49
   103        999
   104         57
   105          5
   113          1
   115         56
   116          5
   129          4
   130          1
   142          2
   143          4
   144         48
   145          4
   157          1
   172          1
   173          1