##TITLE=Library Entry 34361
##JCAMP-DX=Revision 4.10 
##DATA TYPE=MASS SPECTRUM
##SAMPLE DESCRIPTION=N.W. Davies, Centr. Sci. Lab., Univ. Tasmania, Hobart,
 Australia
##NAMES=HP
##CAS NAME=2-Butenoic acid, 3,7-dimethyl-6-octenyl ester
##MOLFORM=C14H24O2
##CAS REGISTRY NO=68039-38-3
##MP= -300
##BP= -300
##MW= 224
##$RETENTION INDEX=1558
##$CONDENSED SPECTRUM=NO
##NPOINTS= 53
##XYDATA=(XY..XY) 1 
    27         76
    30         23
    31         12
    38         15
    39        223
    41        956
    42         60
    43        209
    45          6
    51         21
    52          7
    53         79
    54         21
    55        201
    56         66
    57         76
    59         18
    63          9
    65         13
    66          9
    67        281
    68        220
    69        999
    70         96
    79         31
    80         30
    81        503
    82        472
    83         78
    87         81
    91          6
    94         30
    95        413
    96        121
    97         52
    99         16
   103         13
   105         12
   107         10
   109        114
   110         31
   112          9
   121          7
   123        275
   124         40
   132          6
   135          7
   137         12
   138        201
   139         36
   149          6
   165          7
   183          7