##TITLE=Library Entry 64336
##JCAMP-DX=Revision 4.10 
##DATA TYPE=MASS SPECTRUM
##SAMPLE DESCRIPTION=Chemical Concepts
##NAMES=HP
##CAS NAME=2-Benzyloxy-4-methoxy-6-methylbenzoic acid
##MOLFORM=C16H16O4
##CAS REGISTRY NO=68048-09-9
##MP= -300
##BP= -300
##MW= 272
##$RETENTION INDEX=0
##$CONDENSED SPECTRUM=NO
##NPOINTS= 205
##XYDATA=(XY..XY) 1 
    26          5
    27         45
    28         13
    29         57
    30          3
    31          8
    36          1
    37          2
    38          8
    39         92
    40         12
    41        100
    42         24
    43        116
    44         11
    45         47
    46          2
    49          0
    50         13
    51         37
    52         13
    53         18
    54          8
    55         50
    56         30
    57         74
    58          6
    59         11
    60         15
    61         15
    62          8
    63         28
    64         14
    65        160
    66         23
    67         18
    68          9
    69         48
    70         16
    71         30
    72          6
    73         18
    74          6
    75          9
    76         13
    77         42
    78         14
    79         17
    80          4
    81         22
    82         11
    83         23
    84         11
    85         17
    86          6
    87          7
    88          5
    89         24
    90         13
    91        999
    92        142
    93         31
    94         13
    95         16
    96          7
    97         18
    98          8
    99          8
   100          2
   101          4
   102          5
   103          3
   104          8
   105         13
   106          5
   107         13
   108          8
   109         19
   110          6
   111         11
   112          4
   113          6
   114          2
   115          6
   116          2
   117          3
   118          2
   119          3
   120          6
   121         17
   122          7
   123          8
   124          3
   125          8
   126          3
   127          5
   128          3
   129          7
   130          1
   131          2
   132          2
   133          3
   134          2
   135         20
   136         26
   137          9
   138         17
   139          4
   140          2
   141          4
   142          1
   143          3
   144          1
   145          2
   146          0
   147          2
   148          4
   149        128
   150         13
   151          6
   152          4
   153          9
   154          2
   155          4
   156          1
   157          2
   158          1
   159          1
   160          1
   161          2
   162          1
   163          4
   164        180
   165         47
   166          8
   167          6
   168          2
   169          2
   170          1
   171          2
   172          0
   173          4
   174          0
   175          1
   176          0
   177          2
   178          1
   179          2
   180          1
   181         12
   182          6
   183          2
   184          1
   185          4
   186          1
   187          1
   188          0
   189          1
   190          0
   191          1
   192          0
   193          1
   194          1
   195          2
   196          1
   197          2
   198          0
   199          2
   200          0
   201          0
   202          1
   203          0
   204          5
   205          1
   206          0
   207          1
   208          1
   209          1
   210          3
   211          2
   212          5
   213          1
   222          7
   223          1
   224          4
   225          5
   226          9
   227         13
   228          2
   235          2
   236          3
   237          1
   238          1
   239          0
   240          1
   253          1
   254         76
   255         24
   256          3
   257          2
   270          0
   272        224
   273         41
   274          5
   275          0