##TITLE=Library Entry 44783
##JCAMP-DX=Revision 4.10 
##DATA TYPE=MASS SPECTRUM
##SAMPLE DESCRIPTION=Institute of Organic Chemistry, Novosibirsk, USSR 1988
##NAMES=HP
##CAS NAME=Methyl 5,9-dimethyldecanoate
##MOLFORM=C13H26O2
##CAS REGISTRY NO=68043-22-1
##MP= -300
##BP= -300
##MW= 214
##$RETENTION INDEX=0
##$CONDENSED SPECTRUM=NO
##NPOINTS= 70
##XYDATA=(XY..XY) 1 
    39          5
    40          7
    41        115
    42         19
    43        165
    45          7
    53          9
    55        124
    56         46
    57        175
    59         62
    68         16
    69        190
    70         41
    71        122
    74        999
    75        114
    77          3
    79          2
    81         27
    82         19
    83         51
    84          7
    85         37
    87        283
    88         28
    91          5
    92         11
    93          8
    94         12
    95         54
    97        171
    98         67
    99         22
   100          7
   101        115
   102         56
   103         13
   105          3
   108          5
   109         57
   111         15
   112         14
   114          6
   116          9
   121          3
   122          5
   123          8
   125          7
   126         10
   129        142
   130         21
   133          4
   138         24
   139          6
   140         11
   141          7
   142         10
   145          9
   148         11
   149         16
   157         12
   163         10
   164         12
   165         26
   171        170
   172         17
   173          8
   183         17
   214         11