##TITLE=Library Entry 58824
##JCAMP-DX=Revision 4.10 
##DATA TYPE=MASS SPECTRUM
##SAMPLE DESCRIPTION=AAFS Toxicology Section MS DB Committee, U. Alberta, Ca
nada
##NAMES=HP
##CAS NAME=Carbadox
##MOLFORM=C11H10N4O4
##CAS REGISTRY NO=6804-07-5
##MP= -300
##BP= -300
##MW= 262
##$RETENTION INDEX=0
##$CONDENSED SPECTRUM=NO
##NPOINTS= 126
##XYDATA=(XY..XY) 1 
    41         33
    42         34
    43         78
    44         62
    45         28
    50        140
    51        198
    52         97
    53         68
    54         30
    55         91
    56         26
    57         58
    58        105
    59        281
    60         20
    61         26
    62         89
    63        287
    64        183
    65        147
    66         34
    67         49
    68         27
    69         94
    70         60
    71         71
    73         48
    74        130
    75        389
    76        472
    77        402
    78        228
    79         60
    80         32
    81         51
    82         38
    83         60
    84         42
    85         38
    86         19
    87         48
    88        124
    89        203
    90        999
    91        223
    92         89
    93         34
    94         37
    95         44
    96         48
    97         55
    98         44
    99         41
   100         55
   101        190
   102        795
   103        457
   104        281
   105        161
   106         40
   107         15
   109         26
   110         16
   111         38
   112         20
   113         32
   114        109
   115        117
   116        172
   117         63
   118         47
   119         29
   121         23
   122         16
   123         18
   125         22
   127         50
   128        108
   129        384
   130        244
   131        254
   132         82
   133         28
   135         19
   137         25
   141         16
   142        134
   143        265
   144         57
   145        360
   146        106
   147         26
   152         32
   154         28
   155         69
   156         20
   157         22
   158         36
   159        101
   160         26
   170         38
   171        372
   172         90
   173         28
   174         23
   175        209
   176         26
   178         31
   186         28
   187        477
   188        145
   189         40
   197         19
   201         36
   202         18
   203         48
   213         81
   214         27
   229        166
   230         60
   245        462
   246        156
   247         22
   262        647
   263         93