##TITLE=Library Entry 46213
##JCAMP-DX=Revision 4.10 
##DATA TYPE=MASS SPECTRUM
##SAMPLE DESCRIPTION=D.HORNER, FUCHS MINERALOELWERKE GMBH, MANNHEIM, W. G
##NAMES=HP
##CAS NAME=Mono-tert-butyl carbonotrithioate
##MOLFORM=C5H10S3
##CAS REGISTRY NO=68060-10-6
##MP= -300
##BP= -300
##MW= 166
##$RETENTION INDEX=0
##$CONDENSED SPECTRUM=NO
##NPOINTS= 16
##XYDATA=(XY..XY) 1 
    27        284
    29        579
    39        467
    41        854
    44        187
    45         75
    46         22
    47        146
    55        206
    56        260
    57        729
    75        271
    76        999
    90        617
   110         28
   133         12