##TITLE=Library Entry 46216
##JCAMP-DX=Revision 4.10 
##DATA TYPE=MASS SPECTRUM
##SAMPLE DESCRIPTION=D.HORNER, FUCHS MINERALOELWERKE GMBH, MANNHEIM, W.GERMA
N
##NAMES=HP
##CAS NAME=Monoisopropyl carbonotrithioate
##MOLFORM=C4H8S3
##CAS REGISTRY NO=68060-08-2
##MP= -300
##BP= -300
##MW= 152
##$RETENTION INDEX=0
##$CONDENSED SPECTRUM=NO
##NPOINTS= 16
##XYDATA=(XY..XY) 1 
    27        157
    39         84
    41        236
    42        159
    43        283
    44        105
    45         23
    46          6
    47         22
    61         84
    66          7
    76        999
   108          7
   110          5
   119          3
   152          5