##TITLE=Library Entry 37546
##JCAMP-DX=Revision 4.10 
##DATA TYPE=MASS SPECTRUM
##SAMPLE DESCRIPTION=NIST Mass Spectrometry Data Center
##NAMES=HP
##CAS NAME=Decanoic acid, 2-methylbutyl ester
##MOLFORM=C15H30O2
##CAS REGISTRY NO=68067-33-4
##MP= -300
##BP= -300
##MW= 242
##$RETENTION INDEX=1649
##$CONDENSED SPECTRUM=NO
##NPOINTS= 106
##XYDATA=(XY..XY) 1 
    26          1
    27         21
    28          7
    29         56
    30          2
    31          4
    38          1
    39         32
    40          6
    41        158
    42         61
    43        286
    44          8
    45         11
    51          1
    52          1
    53         12
    54         11
    55        186
    56         37
    57        140
    58          8
    59          5
    60         84
    61         21
    62          1
    65          1
    66          1
    67         23
    68         15
    69         70
    70        999
    71        471
    72         31
    73         67
    74         14
    75          1
    77          1
    78          1
    79          4
    80          1
    81         26
    82          8
    83         32
    84         23
    85         70
    86          6
    87         33
    88          2
    89          4
    91          1
    93          2
    94          1
    95         28
    96          3
    97         18
    98         22
    99          2
   100          5
   101         13
   102          3
   103          3
   105          1
   107          2
   108          1
   109          2
   110         10
   111         10
   112         16
   113          6
   114          1
   115         36
   116          3
   117          3
   123          1
   124          1
   125          2
   126          2
   127          1
   128          1
   129         82
   130         23
   131          7
   135          5
   136          2
   137          4
   139          2
   143         16
   144          2
   152          2
   153          4
   154          1
   155        451
   156         51
   157          3
   171          1
   172         81
   173         71
   174          7
   175          1
   185          1
   187          1
   212          5
   213          5
   214          1
   242          1