##TITLE=Library Entry 46237
##JCAMP-DX=Revision 4.10 
##DATA TYPE=MASS SPECTRUM
##SAMPLE DESCRIPTION=D.HORNER, FUCHS MINERALOELWERKE GMBH, MANNHEIM, W.GERMA
N
##NAMES=HP
##CAS NAME=Monopropyl carbonotrithioate
##MOLFORM=C4H8S3
##CAS REGISTRY NO=68060-07-1
##MP= -300
##BP= -300
##MW= 152
##$RETENTION INDEX=0
##$CONDENSED SPECTRUM=NO
##NPOINTS= 15
##XYDATA=(XY..XY) 1 
    29        154
    39         44
    41        151
    42        193
    43        195
    44         96
    45         54
    46         53
    47        208
    61         23
    66          4
    76        999
   108          4
   110          3
   119          3