##TITLE=Library Entry 35758
##JCAMP-DX=Revision 4.10 
##DATA TYPE=MASS SPECTRUM
##SAMPLE DESCRIPTION=Japan AIST/NIMC Database- Spectrum MS-NW-7924
##NAMES=HP
##CAS NAME=2,2-Dimethylglutaric acid
##MOLFORM=C7H12O4
##CAS REGISTRY NO=681-57-2
##MP= -300
##BP= -300
##MW= 160
##$RETENTION INDEX=0
##$CONDENSED SPECTRUM=NO
##NPOINTS= 102
##XYDATA=(XY..XY) 1 
    14          2
    15         17
    16          1
    18          2
    26         17
    27        189
    28         49
    29        145
    30          7
    31         38
    32          4
    33          1
    34          2
    35          1
    37          4
    38         11
    39        159
    40         27
    41        577
    42         75
    43        154
    44          6
    45        121
    46          7
    47          5
    48          8
    49          4
    50          9
    51         17
    52          8
    53         68
    54         13
    55        341
    56        104
    57        421
    58         22
    59         91
    60        111
    61          9
    62          2
    63          3
    64          1
    65          6
    66          3
    67         26
    68         31
    69        999
    70        210
    71         51
    72         13
    73        430
    74         26
    75          5
    77          2
    78          1
    79          4
    80          1
    81         20
    82          8
    83         35
    84          3
    85          9
    86         13
    87         34
    88        201
    89         10
    90          1
    91          1
    92          1
    93          1
    95          6
    96         19
    97        879
    98         69
    99         74
   100          9
   101         37
   102          3
   103          1
   107          1
   108          1
   109          5
   110          1
   111          2
   112          1
   113          6
   114        149
   115        558
   116         57
   117          5
   124          1
   126          1
   127         32
   128          3
   132          2
   133          1
   141          1
   142         67
   143         12
   144          2
   145          1
   161          1