##TITLE=Library Entry 61462
##JCAMP-DX=Revision 4.10 
##DATA TYPE=MASS SPECTRUM
##SAMPLE DESCRIPTION=Chemical Concepts
##NAMES=HP
##CAS NAME=Benzenepropanoic acid, .alpha.-(hydroxymethyl)-
##MOLFORM=C10H12O3
##CAS REGISTRY NO=6811-98-9
##MP= -300
##BP= -300
##MW= 180
##$RETENTION INDEX=0
##$CONDENSED SPECTRUM=NO
##NPOINTS= 132
##XYDATA=(XY..XY) 1 
    26          3
    27         28
    28          2
    29         16
    30          1
    31         32
    36          0
    37          1
    38          6
    39         51
    40          5
    41         31
    42          8
    43         27
    44          2
    45         15
    46          0
    47          1
    49          0
    50         21
    51         77
    52         18
    53          9
    54          2
    55         26
    56         15
    57         31
    58          3
    59          7
    60          5
    61          3
    62          8
    63         31
    64          8
    65        111
    66         10
    67          6
    68          3
    69         17
    70          6
    71         18
    72          3
    73         10
    74          9
    75         11
    76         11
    77        121
    78        106
    79         59
    80          4
    81          8
    82          4
    83         11
    84          4
    85         10
    86          1
    87          3
    88          1
    89         42
    90         14
    91        999
    92        231
    93         16
    94          3
    95          6
    96          3
    97         10
    98          3
    99          3
   100          0
   101          3
   102         16
   103        109
   104         43
   105         50
   106          6
   107        157
   108         12
   109          5
   110          2
   111          6
   112          2
   113          2
   114          2
   115         67
   116        102
   117        647
   118         68
   119          6
   120         17
   121          5
   122          2
   123          3
   124          1
   125          3
   126          1
   127          1
   128          1
   129          3
   130          1
   131        139
   132         22
   133         14
   134         25
   135          4
   136         14
   137          2
   138          1
   140          0
   141          3
   142          0
   143          2
   144        139
   145         19
   146          2
   147         11
   148          9
   149         48
   150          9
   151          1
   152          0
   158          0
   159          2
   160          2
   161         11
   162        560
   163         60
   164          4
   179          0
   180         15
   181          2
   182          0