##TITLE=Library Entry 19126
##JCAMP-DX=Revision 4.10 
##DATA TYPE=MASS SPECTRUM
##SAMPLE DESCRIPTION=Chemical Concepts
##NAMES=HP
##CAS NAME=7-Octen-1-ol, 3,7-dimethyl-, (S)-
##MOLFORM=C10H20O
##CAS REGISTRY NO=6812-78-8
##MP= -300
##BP= -300
##MW= 156
##$RETENTION INDEX=1212
##$CONDENSED SPECTRUM=NO
##NPOINTS= 75
##XYDATA=(XY..XY) 1 
    27        312
    28         29
    29        392
    30         11
    31        336
    33          1
    37          2
    38          8
    39        291
    40         73
    41        919
    42        145
    43        343
    44         11
    45         59
    50          6
    51         18
    52         11
    53        130
    54         85
    55        999
    56        882
    57        255
    58         16
    59         26
    63          4
    65         19
    66         18
    67        619
    68        411
    69        544
    70        182
    71        333
    72         20
    73          4
    74          7
    77         16
    78          5
    79         34
    80         37
    81        484
    82        475
    83        177
    84         27
    85         72
    86         29
    87          8
    91          7
    92          4
    93         12
    94         16
    95        269
    96         65
    97         13
    98          4
    99         19
   100         11
   101          3
   105         16
   106          3
   107          5
   108          2
   109         85
   110         35
   111         17
   112         15
   113          5
   121          4
   122          3
   123        121
   124         15
   125          4
   137          1
   138         42
   139          4