##TITLE=Library Entry 70154
##JCAMP-DX=Revision 4.10 
##DATA TYPE=MASS SPECTRUM
##SAMPLE DESCRIPTION=Japan AIST/NIMC Database- Spectrum MS-IW-1922
##NAMES=HP
##CAS NAME=Hexadecanedinitrile
##MOLFORM=C16H28N2
##CAS REGISTRY NO=6812-44-8
##MP= -300
##BP= -300
##MW= 248
##$RETENTION INDEX=0
##$CONDENSED SPECTRUM=NO
##NPOINTS= 116
##XYDATA=(XY..XY) 1 
    15          3
    26          4
    27         71
    28         37
    29        117
    30         17
    38          2
    39         81
    40         16
    41        388
    42         82
    43        150
    44         12
    45          1
    50          1
    51          5
    52          8
    53         40
    54        148
    55        325
    56         67
    57        141
    58          9
    60          1
    61          1
    63          1
    64          1
    65          7
    66          9
    67         56
    68         46
    69        218
    70         96
    71         24
    72          3
    77          8
    78          2
    79         31
    80         18
    81         45
    82        231
    83        476
    84         47
    85         10
    86          1
    88          6
    89          3
    91          8
    92          1
    93         23
    94         20
    95         28
    96        320
    97        999
    98         83
    99          5
   101          1
   105          3
   106          1
   107         12
   108         13
   109         12
   110        340
   111        442
   112         40
   113          2
   119          1
   120          2
   121          7
   122         18
   123          7
   124        178
   125        112
   126         11
   134          2
   135          4
   136         10
   137          4
   138         83
   139         14
   140          2
   148          1
   149          3
   150          4
   151          3
   152         62
   153          8
   154          1
   163          3
   164          3
   165          2
   166         28
   167          4
   177          2
   178          2
   179          3
   180         10
   181          2
   191         13
   192          3
   193          5
   194          7
   195          1
   204          1
   205         42
   206          7
   207          2
   208         59
   209          9
   219         17
   220          4
   222          2
   233          2
   247         13
   248          4
   249          1