##TITLE=Library Entry 51752
##JCAMP-DX=Revision 4.10 
##DATA TYPE=MASS SPECTRUM
##SAMPLE DESCRIPTION=Japan AIST/NIMC Database- Spectrum MS-NW-5223
##NAMES=HP
##CAS NAME=cis-3-Hexenylcinnamate
##MOLFORM=C15H18O2
##CAS REGISTRY NO=68133-75-5
##MP= -300
##BP= -300
##MW= 230
##$RETENTION INDEX=1897
##$CONDENSED SPECTRUM=NO
##NPOINTS= 91
##XYDATA=(XY..XY) 1 
    14          7
    15          3
    16          2
    17          1
    18          2
    26          4
    27         53
    28         26
    29         39
    30          1
    31          1
    32          1
    37          1
    38          5
    39         64
    40          9
    41        121
    42         12
    43          8
    44          3
    49          1
    50         24
    51         84
    52         16
    53         29
    54         39
    55         47
    56          5
    57          1
    61          1
    62          5
    63         16
    64          2
    65          9
    66          6
    67        464
    68         29
    69          4
    73          1
    74          9
    75         13
    76         23
    77        247
    78         20
    79          9
    80          3
    81         38
    82        999
    83         69
    84          2
    87          1
    89          2
    90          1
    91         11
    92          2
    98          1
   101          8
   102         67
   103        408
   104         44
   105          5
   107          4
   115          2
   117          1
   118          1
   119          2
   120          6
   128          1
   129          3
   130          8
   131        976
   132        101
   133          7
   139          1
   141          1
   143          1
   146          1
   147         66
   148         70
   149        130
   150         13
   151          1
   165          2
   175          1
   178          1
   179          2
   180          3
   184          1
   185          2
   201          1
   230          2