##TITLE=Library Entry 25199
##JCAMP-DX=Revision 4.10 
##DATA TYPE=MASS SPECTRUM
##SAMPLE DESCRIPTION=V.Zaikin,Topchiev Inst.Petrochem.Synth.,Moscow
##NAMES=HP
##CAS NAME=Dichloroacetic acid, 2-ethylhexyl ester
##MOLFORM=C10H18Cl2O2
##CAS REGISTRY NO=68144-72-9
##MP= -300
##BP= -300
##MW= 240
##$RETENTION INDEX=0
##$CONDENSED SPECTRUM=NO
##NPOINTS= 65
##XYDATA=(XY..XY) 1 
    26          7
    27         37
    28          9
    29         68
    35          9
    36         54
    38         18
    39         45
    40         10
    41        206
    42         49
    43        235
    44          9
    47          6
    48         16
    49         26
    50          6
    51         10
    52         12
    53         21
    54         16
    55        283
    56        173
    57        999
    58         49
    65          7
    66          8
    67         21
    68         17
    69        109
    70        664
    71        356
    72         25
    75         11
    76         52
    77         93
    78         19
    79         32
    81          9
    82         35
    83        298
    84        120
    85         86
    87         15
    92          8
    93         21
    97         24
    98         19
    99         24
   110          5
   111         22
   112        105
   113         17
   129          8
   130          6
   131          5
   132          6
   142         11
   144          7
   147          5
   149          5
   159          9
   161          8
   175          5
   177          5