##TITLE=Library Entry 98324
##JCAMP-DX=Revision 4.10 
##DATA TYPE=MASS SPECTRUM
##SAMPLE DESCRIPTION=V.G.Zaikin, TIPS RAS, Moscow, Russia
##NAMES=HP
##CAS NAME=Octanoic acid, 3-phenylpropyl ester
##MOLFORM=C17H26O2
##CAS REGISTRY NO=68141-25-3
##MP= -300
##BP= -300
##MW= 262
##$RETENTION INDEX=0
##$CONDENSED SPECTRUM=NO
##NPOINTS= 65
##XYDATA=(XY..XY) 1 
    26          8
    27         51
    28          9
    29         71
    30          3
    31          3
    38          6
    39         49
    40         19
    41        162
    42         37
    43        131
    44         88
    45         17
    50         11
    51         34
    52          9
    53         11
    54          8
    55        105
    56         29
    57        182
    58         11
    59          8
    60         51
    61         12
    63          8
    65         35
    67         25
    69         37
    70         12
    71         18
    73         39
    77         27
    78         38
    79         25
    81         15
    82         25
    83         32
    84         27
    85         19
    87          5
    89         15
    91        281
    92         42
    93          8
    95         11
    96         19
    97         19
    98         27
    99         10
   101         17
   103         27
   104        121
   105         49
   106          6
   115         25
   116         59
   117        283
   118        999
   119        135
   127         59
   128         15
   145         21
   146          2