##TITLE=Library Entry 39461
##JCAMP-DX=Revision 4.10 
##DATA TYPE=MASS SPECTRUM
##SAMPLE DESCRIPTION=Chemical Concepts
##NAMES=HP
##CAS NAME=(2-Dimethylamino-1,2,3,4-tetrahydro-naphthalen-1-yl)-acetic acid,
 methyl ester
##MOLFORM=C15H21NO2
##CAS REGISTRY NO=68157-06-2
##MP= -300
##BP= -300
##MW= 247
##$RETENTION INDEX=0
##$CONDENSED SPECTRUM=NO
##NPOINTS= 188
##XYDATA=(XY..XY) 1 
    26         13
    27         91
    28         29
    29         84
    30         48
    31         69
    38          9
    39        155
    40         21
    41        146
    42        439
    43        279
    44        404
    45        155
    46        175
    47          8
    48          6
    50         35
    51         93
    52         25
    53         49
    54         35
    55         94
    56        308
    57        104
    58        545
    59         83
    60         26
    61         19
    62         20
    63         63
    64         25
    65         74
    66         19
    67         26
    68         40
    69         31
    70        697
    71        999
    72        393
    73         40
    74         56
    75         45
    76         27
    77         96
    78         41
    79         54
    80         20
    81         39
    82         66
    83         24
    84        508
    85         49
    86         21
    87         85
    88         58
    89         45
    90         12
    91        258
    92         31
    93         21
    94         38
    95         14
    96         14
    97         18
    98         14
    99         10
   100          7
   101         17
   102         61
   103         48
   104         46
   105         42
   106          8
   107          8
   108         12
   109         11
   110          7
   111         11
   112          9
   113         13
   114         20
   115        442
   116        276
   117        552
   118        164
   119         49
   120         12
   121          8
   122          5
   123          5
   124          5
   125          8
   126         16
   127        112
   128        535
   129        500
   130        160
   131         67
   132         16
   133         34
   134         44
   135         11
   136          4
   137          7
   139         22
   140         14
   141        135
   142        115
   143        170
   144        110
   145        214
   146         50
   147         18
   148         21
   149         17
   150          6
   151          5
   152          8
   153         16
   154         12
   155         14
   156         28
   157         38
   158         66
   159         47
   160        830
   161        158
   162         17
   163          6
   165          4
   166          5
   167         10
   168         12
   169         14
   170         39
   171         45
   172        100
   173        133
   174        130
   175         23
   176         11
   177          6
   179          4
   181          4
   182          7
   183          5
   184         17
   185          9
   186         41
   187         19
   188        517
   189        102
   190         11
   191          4
   192          7
   193          4
   196         11
   197          6
   198          7
   199          9
   200         12
   201         39
   202         18
   203          7
   204          7
   205         10
   211          5
   212          5
   213          4
   214          6
   215          8
   216        151
   217         26
   218         16
   219          6
   220          6
   230          4
   231          9
   232        182
   233         36
   234          7
   245          6
   246         90
   247        429
   248         89
   249         12
   250          4