##TITLE=Library Entry 40055
##JCAMP-DX=Revision 4.10 
##DATA TYPE=MASS SPECTRUM
##SAMPLE DESCRIPTION=F.Noggle ET AL.J.Liquid Chrom.,14,557(1991)
##NAMES=HP
##CAS NAME=N-Ethyl-1-phenyl-3-butanamine
##MOLFORM=C12H19N
##CAS REGISTRY NO=68164-00-1
##MP= -300
##BP= -300
##MW= 177
##$RETENTION INDEX=0
##$CONDENSED SPECTRUM=NO
##NPOINTS= 45
##XYDATA=(XY..XY) 1 
    39         37
    40          9
    41         28
    42         57
    43         19
    44        252
    45          7
    51         34
    52          9
    53         10
    55          6
    56         27
    57          9
    58         25
    62          6
    63         16
    64          6
    65         66
    66          6
    70         19
    72        999
    73         46
    74          7
    75          6
    76          7
    77         44
    78         19
    79         19
    84         10
    85          9
    89         13
    91        267
    92         24
   103         16
   104         15
   105         16
   115         15
   116          9
   117         32
   118          6
   133         10
   148          7
   162         54
   177         10
   178         18