##TITLE=Library Entry 5073
##JCAMP-DX=Revision 4.10 
##DATA TYPE=MASS SPECTRUM
##SAMPLE DESCRIPTION=A.A.Kutin, Moscow, Russia
##NAMES=HP
##CAS NAME=1H-1,2,4-Triazole, 3-chloro-
##MOLFORM=C2H2ClN3
##CAS REGISTRY NO=6818-99-1
##MP= -300
##BP= -300
##MW= 103
##$RETENTION INDEX=0
##$CONDENSED SPECTRUM=NO
##NPOINTS= 52
##XYDATA=(XY..XY) 1 
    33         52
    35         69
    36         29
    38        142
    39        120
    40        111
    42        999
    44         12
    47        334
    48        171
    49         83
    50         49
    53         42
    54          7
    55          6
    56          6
    57          9
    59         25
    61         18
    62         63
    64         23
    67         13
    68          7
    69         13
    70          3
    71          6
    73         18
    76        620
    78        180
    79          1
    80          0
    81          1
    82          3
    83          4
    84          8
    85          5
    86          6
    87          0
    88          0
    89          0
    90          0
    91          0
    94          1
    95          1
    96          2
    97          5
    98          2
   100         10
   102         23
   103        956
   105        314
   107          5