##TITLE=Library Entry 7480
##JCAMP-DX=Revision 4.10 
##DATA TYPE=MASS SPECTRUM
##SAMPLE DESCRIPTION=Div. of Experiment Therapeutics WRAIR, WRAMC, Washingto
n DC 20307
##NAMES=HP
##CAS NAME=Cholan-24-oic acid, 3,7,12-tris(acetyloxy)-, methyl ester, (3.alp
ha.,5.beta.,7.alpha.,12.alpha.)-
##MOLFORM=C31H48O8
##CAS REGISTRY NO=6818-44-6
##MP= -300
##BP= -300
##MW= 548
##$RETENTION INDEX=0
##$CONDENSED SPECTRUM=NO
##NPOINTS= 232
##XYDATA=(XY..XY) 1 
    41         49
    43        999
    44         20
    45          7
    49          2
    51          1
    53         12
    55        163
    57         25
    59         29
    61         48
    65          5
    67         50
    68          2
    69         23
    71          8
    73         46
    74         60
    75          2
    77         14
    79         37
    81         75
    82          4
    83         46
    84          8
    85          9
    87         10
    88          1
    91         42
    93         83
    94         29
    95         66
    96          8
    97          8
    99          6
   101          2
   103          5
   105         75
   106         18
   107         47
   108          7
   109         17
   110          3
   111          4
   112          1
   113          2
   115         30
   116          4
   117         21
   118         13
   119         23
   120          8
   121         21
   122          7
   123         12
   124          3
   125          4
   126          2
   127          2
   128          4
   129          8
   130          6
   131         29
   132         10
   133         26
   134          9
   135         15
   136          3
   137          4
   141         12
   142          7
   143         33
   144         21
   145         54
   146         12
   147         22
   148          2
   149          4
   151          1
   153          1
   154         15
   155         17
   156         11
   157         33
   158         12
   159         16
   160          3
   161          7
   162          2
   163          5
   164          1
   165          2
   167          3
   169         11
   170          4
   171         16
   172          9
   173         13
   174          4
   175          6
   176          2
   177          3
   179          1
   180          1
   181          3
   182          2
   183         11
   184          7
   185         17
   186          6
   187          9
   188          1
   189          1
   193          2
   194          1
   195          6
   197         22
   198          6
   199         13
   200          3
   201          4
   202          1
   203          1
   205          1
   206          1
   207          3
   208          3
   209          5
   211         21
   212          9
   213         14
   214          8
   215          7
   216          1
   217          1
   221          1
   223          3
   225         11
   226         40
   227         27
   228          6
   229          5
   230          1
   231          1
   235          1
   236          1
   237          4
   238          2
   239          4
   240          1
   241          2
   243          1
   244          1
   245          1
   247          3
   251          2
   253        101
   254         23
   255          6
   256          1
   257          1
   258          1
   259          3
   260          2
   261         12
   262          3
   263          1
   265          1
   267          1
   269          1
   271          3
   272          2
   273          1
   274          6
   275          2
   277          1
   279          2
   281          6
   282          2
   285          1
   286          7
   287          2
   290          1
   294          1
   295          4
   296          1
   297          1
   299          1
   309          0
   311          1
   313         49
   314         21
   315          5
   316          0
   319          1
   321          3
   325          1
   326          1
   327          2
   335          1
   336          1
   337          7
   338          1
   339          1
   341          1
   343          1
   353         14
   354          6
   355          6
   356          1
   357          2
   367          5
   368         77
   369         56
   370         10
   371          1
   373          2
   385          2
   386          4
   387          1
   397          3
   413          3
   414          1
   415          1
   427          3
   428         95
   429         58
   430         11
   431          1
   446          1
   457          1
   489          3