##TITLE=Library Entry 53241
##JCAMP-DX=Revision 4.10 
##DATA TYPE=MASS SPECTRUM
##SAMPLE DESCRIPTION=M.UMEHARA, DEP. CHEM., KEIO UNIV., KOHOKU-KU, YOKOHAMA
##NAMES=HP
##CAS NAME=cis-4,4-Dimethylbicyclo(6.3.0)undecane-2,6-dione
##MOLFORM=C13H20O2
##CAS REGISTRY NO=68181-80-6
##MP= -300
##BP= -300
##MW= 208
##$RETENTION INDEX=0
##$CONDENSED SPECTRUM=NO
##NPOINTS= 58
##XYDATA=(XY..XY) 1 
    29         14
    39         21
    40         11
    41        112
    42         20
    43        214
    44         10
    53         34
    54         67
    55        257
    56        170
    57         40
    66         86
    67        360
    68        174
    69         81
    70         97
    71         15
    79         39
    80         48
    81        155
    82        134
    83        999
    84        120
    85         44
    90         17
    91         13
    93         24
    94         20
    95        188
    96         43
    97         93
    98         21
    99         23
   107         20
   108         11
   109         41
   110         48
   111        139
   112        391
   113         50
   123         28
   124        242
   125         76
   137         16
   140        201
   141        761
   142         77
   152        153
   153         74
   154         21
   166         20
   167         12
   180         13
   193         77
   194         10
   208         54
   209         17