##TITLE=Library Entry 61369
##JCAMP-DX=Revision 4.10 
##DATA TYPE=MASS SPECTRUM
##SAMPLE DESCRIPTION=Chemical Concepts
##NAMES=HP
##CAS NAME=Diethyl vinylphosphonate
##MOLFORM=C6H13O3P
##CAS REGISTRY NO=682-30-4
##MP= -300
##BP= -300
##MW= 164
##$RETENTION INDEX=0
##$CONDENSED SPECTRUM=NO
##NPOINTS= 69
##XYDATA=(XY..XY) 1 
    25          1
    26         53
    27        443
    28         34
    29        273
    30          3
    31         18
    39          2
    40        115
    42          8
    43         64
    44         23
    45         61
    46          5
    47        100
    48         15
    49          8
    53          0
    54         76
    55        105
    56         85
    62          9
    63          7
    64          7
    65        332
    66          3
    68          3
    72          1
    74          7
    75          9
    76          1
    77          3
    79          2
    80          9
    81        195
    82        243
    83         60
    89          9
    90          7
    91        999
    92        239
    93         92
    94          9
    96        134
    97         32
   100          2
   107          4
   108          7
   109        975
   110        102
   111         40
   112          0
   117          5
   118         19
   119        235
   120        229
   121         50
   122          8
   123          4
   124          4
   135        125
   136        447
   137        689
   138         31
   139         12
   149         39
   150          2
   163         55
   164         10