##TITLE=Library Entry 31876
##JCAMP-DX=Revision 4.10 
##DATA TYPE=MASS SPECTRUM
##SAMPLE DESCRIPTION=ORMSBG,10(6)485(1975); W. J. STEC
##NAMES=HP
##CAS NAME=Diphosphoric(III,V) acid, tetraethyl ester
##MOLFORM=C8H20O6P2
##CAS REGISTRY NO=682-24-6
##MP= -300
##BP= -300
##MW= 274
##$RETENTION INDEX=0
##$CONDENSED SPECTRUM=NO
##NPOINTS= 73
##XYDATA=(XY..XY) 1 
    41         45
    42         39
    43        198
    44        144
    45        288
    46         29
    47        280
    48         22
    50         25
    51         28
    55         22
    62         22
    65        999
    66         40
    73         52
    77         71
    78         94
    79         31
    81        790
    82        340
    83        234
    91        135
    92         65
    93        341
    94         40
    96         29
    99        740
   109        244
   110        135
   111        314
   120        150
   121        340
   122         24
   125         69
   126        150
   127        640
   128         73
   133         30
   137         32
   138        314
   139         50
   144         32
   145        585
   146         71
   147         27
   153         22
   154        171
   155        485
   156         35
   161        415
   162        479
   163        220
   173        184
   174         49
   175         25
   182         22
   186         25
   189         25
   190        117
   191        261
   193         61
   195         23
   201        180
   202         48
   208         32
   209         22
   218         72
   219        208
   230         32
   231         22
   246         51
   247         88
   274         29