##TITLE=Library Entry 18318
##JCAMP-DX=Revision 4.10 
##DATA TYPE=MASS SPECTRUM
##SAMPLE DESCRIPTION=N. NASHED, LBC, NIDDK, NIH, Bethesda, MD 20892
##NAMES=HP
##CAS NAME=Pyridine, 2-chlorothio-3-nitro-
##MOLFORM=C5H3ClN2O2S
##CAS REGISTRY NO=68206-45-1
##MP= -300
##BP= -300
##MW= 190
##$RETENTION INDEX=0
##$CONDENSED SPECTRUM=NO
##NPOINTS= 151
##XYDATA=(XY..XY) 1 
    41         32
    43         19
    44         74
    45        217
    46        168
    47         47
    48        150
    49        211
    50        678
    51        478
    52        999
    53         41
    54         23
    55         16
    56        151
    57         57
    58         71
    59         44
    60         40
    61         63
    62        115
    63        101
    64        364
    65         98
    66         41
    67         74
    68         52
    69        353
    70        510
    71        107
    72         74
    73        140
    74         38
    75        220
    76        675
    77        350
    78        112
    79        291
    80         58
    81        322
    82        521
    83        334
    84        219
    85        281
    86         65
    87         88
    88         21
    89          8
    90         13
    91        552
    92         59
    93         43
    94         22
    95         11
    96         92
    97         76
    98         16
    99         83
   100        183
   101         29
   102         61
   103         21
   104          3
   105         15
   106         15
   107        568
   108         97
   109        171
   110         21
   111         41
   112        709
   114        415
   115         27
   116         21
   117         92
   118         14
   119         37
   120          4
   121          5
   122          5
   123         15
   124         48
   125         77
   126        157
   127         85
   128         67
   129         12
   130          6
   131          4
   132         87
   133          7
   134         38
   135         19
   136          9
   137         11
   138          3
   139        140
   140          2
   141         18
   142        288
   143         29
   144        108
   145         12
   146         12
   147         11
   148          8
   149         13
   150          8
   151          5
   152          4
   153          2
   155        403
   156         30
   157         26
   158        351
   159         82
   160        133
   161         30
   162         11
   163         23
   164         11
   165         13
   166          6
   167          3
   168          3
   169          1
   170         12
   171          2
   172         11
   173          2
   174         15
   175          3
   176          6
   177          4
   178          3
   179          2
   180          3
   181          2
   182          4
   183          2
   184          3
   185          2
   186          6
   187          2
   188          2
   190        597
   191         85
   192        330
   193         35
   194         21
   195          4