##TITLE=Library Entry 33375
##JCAMP-DX=Revision 4.10 
##DATA TYPE=MASS SPECTRUM
##SAMPLE DESCRIPTION=Chemical Concepts
##NAMES=HP
##CAS NAME=Bicyclo[4.2.0]octan-7-one, 8,8-dichloro-1-methyl-
##MOLFORM=C9H12Cl2O
##CAS REGISTRY NO=68212-48-6
##MP= -300
##BP= -300
##MW= 206
##$RETENTION INDEX=0
##$CONDENSED SPECTRUM=NO
##NPOINTS= 143
##XYDATA=(XY..XY) 1 
    26         23
    27        430
    29        128
    35          4
    36          4
    37          9
    38         41
    39        527
    41        394
    42         29
    43         11
    44         15
    45          9
    46          3
    47         22
    48          6
    49         35
    50         77
    51        303
    52         95
    53        342
    54        127
    55        774
    56         31
    59          3
    60          1
    61         38
    62         32
    63         96
    64         18
    65        360
    66         94
    67        760
    68        999
    69        163
    70         17
    72          9
    73         69
    74         17
    75        105
    76         15
    77        423
    78         76
    79        609
    80         87
    81        741
    82        115
    83         36
    84         11
    85         24
    86          8
    87        181
    88         23
    89        109
    90         13
    91        584
    92         80
    93        275
    94         66
    95        434
    96        230
    97         26
    98          3
    99         26
   100         17
   101        221
   102         42
   103         90
   104         27
   105         80
   106         22
   107        604
   108         86
   109         22
   110         12
   112          9
   113         80
   114         23
   115         83
   116         16
   117         65
   118          9
   119         12
   120          4
   121         41
   122        105
   123         54
   124         70
   125         41
   126         21
   127        630
   128         69
   129        241
   130         46
   131         17
   132         12
   133          3
   134         10
   135        276
   136        137
   137         10
   138        162
   140         73
   141          6
   142         74
   143        313
   144         45
   145         99
   146          7
   147          9
   148          3
   149         27
   150          7
   151         15
   152         14
   153         13
   154          9
   155         12
   156          2
   157          6
   159          2
   161          3
   162        121
   163         33
   164        122
   165         23
   166         38
   167          1
   169          2
   170         12
   171        298
   172         32
   173        104
   174          9
   175          4
   177          6
   178         34
   179          6
   180         21
   181          2
   182          3
   206          5
   208          3