##TITLE=Library Entry 62437
##JCAMP-DX=Revision 4.10 
##DATA TYPE=MASS SPECTRUM
##SAMPLE DESCRIPTION=C.A. TSIPIS, DEP. INORG. CHEM., THESSALONIKI UNIV., GRE
ECE
##NAMES=HP
##CAS NAME=Bis(N-benzyldithiocarbamato)platinum(II)
##MOLFORM=C16H16N2PtS4
##CAS REGISTRY NO=68229-21-0
##MP= -300
##BP= -300
##MW= 559
##$RETENTION INDEX=0
##$CONDENSED SPECTRUM=NO
##NPOINTS= 20
##XYDATA=(XY..XY) 1 
    27         28
    32         52
    33         33
    34         83
    44         52
    65        239
    76        304
    91        999
   106        159
   117         69
   149        503
   183         15
   239         19
   259         30
   303          4
   344          4
   377          4
   409          5
   453          4
   559          3