##TITLE=Library Entry 68076
##JCAMP-DX=Revision 4.10 
##DATA TYPE=MASS SPECTRUM
##SAMPLE DESCRIPTION=Chemical Concepts
##NAMES=HP
##CAS NAME=4,4-Dimethyl-2-propenylcyclopentanone
##MOLFORM=C10H16O
##CAS REGISTRY NO=68261-88-1
##MP= -300
##BP= -300
##MW= 152
##$RETENTION INDEX=0
##$CONDENSED SPECTRUM=NO
##NPOINTS= 106
##XYDATA=(XY..XY) 1 
    26          8
    27        139
    28         25
    29        106
    30          2
    31          2
    37          2
    38         12
    39        249
    40         67
    41        350
    42         44
    43        102
    44          5
    45          7
    46          3
    47          1
    50         14
    51         45
    52         26
    53        172
    54         37
    55        210
    56        138
    57         37
    58          3
    59          5
    60          1
    61          1
    62          4
    63         14
    64          3
    65         52
    66         35
    67        467
    68        680
    69        104
    70         11
    71          7
    72          2
    73          0
    74          2
    75          1
    76          1
    77         66
    78         14
    79         79
    80         20
    81        238
    82         57
    83        212
    84         26
    85          8
    86          1
    87          1
    89          2
    91         48
    92          9
    93         76
    94         33
    95        999
    96        479
    97         55
    98          9
    99          1
   100          3
   101          0
   102          0
   103          1
   104          1
   105         10
   106          3
   107         27
   108         26
   109        438
   110        183
   111         26
   112          7
   113          1
   115          1
   117          1
   119         28
   120          3
   121         12
   122          2
   123         52
   124         29
   125         37
   126          4
   127          0
   128          0
   129          0
   133          2
   134         16
   135          6
   136          2
   137        119
   138         13
   139          3
   140          1
   141          0
   150          2
   151         15
   152        576
   153         71
   154          6