##TITLE=Library Entry 32140
##JCAMP-DX=Revision 4.10 
##DATA TYPE=MASS SPECTRUM
##SAMPLE DESCRIPTION=Chemical Concepts
##NAMES=HP
##CAS NAME=4,7-Methano-1H-indene, 2,3,3a,4,7,7a-hexahydro-2-methylene-
##MOLFORM=C11H14
##CAS REGISTRY NO=68284-25-3
##MP= -300
##BP= -300
##MW= 146
##$RETENTION INDEX=0
##$CONDENSED SPECTRUM=NO
##NPOINTS= 78
##XYDATA=(XY..XY) 1 
    25          2
    26         18
    27         81
    28         16
    29          6
    30          0
    31          1
    37          6
    38         18
    39        173
    40         52
    41         54
    42          3
    44          2
    45          4
    49          2
    50         29
    51         71
    52         37
    53         46
    54         12
    55          4
    56          0
    57          1
    58          5
    59          3
    61          3
    62         10
    63         34
    64          9
    65         97
    66        999
    67        405
    68         30
    69          0
    70          0
    71          1
    73          0
    74          7
    75          7
    76          5
    77        123
    78         89
    79        437
    80        545
    81         44
    82          1
    86          0
    87          0
    88          0
    89          9
    90          3
    91        174
    92         56
    93          6
    94          0
    95          0
   101          0
   102          4
   103         13
   104         18
   105         17
   106          1
   114          0
   115         22
   116          9
   117         29
   118         11
   119          0
   127          4
   128         12
   129          9
   130          3
   131         18
   132          1
   145          2
   146         52
   147          6