##TITLE=Library Entry 62143
##JCAMP-DX=Revision 4.10 
##DATA TYPE=MASS SPECTRUM
##SAMPLE DESCRIPTION=D.HENNEBERG, MAX-PLANCK INSTITUTE, MULHEIM, WEST GERMAN
Y
##NAMES=HP
##CAS NAME=Cycloheptane, 1,3,5-tris(methylene)-
##MOLFORM=C10H14
##CAS REGISTRY NO=68284-24-2
##MP= -300
##BP= -300
##MW= 134
##$RETENTION INDEX=0
##$CONDENSED SPECTRUM=NO
##NPOINTS= 85
##XYDATA=(XY..XY) 1 
    27        280
    28         60
    29         69
    30          1
    36          1
    37          7
    38         26
    39        392
    40         74
    41        315
    42         13
    43         10
    44         52
    45          3
    47          0
    49          2
    50         44
    51        148
    52         71
    53        171
    54         23
    55         59
    56          7
    60          0
    61          2
    62         18
    63         50
    64         25
    65        150
    66         55
    67         75
    68          8
    69          4
    70          2
    71          0
    73          1
    74          6
    75         12
    76          9
    77        435
    78        135
    79        458
    80         93
    81         21
    82          2
    83          3
    84          0
    85          1
    87          3
    89          9
    90         10
    91        999
    92        429
    93        250
    94         48
    95         14
    96          1
    99          1
   102         12
   103         76
   104         53
   105        492
   106        180
   107         42
   108          4
   109          1
   110          1
   111          0
   112          1
   114          3
   115         38
   116         18
   117         95
   118         21
   119        557
   120         82
   121          7
   122          0
   130          2
   131         15
   132          9
   133         85
   134        797
   135         84
   136          5