##TITLE=Library Entry 49484
##JCAMP-DX=Revision 4.10 
##DATA TYPE=MASS SPECTRUM
##SAMPLE DESCRIPTION=Chemical Concepts
##NAMES=HP
##CAS NAME=Tricyclo[4.2.1.0(2,5)]nonan-3-one, 4,4-dichloro-
##MOLFORM=C9H10Cl2O
##CAS REGISTRY NO=68295-68-1
##MP= -300
##BP= -300
##MW= 204
##$RETENTION INDEX=0
##$CONDENSED SPECTRUM=NO
##NPOINTS= 129
##XYDATA=(XY..XY) 1 
    25          6
    26         68
    27        364
    29         48
    35          8
    36          6
    37         34
    38         97
    39        589
    40        133
    41        226
    42         13
    47         25
    49         29
    50        135
    51        333
    52         94
    53        168
    54        158
    55         61
    56         10
    60         16
    61         43
    62         49
    63        109
    64         22
    65        275
    66        372
    67        290
    68        589
    69         57
    70         14
    72         15
    73        144
    74         41
    75        123
    76         18
    77        695
    78        163
    79        728
    80        999
    81        202
    82        141
    83         19
    84         19
    85         41
    86         20
    87        146
    88         24
    89         76
    90         11
    91        191
    92         37
    93        121
    94         32
    95         28
    96          6
    97          8
    98          5
    99        142
   100         64
   101        133
   102         39
   103         77
   104         25
   105        402
   106         55
   107        149
   108         23
   109         39
   110         13
   111         78
   112         57
   113        482
   114        130
   115        176
   116         42
   117         11
   120          5
   121         14
   122        658
   123         41
   124        455
   125         88
   126         87
   127         63
   128         20
   129         27
   130          6
   131          7
   133         85
   134         17
   135         93
   136         22
   137         56
   138        126
   139         23
   140         81
   141        352
   142         38
   143        108
   144          9
   147        160
   148         53
   149        125
   150         39
   151         40
   152          8
   153          8
   160         92
   161         83
   162        110
   163         67
   164         40
   165         15
   169        104
   170         13
   171         38
   175         24
   176        107
   177         26
   178         68
   179          8
   180         10
   204        150
   205         15
   206         96
   207          7
   208         13