##TITLE=Library Entry 58763
##JCAMP-DX=Revision 4.10 
##DATA TYPE=MASS SPECTRUM
##SAMPLE DESCRIPTION=K.GRIESBAUM,DEP.PETROCHEM.ORG.TECHNOL.,UNIV.KARLSRUHE,W
.GER.
##NAMES=HP
##CAS NAME=Acrolein, 2-chloro-
##MOLFORM=C3H3ClO
##CAS REGISTRY NO=683-51-2
##MP= -300
##BP= -300
##MW= 90
##$RETENTION INDEX=0
##$CONDENSED SPECTRUM=NO
##NPOINTS= 11
##XYDATA=(XY..XY) 1 
    53         80
    54         50
    60         60
    61        330
    62        370
    63        120
    64        130
    89         90
    90        999
    91         60
    92        360