##TITLE=Library Entry 58809
##JCAMP-DX=Revision 4.10 
##DATA TYPE=MASS SPECTRUM
##SAMPLE DESCRIPTION=A.Pleshkova, Nesmeyanov Inst.Org.Elem.Cpds, Moscow
##NAMES=HP
##CAS NAME=Arsine, cyanodimethyl-
##MOLFORM=C3H6AsN
##CAS REGISTRY NO=683-45-4
##MP= -300
##BP= -300
##MW= 131
##$RETENTION INDEX=0
##$CONDENSED SPECTRUM=NO
##NPOINTS= 23
##XYDATA=(XY..XY) 1 
    27        521
    28         63
    29          8
    42        403
    43         21
    75        121
    76         81
    77         83
    78          9
    88        109
    89        913
    90        999
    91         25
   101        163
   102         63
   103         12
   114        103
   115         71
   116        723
   117         25
   131        803
   132         41
   133          1