##TITLE=Library Entry 70309
##JCAMP-DX=Revision 4.10 
##DATA TYPE=MASS SPECTRUM
##SAMPLE DESCRIPTION=Exported from NIST MS Search
##NAMES=HP
##CAS NAME=Ethane, 2-bromo-1,1-dichloro-
##MOLFORM=C2H3BrCl2
##CAS REGISTRY NO=683-53-4
##MP= -300
##BP= -300
##MW= 176
##$RETENTION INDEX=0
##$CONDENSED SPECTRUM=NO
##NPOINTS= 71
##XYDATA=(XY..XY) 1 
    12          1
    13          2
    14          2
    24          2
    25         16
    26         73
    27         56
    28          2
    34         11
    35          5
    36          4
    37          1
    47          8
    48          7
    49          7
    50          3
    51          1
    59          3
    60         28
    61        221
    62         50
    63         76
    64         13
    79         17
    80          4
    81         17
    82          7
    83        115
    84          3
    85         74
    86          1
    87         12
    91          4
    92          3
    93         30
    94          4
    95         33
    96         25
    97        999
    98         38
    99        635
   100         17
   101        103
   102          2
   103          6
   104         74
   105          8
   106         71
   107          3
   114          1
   116          2
   127          8
   129         10
   131          2
   132          1
   134          1
   139          6
   140          5
   141        112
   142          8
   143        139
   144          5
   145          3
   146          1
   176         78
   177          3
   178        127
   179          4
   180         56
   181          2
   182          8