##TITLE=Library Entry 65156
##JCAMP-DX=Revision 4.10 
##DATA TYPE=MASS SPECTRUM
##SAMPLE DESCRIPTION=L.N.Kulikova, V.G. Zaikin, Peoples' Friendship Universi
ty of Russia, Moscow
##NAMES=HP
##CAS NAME=Benzeneacetamide, N-methyl-
##MOLFORM=C9H11NO
##CAS REGISTRY NO=6830-82-6
##MP= -300
##BP= -300
##MW= 149
##$RETENTION INDEX=0
##$CONDENSED SPECTRUM=NO
##NPOINTS= 63
##XYDATA=(XY..XY) 1 
    15         15
    18          5
    26          1
    27          3
    28          2
    29          6
    30         11
    37          2
    38         13
    39         70
    40          7
    41         16
    42         11
    43          3
    45          8
    46          1
    50         23
    51         41
    52         12
    53          4
    55          1
    56          2
    58        540
    59         16
    60          2
    61          6
    62         25
    63         73
    64         23
    65        195
    66         12
    70          2
    73          2
    74          7
    75          5
    76          3
    77         10
    78          4
    79          2
    85          2
    86          4
    87          6
    89         87
    90         42
    91        833
    92        999
    93         79
    94          3
   103          1
   104          3
   106          2
   107          1
   116          1
   117          1
   118         11
   119          3
   120          3
   146          2
   147          3
   148          1
   149        108
   150         13
   151          1