##TITLE=Library Entry 50260
##JCAMP-DX=Revision 4.10 
##DATA TYPE=MASS SPECTRUM
##SAMPLE DESCRIPTION=D.HENNEBERG, MAX-PLANCK INSTITUTE, MULHEIM, WEST GERMAN
Y
##NAMES=HP
##CAS NAME=2-Cyclopentene-1-carboxylic acid, 1-methyl-, methyl ester
##MOLFORM=C8H12O2
##CAS REGISTRY NO=68317-73-7
##MP= -300
##BP= -300
##MW= 140
##$RETENTION INDEX=0
##$CONDENSED SPECTRUM=NO
##NPOINTS= 84
##XYDATA=(XY..XY) 1 
    27         63
    28         17
    29         19
    30          2
    31          4
    32          1
    33          1
    37          2
    38          9
    39         82
    40         15
    41         93
    42          6
    43          9
    44          3
    45          3
    46          0
    49          1
    50         10
    51         21
    52         14
    53         98
    54          9
    55         26
    56          2
    57          2
    58          0
    59         22
    60          0
    61          1
    62          2
    63          5
    64          1
    65         26
    66         19
    67          6
    68          1
    69          6
    70          1
    71          1
    72          0
    73          1
    74          1
    75          1
    76          0
    77         37
    78         10
    79        129
    80         74
    81        999
    82         67
    83          3
    84          0
    85          0
    87          0
    88          0
    89          0
    91          2
    92          1
    93          7
    94          1
    95          3
    96          0
    97          5
    98          2
    99          0
   101          2
   102          0
   107          1
   108          2
   109          4
   110          0
   111          0
   112          4
   113          1
   121          0
   123          0
   125         11
   126          1
   128          1
   139          0
   140         38
   141          3
   142          0