##TITLE=Library Entry 50250
##JCAMP-DX=Revision 4.10 
##DATA TYPE=MASS SPECTRUM
##SAMPLE DESCRIPTION=Chemical Concepts
##NAMES=HP
##CAS NAME=2-Cyclopentene-1-carboxylic acid, 1-methyl-
##MOLFORM=C7H10O2
##CAS REGISTRY NO=68317-77-1
##MP= -300
##BP= -300
##MW= 126
##$RETENTION INDEX=1079
##$CONDENSED SPECTRUM=NO
##NPOINTS= 77
##XYDATA=(XY..XY) 1 
    26         10
    27         86
    28         39
    29         22
    30          0
    31          6
    32          3
    35          0
    36          2
    37          6
    38         16
    39        118
    40         16
    41        118
    42          5
    43         16
    44          7
    45         17
    46          0
    47          0
    49          2
    50         19
    51         34
    52         17
    53        116
    54          7
    55         31
    56          2
    57          2
    58          1
    59          1
    60          2
    61          2
    62          3
    63          8
    64          2
    65         34
    66         20
    67         25
    68          1
    69          4
    70          1
    71          0
    72          0
    73          1
    74          2
    75          1
    76          1
    77         38
    78          9
    79        140
    80         31
    81        999
    82         66
    83         10
    84          1
    85          0
    86          0
    87          0
    89          0
    92          0
    93          4
    94          0
    95          0
    97          3
    98          2
   105          0
   106          1
   107          0
   108          1
   109          1
   111         21
   112          1
   125          1
   126         59
   127          4
   128          0