##TITLE=Library Entry 35255
##JCAMP-DX=Revision 4.10 
##DATA TYPE=MASS SPECTRUM
##SAMPLE DESCRIPTION=NIST Mass Spectrometry Data Center
##NAMES=HP
##CAS NAME=Hexanoic acid, 3,7-dimethyl-2,6-octadienyl ester, (Z)-
##MOLFORM=C16H28O2
##CAS REGISTRY NO=68310-59-8
##MP= -300
##BP= -300
##MW= 252
##$RETENTION INDEX=1732
##$CONDENSED SPECTRUM=NO
##NPOINTS= 50
##XYDATA=(XY..XY) 1 
    27         49
    29         68
    39         85
    40         25
    41        564
    42         44
    43        378
    51         16
    52         10
    53         88
    54         14
    55        105
    56         16
    60         10
    65         27
    66         11
    67        203
    68        581
    69        999
    70         66
    71        197
    72         15
    77         40
    79         64
    80        329
    81        158
    82         24
    83         22
    84         30
    91         56
    92        106
    93        581
    94        100
    95         53
    99        238
   100         20
   105         39
   107        103
   108         32
   111         12
   121        290
   122         31
   123         31
   135         15
   136        130
   137         26
   139         13
   154         17
   183          6
   219          3