##TITLE=Library Entry 66595
##JCAMP-DX=Revision 4.10 
##DATA TYPE=MASS SPECTRUM
##SAMPLE DESCRIPTION=Japan AIST/NIMC Database- Spectrum MS-NW-6002
##NAMES=HP
##CAS NAME=Hexadecanamide, N-phenyl-
##MOLFORM=C22H37NO
##CAS REGISTRY NO=6832-98-0
##MP= -300
##BP= -300
##MW= 331
##$RETENTION INDEX=0
##$CONDENSED SPECTRUM=NO
##NPOINTS= 85
##XYDATA=(XY..XY) 1 
    27         12
    28          4
    29         39
    30          1
    39         14
    40          3
    41         89
    42         15
    43        125
    44          5
    51          4
    52          1
    53          5
    54          5
    55         66
    56         11
    57         61
    58          4
    63          2
    64          3
    65         18
    66         12
    67          9
    68          3
    69         25
    70          4
    71         21
    72          1
    77         24
    78          3
    79          3
    81          6
    82          1
    83         11
    84          3
    85         10
    86          1
    91          8
    92         33
    93        999
    94        130
    95         10
    96          1
    97          6
    98          3
    99          1
   104          2
   105          1
   106          8
   107          1
   109          2
   111          2
   118          1
   119          4
   120         27
   121          3
   123          1
   125          1
   132          2
   133          1
   134         10
   135        187
   136         18
   137          2
   146          1
   148         18
   149          3
   162          3
   176          3
   190          3
   204          2
   218          1
   232          1
   238          3
   239          5
   246          1
   260          1
   274          1
   288          1
   302          2
   316          1
   330          7
   331         51
   332         12
   333          2