##TITLE=Library Entry 88912
##JCAMP-DX=Revision 4.10 
##DATA TYPE=MASS SPECTRUM
##SAMPLE DESCRIPTION=Chemical Concepts
##NAMES=HP
##CAS NAME=Nonactin
##MOLFORM=C40H64O12
##CAS REGISTRY NO=6833-84-7
##MP= -300
##BP= -300
##MW= 736
##$RETENTION INDEX=0
##$CONDENSED SPECTRUM=NO
##NPOINTS= 135
##XYDATA=(XY..XY) 1 
    25         23
    27        148
    28         86
    29        229
    31         29
    39        198
    40         49
    41        538
    42        131
    43        758
    44        110
    45        185
    53        123
    54         78
    55        618
    56        173
    57        297
    58         76
    65         49
    66         34
    67        475
    68        283
    69        831
    70        116
    71        385
    74         87
    77         60
    79        122
    80         67
    81        322
    82        166
    83        303
    84        146
    85        186
    87         66
    91         53
    93        410
    94         78
    95        283
    96        140
    97        341
    98        120
    99         88
   101         47
   107         53
   108         66
   109        185
   110        131
   111        999
   112        124
   113        123
   116         51
   121        153
   122        117
   123        113
   124         66
   125        592
   126         66
   127        128
   129         82
   137         69
   138        195
   139        197
   140        155
   141         74
   143        629
   144         60
   148         70
   149         97
   151         68
   156         39
   157         41
   164        104
   165        149
   166        321
   167        705
   168        135
   169        185
   182         70
   183        299
   184        371
   185        963
   186        131
   187         42
   203         66
   211         28
   213         35
   214         27
   227         27
   240         63
   253         70
   255         44
   258        144
   259         66
   267         34
   280         24
   293         37
   295        127
   309         45
   327         64
   350         91
   351        109
   367        128
   368        105
   369        472
   370        120
   371         55
   387         62
   395         21
   397         22
   422         46
   423         20
   441         58
   442         60
   443        130
   444         34
   479         99
   511         29
   534         82
   535         41
   551         53
   552         35
   554         34
   571         61
   572         24
   626        118
   627         39
   639         27
   663         24
   708         48
   718         29
   721         17
   736        153
   737        141
   738         48