##TITLE=Library Entry 76535
##JCAMP-DX=Revision 4.10 
##DATA TYPE=MASS SPECTRUM
##SAMPLE DESCRIPTION=Chemical Concepts
##NAMES=HP
##CAS NAME=Cycloocta-1,2,3-selenadiazole, 6,7-dihydro-
##MOLFORM=C8H8N2Se
##CAS REGISTRY NO=68344-45-6
##MP= -300
##BP= -300
##MW= 212
##$RETENTION INDEX=0
##$CONDENSED SPECTRUM=NO
##NPOINTS= 108
##XYDATA=(XY..XY) 1 
    25          5
    26         50
    27        225
    29          2
    36          0
    37         49
    38         67
    39        306
    41         25
    49         23
    50        222
    51        343
    52        100
    53         40
    54          3
    60          4
    61         47
    62         83
    63        191
    64         28
    65         79
    66         11
    67          6
    73         23
    74        124
    75         85
    76         81
    77        614
    78        311
    79         57
    80         51
    81         16
    82         10
    83          2
    85          5
    86          9
    87         14
    88          1
    89         73
    90         16
    91        216
    92         38
    93         44
    94          8
    95          8
    97          3
    98         12
    99          3
   101         15
   102        258
   103        999
   104        329
   105         24
   106         46
   107          8
   108          8
   113         15
   114         16
   115         41
   116         15
   117         85
   118         20
   119         35
   120          3
   121          3
   125          2
   126          5
   127          8
   128         12
   129         19
   130         27
   131          8
   132         29
   133          2
   134          3
   137          2
   139          5
   140          3
   141         14
   142          4
   143         14
   144          4
   145          8
   152          2
   153          6
   154          9
   155          5
   156         12
   157         14
   158          5
   159          2
   165          7
   166          6
   167         21
   168          2
   169         42
   170          3
   171          8
   177          4
   178         12
   179         49
   180         79
   181        124
   182         94
   183        221
   184        122
   185         47
   186         21