##TITLE=Library Entry 82154
##JCAMP-DX=Revision 4.10 
##DATA TYPE=MASS SPECTRUM
##SAMPLE DESCRIPTION=M.A.E. SALLAM, DEP. CHEM., ALEXANDRIA UNIV., ALEXANDRIA
, EGY
##NAMES=HP
##CAS NAME=3-(2,3-Di-O-benzoyl-.beta.-D-erythrofuranosyl)-1-phenylpyrazolo[3
,4-b]quinoxaline
##MOLFORM=C33H24N4O5
##CAS REGISTRY NO=68355-13-5
##MP= -300
##BP= -300
##MW= 556
##$RETENTION INDEX=0
##$CONDENSED SPECTRUM=NO
##NPOINTS= 64
##XYDATA=(XY..XY) 1 
    43        470
    44        160
    45        200
    51        170
    53         50
    54         40
    55        310
    56        180
    57        430
    58        100
    60         40
    64         30
    65         50
    67         80
    68         50
    69        230
    70         70
    71         70
    73         90
    75         40
    76         50
    77        640
    78         70
    79         50
    81         50
    82         60
    83        110
    84         70
    85         70
    88         40
    90         30
    91         60
    92         30
    94         70
    95         70
    96         40
    98         70
   102         40
   103         30
   105        999
   106         90
   111         30
   122         70
   177        170
   219         30
   220         40
   245         90
   246         40
   247         20
   260         40
   261         30
   274         30
   275        140
   276         30
   285         40
   286         60
   290         30
   312         70
   313        750
   314        170
   315         30
   434        120
   435         40
   556         10