##TITLE=Library Entry 52198
##JCAMP-DX=Revision 4.10 
##DATA TYPE=MASS SPECTRUM
##SAMPLE DESCRIPTION=NIST Mass Spectrometry Data Center, 1994
##NAMES=HP
##CAS NAME=6-Pentadecanol
##MOLFORM=C15H32O
##CAS REGISTRY NO=6836-40-4
##MP= -300
##BP= -300
##MW= 228
##$RETENTION INDEX=0
##$CONDENSED SPECTRUM=NO
##NPOINTS= 74
##XYDATA=(XY..XY) 1 
     4          0
    15          4
    18          6
    19          3
    27        167
    28         38
    29        388
    30         14
    31         38
    39         92
    40         24
    41        580
    42        129
    43        495
    44         84
    45         29
    51          3
    52          2
    53         30
    54         39
    55        742
    56        110
    57        330
    58         46
    59          9
    65          5
    66          6
    67         51
    68         26
    69        271
    70         57
    71         94
    72         18
    73          4
    77          4
    79          6
    80          4
    81         37
    82         63
    83        999
    84         80
    85         21
    86          2
    95         12
    96         21
    97        186
    98         20
    99         15
   100         31
   101        249
   102         15
   109          3
   110          9
   111         22
   112          7
   113          3
   114          3
   115          2
   124          2
   125          8
   126          4
   127          3
   138          4
   139          6
   140          2
   152          1
   154          1
   155          6
   157         77
   158          9
   182          2
   210         10
   211          1
   227          1