##TITLE=Library Entry 20841
##JCAMP-DX=Revision 4.10 
##DATA TYPE=MASS SPECTRUM
##SAMPLE DESCRIPTION=D.HENNEBERG, MAX-PLANCK INSTITUTE, MULHEIM, WEST GERMAN
Y
##NAMES=HP
##CAS NAME=6-Dodecanol
##MOLFORM=C12H26O
##CAS REGISTRY NO=6836-38-0
##MP= -300
##BP= -300
##MW= 186
##$RETENTION INDEX=1471
##$CONDENSED SPECTRUM=NO
##NPOINTS= 105
##XYDATA=(XY..XY) 1 
    20          0
    26          6
    27         81
    28         24
    29        154
    30          5
    31         46
    32          2
    33          1
    34          0
    35          1
    36          3
    37          4
    38          0
    39         32
    40          9
    41        232
    42         39
    43        245
    44         56
    46          1
    47          1
    49          2
    50          2
    51          1
    52          2
    53         15
    54         13
    55        999
    56         84
    57         95
    58         20
    59         17
    65          5
    66          3
    67         22
    68         24
    69        141
    70         50
    71         24
    72          5
    73          3
    75          2
    77          1
    78          4
    79          3
    80          0
    81         11
    82         27
    83        553
    84         46
    85          9
    86          3
    87          7
    88          0
    89          3
    90          0
    91          5
    92          0
    93          1
    95          3
    96          9
    97        392
    98         32
    99          4
   100          9
   101        168
   102         12
   103          0
   107          0
   108          1
   109          1
   110          1
   111          4
   112          1
   113          2
   114          8
   115        101
   116          7
   118          2
   120          0
   121          0
   122          1
   125          4
   126          3
   128          0
   129          0
   131          0
   133          3
   134          0
   135          2
   137          1
   141          1
   146          0
   149          0
   151          1
   159          1
   162          0
   163          2
   164          0
   168         11
   169          1
   176          1
   179          1
   185          1