##TITLE=Library Entry 8813
##JCAMP-DX=Revision 4.10 
##DATA TYPE=MASS SPECTRUM
##SAMPLE DESCRIPTION=NIST Mass Spectrometry Data Center, 1994
##NAMES=HP
##CAS NAME=6-Tetradecanone
##MOLFORM=C14H28O
##CAS REGISTRY NO=6836-42-6
##MP= -300
##BP= -300
##MW= 212
##$RETENTION INDEX=0
##$CONDENSED SPECTRUM=NO
##NPOINTS= 77
##XYDATA=(XY..XY) 1 
    15          8
    17          1
    18          3
    26         11
    27        258
    28         69
    29        424
    30          9
    39        140
    40         35
    41        559
    42        157
    43        999
    44         34
    50          1
    51          5
    52          3
    53         41
    54         25
    55        310
    56         69
    57        356
    58        538
    59        172
    60          6
    65          6
    66          2
    67         59
    68         19
    69         48
    70          2
    71        758
    72        143
    73         10
    77          4
    79          7
    80          4
    81         78
    82         32
    83         31
    84         12
    85         96
    86         23
    87          1
    93          2
    94          2
    95         19
    96         83
    97         24
    98         34
    99        303
   100         42
   101          3
   109         13
   110          4
   111          2
   112          3
   113         30
   114         76
   115         57
   116          5
   123         19
   124          2
   127         75
   128         11
   138          8
   139          1
   141        217
   142         24
   143          2
   156         30
   157          7
   169         22
   170          6
   183          7
   212          9
   213          2