##TITLE=Library Entry 55423
##JCAMP-DX=Revision 4.10 
##DATA TYPE=MASS SPECTRUM
##SAMPLE DESCRIPTION=Chemical Concepts
##NAMES=HP
##CAS NAME=1-(4-Methoxyphenethyl)-1-methylbiguanidine
##MOLFORM=C12H19N5O
##CAS REGISTRY NO=68374-37-8
##MP= -300
##BP= -300
##MW= 249
##$RETENTION INDEX=0
##$CONDENSED SPECTRUM=NO
##NPOINTS= 104
##XYDATA=(XY..XY) 1 
    34         16
    39         11
    41         71
    42        213
    43        386
    44        259
    45         15
    50          2
    51         20
    52         12
    53          4
    55         11
    56          7
    57         19
    58          5
    59         22
    60         57
    61          1
    62          8
    63          8
    65         23
    68         78
    69          9
    70          3
    71          4
    72         13
    73         17
    74          7
    75          2
    77         22
    78         69
    79         13
    80          2
    81          1
    82          3
    85        999
    86        158
    87          6
    88          1
    89         10
    91         45
    92          8
    93          2
    94          3
    95          1
    97         11
    99         34
   100          2
   101          1
   102          3
   103         10
   104          4
   105          9
   106          8
   107          9
   108          3
   109          1
   111          2
   112          2
   115        438
   116         19
   117          3
   118          3
   119         18
   120         10
   121         89
   122         48
   123          7
   125          1
   126          3
   128        102
   129          6
   131          1
   132          4
   134        109
   135         29
   136          6
   138          2
   146          3
   147          3
   148          8
   149          4
   150          3
   158          1
   160          1
   161          1
   162          3
   163          7
   164          9
   165          3
   174          1
   175          2
   189          2
   190          4
   191          2
   206          1
   219          1
   220          2
   233          1
   246          2
   248          7
   249         82
   250         11
   251          1