##TITLE=Library Entry 61429
##JCAMP-DX=Revision 4.10 
##DATA TYPE=MASS SPECTRUM
##SAMPLE DESCRIPTION=D.HENNEBERG, MAX-PLANCK INSTITUTE, MULHEIM, WEST GERMAN
Y
##NAMES=HP
##CAS NAME=Cyclohexene, 3-methylene-4-(1,2-propadienyl)-
##MOLFORM=C10H12
##CAS REGISTRY NO=68377-81-1
##MP= -300
##BP= -300
##MW= 132
##$RETENTION INDEX=0
##$CONDENSED SPECTRUM=NO
##NPOINTS= 103
##XYDATA=(XY..XY) 1 
    24          0
    25          2
    26         18
    27        185
    28         18
    29          9
    30          0
    31          0
    33          1
    34          1
    35          2
    36          1
    37         14
    38         41
    39        413
    40         70
    41        112
    42          4
    43          4
    44         21
    45          1
    46          2
    47          2
    48          2
    49          7
    50         87
    51        236
    52         78
    53        123
    54         51
    55          4
    56          1
    58         11
    59          2
    60          1
    61         11
    62         33
    63        124
    64        110
    65        250
    66         67
    67         28
    68          2
    69          0
    70          1
    71          2
    72          1
    73          3
    74         26
    75         30
    76         25
    77        392
    78        232
    79         98
    80          9
    81          2
    82          2
    83          0
    85          2
    86          6
    87         11
    88          4
    89         39
    90         17
    91        999
    92        111
    93         53
    94          3
    97          0
    98          3
    99          2
   100          3
   101         13
   102         41
   103         85
   104        278
   105         70
   106          7
   107          1
   108          0
   109          0
   110          1
   111          1
   114         18
   115        316
   116        163
   117        754
   118         76
   119          4
   120          1
   121          1
   122          1
   124          3
   125          7
   126         19
   127         68
   128        168
   129        177
   130        160
   131        307
   132        238
   133         23
   134          1