##TITLE=Library Entry 56673
##JCAMP-DX=Revision 4.10 
##DATA TYPE=MASS SPECTRUM
##SAMPLE DESCRIPTION=Japan AIST/NIMC Database- Spectrum MS-NW-7074
##NAMES=HP
##CAS NAME=N-Cyclohexyl-2-pyrrolidone
##MOLFORM=C10H17NO
##CAS REGISTRY NO=6837-24-7
##MP= -300
##BP= -300
##MW= 167
##$RETENTION INDEX=0
##$CONDENSED SPECTRUM=NO
##NPOINTS= 98
##XYDATA=(XY..XY) 1 
    14          1
    15          7
    18          2
    26          6
    27         60
    28         79
    29         42
    30         28
    31          1
    32          1
    33          1
    34          6
    37          1
    38          4
    39         70
    40         15
    41        219
    42         48
    43         26
    44         15
    45          1
    46          1
    47          3
    48          4
    50          3
    51          6
    52          6
    53         27
    54         51
    55        102
    56        144
    57          9
    58          4
    59          2
    60          1
    61          1
    62          1
    63          1
    64          1
    65          6
    66          5
    67         67
    68         39
    69         82
    70         45
    71          9
    72          2
    73          1
    74          1
    75          1
    77          8
    78          4
    79         17
    80          9
    81         45
    82         55
    83         50
    84         37
    85         11
    86        999
    87         50
    88          5
    91          1
    92          1
    93          2
    94          7
    95          6
    96         69
    97         26
    98         72
    99         27
   100          4
   106          2
   107          1
   108          4
   109          2
   110         18
   111         34
   112         33
   113          6
   120          3
   122          2
   123          2
   124        601
   125         64
   126         18
   127          2
   137          1
   138         60
   139         14
   140          1
   150          5
   152          7
   153          1
   166          8
   167        260
   168         34
   169          3