##TITLE=Library Entry 43253
##JCAMP-DX=Revision 4.10 
##DATA TYPE=MASS SPECTRUM
##SAMPLE DESCRIPTION=J.F.KENNEDY, DEP. CHEM., UNIV. OF BIRMINGHAM, BIRMINGHA
M, U.
##NAMES=HP
##CAS NAME=.alpha.-L-Idopyranuronic acid, 5TMS derivative
##MOLFORM=C21H50O7Si5
##CAS REGISTRY NO=68398-77-6
##MP= -300
##BP= -300
##MW= 554
##$RETENTION INDEX=0
##$CONDENSED SPECTRUM=NO
##NPOINTS= 31
##XYDATA=(XY..XY) 1 
    73        999
    75        260
    77         50
    93         50
   103         30
   117         20
   129         40
   131         30
   133         50
   143         60
   147        410
   189         60
   191         90
   204        760
   217        440
   230         20
   233         20
   245         20
   257         20
   291         10
   292         70
   305        100
   319         10
   331         10
   333         20
   335         20
   347         10
   359         30
   449         30
   464         10
   539          6