##TITLE=Library Entry 72834
##JCAMP-DX=Revision 4.10 
##DATA TYPE=MASS SPECTRUM
##SAMPLE DESCRIPTION=Japan AIST/NIMC Database- Spectrum MS-NW-7365
##NAMES=HP
##CAS NAME=Mopso
##MOLFORM=C7H15NO5S
##CAS REGISTRY NO=68399-77-9
##MP= -300
##BP= -300
##MW= 225
##$RETENTION INDEX=0
##$CONDENSED SPECTRUM=NO
##NPOINTS= 160
##XYDATA=(XY..XY) 1 
    14          3
    15         27
    16          3
    17         23
    18          7
    24          1
    26         17
    27         77
    28        130
    29         85
    30         67
    31         30
    32         10
    33          1
    34          3
    36          2
    37          2
    38          7
    39         66
    40         16
    41        212
    42        264
    43        143
    44         56
    45         25
    46          1
    47          1
    48         62
    49          2
    50          3
    51          4
    52          6
    53          8
    54         58
    55        167
    56        242
    57        141
    58         29
    59          6
    60          2
    62          1
    63          5
    64        164
    65         12
    66          7
    67         13
    68        101
    69         85
    70         82
    71         22
    72         28
    73         10
    74          2
    75          1
    77          5
    78          3
    79          3
    80          5
    81          6
    82         76
    83         43
    84         31
    85         26
    86        212
    87         56
    88         11
    89          1
    90          1
    91          2
    92          2
    93          2
    94          6
    95          5
    96         61
    97         23
    98         38
    99          7
   100        999
   101         71
   102          7
   103          1
   104          2
   105          3
   106          2
   107          3
   108          2
   109          2
   110          2
   111          4
   112         39
   113        169
   114         18
   115          5
   116          2
   117          2
   118          1
   119          2
   120          2
   121          2
   122          2
   123          2
   124          4
   125          6
   126         30
   127        151
   128        124
   129         10
   130         41
   131          4
   132          1
   133          2
   134          2
   135          2
   136          1
   137          1
   138          1
   139          2
   140          2
   141          2
   142          2
   143          2
   144          9
   145        109
   146         10
   147          2
   148          1
   149          1
   150          2
   151          1
   152          1
   154          1
   155          1
   156          1
   159          1
   160          1
   161          1
   162          1
   163          1
   164          1
   165          2
   168          2
   172          1
   173          1
   176          2
   177          1
   178          1
   179          1
   180          1
   181          3
   182          1
   186          1
   194          1
   203          1
   206          2
   207         13
   208          2
   209          1
   224          2
   225          1
   226          2