##TITLE=Library Entry 6174
##JCAMP-DX=Revision 4.10 
##DATA TYPE=MASS SPECTRUM
##SAMPLE DESCRIPTION=D.D.FAULK CENTRAL MISSOURI STATE COLLEGE, WARRENSBURG,
 USA
##NAMES=HP
##CAS NAME=3-Penten-2-one, 3,4-dimethyl-
##MOLFORM=C7H12O
##CAS REGISTRY NO=684-94-6
##MP= -300
##BP= -300
##MW= 112
##$RETENTION INDEX=901
##$CONDENSED SPECTRUM=NO
##NPOINTS= 91
##XYDATA=(XY..XY) 1 
    13          5
    14         55
    15        206
    16          6
    17          4
    18         13
    19          0
    24          0
    25          3
    26         31
    27        203
    28        136
    29         60
    30          2
    31          4
    32          1
    33          0
    36          1
    37         15
    38         34
    39        267
    40         45
    41        747
    42         84
    43        999
    44         34
    45          5
    46          0
    47          0
    48          0
    49          6
    50         31
    51         48
    52         20
    53         91
    54         19
    55        107
    56          8
    57         10
    58         16
    59          3
    60          0
    61          3
    62          7
    63         11
    64          2
    65         15
    66          9
    67         44
    68         18
    69        361
    70         65
    71          8
    72          4
    73          0
    74          1
    75          1
    76          1
    77         26
    78          6
    79         38
    80          3
    81         12
    82          4
    83         10
    84          3
    85          2
    86          1
    87          0
    89          0
    91         13
    92          2
    93          8
    94         19
    95          7
    96          9
    97        145
    98         10
    99          1
   103          0
   104          0
   105          5
   106          1
   107          1
   108          0
   109          4
   110          5
   111          2
   112        156
   113         12
   114          1