##TITLE=Library Entry 26372
##JCAMP-DX=Revision 4.10 
##DATA TYPE=MASS SPECTRUM
##SAMPLE DESCRIPTION=Exported from NIST MS Search
##NAMES=HP
##CAS NAME=Phosphine oxide, bis(1,1-dimethylethyl)-
##MOLFORM=C8H19OP
##CAS REGISTRY NO=684-19-5
##MP= -300
##BP= -300
##MW= 162
##$RETENTION INDEX=0
##$CONDENSED SPECTRUM=NO
##NPOINTS= 14
##XYDATA=(XY..XY) 1 
    29        107
    39         10
    41        143
    55         25
    56         51
    57        999
    58         71
    62         41
   105          5
   106        200
   107         35
   147         30
   162        102
   163         51