##TITLE=Library Entry 16774
##JCAMP-DX=Revision 4.10 
##DATA TYPE=MASS SPECTRUM
##SAMPLE DESCRIPTION=Exported from NIST MS Search
##NAMES=HP
##CAS NAME=1,3-Butanediol, 2-methyl-
##MOLFORM=C5H12O2
##CAS REGISTRY NO=684-84-4
##MP= -300
##BP= -300
##MW= 104
##$RETENTION INDEX=0
##$CONDENSED SPECTRUM=NO
##NPOINTS= 81
##XYDATA=(XY..XY) 1 
    14          3
    15         23
    16          1
    17          2
    18          8
    19         37
    25          1
    26          8
    27         80
    28         28
    29         93
    30          7
    31        118
    32          3
    33          1
    36          1
    37          1
    38          4
    39         47
    40         25
    41        241
    42        651
    43         61
    44         35
    45        999
    46         24
    47          9
    48          1
    49          1
    50          3
    51          4
    52          1
    53         16
    54          3
    55         71
    56        115
    57         65
    58         22
    59         57
    60         12
    61          8
    62          1
    63         61
    64          1
    65          1
    66          1
    67          6
    68          8
    69         24
    70          3
    71        184
    72         11
    73         18
    74          2
    75         21
    76          1
    77          4
    78          1
    79          1
    80          1
    81          1
    82          1
    83          1
    84          1
    85          7
    86         23
    87         16
    88          2
    89         41
    90          2
    91          1
    95          1
    97          1
    98          1
    99          2
   100          1
   101          7
   102          1
   103          8
   104          1
   105          3