##TITLE=Library Entry 31486
##JCAMP-DX=Revision 4.10 
##DATA TYPE=MASS SPECTRUM
##SAMPLE DESCRIPTION=RADIAN CORP
##NAMES=HP
##CAS NAME=Silane, trichloro(1,2-dichloroethyl)-
##MOLFORM=C2H3Cl5Si
##CAS REGISTRY NO=684-00-4
##MP= -300
##BP= -300
##MW= 230
##$RETENTION INDEX=0
##$CONDENSED SPECTRUM=NO
##NPOINTS= 85
##XYDATA=(XY..XY) 1 
    25         11
    26         68
    27        174
    28          9
    29          3
    35         65
    36         16
    37         22
    38          5
    41          7
    42          5
    47          7
    48          8
    49         47
    51         13
    52          7
    53         28
    54          2
    55          1
    59          1
    60         24
    61         82
    62        999
    63        286
    64        344
    65         91
    66          4
    67          1
    69          1
    83         19
    85         12
    87          6
    88          6
    89          1
    90          1
    96         12
    97         17
    98        150
    99         48
   100         97
   101         26
   102         18
   103          2
   113          2
   115          1
   121          2
   123         24
   124          7
   125         27
   126          7
   127         11
   128          1
   129          4
   131          3
   133        625
   134         38
   135        644
   136         34
   137        220
   138          9
   139         28
   146          7
   148          7
   159          7
   160          3
   161          6
   162          2
   168          9
   170          7
   171          2
   181         37
   182          3
   183         46
   184          2
   185         23
   187          3
   195         71
   196          8
   197         89
   198          7
   199         45
   200          1
   201          8
   202          8
   204          7