##TITLE=Library Entry 98146
##JCAMP-DX=Revision 4.10 
##DATA TYPE=MASS SPECTRUM
##SAMPLE DESCRIPTION=NIST Mass Spectrometry Data Center, 1994
##NAMES=HP
##CAS NAME=2,4-Dimethylphenylacetonitrile
##MOLFORM=C10H11N
##CAS REGISTRY NO=68429-53-8
##MP= -300
##BP= -300
##MW= 145
##$RETENTION INDEX=0
##$CONDENSED SPECTRUM=NO
##NPOINTS= 74
##XYDATA=(XY..XY) 1 
    14          5
    15         31
    18          5
    26         30
    27        169
    29         11
    36          4
    37         21
    38         61
    39        319
    40         55
    41         78
    42          6
    50        131
    51        279
    52         97
    53         73
    54          9
    58         54
    61         23
    62         69
    63        180
    64         62
    65        160
    66         19
    67          5
    71         14
    72         36
    73          6
    74         47
    75         68
    76         79
    77        316
    78        114
    79        117
    80          9
    85          6
    86         15
    87         24
    88         15
    89         84
    90         34
    91        145
    92         16
    93          3
    98          5
    99          6
   100          8
   101         23
   102         77
   103        307
   104         83
   105        580
   106         49
   113          7
   115        180
   116         72
   117        291
   118        999
   119        106
   120          5
   127         10
   128         20
   130        552
   131         53
   132          3
   140         10
   141          4
   142         15
   143         20
   144         87
   145        549
   146         57
   147          4