##TITLE=Library Entry 4587
##JCAMP-DX=Revision 4.10 
##DATA TYPE=MASS SPECTRUM
##SAMPLE DESCRIPTION=James Little,Eastman Chem.Co.,Kingsport,TN
##NAMES=HP
##CAS NAME=2,4-Imidazolidinedione, 3-methyl-
##MOLFORM=C4H6N2O2
##CAS REGISTRY NO=6843-45-4
##MP= -300
##BP= -300
##MW= 114
##$RETENTION INDEX=0
##$CONDENSED SPECTRUM=NO
##NPOINTS= 17
##XYDATA=(XY..XY) 1 
    27         40
    28        168
    29         25
    30         73
    39         12
    40         40
    41         89
    42        999
    43        726
    44         34
    56         21
    70         35
    71         31
    86         46
   114        471
   115         35
   116          3