##TITLE=Library Entry 77753
##JCAMP-DX=Revision 4.10 
##DATA TYPE=MASS SPECTRUM
##SAMPLE DESCRIPTION=Japan AIST/NIMC Database- Spectrum MS-NW-7237
##NAMES=HP
##CAS NAME=2,4-Imidazolidinedione, 5-methyl-5-phenyl-
##MOLFORM=C10H10N2O2
##CAS REGISTRY NO=6843-49-8
##MP= -300
##BP= -300
##MW= 190
##$RETENTION INDEX=1866
##$CONDENSED SPECTRUM=NO
##NPOINTS= 100
##XYDATA=(XY..XY) 1 
    15         13
    16          1
    17          8
    18         39
    26          4
    27         19
    28         13
    29          2
    32          1
    37          5
    38         11
    39         44
    40          8
    41         25
    42        163
    43         13
    44         13
    45          1
    46          2
    49          4
    50         68
    51        180
    52         84
    53          6
    54          1
    55          1
    57          1
    58         13
    59          5
    61          4
    62         11
    63         28
    64          8
    65         18
    66          3
    68          3
    69          1
    70         29
    71          1
    73          5
    74         22
    75         20
    76         43
    77        282
    78        108
    79          9
    80          1
    85          1
    86          2
    87          3
    88          2
    89         11
    90          7
    91         29
    92         15
    93          3
    98          2
    99          1
   100          1
   101          4
   102         17
   103         78
   104        999
   105         91
   106          5
   112          1
   113         11
   114          1
   116          6
   117          8
   118         26
   119        392
   120         38
   121          3
   128          2
   129          1
   130          1
   131          1
   132         61
   133          6
   134          1
   143          2
   144          4
   145          4
   146         52
   147         78
   148          8
   149          1
   160          4
   161        118
   162         56
   163          6
   174          1
   175        775
   176         82
   177          8
   178          1
   190        227
   191         29
   192          3