##TITLE=Library Entry 26900
##JCAMP-DX=Revision 4.10 
##DATA TYPE=MASS SPECTRUM
##SAMPLE DESCRIPTION=Japan AIST/NIMC Database- Spectrum MS-NW-3653
##NAMES=HP
##CAS NAME=Butyl 2-ethylhexanoate
##MOLFORM=C12H24O2
##CAS REGISTRY NO=68443-63-0
##MP= -300
##BP= -300
##MW= 200
##$RETENTION INDEX=1281
##$CONDENSED SPECTRUM=NO
##NPOINTS= 92
##XYDATA=(XY..XY) 1 
    15          5
    18          1
    26          7
    27        128
    28         23
    29        308
    30          7
    31          9
    32          1
    33          1
    38          2
    39         73
    40         12
    41        388
    42         48
    43        244
    44          9
    45         25
    47          4
    50          2
    51          4
    52          2
    53         18
    54         10
    55        168
    56        342
    57        999
    58         47
    59         15
    60          4
    65          2
    66          1
    67          8
    68          6
    69         42
    70         48
    71         21
    72          4
    73        228
    74         14
    75          5
    77          1
    79          2
    80          2
    81          4
    82          2
    83         18
    84          3
    85         12
    86          3
    87        113
    88        470
    89        112
    90          7
    91          1
    95          2
    96          1
    97         18
    98         19
    99        164
   100         12
   101        117
   102          9
   103         16
   104          1
   109          4
   111          2
   113          2
   114          3
   115         75
   116         51
   117         26
   118          3
   125          2
   126          3
   127        260
   128         24
   129         41
   130          4
   142          1
   143         13
   144        160
   145        533
   146         50
   147          5
   157         10
   158          2
   171          9
   172         39
   173          5
   185          1
   200          2