##TITLE=Library Entry 38660
##JCAMP-DX=Revision 4.10 
##DATA TYPE=MASS SPECTRUM
##SAMPLE DESCRIPTION=NIST Mass Spectrometry Data Center, 2010
##NAMES=HP
##CAS NAME=2,2,4-Trimethyl-1,3-pentanediol diisobutyrate
##MOLFORM=C16H30O4
##CAS REGISTRY NO=6846-50-0
##MP= -300
##BP= -300
##MW= 286
##$RETENTION INDEX=1588
##$CONDENSED SPECTRUM=NO
##NPOINTS= 70
##XYDATA=(XY..XY) 1 
    27         17
    28          4
    29          8
    31          1
    39         12
    40          3
    41         67
    42         13
    43        316
    44         11
    45          3
    53          4
    55         44
    56         64
    57         17
    58          1
    59          1
    67          6
    68          2
    69         52
    71        999
    72         49
    73         17
    77          1
    79          2
    81          4
    83         45
    84          4
    85          9
    86          1
    87          1
    88          1
    89         22
    90          1
    95          9
    96          3
    97         22
    98         25
    99          3
   109          2
   110          7
   111        100
   112         10
   113          4
   114          2
   115          3
   126         12
   127         15
   128          7
   129          3
   142          4
   143         45
   144          4
   145          1
   155         69
   156          7
   159        122
   160         12
   161          1
   172          3
   173         60
   174          6
   198          3
   215          8
   229          3
   231          1
   243        107
   244         15
   245          2
   271          1