##TITLE=Library Entry 45971
##JCAMP-DX=Revision 4.10 
##DATA TYPE=MASS SPECTRUM
##SAMPLE DESCRIPTION=Susan Richardson
##NAMES=HP
##CAS NAME=Phosphoric acid, bis[2-chloro-1-(chloromethyl)ethyl] 2,3-dichloro
propyl ester
##MOLFORM=C9H15Cl6O4P
##CAS REGISTRY NO=68460-03-7
##MP= -300
##BP= -300
##MW= 428
##$RETENTION INDEX=0
##$CONDENSED SPECTRUM=NO
##NPOINTS= 158
##XYDATA=(XY..XY) 1 
    43          7
    44          2
    47         23
    48          3
    49        220
    50         10
    51         77
    53          1
    57         71
    58          8
    59         16
    61         34
    62         61
    63         14
    64         27
    65         23
    68          2
    73          8
    74          4
    75        999
    76         48
    77        323
    78         22
    79         31
    81         43
    82          7
    83         27
    85         13
    89          2
    90          1
    91         25
    93         39
    94          1
    95          4
    97         13
    98          1
    99        831
   109         25
   110         33
   111        110
   112         10
   113         50
   114          7
   115          8
   117         80
   119         25
   121         10
   123         23
   125         18
   133          1
   134          1
   135         32
   137        117
   138          7
   139         26
   140          2
   141         13
   143          8
   149          5
   151          9
   155        285
   156          7
   157         94
   158          3
   159        119
   161         41
   163          3
   171          7
   172          3
   173         64
   174          1
   175         15
   177          8
   179          1
   185          3
   189          3
   191        878
   192         31
   193        533
   194         27
   195         93
   196          4
   199          6
   202          1
   209        526
   210         21
   211        298
   212          7
   213         59
   215          3
   217          4
   223          1
   229          4
   233          6
   235          5
   237          2
   247         23
   249         18
   251         36
   252          1
   253          4
   255          1
   269         54
   270          1
   271         44
   273         20
   283         28
   284          3
   285         21
   287          8
   296          1
   301        122
   302          6
   303        122
   304          3
   305         67
   307          8
   309          3
   319        206
   320         13
   321        316
   322         32
   323        147
   324          8
   325         30
   331          6
   333          8
   335          7
   339          6
   340          1
   341          4
   343          2
   345          3
   349          1
   353          1
   357         22
   359         34
   361         17
   367          7
   369          7
   371          1
   373          2
   379        324
   380         22
   381        539
   382         43
   383        312
   384         34
   385        108
   386          3
   387         15
   393         90
   394          7
   395        156
   396          6
   397         87
   398          5
   399         24