##TITLE=Library Entry 63739
##JCAMP-DX=Revision 4.10 
##DATA TYPE=MASS SPECTRUM
##SAMPLE DESCRIPTION=Nat. Inst. for Petroleum and Energy Research, Bartlesvi
lle, OK
##NAMES=HP
##CAS NAME=Trifluoroacetamide, N-benzyl-N-methyl-
##MOLFORM=C10H10F3NO
##CAS REGISTRY NO=68464-36-8
##MP= -300
##BP= -300
##MW= 217
##$RETENTION INDEX=1301
##$CONDENSED SPECTRUM=NO
##NPOINTS= 71
##XYDATA=(XY..XY) 1 
    36          1
    37          2
    38         13
    39         99
    40          8
    41         33
    42        140
    43         11
    44         14
    50         41
    51         82
    52         19
    53          3
    56         13
    57         11
    58          2
    60         14
    62         15
    63         55
    64         19
    65        205
    66         13
    69        190
    74         21
    75          6
    76         10
    77         62
    78         34
    79        143
    80         10
    89         55
    90         30
    91        999
    92         89
    93          3
    96         39
    97          9
   103          4
   104         15
   105         26
   106          3
   107         99
   108         18
   109          3
   110         81
   111          2
   112          5
   118         30
   119         22
   120         13
   124          1
   127         23
   131          3
   132         34
   133          7
   134          1
   140         33
   146          1
   147         27
   148        157
   149         15
   169          1
   199          1
   200          1
   202         94
   203          9
   215         20
   216        270
   217        459
   218         48
   219          2