##TITLE=Library Entry 63992
##JCAMP-DX=Revision 4.10 
##DATA TYPE=MASS SPECTRUM
##SAMPLE DESCRIPTION=A.A.Kutin, Moscow, Russia
##NAMES=HP
##CAS NAME=Propanal, 3-(4-benzyloxyphenyl)-
##MOLFORM=C16H16O2
##CAS REGISTRY NO=68486-77-1
##MP= -300
##BP= -300
##MW= 240
##$RETENTION INDEX=0
##$CONDENSED SPECTRUM=NO
##NPOINTS= 113
##XYDATA=(XY..XY) 1 
    33          2
    37          0
    39         25
    40          5
    41          9
    42          0
    43          1
    44          1
    45          0
    50          3
    51         12
    52          5
    53          2
    55          6
    56          0
    57          0
    62          2
    63         10
    65         74
    66          3
    67          0
    68          0
    69          0
    74          0
    75          0
    77         17
    78          7
    79          2
    80          0
    81          0
    82          0
    86          0
    87          0
    89         17
    91        999
    92         69
    93          4
    94          1
    95          0
    97          0
    98          0
   102          0
   103          2
   104          1
   105          4
   106          1
   107          7
   108          0
   115          0
   116          0
   117          0
   118          0
   119          0
   120          1
   121          2
   122          0
   123          0
   126          0
   128          0
   129          0
   131          0
   133          2
   134          1
   135          0
   136          0
   141          0
   146          0
   147          0
   148          0
   149          1
   150          1
   151          0
   152          0
   153          0
   154          0
   163          0
   165          1
   166          0
   167          1
   168          0
   176          0
   177          0
   178          0
   179          0
   180          1
   181          2
   182          0
   183          0
   184          1
   185          0
   193          0
   194          0
   195          1
   196          2
   197         10
   198          2
   199          0
   210          4
   211          2
   212          3
   213          0
   222          0
   223          0
   224          1
   225          0
   226          0
   228          0
   237          0
   238          1
   240        112
   241         18
   242          3
   243          0