##TITLE=Library Entry 31297
##JCAMP-DX=Revision 4.10 
##DATA TYPE=MASS SPECTRUM
##SAMPLE DESCRIPTION=NIST Mass Spectrometry Data Center
##NAMES=HP
##CAS NAME=3,5-Dithiahexanol 5,5-dioxide
##MOLFORM=C4H10O3S2
##CAS REGISTRY NO=68483-74-9
##MP= -300
##BP= -300
##MW= 170
##$RETENTION INDEX=1543
##$CONDENSED SPECTRUM=NO
##NPOINTS= 38
##XYDATA=(XY..XY) 1 
    27         23
    29         24
    31         33
    33          3
    35         10
    42         13
    43         54
    44         23
    45        430
    46        101
    47        136
    48         25
    49         11
    57         13
    58         17
    59         89
    60        130
    61        999
    62         53
    63        151
    64         25
    65         33
    73         43
    75         14
    79         45
    81         86
    89         16
    90         24
    91        843
    92         36
    93         54
    94         22
   109         16
   111        157
   125         17
   126         11
   140         50
   170         16