##TITLE=Library Entry 31665
##JCAMP-DX=Revision 4.10 
##DATA TYPE=MASS SPECTRUM
##SAMPLE DESCRIPTION=R.F.LANGLER, DEP. CHEM., MT. ALLISON UNIV., NEW BRUNSWI
CK, C
##NAMES=HP
##CAS NAME=3,3,5-Trichloro-2,4-dithiahexane 2,2,4,4-tetroxide
##MOLFORM=C4H7Cl3O4S2
##CAS REGISTRY NO=68483-82-9
##MP= -300
##BP= -300
##MW= 288
##$RETENTION INDEX=0
##$CONDENSED SPECTRUM=NO
##NPOINTS= 24
##XYDATA=(XY..XY) 1 
    43         58
    44         36
    45         51
    46         14
    47         66
    48        102
    49         29
    50         14
    63        999
    64        279
    65        294
    79         88
    80         29
    82         73
    83        132
    84         44
    85         73
   111         29
   130        102
   132         73
   134         14
   161        897
   163        598
   165         99