##TITLE=Library Entry 17514
##JCAMP-DX=Revision 4.10 
##DATA TYPE=MASS SPECTRUM
##SAMPLE DESCRIPTION=R.F.LANGLER, DEP. CHEM., MT. ALLISON UNIV., NEW BRUNSWI
CK, C
##NAMES=HP
##CAS NAME=5-Chloro-2,4-dithiahexane 2,2-dioxide
##MOLFORM=C4H9ClO2S2
##CAS REGISTRY NO=68483-77-2
##MP= -300
##BP= -300
##MW= 188
##$RETENTION INDEX=0
##$CONDENSED SPECTRUM=NO
##NPOINTS= 24
##XYDATA=(XY..XY) 1 
    36        805
    38        268
    43        328
    45        999
    46        492
    47        835
    59        194
    60        194
    61        432
    63        611
    65        223
    73        776
    75        149
    79         89
    81        208
    91        358
   109        940
   111        313
   126         74
   133        111
   152        104
   153         74
   188         89
   190         29