##TITLE=Library Entry 79081
##JCAMP-DX=Revision 4.10 
##DATA TYPE=MASS SPECTRUM
##SAMPLE DESCRIPTION=Japan AIST/NIMC Database- Spectrum MS-NW-7003
##NAMES=HP
##CAS NAME=4,5-Bis(benzoylthio)-1,3-dithiole-2-thione
##MOLFORM=C17H10O2S5
##CAS REGISTRY NO=68494-08-6
##MP= -300
##BP= -300
##MW= 406
##$RETENTION INDEX=0
##$CONDENSED SPECTRUM=NO
##NPOINTS= 67
##XYDATA=(XY..XY) 1 
    27          6
    28          1
    32          3
    38          3
    39          6
    41          1
    43          1
    44          6
    45          3
    49          1
    50         20
    51         81
    52          6
    55          1
    56          1
    57          2
    60          1
    62          1
    63          2
    64          3
    65          2
    66          1
    67          1
    69          3
    71          1
    73          1
    74          6
    75          5
    76         37
    77        326
    78         24
    81          1
    83          1
    88          7
    89          1
    90          1
    95          1
    97          1
   104          2
   105        999
   106         83
   107          6
   108          1
   109          2
   110          1
   111          1
   120          2
   121          3
   122          6
   123          1
   136          1
   139          1
   152          1
   160          1
   166          1
   178          1
   198          1
   226          1
   240          1
   270          2
   302          1
   374          1
   406         42
   407          9
   408         10
   409          2
   410          2