##TITLE=Library Entry 84838
##JCAMP-DX=Revision 4.10 
##DATA TYPE=MASS SPECTRUM
##SAMPLE DESCRIPTION=Div. of Experiment Therapeutics WRAIR, WRAMC, Washingto
n DC 20307
##NAMES=HP
##CAS NAME=2,8-Bis[trifluoromethyl]-a-(2-pyridyl)-4-quinolinemethanol
##MOLFORM=C17H10F6N2O
##CAS REGISTRY NO=68496-04-8
##MP= -300
##BP= -300
##MW= 372
##$RETENTION INDEX=0
##$CONDENSED SPECTRUM=NO
##NPOINTS= 231
##XYDATA=(XY..XY) 1 
    41          9
    42          3
    43         10
    45          6
    49          5
    50         65
    51        294
    52        405
    53        168
    54         10
    55          6
    56          3
    57         11
    60          2
    61          3
    62         13
    63         26
    64          6
    65          4
    67          9
    69        136
    70          3
    71          2
    73          3
    74         15
    75         33
    76         18
    77         18
    78        606
    79        962
    80        333
    81         25
    82          5
    83          2
    84          4
    85          2
    86          6
    87         12
    88         10
    89          8
    90          5
    91          2
    92          9
    93          5
    94          2
    95         13
    96          4
    97          3
    98          8
    99         31
   100         12
   101         15
   102          7
   103          5
   104         11
   105          5
   106        101
   108        999
   109         53
   110          4
   111          6
   112          5
   113          6
   114          8
   115          5
   116          3
   117          7
   118          6
   119         13
   120          6
   123          8
   124         10
   125         13
   126         13
   127         15
   128         23
   129          4
   130          3
   131          8
   132         12
   133         10
   134          2
   136          2
   137          5
   138          5
   139          2
   141          6
   142         21
   143         18
   144          5
   145         12
   146          7
   147          3
   149         28
   150         27
   151         33
   152         19
   156          5
   157          4
   158         11
   161          4
   162          5
   163          4
   164          2
   165          2
   166          2
   167          7
   168         16
   169         70
   170         15
   171          2
   175          5
   176        116
   177         28
   178         11
   179          3
   180          2
   181          2
   182          3
   183          2
   186          4
   187          4
   188          7
   189          6
   190          4
   193          2
   194         16
   195          5
   196        100
   197         14
   199          1
   200          4
   201          3
   202          1
   203          6
   204          5
   205          9
   206         12
   207          7
   208          6
   212          2
   213          3
   214         35
   215         13
   216         14
   217          4
   218          2
   219          2
   220          3
   221          2
   224         15
   225          5
   226          8
   227          4
   228          2
   232          3
   233          6
   234          8
   235          6
   236          2
   237          2
   238          3
   239          2
   244          7
   245          8
   246         60
   247         13
   248          5
   252          3
   253          4
   254          8
   255          9
   256          3
   257          3
   258          7
   259          5
   260          2
   264         19
   265         20
   266         10
   267          2
   273         17
   274         22
   275         13
   276          5
   277          3
   278          2
   282          3
   283         17
   284         11
   285         51
   286         81
   287         13
   292          4
   294         17
   295          3
   296          2
   301         14
   302         14
   303         58
   304         25
   305          9
   315          4
   321          3
   322          8
   323         30
   324          7
   331          2
   333          3
   334          4
   335         16
   336          4
   341         70
   342         12
   343         26
   344          7
   351         37
   352          3
   353        212
   354        129
   355        159
   356         33
   357          6
   366          1
   369         10
   370          5
   371        254
   372        738
   373        135
   374         18
   375          6