##TITLE=Library Entry 28959
##JCAMP-DX=Revision 4.10 
##DATA TYPE=MASS SPECTRUM
##SAMPLE DESCRIPTION=Japan AIST/NIMC Database- Spectrum MS-NW-1298
##NAMES=HP
##CAS NAME=Acetamide, N,N-diethyl-
##MOLFORM=C6H13NO
##CAS REGISTRY NO=685-91-6
##MP= -300
##BP= -300
##MW= 115
##$RETENTION INDEX=985
##$CONDENSED SPECTRUM=NO
##NPOINTS= 41
##XYDATA=(XY..XY) 1 
    14          6
    15         64
    17          1
    18          3
    26          9
    27         63
    28         55
    29         82
    30        189
    31          3
    32          2
    38          1
    39          3
    40          5
    41         16
    42         65
    43        275
    44        328
    45          9
    52          1
    54          4
    55          3
    56         29
    57          6
    58        999
    59         36
    60          1
    68          1
    70          8
    71          3
    72        150
    73          7
    86         39
    87         11
    88          1
   100         58
   101          3
   114          1
   115        334
   116         23
   117          1