##TITLE=Library Entry 760
##JCAMP-DX=Revision 4.10 
##DATA TYPE=MASS SPECTRUM
##SAMPLE DESCRIPTION=Japan AIST/NIMC Database- Spectrum MS-NW-8545
##NAMES=HP
##CAS NAME=Propanedioic acid, bromo-, diethyl ester
##MOLFORM=C7H11BrO4
##CAS REGISTRY NO=685-87-0
##MP= -300
##BP= -300
##MW= 238
##$RETENTION INDEX=0
##$CONDENSED SPECTRUM=NO
##NPOINTS= 105
##XYDATA=(XY..XY) 1 
    13          2
    14          7
    15         22
    16          1
    18          1
    25          1
    26         18
    27        194
    28         48
    29        999
    30         26
    31         38
    36          3
    38          1
    39          3
    40          3
    41         82
    42         53
    43         67
    44          9
    45         84
    46          4
    47          4
    48          1
    49          1
    55          8
    57          2
    58          3
    59          4
    60         10
    61          3
    65          1
    68          3
    69        101
    70          8
    71          3
    73         21
    74          1
    75          3
    76         13
    77          4
    78          4
    79          3
    80          3
    81          2
    82          3
    86         33
    87         38
    88         10
    89          1
    91          2
    92          8
    93          9
    94         56
    95          8
    96         17
    99          1
   104          1
   105          1
   107          1
   109          8
   111          6
   114          4
   115         28
   116          1
   120         75
   121         34
   122         79
   123         31
   124          3
   132          1
   133          9
   137          3
   138        213
   139          9
   140        208
   141          6
   147          1
   149          7
   151          2
   152          1
   159          1
   164          1
   165          5
   166         64
   167         10
   168         62
   169          6
   192          1
   193         32
   194          3
   195         30
   196          1
   200          1
   210          2
   211          4
   212          2
   213          4
   216          2
   218          4
   220          2
   238          2
   239          1
   240          2
   241          1