##TITLE=Library Entry 66679
##JCAMP-DX=Revision 4.10 
##DATA TYPE=MASS SPECTRUM
##SAMPLE DESCRIPTION=Exported from NIST MS Search
##NAMES=HP
##CAS NAME=1,3-Butadiene, 1,1,2,3,4,4-hexafluoro-
##MOLFORM=C4F6
##CAS REGISTRY NO=685-63-2
##MP= -300
##BP= -300
##MW= 162
##$RETENTION INDEX=0
##$CONDENSED SPECTRUM=NO
##NPOINTS= 50
##XYDATA=(XY..XY) 1 
    12          2
    19          1
    24          2
    31        151
    32          4
    36          4
    43          7
    44          2
    45          1
    50         17
    55         27
    56          2
    57          2
    58          1
    62         28
    63          1
    64          1
    67          1
    69         48
    70          1
    72          1
    74         72
    75         19
    76          1
    77          1
    81         21
    82          1
    85          1
    86          2
    87          1
    92          1
    93        999
    94         37
    95          3
   105          3
   106          1
   107          1
   112        119
   113          6
   124         40
   125          4
   126          4
   131         19
   132          1
   143         55
   144         10
   145          1
   162        439
   163         21
   164          1