##TITLE=Library Entry 634
##JCAMP-DX=Revision 4.10 
##DATA TYPE=MASS SPECTRUM
##SAMPLE DESCRIPTION=Chemical Concepts
##NAMES=HP
##CAS NAME=Diethyl fluoromalonate
##MOLFORM=C7H11FO4
##CAS REGISTRY NO=685-88-1
##MP= -300
##BP= -300
##MW= 178
##$RETENTION INDEX=0
##$CONDENSED SPECTRUM=NO
##NPOINTS= 64
##XYDATA=(XY..XY) 1 
    27        357
    28        134
    29        999
    31         73
    32         34
    33         13
    38          1
    39          4
    40          3
    41         34
    42         17
    43         41
    44         14
    45         69
    46          4
    47          4
    49         53
    50          1
    51          1
    53          1
    55          3
    56          1
    57          6
    60        228
    61         18
    62          3
    67          1
    68          3
    69         10
    70          2
    71          2
    73          9
    74          1
    75          5
    76         16
    77        123
    78        735
    79         19
    80          3
    81          1
    83          1
    84          1
    86          3
    87          5
    88          1
    90          1
   102          1
   103          3
   105        170
   106        118
   107         11
   108          1
   115          2
   122          1
   123          8
   133         96
   134          5
   135          5
   149          1
   150          6
   151         10
   152          1
   177          1
   178          1