##TITLE=Library Entry 16311
##JCAMP-DX=Revision 4.10 
##DATA TYPE=MASS SPECTRUM
##SAMPLE DESCRIPTION=A.A.Kutin, Moscow, Russia
##NAMES=HP
##CAS NAME=Propionic acid, 3,3,3-trifluoro-2-semicarbazono-
##MOLFORM=C4H4F3N3O3
##CAS REGISTRY NO=6851-24-7
##MP= -300
##BP= -300
##MW= 199
##$RETENTION INDEX=0
##$CONDENSED SPECTRUM=NO
##NPOINTS= 145
##XYDATA=(XY..XY) 1 
    33         16
    34          4
    35          3
    36         22
    37          2
    38         12
    39         19
    40         37
    41         48
    42         69
    43        267
    44        999
    45        145
    46         15
    47         14
    48          1
    50         41
    51         46
    52          4
    53          8
    54         16
    55         24
    56         10
    57         19
    58          8
    59         11
    60         28
    61          6
    62         13
    63         32
    64          9
    65          7
    66          7
    67         11
    69        264
    70         11
    71         40
    72          4
    73         13
    74          4
    76         36
    77         16
    78         11
    79         40
    80          9
    81         31
    82         17
    83          9
    84          6
    85          6
    86         14
    87         11
    88         19
    89         10
    90         68
    91        108
    92         14
    93         10
    94          4
    95          6
    96         18
    97          8
    98          4
    99          4
   100          1
   101          2
   102          1
   103          0
   104          1
   105          9
   106          3
   107         28
   108         36
   109         52
   110        131
   111        223
   112         28
   113          3
   114          1
   115          3
   116          1
   117          1
   119         12
   120          3
   121          3
   122          3
   123          4
   124          1
   125          3
   126          3
   127          8
   128          8
   129          4
   130          7
   131          1
   132          0
   133          1
   135         15
   137         84
   138         30
   139          5
   140          4
   141          1
   142          0
   143          1
   144          0
   145          0
   146          1
   147          0
   148          0
   149          5
   150          0
   151          3
   152          2
   154        161
   156        428
   157         16
   158          3
   159          0
   161          0
   162          0
   163          0
   165          0
   167          1
   168          1
   169          2
   170          7
   171          3
   172          0
   173          0
   177          0
   179          0
   181          1
   182          0
   184          0
   185          1
   186          0
   189          0
   190          0
   195          0
   196          0
   197          0
   199         17
   200          1
   201          0