##TITLE=Library Entry 3994
##JCAMP-DX=Revision 4.10 
##DATA TYPE=MASS SPECTRUM
##SAMPLE DESCRIPTION=A.A.Kutin, Moscow, Russia
##NAMES=HP
##CAS NAME=5-(4-Isobutoxyphenyl)hydantoin
##MOLFORM=C13H16N2O3
##CAS REGISTRY NO=68524-26-5
##MP= -300
##BP= -300
##MW= 248
##$RETENTION INDEX=0
##$CONDENSED SPECTRUM=NO
##NPOINTS= 109
##XYDATA=(XY..XY) 1 
    37         27
    38        133
    39        423
    41        999
    42         86
    43        169
    44         93
    45          6
    50        132
    51        166
    52         45
    53         36
    54         25
    55        116
    56        149
    57        505
    58         21
    60          7
    61          9
    62         38
    63         94
    64        103
    65        280
    66         59
    67         16
    68          6
    69         21
    70         59
    71         12
    73          8
    74         19
    75         34
    76        106
    77        180
    78         46
    79         27
    80          8
    81          7
    89         12
    90         22
    91         77
    92         90
    93         99
    94         44
    95         15
    98          5
    99         22
   102         26
   103         50
   104         82
   105         36
   106         21
   107         31
   117          6
   118         24
   119        152
   120        678
   121        853
   122         92
   123          7
   131         13
   132         29
   133         31
   134         76
   135         17
   136          6
   145          2
   146         14
   147         52
   148         71
   149         55
   150          6
   151          0
   152          0
   160          3
   161          5
   162         38
   163        174
   164        191
   165         19
   166          0
   171          1
   174          2
   175          9
   176          9
   177          6
   178          0
   179          0
   180          3
   189          2
   191        184
   192        559
   193         69
   194          6
   203          0
   204          7
   205          8
   206          0
   218          0
   219          8
   220          0
   233          2
   234          1
   236          1
   246          4
   247         37
   248        155
   249         23
   250          1