##TITLE=Library Entry 62811
##JCAMP-DX=Revision 4.10 
##DATA TYPE=MASS SPECTRUM
##SAMPLE DESCRIPTION=NIST Mass Spectrometry Data Center, 1994
##NAMES=HP
##CAS NAME=Methyl 2-isothiocyanato-3-phenylpropionate
##MOLFORM=C11H11NO2S
##CAS REGISTRY NO=68521-58-4
##MP= -300
##BP= -300
##MW= 221
##$RETENTION INDEX=0
##$CONDENSED SPECTRUM=NO
##NPOINTS= 88
##XYDATA=(XY..XY) 1 
     4          2
    15         79
    26          4
    27         22
    28         11
    29         12
    30          4
    31          2
    32          4
    37          2
    38          9
    39         60
    40          6
    41         14
    42          3
    43          2
    44         10
    45          8
    46          1
    47          4
    50         39
    51        100
    52         21
    53          5
    54          1
    55          5
    57          3
    58         10
    59         41
    60          3
    61          3
    62         11
    63         37
    64         10
    65        110
    66          7
    67          2
    68          1
    69          2
    70          7
    71         15
    72          4
    73          2
    74         17
    75         28
    76         19
    77        118
    78         50
    79          4
    81          7
    82          1
    84          4
    85          2
    86          2
    87          2
    89         25
    91        999
    92         78
    93          3
    98          1
    99          1
   101          8
   102         26
   103         68
   104         44
   105          5
   115          2
   116          5
   117          6
   118          2
   121         11
   128        106
   129         17
   130         10
   131         35
   132          6
   133          2
   134          7
   135          3
   144          1
   147          4
   157          1
   160          3
   162        336
   163         57
   164          7
   189          1
   221          4