##TITLE=Library Entry 11568
##JCAMP-DX=Revision 4.10 
##DATA TYPE=MASS SPECTRUM
##SAMPLE DESCRIPTION=A.A.Kutin, Moscow, Russia
##NAMES=HP
##CAS NAME=5-[4-(Pentyloxy)phenyl]hydantoin
##MOLFORM=C14H18N2O3
##CAS REGISTRY NO=68524-27-6
##MP= -300
##BP= -300
##MW= 262
##$RETENTION INDEX=0
##$CONDENSED SPECTRUM=NO
##NPOINTS= 82
##XYDATA=(XY..XY) 1 
    33          7
    35          7
    36         43
    37         37
    38        140
    39        395
    40        293
    41        662
    42        453
    43        999
    44        240
    45         10
    50         78
    51        102
    52         34
    53         45
    54         63
    55        234
    56         39
    57         51
    60          1
    61          2
    62         28
    63         87
    64        106
    65        192
    66         31
    67         20
    69         73
    70        143
    71         70
    72          6
    73          1
    74          8
    75         24
    76         54
    77        113
    78         28
    79         17
    83          1
    90         47
    91         79
    92         67
    93         71
    94         46
    95          7
    99          5
   102         25
   103         28
   104         35
   105         26
   106         11
   107         29
   108          0
   115          2
   118         81
   119        365
   120        607
   121        711
   122         62
   131          6
   132         15
   133         36
   134         75
   135          5
   146          7
   147         37
   148         48
   149         30
   162         24
   163        138
   164        128
   165          4
   177          9
   189         21
   190        119
   191        159
   192        412
   193         36
   260         21
   262        155
   263         10