##TITLE=Library Entry 70823
##JCAMP-DX=Revision 4.10 
##DATA TYPE=MASS SPECTRUM
##SAMPLE DESCRIPTION=Asinex Ltd, Moscow, Russia
##NAMES=HP
##CAS NAME=Propan-1-ol, 1-ethyl-1-phenyl-3-(1-piperidyl)-
##MOLFORM=C16H25NO
##CAS REGISTRY NO=6853-22-1
##MP= -300
##BP= -300
##MW= 247
##$RETENTION INDEX=0
##$CONDENSED SPECTRUM=NO
##NPOINTS= 120
##XYDATA=(XY..XY) 1 
    33          0
    36          0
    37          0
    39         24
    40          9
    41         96
    42         97
    43         42
    44         41
    45          1
    48          0
    49          1
    50          6
    51         20
    52          5
    53          8
    54         16
    55         81
    56         39
    57         53
    58          4
    59          0
    62          0
    63          2
    64          1
    65          6
    66          1
    67          5
    68          8
    69         23
    70         25
    71          2
    72          0
    73          0
    74          1
    75          1
    77         61
    78         23
    79         10
    80          2
    81          1
    82          6
    83          9
    84         47
    85         50
    86          4
    87          0
    88          0
    89          1
    91         22
    92          3
    93          1
    94          1
    96         28
    98        999
    99         65
   100          4
   101          0
   102          2
   103          5
   104          4
   105         32
   106          3
   107          2
   108          0
   109          1
   110          4
   111          5
   112         25
   113          8
   114          7
   115          7
   116          2
   117          5
   118          0
   119          1
   120          7
   121          0
   126          0
   127          0
   128          1
   129          1
   130          0
   131          1
   132          1
   133          2
   134          1
   135          4
   136          2
   138          0
   141          0
   142          0
   143          0
   144          0
   145          0
   146          0
   160          0
   161          0
   162          0
   168          0
   169          1
   170          4
   171          0
   174          0
   198          0
   200          0
   214          0
   216          3
   218         49
   219          9
   220          0
   228          0
   229          0
   230          1
   231          0
   245          1
   246          6
   247         22
   248          3
   249          0