##TITLE=Library Entry 60628
##JCAMP-DX=Revision 4.10 
##DATA TYPE=MASS SPECTRUM
##SAMPLE DESCRIPTION=NIST Mass Spectrometry Data Center, 1994
##NAMES=HP
##CAS NAME=Benzaldehyde, 4-pentyl-
##MOLFORM=C12H16O
##CAS REGISTRY NO=6853-57-2
##MP= -300
##BP= -300
##MW= 176
##$RETENTION INDEX=1476
##$CONDENSED SPECTRUM=NO
##NPOINTS= 80
##XYDATA=(XY..XY) 1 
    12          2
    14          4
    15         21
    17          4
    18          1
    27        214
    28         41
    29        288
    30          6
    37          5
    38         20
    39        192
    40         22
    41        282
    42         22
    43         22
    44          2
    50         47
    51        116
    52         23
    53         22
    54          3
    55         26
    56          7
    57         75
    58          6
    61          3
    62         23
    63         81
    64         31
    65        161
    66         12
    67          4
    69          4
    74         16
    75         21
    76         31
    77        150
    78         47
    79         49
    80          4
    87          8
    89        105
    90        138
    91        999
    92        605
    93         46
    94          5
   101          6
   102         17
   103         60
   104         23
   105         94
   106         12
   107         10
   115         52
   116         13
   117         19
   118         52
   119        276
   120        468
   121         45
   122          5
   127          4
   128          4
   129         10
   130          5
   131         32
   132         10
   133         38
   134          9
   143          5
   145         15
   147         41
   148          7
   158          4
   161         11
   175        100
   176        316
   177         48