##TITLE=Library Entry 34536
##JCAMP-DX=Revision 4.10 
##DATA TYPE=MASS SPECTRUM
##SAMPLE DESCRIPTION=Insect Chem. Ecol. Lab., USDA, Beltsville, MD 20705
##NAMES=HP
##CAS NAME=Benzoic acid, 2-hydroxy-, 3-methyl-2-butenyl ester
##MOLFORM=C12H14O3
##CAS REGISTRY NO=68555-58-8
##MP= -300
##BP= -300
##MW= 206
##$RETENTION INDEX=0
##$CONDENSED SPECTRUM=NO
##NPOINTS= 96
##XYDATA=(XY..XY) 1 
    41        837
    42         48
    43         43
    44          4
    45          7
    46          1
    47          4
    48          2
    49         25
    50         22
    51         42
    52         16
    53        173
    54         23
    55         25
    56          4
    57          6
    59          4
    60          1
    61          5
    62         19
    63         81
    64         66
    65        215
    66         25
    67        133
    68        143
    69        999
    70         56
    71         11
    72          0
    73          1
    74          5
    75          6
    76          5
    77          8
    78          2
    79          3
    80          1
    81         22
    82          2
    83          5
    84         13
    85          7
    86          8
    88          1
    89          2
    90          1
    91          8
    92        151
    93         61
    94          7
    95          2
    97          0
   103          0
   104          1
   105          6
   106          0
   107          7
   108          1
   109          5
   115          1
   117          1
   118          1
   119          3
   120        658
   121        193
   122         15
   123          2
   128          0
   129          0
   131          0
   133          2
   135          1
   136          0
   137          1
   138        648
   139         60
   140          5
   141          0
   144          0
   145          1
   147          2
   152          4
   153          0
   159          0
   161          0
   162          1
   163          0
   166          0
   173          0
   177          0
   179          0
   188          0
   206         20
   207          2