##TITLE=Library Entry 37790
##JCAMP-DX=Revision 4.10 
##DATA TYPE=MASS SPECTRUM
##SAMPLE DESCRIPTION=Japan AIST/NIMC Database- Spectrum MS-IW-7344
##NAMES=HP
##CAS NAME=Isoamyl heptine carbonate
##MOLFORM=C13H22O2
##CAS REGISTRY NO=68555-60-2
##MP= -300
##BP= -300
##MW= 210
##$RETENTION INDEX=0
##$CONDENSED SPECTRUM=NO
##NPOINTS= 95
##XYDATA=(XY..XY) 1 
    15          1
    26          3
    27         47
    28         15
    29        106
    30          2
    31          3
    37          1
    38          7
    39         52
    40          9
    41        145
    42         97
    43        256
    44         12
    45          9
    50          3
    51          9
    52          9
    53         42
    54         13
    55        369
    56         43
    57         29
    58          2
    59          1
    63          2
    64          1
    65         10
    66         48
    67        115
    68         41
    69         83
    70        999
    71        163
    72          7
    73          3
    77         12
    78          2
    79         38
    80         22
    81         56
    82         15
    83          9
    84         16
    85          9
    86          9
    87          4
    91          8
    92          1
    93         35
    94         16
    95         93
    96         10
    97         16
    98         17
    99         13
   100          2
   105          2
   107          8
   108          5
   109         22
   110          6
   111         30
   112         15
   113          4
   121          9
   122          8
   123        413
   124         38
   125         30
   126          4
   127          1
   128          1
   135          3
   136          4
   137          5
   138          4
   139         17
   140         22
   141        276
   142         25
   143          2
   149          3
   153          3
   154          5
   155         11
   156          1
   165          1
   167         30
   168          4
   177          1
   195          9
   196          1
   211          5