##TITLE=Library Entry 84897
##JCAMP-DX=Revision 4.10 
##DATA TYPE=MASS SPECTRUM
##SAMPLE DESCRIPTION=J. Little, Eastman chemical company.
##NAMES=HP
##CAS NAME=Cyclohexanecarboxylic acid, 2-phenylhydrazide
##MOLFORM=C13H18N2O
##CAS REGISTRY NO=68557-32-4
##MP= -300
##BP= -300
##MW= 218
##$RETENTION INDEX=0
##$CONDENSED SPECTRUM=NO
##NPOINTS= 32
##XYDATA=(XY..XY) 1 
    27         44
    29         47
    39         68
    41        172
    43         26
    51         39
    53         27
    54         18
    55        257
    56         16
    65         65
    66         11
    67         16
    69         10
    77         95
    78         27
    79         16
    81         23
    83        495
    84         36
    91         21
    92         75
    93         38
   105          6
   106          6
   107        129
   108        999
   109         82
   111         28
   218        463
   219         70
   220          7