##TITLE=Library Entry 23725
##JCAMP-DX=Revision 4.10 
##DATA TYPE=MASS SPECTRUM
##SAMPLE DESCRIPTION=K.Kawamura Anal.Chem.,65,3505(1993)
##NAMES=HP
##CAS NAME=5,5-Dibutoxypentanoic acid, butyl ester
##MOLFORM=C17H34O4
##CAS REGISTRY NO=68575-71-3
##MP= -300
##BP= -300
##MW= 302
##$RETENTION INDEX=0
##$CONDENSED SPECTRUM=NO
##NPOINTS= 123
##XYDATA=(XY..XY) 1 
    37         14
    39        265
    40         38
    41        849
    42         42
    43        163
    44         21
    45          8
    46          9
    47          8
    52         28
    53         26
    54         16
    55        140
    56        199
    57        999
    58         47
    59         95
    60          8
    61          4
    65          6
    66          6
    67         16
    68         16
    69         57
    70        118
    71        181
    72         16
    73         19
    79         14
    81          6
    82         14
    83         26
    84         24
    85         66
    86         11
    87         56
    88          9
    89         11
    91          4
    93         14
    94         14
    95         21
    96         18
    97        158
    98        224
    99        632
   100         66
   101         11
   102          6
   103         57
   104          4
   107          8
   108          8
   109         13
   110         13
   111         23
   112         21
   113         29
   114         21
   115         92
   116         41
   117         82
   118         13
   119          6
   120          4
   121          4
   124          3
   125         24
   126         54
   132          4
   135         11
   137         11
   138          4
   139         72
   140          9
   143         28
   145         19
   149          6
   151          8
   153          8
   155         16
   157         31
   158         24
   159         89
   160         16
   167          6
   169          6
   170          6
   171          8
   173        237
   174         24
   175          9
   177          4
   181         13
   182          6
   189          4
   190          4
   200          8
   201          4
   206          4
   207          8
   209          8
   210          4
   211          6
   212          8
   213         37
   224          8
   225          9
   227         18
   228         52
   229        501
   230         70
   231         11
   239          6
   248          4
   254         18
   255          4
   265          4
   267          4
   268          4
   281          4
   303          4