##TITLE=Library Entry 43503
##JCAMP-DX=Revision 4.10 
##DATA TYPE=MASS SPECTRUM
##SAMPLE DESCRIPTION=H. IWASE, CENT. RES. LAB., AJINOMOTO CO. INC., KAWASAKI
, JPN
##NAMES=HP
##CAS NAME=.alpha.-Methyl-L-tyrosine,  3TMS derivative
##MOLFORM=C19H37NO3Si3
##CAS REGISTRY NO=68595-74-4
##MP= -300
##BP= -300
##MW= 411
##$RETENTION INDEX=0
##$CONDENSED SPECTRUM=NO
##NPOINTS= 10
##XYDATA=(XY..XY) 1 
    42         84
    43         55
    45        140
    73        999
    74         93
    75        125
   114        171
   147         80
   232        607
   233        120