##TITLE=Library Entry 75994
##JCAMP-DX=Revision 4.10 
##DATA TYPE=MASS SPECTRUM
##SAMPLE DESCRIPTION=NIST Mass Spectrometry Data Center
##NAMES=HP
##CAS NAME=Dopamine, 3TMS derivative
##MOLFORM=C17H35NO2Si3
##CAS REGISTRY NO=68595-54-0
##MP= -300
##BP= -300
##MW= 369
##$RETENTION INDEX=2107
##$CONDENSED SPECTRUM=NO
##NPOINTS= 142
##XYDATA=(XY..XY) 1 
    29          1
    30          1
    31          1
    43          6
    44          6
    45         49
    46          4
    47          2
    51          1
    55          1
    56          1
    57          3
    58          9
    59         34
    60          3
    61          2
    65          1
    69          1
    70          2
    71          2
    72         13
    73        480
    74         47
    75         26
    76          1
    77          3
    78          2
    79          1
    83          1
    84          1
    85          1
    86         16
    87          7
    88          2
    89          2
    90          1
    91          4
    95          1
    97          1
    98          1
    99          1
   100          4
   102        999
   103        121
   104         53
   105          7
   106          1
   107          1
   109          1
   115          4
   116          1
   117          4
   118          2
   119          6
   120          1
   121          1
   123          1
   129          1
   130          2
   131          7
   132          2
   133         11
   134          2
   135          3
   136          1
   137          1
   143          1
   145          1
   146          1
   147         12
   148          2
   149         12
   150          2
   151          3
   159          1
   161          3
   162          2
   163          4
   164          1
   165          2
   166          2
   167          1
   174          1
   175          1
   176          1
   177          6
   178          1
   179         39
   180          7
   181          5
   182          1
   189          1
   190          1
   191          1
   192          2
   193         24
   194          4
   195          2
   205          1
   206          1
   207          2
   208          1
   209          3
   210          1
   218          1
   219          1
   220          1
   221          1
   223          1
   233          1
   234          1
   235          1
   236          1
   237          9
   238          2
   239          1
   248          1
   249          2
   250          1
   251          2
   252          1
   253          2
   265          4
   266         20
   267         21
   268         64
   269         16
   270          6
   271          1
   279          1
   280         15
   281          4
   282          2
   354         18
   355          6
   356          3
   357          1
   367          2
   368          2
   369          6
   370          2
   371          1