##TITLE=Library Entry 43701
##JCAMP-DX=Revision 4.10 
##DATA TYPE=MASS SPECTRUM
##SAMPLE DESCRIPTION=F.A.J.MUSKIET, LAB. CLIN. CHEM., UNIV. HOSP., GRONINGEN
, NET
##NAMES=HP
##CAS NAME=Ethanol, (2-(3,4-dihydroxyphenyl)-, tris(trimethylsilyl)-
##MOLFORM=C17H34O3Si3
##CAS REGISTRY NO=68595-80-2
##MP= -300
##BP= -300
##MW= 370
##$RETENTION INDEX=1756
##$CONDENSED SPECTRUM=NO
##NPOINTS= 71
##XYDATA=(XY..XY) 1 
    40         17
    43         22
    44         24
    45        182
    46         13
    47         19
    57          6
    58         13
    59         30
    61          8
    72          9
    73        999
    74         84
    75        134
    76         10
    77         18
    78          4
    88          5
    89          7
    91         13
   103         48
   104         14
   105          8
   115         11
   117         11
   119          8
   131         10
   133         21
   135          7
   147         35
   148          6
   149         18
   151          6
   161          6
   162          6
   163          9
   166          4
   175          5
   177         14
   178         14
   179        111
   180         17
   181          8
   191          5
   192          7
   193        201
   194         32
   195         15
   205          5
   207          9
   209          4
   223          5
   237          6
   249          8
   251         12
   254          4
   265         10
   267        983
   268        254
   269        100
   279          8
   280         10
   281         15
   282          5
   355         29
   356         12
   357          6
   370        374
   371        125
   372         64
   373         12