##TITLE=Library Entry 42602
##JCAMP-DX=Revision 4.10 
##DATA TYPE=MASS SPECTRUM
##SAMPLE DESCRIPTION=O A MAMER, MCGILL UNIVERSITY, MONTRE
##NAMES=HP
##CAS NAME=Trimethylsilyl O,O'-bis(trimethylsilyl)vanilpyruvate
##MOLFORM=C19H34O5Si3
##CAS REGISTRY NO=68595-71-1
##MP= -300
##BP= -300
##MW= 426
##$RETENTION INDEX=2165
##$CONDENSED SPECTRUM=NO
##NPOINTS= 117
##XYDATA=(XY..XY) 1 
    26          3
    29          6
    39          4
    43         17
    44         25
    46         12
    47         11
    55          7
    59         55
    60          5
    61          7
    67          4
    71          5
    72         22
    73        999
    74         89
    75         82
    76          8
    77          7
    79          4
    81          4
    83          5
    85          3
    89         27
    90          4
    91          9
    97          3
   103          8
   105          5
   115          6
   117         13
   119          8
   121          3
   129          8
   131         22
   132          5
   133         34
   135         23
   136          3
   145          5
   147        669
   148        116
   149         63
   150          9
   159          3
   161          7
   163          7
   165          4
   175          4
   177          6
   178         35
   179         10
   187         11
   190          5
   191          5
   192         11
   193         10
   203          5
   204          7
   205          5
   206         74
   207         19
   208          8
   209          8
   219          4
   220          4
   221         59
   222         11
   223          8
   233          3
   235          4
   236         28
   237          8
   239          4
   249          5
   250          4
   252          3
   253          5
   264          3
   265          4
   266          4
   267          4
   278          4
   279          6
   280         11
   281          7
   295          6
   297          3
   308         46
   309         18
   310          8
   311          4
   323          5
   325         24
   326          9
   327          6
   338         13
   339          5
   340          9
   341          3
   355         83
   356         29
   357         15
   358          5
   359          6
   368          3
   381          6
   397          8
   399          4
   411        112
   412         43
   413         21
   414          6
   426         92
   427         36
   428         17
   429          5