##TITLE=Library Entry 66905
##JCAMP-DX=Revision 4.10 
##DATA TYPE=MASS SPECTRUM
##SAMPLE DESCRIPTION=Japan AIST/NIMC Database- Spectrum MS-IW-2843
##NAMES=HP
##CAS NAME=Ethyl 2-cyanocrotonate
##MOLFORM=C7H9NO2
##CAS REGISTRY NO=686-33-9
##MP= -300
##BP= -300
##MW= 139
##$RETENTION INDEX=0
##$CONDENSED SPECTRUM=NO
##NPOINTS= 79
##XYDATA=(XY..XY) 1 
    14          2
    15         18
    25          1
    26         15
    27         87
    28         43
    29        279
    30          8
    31          6
    36          1
    37         26
    38         40
    39        158
    40         41
    41         59
    42         15
    43         40
    44          7
    45         86
    46          2
    50          2
    51          6
    52         89
    53         11
    54          9
    55         20
    56          5
    59          1
    60          5
    61          2
    62          2
    63          9
    64         37
    65         27
    66        252
    67        177
    68         27
    69         22
    70          3
    71          1
    73         13
    74          1
    77          1
    78          1
    80         11
    81          3
    82         12
    83        131
    84          9
    85          3
    86          2
    87          2
    88          3
    91          1
    92          3
    93         47
    94        999
    95         69
    96         14
    97          2
    98          1
   106          4
   109          1
   110          6
   111         68
   112        278
   113         18
   114          2
   115          7
   120          6
   121          7
   122          4
   124         81
   125          6
   137          2
   138         18
   139        145
   140         12
   141          4