##TITLE=Library Entry 69110
##JCAMP-DX=Revision 4.10 
##DATA TYPE=MASS SPECTRUM
##SAMPLE DESCRIPTION=NIST Mass Spectrometry Data Center, 1994
##NAMES=HP
##CAS NAME=Chloro(diethyl)phosphine
##MOLFORM=C4H10ClP
##CAS REGISTRY NO=686-69-1
##MP= -300
##BP= -300
##MW= 124
##$RETENTION INDEX=0
##$CONDENSED SPECTRUM=NO
##NPOINTS= 76
##XYDATA=(XY..XY) 1 
    12          1
    14         12
    15         41
    23          0
    26        159
    27        568
    28         14
    29        580
    30         14
    31         17
    33         15
    34          9
    35          9
    36          5
    37          4
    38          5
    39         21
    40          0
    41         32
    42          4
    43         17
    44         51
    45        146
    46         12
    47          9
    48          3
    49          3
    50          1
    51          2
    52          1
    53          3
    55         50
    56        104
    57        354
    58        197
    59        320
    60        130
    61        124
    62         24
    63          1
    66        119
    67        237
    68        231
    69         83
    70         62
    71          9
    73          9
    74          0
    77          0
    78          1
    79          7
    80         21
    81         90
    82          8
    83         31
    84          1
    85          2
    86          1
    87          5
    88         19
    89         80
    90          5
    91          3
    93         13
    95        243
    96        999
    97         98
    98        317
    99          6
   109         17
   111          6
   112          0
   124        330
   125         29
   126        102
   127          4