##TITLE=Library Entry 46219
##JCAMP-DX=Revision 4.10 
##DATA TYPE=MASS SPECTRUM
##SAMPLE DESCRIPTION=LAC, NIDDK, NIH, Bethesda, MD 20892
##NAMES=HP
##CAS NAME=2,3-Dihydroxystearic acid
##MOLFORM=C18H36O4
##CAS REGISTRY NO=68601-97-8
##MP= -300
##BP= -300
##MW= 316
##$RETENTION INDEX=0
##$CONDENSED SPECTRUM=NO
##NPOINTS= 159
##XYDATA=(XY..XY) 1 
    41        276
    42         57
    43        492
    44         51
    45         20
    46          0
    47          3
    49          4
    51          1
    52          0
    53         15
    54         29
    55        285
    56         44
    57        289
    58         37
    59         18
    60         28
    61          6
    63          0
    65          2
    66          4
    67         63
    68         37
    69        276
    70         51
    71        149
    72          5
    73         10
    74          4
    76        999
    77         38
    78          6
    79         15
    80          7
    81         63
    82         36
    83        175
    84         28
    85         65
    86          9
    87          7
    88          2
    89         11
    91          4
    93          8
    94          6
    95         52
    96         27
    97        206
    98         32
    99         20
   100          3
   101          2
   102          5
   103          3
   105         16
   107          8
   108          4
   109         20
   110          5
   111         76
   112         29
   113         16
   114          4
   115          6
   116          4
   117          1
   118          1
   119          1
   121          6
   122          4
   123         12
   124          6
   125         40
   126          8
   127          8
   129          3
   130          1
   131          1
   132          1
   133          1
   135          5
   136          2
   137          4
   138          3
   139         13
   140          5
   141          4
   142          0
   143          2
   145          0
   147          0
   149          3
   150          2
   151          3
   152          2
   153          7
   154          3
   155          2
   157          1
   159          0
   161          0
   163          1
   165          1
   166          1
   167          4
   168          2
   169          2
   171          1
   177          1
   179          1
   180          0
   181          1
   182          0
   183          1
   185          1
   186          0
   189          0
   193          0
   195          1
   196          1
   197          1
   205          1
   208          0
   210          0
   211          0
   213          0
   214          0
   215          0
   220          2
   221          0
   223          1
   228          0
   233          0
   234          1
   235          1
   236          1
   239          3
   241         31
   242          5
   244          0
   251          3
   252          1
   253         15
   254          3
   255          0
   256          0
   262          0
   265          0
   269          1
   270          1
   271          7
   272          1
   280          2
   281          1
   298          4
   299          1
   316          1