##TITLE=Library Entry 85370
##JCAMP-DX=Revision 4.10 
##DATA TYPE=MASS SPECTRUM
##SAMPLE DESCRIPTION=NIST Mass Spectrometry Data Center
##NAMES=HP
##CAS NAME=2-Fluoro-5-nitrophenyl isocyanate
##MOLFORM=C7H3FN2O3
##CAS REGISTRY NO=68622-14-0
##MP= -300
##BP= -300
##MW= 182
##$RETENTION INDEX=0
##$CONDENSED SPECTRUM=NO
##NPOINTS= 96
##XYDATA=(XY..XY) 1 
    12          7
    16         13
    17          1
    18          1
    20          1
    24          3
    25          9
    26         15
    28         45
    30        436
    31        141
    32          8
    33         69
    34          1
    36         13
    37         89
    38         82
    39         37
    40          7
    42          1
    44         27
    46         67
    47          6
    48          6
    49         30
    50        118
    51         71
    52         24
    53          7
    54         10
    55         15
    56         98
    57        315
    58         65
    60         10
    61         81
    62         56
    63         54
    64         43
    65          5
    66          2
    68         34
    69         27
    70         17
    71          3
    72          4
    73          8
    74         14
    75         36
    76         77
    77          8
    78          1
    79          8
    80         45
    81        165
    82        157
    83         13
    84          1
    86         10
    87         22
    88         32
    89          6
    90          1
    92          6
    93         10
    94         11
    95         16
    96         69
    97          6
    98          4
    99          3
   100          4
   101          1
   104          2
   106         33
   108        999
   109         71
   110          3
   114          1
   120          1
   122          5
   124        260
   125         19
   126          1
   136        133
   137         12
   150          1
   152         89
   153          7
   154          1
   156          1
   166         15
   167          1
   182        621
   183         56
   184          7