##TITLE=Library Entry 88118
##JCAMP-DX=Revision 4.10 
##DATA TYPE=MASS SPECTRUM
##SAMPLE DESCRIPTION=Japan AIST/NIMC Database- Spectrum MS-IW-7760
##NAMES=HP
##CAS NAME=3-Aminopyrazine 1-oxide
##MOLFORM=C4H5N3O
##CAS REGISTRY NO=6863-77-0
##MP= -300
##BP= -300
##MW= 111
##$RETENTION INDEX=0
##$CONDENSED SPECTRUM=NO
##NPOINTS= 55
##XYDATA=(XY..XY) 1 
    12          1
    13          2
    14          5
    15          2
    16          1
    17         10
    18         32
    25          2
    26         20
    27         34
    28         97
    29         44
    30         19
    32          1
    33          5
    34          2
    37          2
    38         15
    39         24
    40         68
    41         85
    42         32
    43         18
    44         10
    47          1
    50          1
    51          9
    52         21
    53         25
    54         29
    55         23
    56         33
    57         43
    58          2
    64          1
    65          2
    66         16
    67         47
    68        104
    69         12
    70          2
    79          1
    80          1
    81          8
    82          5
    83          1
    84          8
    93          6
    94         10
    95         73
    96          6
   110          1
   111        999
   112         61
   113          5