##TITLE=Library Entry 17053
##JCAMP-DX=Revision 4.10 
##DATA TYPE=MASS SPECTRUM
##SAMPLE DESCRIPTION=Japan AIST/NIMC Database- Spectrum MS-NW-2120
##NAMES=HP
##CAS NAME=Di-sec-Butyl ether
##MOLFORM=C8H18O
##CAS REGISTRY NO=6863-58-7
##MP= -300
##BP= -300
##MW= 130
##$RETENTION INDEX=0
##$CONDENSED SPECTRUM=NO
##NPOINTS= 55
##XYDATA=(XY..XY) 1 
    14          1
    15         11
    17          1
    18          3
    26          7
    27         79
    28         19
    29        237
    30          6
    31         28
    32          3
    38          2
    39         51
    40          7
    41        287
    42         16
    43         46
    44         12
    45        999
    46         21
    47          2
    50          2
    51          3
    52          1
    53          9
    54          4
    55         82
    56         67
    57        844
    58         37
    59        294
    60          9
    67          3
    68          1
    69          9
    70          4
    71          3
    72          7
    73         53
    74          2
    81          2
    82          1
    83         96
    84          7
    85          2
    95          2
   100          2
   101        390
   102         25
   103          2
   112          9
   113          1
   115          9
   116          1
   130          2