##TITLE=Library Entry 86608
##JCAMP-DX=Revision 4.10 
##DATA TYPE=MASS SPECTRUM
##SAMPLE DESCRIPTION=Div. of Experiment Therapeutics WRAIR, WRAMC, Washingto
n DC 20307
##NAMES=HP
##CAS NAME=5-[5-Methyl-2-furyl]hydantoin
##MOLFORM=C8H8N2O3
##CAS REGISTRY NO=68641-80-5
##MP= -300
##BP= -300
##MW= 180
##$RETENTION INDEX=0
##$CONDENSED SPECTRUM=NO
##NPOINTS= 49
##XYDATA=(XY..XY) 1 
    41         14
    42         24
    43        233
    44        107
    45          3
    50         97
    51        154
    52        110
    53        218
    54         50
    55         17
    56          3
    57          2
    61          1
    62          3
    63         11
    64          8
    65         31
    66         25
    67          7
    68          6
    69          2
    70         36
    71          2
    77          4
    79         92
    80         47
    81        155
    82         71
    83          2
    91          2
    94        123
    99          2
   106          2
   108        416
   109        999
   110         49
   111          4
   122          9
   135          3
   136         53
   137        164
   138         10
   151          2
   152        142
   153         12
   165          9
   180        442
   181         44