##TITLE=Library Entry 4895
##JCAMP-DX=Revision 4.10 
##DATA TYPE=MASS SPECTRUM
##SAMPLE DESCRIPTION=LAC, NIDDK, NIH, Bethesda, MD 20892
##NAMES=HP
##CAS NAME=Bis[2-oxo-3-oxazolidinyl]phosphinic acid methyl ether
##MOLFORM=C7H11N2O6P
##CAS REGISTRY NO=68641-58-7
##MP= -300
##BP= -300
##MW= 250
##$RETENTION INDEX=0
##$CONDENSED SPECTRUM=NO
##NPOINTS= 126
##XYDATA=(XY..XY) 1 
    41         81
    42        999
    43        618
    44         82
    45         21
    46         22
    47        324
    48         22
    49         72
    50         96
    51         14
    52         32
    54          6
    55         16
    56        239
    57        119
    58         20
    59         67
    60          8
    61         10
    62         32
    63         52
    64         11
    65         21
    66          9
    67         12
    68         29
    69         88
    70        125
    71         16
    72          8
    73         18
    74         29
    75         10
    76         14
    77         29
    78         31
    79        636
    80         31
    81         14
    82         22
    83         15
    84         61
    85         12
    86        144
    87        313
    88        151
    89         20
    90         77
    91         16
    92         99
    93         36
    94         16
    95         26
    96         83
    97         15
    98         11
    99          8
   100          5
   101          9
   102          5
   103          9
   104         26
   105         12
   106         61
   107         26
   108          6
   109          4
   110         63
   111         11
   112         70
   113         11
   114          5
   117         13
   118          1
   119         27
   120        210
   121        212
   122         51
   123          8
   124         17
   125          8
   126          5
   127          3
   131         12
   133          5
   134        132
   135         16
   136         18
   137         35
   138         72
   141          1
   145          1
   147         69
   148         18
   149          7
   150         21
   151          9
   155          5
   157          3
   161          5
   162        129
   163         47
   164         51
   165         87
   166          4
   168          1
   169         16
   171          6
   176          1
   182          3
   191         32
   192         22
   204          2
   205          5
   206        415
   207         36
   208          5
   210         21
   212          8
   219          9
   249          3
   250          6
   251        153
   252         13
   253          3