##TITLE=Library Entry 32359
##JCAMP-DX=Revision 4.10 
##DATA TYPE=MASS SPECTRUM
##SAMPLE DESCRIPTION=Exported from NIST MS Search
##NAMES=HP
##CAS NAME=Cyclopentane, 1-chloro-2-nitroso-, dimer
##MOLFORM=C10H16Cl2N2O2
##CAS REGISTRY NO=6866-01-9
##MP= -300
##BP= -300
##MW= 266
##$RETENTION INDEX=0
##$CONDENSED SPECTRUM=NO
##NPOINTS= 80
##XYDATA=(XY..XY) 1 
    25          5
    26         40
    27        120
    29         30
    30        220
    31         30
    33          5
    35          5
    36         60
    37         20
    38         40
    39        220
    40         70
    41        450
    42         70
    43         10
    44         20
    45         10
    49         10
    50         10
    51         20
    52         20
    53        100
    54         40
    55         40
    56         10
    57         10
    59          5
    61         10
    62         20
    63         20
    64          5
    65         80
    66         50
    67        999
    68        220
    69         20
    70          5
    71         80
    75         62
    77         20
    78          5
    79          5
    80          7
    81         13
    82         10
    83         12
    85          7
    89          7
    90          6
    96         10
    97         50
    98         28
    99          5
   101          8
   102          5
   103         61
   104          5
   105         20
   116         23
   117          3
   118         10
   119          2
   120          1
   132          3
   133          6
   134        100
   135          8
   136         34
   137          3
   147          2
   149          2
   166          2
   236          4
   238          3
   266         10
   267          1
   268          6
   269          1
   270          1