##TITLE=Library Entry 23914
##JCAMP-DX=Revision 4.10 
##DATA TYPE=MASS SPECTRUM
##SAMPLE DESCRIPTION=I.G. Zenkevich, A.A. Zhdanov Leningrad State Univ., Len
ingrad, USSR
##NAMES=HP
##CAS NAME=Formaldehyde, (2-butenyl)methylhydrazone
##MOLFORM=C6H12N2
##CAS REGISTRY NO=68661-51-8
##MP= -300
##BP= -300
##MW= 112
##$RETENTION INDEX=0
##$CONDENSED SPECTRUM=NO
##NPOINTS= 20
##XYDATA=(XY..XY) 1 
    30         50
    39        300
    41        400
    42        800
    43        430
    44         70
    53        110
    55        730
    56        110
    57        999
    58        170
    68        110
    69        770
    70         80
    71        170
    82         80
    83        130
    97         50
   112        330
   113         50