##TITLE=Library Entry 54967
##JCAMP-DX=Revision 4.10 
##DATA TYPE=MASS SPECTRUM
##SAMPLE DESCRIPTION=NIST Mass Spectrometry Data Center
##NAMES=HP
##CAS NAME=trans-2-Hexenyl isovalerate
##MOLFORM=C11H20O2
##CAS REGISTRY NO=68698-59-9
##MP= -300
##BP= -300
##MW= 184
##$RETENTION INDEX=1245
##$CONDENSED SPECTRUM=NO
##NPOINTS= 66
##XYDATA=(XY..XY) 1 
    26          3
    27         31
    29         54
    30          1
    31          1
    37          3
    38          5
    39        104
    40         15
    41        301
    42         43
    43         35
    44          4
    50          6
    51         12
    52          8
    53         50
    54        102
    55        361
    57        788
    58         36
    59         29
    60         16
    62          2
    63          3
    64          1
    65         22
    66          9
    67        374
    68         25
    72          5
    74          1
    77          8
    78          1
    79         15
    80          3
    81         40
    82        233
    83        186
    85        999
    86         56
    87         10
    95          3
    96          2
    99         25
   100         40
   101          7
   109          2
   111          1
   113          6
   114          3
   123          1
   124          4
   125          1
   127          7
   128          2
   140          1
   141          3
   142         17
   143          1
   155         15
   156          2
   169          9
   170          1
   184         13
   185          2