##TITLE=Library Entry 81613
##JCAMP-DX=Revision 4.10 
##DATA TYPE=MASS SPECTRUM
##SAMPLE DESCRIPTION=Chemical Concepts
##NAMES=HP
##CAS NAME=2-Azetidinone, 3-(1-methylethylidene)-1-phenyl-
##MOLFORM=C12H13NO
##CAS REGISTRY NO=68695-52-3
##MP= -300
##BP= -300
##MW= 187
##$RETENTION INDEX=0
##$CONDENSED SPECTRUM=NO
##NPOINTS= 92
##XYDATA=(XY..XY) 1 
    26          7
    27         58
    28          5
    29         14
    30          1
    37          5
    38         18
    39         99
    40         26
    41         69
    42         12
    43          1
    44          4
    50         30
    51        118
    52         26
    53         62
    54          8
    55         16
    56          6
    61          2
    62          6
    63         24
    64         27
    65         41
    66         15
    67        282
    68         56
    69          4
    74          5
    75          7
    76         13
    77        322
    78         45
    79         10
    80          4
    81          1
    82        107
    83         32
    84          2
    86          2
    89          4
    90          6
    91         37
    92          8
    93         10
    94          5
    95         78
    96          6
   102          2
   103          5
   104        471
   105        999
   106        423
   107         32
   108          1
   110          1
   115         14
   116          6
   117         15
   118         26
   119         44
   120          5
   127          3
   128          9
   129         25
   130         13
   131          6
   132          3
   141          3
   142          9
   143         66
   144         56
   145          7
   146          9
   147          1
   155          1
   156          3
   157          3
   158         73
   159         27
   160          3
   168          1
   169          1
   170          5
   171          2
   172         61
   173          9
   186        258
   187        919
   188        127
   189         10