##TITLE=Library Entry 33507
##JCAMP-DX=Revision 4.10 
##DATA TYPE=MASS SPECTRUM
##SAMPLE DESCRIPTION=A.Pleshkova, Nesmeyanov Inst.Org.Elem.Cpds, Moscow
##NAMES=HP
##CAS NAME=1,2-Bis(2-cyano-2-propyl)-hydrazine
##MOLFORM=C8H14N4
##CAS REGISTRY NO=6869-07-4
##MP= -300
##BP= -300
##MW= 166
##$RETENTION INDEX=0
##$CONDENSED SPECTRUM=NO
##NPOINTS= 22
##XYDATA=(XY..XY) 1 
    41         22
    42        101
    43        332
    44         19
    53         61
    54         19
    55        223
    56         24
    68        999
    69        514
    70        264
    71         24
    96         52
    97         83
   111         63
   123         85
   124         21
   138         62
   139         35
   166         65
   167         24
   168          5