##TITLE=Library Entry 39722
##JCAMP-DX=Revision 4.10 
##DATA TYPE=MASS SPECTRUM
##SAMPLE DESCRIPTION=Japan AIST/NIMC Database- Spectrum MS-IW-2897
##NAMES=HP
##CAS NAME=Carbamic acid, dimethyl-, ethyl ester
##MOLFORM=C5H11NO2
##CAS REGISTRY NO=687-48-9
##MP= -300
##BP= -300
##MW= 117
##$RETENTION INDEX=0
##$CONDENSED SPECTRUM=NO
##NPOINTS= 49
##XYDATA=(XY..XY) 1 
    14          5
    15         85
    16          1
    17          1
    18          4
    25          1
    26         21
    27        161
    28        104
    29        737
    30         61
    31         34
    32          2
    38          1
    39          3
    40          9
    41         22
    42        254
    43        102
    44        896
    45        115
    46          7
    47          2
    54          1
    55          1
    56         53
    57          6
    58        335
    59         13
    60          1
    61          1
    63          9
    68          1
    70          2
    72        999
    73        126
    74         20
    75          2
    78          1
    87          2
    88        597
    89        606
    90         27
    91          2
   102          4
   116          7
   117        473
   118         29
   119          3