##TITLE=Library Entry 7104
##JCAMP-DX=Revision 4.10 
##DATA TYPE=MASS SPECTRUM
##SAMPLE DESCRIPTION=Chemical Concepts
##NAMES=HP
##CAS NAME=5-Hepten-2-one, 5,6-dimethyl-
##MOLFORM=C9H16O
##CAS REGISTRY NO=687-68-3
##MP= -300
##BP= -300
##MW= 140
##$RETENTION INDEX=0
##$CONDENSED SPECTRUM=NO
##NPOINTS= 92
##XYDATA=(XY..XY) 1 
    26          8
    27        162
    28          0
    29        121
    30          1
    31          5
    36          0
    37          0
    38          7
    39        199
    40         35
    41        448
    42         37
    43        999
    44         21
    45         15
    46          1
    47          0
    49          0
    50          8
    51         29
    52         13
    53         92
    54         66
    55        988
    56         46
    57         28
    58        139
    59         18
    60          0
    61          0
    62          1
    63          5
    64          1
    65         22
    66         10
    67        418
    68         28
    69        114
    70         65
    71         46
    72          4
    74          0
    76          0
    77         20
    78          3
    79         36
    80          7
    81         89
    82        418
    83        386
    84         32
    85         10
    86          1
    87          0
    88          0
    91         17
    92          3
    93         13
    94          4
    95         18
    96         23
    97        202
    98         26
    99          3
   100          0
   102          0
   105          4
   106          2
   107        282
   108         26
   109          9
   110          6
   111          7
   112          1
   113          1
   114          0
   115          0
   119          0
   121          5
   122        447
   123         45
   124          3
   125        137
   126         12
   127          1
   138          0
   139          2
   140        311
   141         32
   142          5
   143          0