##TITLE=Library Entry 11882
##JCAMP-DX=Revision 4.10 
##DATA TYPE=MASS SPECTRUM
##SAMPLE DESCRIPTION=JIM LAWLESS AMES RESEARCH CTR NASA MOFFETT FIELD, CALIF
 94035
##NAMES=HP
##CAS NAME=Acetamide, 2,2,2-trifluoro-n-hexyl-
##MOLFORM=C8H14F3NO
##CAS REGISTRY NO=687-09-2
##MP= -300
##BP= -300
##MW= 197
##$RETENTION INDEX=0
##$CONDENSED SPECTRUM=NO
##NPOINTS= 68
##XYDATA=(XY..XY) 1 
    40         44
    41        703
    42        408
    43        999
    44        106
    45         24
    46         18
    47         11
    50         14
    51         25
    52          4
    53         45
    54         49
    55        541
    56        693
    57         78
    58        227
    59         13
    64          6
    65          4
    66          7
    67         24
    68         10
    69        522
    70         50
    71         26
    72         55
    73         10
    76          2
    78        112
    79         22
    81          2
    82         11
    83         32
    84        130
    85        115
    86         17
    92          5
    94         19
    96          4
    97         36
    98         19
    99          4
   100          3
   106         13
   107         10
   108          3
   110          1
   114        204
   115          5
   125          1
   126        760
   127        860
   128        607
   129         45
   130          2
   136          3
   139          4
   140         96
   141         25
   152          2
   154         46
   155          7
   168         50
   169          7
   182         12
   197         25
   198          1