##TITLE=Library Entry 35130
##JCAMP-DX=Revision 4.10 
##DATA TYPE=MASS SPECTRUM
##SAMPLE DESCRIPTION=NIST Mass Spectrometry Data Center, 2010
##NAMES=HP
##CAS NAME=Butanoic acid, 2-methyl-, 3,7-dimethyl-2,6-octadienyl ester, (E)-
##MOLFORM=C15H26O2
##CAS REGISTRY NO=68705-63-5
##MP= -300
##BP= -300
##MW= 238
##$RETENTION INDEX=1588
##$CONDENSED SPECTRUM=NO
##NPOINTS= 93
##XYDATA=(XY..XY) 1 
    15          1
    26          2
    27         37
    28         12
    29         82
    30          2
    31          1
    39         63
    40         21
    41        392
    42         23
    43         25
    44          2
    45          3
    47          1
    50          3
    51         10
    52          6
    53         73
    54          9
    55         48
    57        546
    58         23
    59          3
    63          2
    65         20
    66         10
    67        165
    68        464
    69        999
    70         56
    71          5
    72          1
    73          1
    74          4
    77         27
    78          6
    79         44
    80        218
    81        104
    82         14
    83          9
    84         13
    85        266
    86         15
    87          2
    91         37
    92        114
    93        527
    94         97
    95         36
    96          4
    97          4
    98          2
    99          1
   102          1
   103         13
   104          2
   105         18
   106          5
   107         92
   108         29
   109          8
   110          2
   111          4
   112          1
   115          1
   117          1
   119          8
   121        354
   122         35
   123         44
   124          4
   125          1
   134          1
   135          7
   136        214
   137         43
   138          3
   139          4
   140          1
   143          1
   153          2
   154         24
   155          3
   156          1
   168          2
   169         21
   170          3
   181          1
   195          1
   238          3
   239          1