##TITLE=Library Entry 2831
##JCAMP-DX=Revision 4.10 
##DATA TYPE=MASS SPECTRUM
##SAMPLE DESCRIPTION=D.HENNEBERG, MAX-PLANCK INSTITUTE, MULHEIM, WEST GERMAN
Y
##NAMES=HP
##CAS NAME=1,6-Heptadiene, 3,3-dimethyl-
##MOLFORM=C9H16
##CAS REGISTRY NO=68701-61-1
##MP= -300
##BP= -300
##MW= 124
##$RETENTION INDEX=877
##$CONDENSED SPECTRUM=NO
##NPOINTS= 43
##XYDATA=(XY..XY) 1 
    24          2
    25          4
    26         14
    27        254
    29        160
    35          4
    37         15
    38         11
    39        262
    40         40
    41        999
    42         70
    43         88
    50         11
    51         34
    52         17
    53        114
    54         58
    55        682
    56         59
    57         25
    63          6
    65         23
    66         23
    67        276
    68         98
    69        589
    70        261
    71         14
    77         17
    78          5
    79         27
    80         23
    81        235
    82        176
    83         72
    84          2
    91          8
    95         62
    96         26
    97          5
   109         67
   110          4