##TITLE=Library Entry 18928
##JCAMP-DX=Revision 4.10 
##DATA TYPE=MASS SPECTRUM
##SAMPLE DESCRIPTION=D.HENNEBERG, MAX-PLANCK INSTITUTE, MULHEIM, WEST GERMAN
Y
##NAMES=HP
##CAS NAME=1,5-Hexadiene, 2,4-dimethyl-
##MOLFORM=C8H14
##CAS REGISTRY NO=68701-71-3
##MP= -300
##BP= -300
##MW= 110
##$RETENTION INDEX=0
##$CONDENSED SPECTRUM=NO
##NPOINTS= 60
##XYDATA=(XY..XY) 1 
    24          0
    26         12
    27        210
    28         38
    29        302
    30          7
    32         12
    33          0
    37          5
    38         11
    39        226
    40         25
    41        165
    42         12
    43          9
    44          2
    45          1
    46          0
    47          0
    48          0
    49          2
    50         14
    51         27
    52         10
    53        102
    54         78
    55        999
    56        103
    57          4
    61          1
    62          2
    63          3
    64          0
    65         13
    66          5
    67         99
    68        107
    69         23
    70          1
    73          0
    74          1
    75          1
    76          0
    77         18
    78          2
    79         16
    80          7
    81        184
    82         35
    83          1
    89          0
    91          8
    92          0
    93          8
    94          1
    95        255
    96         20
   105          0
   109          3
   110          3