##TITLE=Library Entry 3364
##JCAMP-DX=Revision 4.10 
##DATA TYPE=MASS SPECTRUM
##SAMPLE DESCRIPTION=D.HENNEBERG, MAX-PLANCK INSTITUTE, MULHEIM, WEST GERMAN
Y
##NAMES=HP
##CAS NAME=1,6-Heptadiene, 3,5-dimethyl-
##MOLFORM=C9H16
##CAS REGISTRY NO=68701-99-5
##MP= -300
##BP= -300
##MW= 124
##$RETENTION INDEX=0
##$CONDENSED SPECTRUM=NO
##NPOINTS= 75
##XYDATA=(XY..XY) 1 
    22          0
    23          0
    25          1
    26          7
    27        151
    28         16
    29        135
    30          2
    34          0
    35          1
    36          0
    37          7
    38          7
    39        145
    40         26
    41        999
    42         48
    43         27
    44          0
    45          0
    46          0
    47          0
    48          0
    49          0
    50          9
    51         24
    52          9
    53         81
    54         23
    55        296
    56         18
    57          2
    58          0
    61          0
    62          1
    63          4
    64          1
    65         15
    66          8
    67        107
    68         84
    69        706
    70         69
    71          2
    73          1
    74          0
    75          1
    76          0
    77         15
    78          3
    79         13
    80          2
    81         28
    82        118
    83         10
    84          0
    89          0
    91         11
    92          1
    93          7
    94          3
    95        117
    96         13
    97          0
   103          0
   105          1
   107          3
   108          1
   109        120
   110          9
   111          0
   122          0
   123          1
   124         41
   125          3