##TITLE=Library Entry 85665
##JCAMP-DX=Revision 4.10 
##DATA TYPE=MASS SPECTRUM
##SAMPLE DESCRIPTION=Exported from NIST MS Search
##NAMES=HP
##CAS NAME=Aspidofiline
##MOLFORM=C21H26N2O2
##CAS REGISTRY NO=6871-24-5
##MP= -300
##BP= -300
##MW= 338
##$RETENTION INDEX=0
##$CONDENSED SPECTRUM=NO
##NPOINTS= 78
##XYDATA=(XY..XY) 1 
    41        138
    42        104
    43        786
    44         72
    51         37
    52         23
    53         52
    54         43
    55         52
    56         31
    57         20
    58         54
   102         17
   103         34
   104         11
   105         14
   106         20
   107         34
   108         95
   109        999
   110        115
   111         11
   114         17
   116         49
   117         28
   118         37
   119         14
   121         20
   122         57
   123         14
   124        297
   125         34
   127         20
   128         34
   129         23
   130         40
   131         26
   132         17
   133         28
   134         26
   136         66
   137         23
   139         23
   140         26
   141         17
   142         14
   143         23
   144         28
   145         17
   146         54
   147         14
   148         75
   149         14
   191         20
   192         17
   193         20
   194         17
   195         34
   196         54
   197         46
   198         57
   199         40
   200         17
   291         17
   293         52
   294         40
   295        242
   296         75
   297         17
   309         28
   310        277
   311         63
   335         17
   336         92
   337        219
   338        696
   339        158
   340         17