##TITLE=Library Entry 2291
##JCAMP-DX=Revision 4.10 
##DATA TYPE=MASS SPECTRUM
##SAMPLE DESCRIPTION=CARL DJERASSI DEPT OF CHEM STANFORD UNIV STANFORD CALIF
 94305
##NAMES=HP
##CAS NAME=Aspidofractinine
##MOLFORM=C19H24N2
##CAS REGISTRY NO=6871-25-6
##MP= -300
##BP= -300
##MW= 280
##$RETENTION INDEX=0
##$CONDENSED SPECTRUM=NO
##NPOINTS= 153
##XYDATA=(XY..XY) 1 
    41        999
    42        472
    43        337
    44        137
    45         50
    50         37
    51         87
    52         55
    53        137
    54        100
    55        182
    56        135
    57        112
    58         77
    59         12
    60          5
    63         25
    64          7
    65         37
    66         20
    67         80
    68         32
    69         17
    70         17
    71         10
    73         12
    75         12
    76         12
    77         92
    78         35
    79         77
    80         45
    81         57
    82         17
    83         12
    89         12
    90          7
    91         37
    92          7
    93         15
    94          7
    95          5
   101         40
   102         70
   103         10
   104          7
   105          5
   106          7
   107         15
   108         20
   109        105
   110        112
   111         10
   113         25
   114         35
   115        247
   116         92
   117        102
   118         40
   119          5
   120         12
   121         22
   122         45
   123         25
   124         32
   125         25
   126         25
   127         85
   128        150
   129         45
   130        250
   131         60
   132         35
   133          7
   134         15
   135         85
   136         42
   138         27
   139         40
   140         67
   141         30
   142         12
   143         67
   144         40
   145          7
   146          2
   147          2
   151          2
   152         10
   153          5
   154         30
   155         25
   156         52
   157         22
   158         30
   159         15
   160          5
   163          2
   164          2
   165          5
   166         12
   167         42
   168         40
   169         35
   170         25
   171         15
   172          7
   173          5
   178          5
   179          5
   180         30
   181         20
   182         25
   183         17
   184         12
   185         10
   186          5
   191          5
   192          7
   193         15
   194         20
   195         22
   196         17
   197         17
   198          5
   199          5
   201          2
   204         12
   205          7
   206         15
   207         25
   208         12
   209         22
   210          5
   211          5
   218          5
   219          2
   220          7
   221         15
   222         15
   223         25
   224         32
   225          5
   237         10
   238          5
   239          5
   252          7
   265          2
   266          2
   278          2
   279          2
   280         10
   281          2