##TITLE=Library Entry 33562
##JCAMP-DX=Revision 4.10 
##DATA TYPE=MASS SPECTRUM
##SAMPLE DESCRIPTION=T.Marunaka,Biomed.Mass Spectrom., 9,381(1982)
##NAMES=HP
##CAS NAME=1-(2,3-Dihydro-2-furanyl)-5-fluorouracil
##MOLFORM=C8H7FN2O3
##CAS REGISTRY NO=68723-23-9
##MP= -300
##BP= -300
##MW= 198
##$RETENTION INDEX=0
##$CONDENSED SPECTRUM=NO
##NPOINTS= 33
##XYDATA=(XY..XY) 1 
    39        144
    40         70
    41        257
    42         10
    43         14
    44         34
    45          3
    51         31
    57         14
    58         10
    59          3
    60          7
    68        999
    69        750
    70        116
    71        205
    72         10
    78         27
    86         14
    87        216
    88         34
    98        113
    99         50
   126        212
   127         45
   128          3
   129          3
   130        373
   131         89
   132          3
   197          7
   198        116
   199         27