##TITLE=Library Entry 98518
##JCAMP-DX=Revision 4.10 
##DATA TYPE=MASS SPECTRUM
##SAMPLE DESCRIPTION=NIST Mass Spectrometry Data Center, 1992
##NAMES=HP
##CAS NAME=2-Methylindoline
##MOLFORM=C9H11N
##CAS REGISTRY NO=6872-06-6
##MP= -300
##BP= -300
##MW= 133
##$RETENTION INDEX=0
##$CONDENSED SPECTRUM=NO
##NPOINTS= 78
##XYDATA=(XY..XY) 1 
    13          0
    14          1
    15         17
    16          0
    17          1
    18          7
    26         11
    27         38
    28         25
    29          2
    30          2
    37          8
    38         24
    39         73
    40         10
    41         17
    42         12
    43          1
    44          1
    46          1
    49          4
    50         35
    51         73
    52         35
    53         10
    54          4
    55          1
    56          0
    59         84
    61          7
    62         25
    63         63
    64          0
    65         85
    67         18
    73          2
    74         12
    75         14
    76         17
    77         62
    78         20
    79         11
    80          2
    84          0
    85          1
    86          4
    87          6
    88          0
    89         81
    90         72
    91        225
    92         17
    93          1
    98          1
    99          1
   100          1
   101          4
   102         14
   103         28
   104         13
   105          9
   106          5
   107          0
   113          0
   114          2
   115         10
   116          0
   117        245
   118        999
   119         88
   120          4
   128          8
   130        136
   131         75
   132         71
   133        335
   134         34
   135          2