##TITLE=Library Entry 86634
##JCAMP-DX=Revision 4.10 
##DATA TYPE=MASS SPECTRUM
##SAMPLE DESCRIPTION=V.I. COHEN, 38 MODABER AVE., YOUSEFABAD, TEHRAN, IRA
##NAMES=HP
##CAS NAME=1,2,4-Selenadiazole, 3,5-bis(2-thienyl)-
##MOLFORM=C10H6N2S2Se
##CAS REGISTRY NO=68723-63-7
##MP= -300
##BP= -300
##MW= 298
##$RETENTION INDEX=0
##$CONDENSED SPECTRUM=NO
##NPOINTS= 25
##XYDATA=(XY..XY) 1 
    39        120
    45        240
    57         30
    58        180
    64         70
    69         40
    70         60
    82         50
   109        999
   110         70
   111         40
   112         30
   185        190
   186        160
   187        450
   188         30
   189        910
   190         70
   191        210
   294         60
   295         50
   296        140
   298        300
   299         40
   300         80