##TITLE=Library Entry 81599
##JCAMP-DX=Revision 4.10 
##DATA TYPE=MASS SPECTRUM
##SAMPLE DESCRIPTION=Japan AIST/NIMC Database- Spectrum MS-NW-3298
##NAMES=HP
##CAS NAME=(p-Ethylphenyl)phosphonic acid
##MOLFORM=C8H11O3P
##CAS REGISTRY NO=6873-66-1
##MP= -300
##BP= -300
##MW= 186
##$RETENTION INDEX=0
##$CONDENSED SPECTRUM=NO
##NPOINTS= 139
##XYDATA=(XY..XY) 1 
    14          3
    15         10
    16          2
    17          5
    18          1
    25          1
    26         10
    27         58
    28         46
    29         10
    31          3
    32          2
    33          1
    34          1
    36          4
    37          5
    38         15
    39         86
    40         10
    41         17
    42          3
    43          5
    44          6
    45          1
    47         51
    48          3
    49          4
    50         64
    51        107
    52         30
    53         27
    54          3
    55          8
    56          2
    57          4
    59          1
    60          3
    61          7
    62         26
    63         75
    64         21
    65         53
    66         10
    67          5
    68          2
    69          4
    70          2
    71          3
    73          5
    74         28
    75         27
    76         23
    77        211
    78         77
    79        111
    80          9
    81         42
    82          8
    83          3
    84          2
    85          3
    86          5
    87          6
    88          3
    89         80
    90         39
    91        101
    92         16
    93          7
    94         29
    95          4
    96          2
    97          3
    98          5
    99          2
   100          1
   101          6
   102         27
   103         96
   104        118
   105        999
   106        111
   107        382
   108         31
   109          5
   110          3
   111          1
   113          2
   115          2
   116          1
   117          1
   118          2
   119          6
   120         12
   121          7
   122          9
   123          2
   124          1
   125          2
   126          1
   128          2
   129          1
   131          1
   133          2
   134          1
   137          3
   138          1
   139          4
   140          4
   141         10
   142         10
   143          1
   149         14
   150          2
   151          1
   152          1
   153         94
   154          9
   155          3
   156          1
   157          4
   158         23
   159          9
   160          1
   165          3
   166          3
   167         31
   168          9
   169          9
   170          5
   171        367
   172         33
   173          4
   183          1
   184          6
   185         78
   186        468
   187         45
   188          5