##TITLE=Library Entry 35721
##JCAMP-DX=Revision 4.10 
##DATA TYPE=MASS SPECTRUM
##SAMPLE DESCRIPTION=Chemical Concepts
##NAMES=HP
##CAS NAME=Farnesyl bromide
##MOLFORM=C15H25Br
##CAS REGISTRY NO=6874-67-5
##MP= -300
##BP= -300
##MW= 284
##$RETENTION INDEX=0
##$CONDENSED SPECTRUM=NO
##NPOINTS= 183
##XYDATA=(XY..XY) 1 
    27         91
    28         18
    29        119
    39        155
    40         38
    41        551
    42         38
    43        189
    44          9
    45          7
    50          9
    51         45
    52         25
    53        169
    54         23
    55        311
    56         48
    57         93
    58         10
    59          8
    63         24
    64         12
    65         96
    66         35
    67        257
    68        165
    69        999
    70         74
    71         47
    72          7
    73          9
    75         10
    76         12
    77        222
    78         54
    79        330
    80        149
    81        679
    82        143
    83        111
    84         16
    85         25
    86          8
    87          8
    88          7
    89         17
    90          9
    91        364
    92        153
    93        934
    94        193
    95        372
    96         78
    97         73
    98         15
    99         13
   101          6
   102         14
   103         47
   104         28
   105        457
   106        121
   107        585
   108        156
   109        472
   110         59
   111         77
   112         18
   113         12
   114          7
   115         75
   116         37
   117         87
   118         40
   119        590
   120        153
   121        521
   122        152
   123        323
   124        105
   125         30
   126         10
   127         40
   128         58
   129         64
   130         31
   131         93
   132         81
   133        389
   134        203
   135        348
   136        334
   137        246
   138         33
   139         26
   140          7
   141         31
   142         20
   143         45
   144         25
   145        109
   146         37
   147        147
   148        108
   149        106
   150         17
   151         25
   152          8
   153         12
   154          6
   155         10
   156          6
   157         17
   158         14
   159        190
   160         39
   161        265
   162         74
   163        153
   164         26
   165         13
   167          8
   169          7
   171         13
   172         10
   173         40
   174         13
   175        180
   176         52
   177         76
   178         16
   179         14
   180          6
   185          9
   186          7
   187        238
   188         42
   189        362
   190         61
   191         50
   192         13
   193         11
   199          7
   200          7
   201         17
   202        132
   203         43
   204        769
   205        468
   206        101
   207         62
   208         14
   210          7
   213          8
   214         10
   215         17
   216         18
   217         15
   218         15
   219          6
   220          7
   228         15
   229         13
   230         16
   231          9
   241         24
   242          8
   243         24
   244          7
   255         15
   256          9
   257         15
   258          8
   269         66
   270         12
   271         59
   272         15
   283          6
   284        106
   285         36
   286        107
   287         33
   288          7