##TITLE=Library Entry 32485
##JCAMP-DX=Revision 4.10 
##DATA TYPE=MASS SPECTRUM
##SAMPLE DESCRIPTION=Chemical Concepts
##NAMES=HP
##CAS NAME=1,6-Octadiene, 2,6-dimethyl-, (Z)-
##MOLFORM=C10H18
##CAS REGISTRY NO=6874-34-6
##MP= -300
##BP= -300
##MW= 138
##$RETENTION INDEX=0
##$CONDENSED SPECTRUM=NO
##NPOINTS= 82
##XYDATA=(XY..XY) 1 
    22          1
    23          2
    24          1
    25          2
    26         20
    27        312
    28         58
    29        254
    30          5
    31          0
    32          1
    35          0
    37          4
    38         17
    39        355
    40         82
    41        946
    42        100
    43         83
    44          2
    45          0
    48          0
    49          0
    50         16
    51         42
    52         19
    53        172
    54         69
    55        517
    56         53
    57         20
    58          1
    59          0
    61          0
    62          3
    63          6
    64          2
    65         34
    66         26
    67        999
    68        505
    69        295
    70         82
    71          6
    74          1
    75          0
    76          0
    77         28
    78          6
    79         40
    80         19
    81        224
    82        848
    83        102
    84          7
    86          0
    89          0
    91         13
    92          2
    93         12
    94         10
    95         95
    96        223
    97         21
    98          1
   103          1
   104          0
   105          2
   106          0
   107          4
   108          2
   109         77
   110         12
   111          0
   117          0
   121          2
   122          1
   123         43
   124          5
   137          0
   138         20
   139          2