##TITLE=Library Entry 67359
##JCAMP-DX=Revision 4.10 
##DATA TYPE=MASS SPECTRUM
##SAMPLE DESCRIPTION=Exported from NIST MS Search
##NAMES=HP
##CAS NAME=2H-Quinolizine-3-methanol, 6-(3-furanyl)octahydro-9-methyl-, [3S-
(3.alpha.,6.alpha.,9.beta.,9a.beta.)]-
##MOLFORM=C15H23NO2
##CAS REGISTRY NO=6874-86-8
##MP= -300
##BP= -300
##MW= 249
##$RETENTION INDEX=0
##$CONDENSED SPECTRUM=NO
##NPOINTS= 73
##XYDATA=(XY..XY) 1 
    41        424
    42        127
    43        133
    44         89
    51         82
    53        120
    54         93
    55        290
    56        138
    57        209
    65        111
    66         71
    67        120
    68         89
    69         71
    70         49
    77        178
    78         51
    79        171
    80         93
    81        223
    82        223
    83         71
    84         53
    91         84
    92         33
    93         84
    94        999
    95        145
    96         71
   107        147
   108         89
   109         44
   110         44
   112         44
   113        111
   114        959
   115         89
   120         31
   121         67
   122         44
   134         44
   135         51
   136        497
   137        122
   140         29
   141         49
   142         26
   148         60
   149         84
   162         44
   163         26
   164         84
   176         44
   177         49
   178         60
   182         22
   190         44
   191         17
   192         35
   193         40
   194         51
   206         89
   207         22
   217         40
   218        102
   219        160
   220         89
   234         22
   247         22
   248         84
   249        323
   250         49