##TITLE=Library Entry 20110
##JCAMP-DX=Revision 4.10 
##DATA TYPE=MASS SPECTRUM
##SAMPLE DESCRIPTION=D.HENNEBERG, MAX-PLANCK INSTITUTE, MULHEIM, WEST GERMAN
Y
##NAMES=HP
##CAS NAME=3-Octene, 2,6-dimethyl-
##MOLFORM=C10H20
##CAS REGISTRY NO=6874-28-8
##MP= -300
##BP= -300
##MW= 140
##$RETENTION INDEX=0
##$CONDENSED SPECTRUM=NO
##NPOINTS= 56
##XYDATA=(XY..XY) 1 
    25          2
    26          7
    27        181
    28         97
    29        385
    30         11
    32          7
    36          1
    38          7
    39        144
    40         29
    41        765
    42        103
    43        236
    44          7
    49          0
    50          4
    51         16
    52          5
    53         63
    54         20
    55        999
    56        526
    57        442
    58         19
    63          2
    65         15
    66          8
    67         82
    68         43
    69        833
    70        589
    71         99
    72          3
    77         13
    78          2
    79         11
    80          1
    81         18
    82         20
    83        195
    84        155
    85         21
    91          3
    93          0
    95          9
    96          0
    97         18
    98          3
   109          1
   110          2
   111         55
   112          8
   125          3
   140        104
   141         12