##TITLE=Library Entry 13532
##JCAMP-DX=Revision 4.10 
##DATA TYPE=MASS SPECTRUM
##SAMPLE DESCRIPTION=A.A.Kutin, Moscow, Russia
##NAMES=HP
##CAS NAME=Acetamide, N-[2-bromo-4-(1-methylethyl)phenyl]-
##MOLFORM=C11H14BrNO
##CAS REGISTRY NO=68748-07-2
##MP= -300
##BP= -300
##MW= 255
##$RETENTION INDEX=0
##$CONDENSED SPECTRUM=NO
##NPOINTS= 102
##XYDATA=(XY..XY) 1 
    33         10
    34         13
    37         12
    38         40
    39        221
    40        285
    41        141
    42        107
    43        999
    44        140
    45         12
    48          3
    50         47
    51        101
    52         98
    53         45
    54         19
    55         16
    56          5
    57         14
    59         15
    61         13
    62         54
    63        122
    64         68
    65        177
    66         35
    67         11
    69          2
    73          7
    74         23
    75         32
    76         38
    77        112
    78         52
    79         47
    80         18
    81         10
    82         10
    87         12
    88         20
    89        109
    90        102
    91        346
    92         64
    93         38
    94         12
   101          8
   102         30
   103         44
   104         49
   105         47
   106         47
   107         11
   115         27
   116         47
   117        143
   118        222
   119        439
   120        135
   121          9
   130         23
   131         17
   132         83
   133         91
   134         38
   135         12
   143         10
   144          2
   145         22
   146         12
   158          3
   160         60
   161         34
   162         17
   171         11
   173          5
   174         14
   176        897
   177        127
   178          6
   184          7
   186          6
   196         17
   197         44
   198        857
   200        901
   201         77
   202          3
   211          2
   212         24
   213        148
   214         42
   215        141
   216         16
   226          2
   240         15
   242         11
   255        104
   256         15
   257        102
   258         13