##TITLE=Library Entry 14411
##JCAMP-DX=Revision 4.10 
##DATA TYPE=MASS SPECTRUM
##SAMPLE DESCRIPTION=Exported from NIST MS Search
##NAMES=HP
##CAS NAME=Pregnan-20-one, 3,8,12,14,17-pentahydroxy-, (3.beta.,5.alpha.,12.
beta.,14.beta.,17.alpha.)-
##MOLFORM=C21H34O6
##CAS REGISTRY NO=6875-17-8
##MP= -300
##BP= -300
##MW= 382
##$RETENTION INDEX=0
##$CONDENSED SPECTRUM=NO
##NPOINTS= 137
##XYDATA=(XY..XY) 1 
    39         85
    41        388
    42         92
    43        999
    44        277
    45        101
    53         92
    55        571
    56        118
    57        340
    58         48
    60        141
    67        194
    68         69
    69        254
    70         92
    71        175
    73        162
    77        104
    79        175
    81        208
    82         85
    83        185
    84         85
    85        120
    87         48
    91        185
    93        162
    95        185
    96         83
    97        178
    98         85
    99        113
   105        157
   107        319
   108         85
   109        185
   110        120
   111        157
   113        162
   114         48
   115         69
   117         62
   119         92
   121        173
   122         81
   123        134
   124         69
   125        111
   126        141
   127        141
   128        134
   129        113
   130        113
   131        101
   133         69
   135         90
   137         85
   138         62
   139         85
   141         64
   143         62
   145        113
   147        113
   149        185
   151         64
   152        106
   153         64
   155         69
   157         85
   159        141
   161        120
   162        104
   163         69
   164         64
   165        120
   167        254
   169         92
   171         62
   173        173
   174        527
   175         64
   177         92
   181         88
   182         88
   183        104
   185         85
   191         71
   195        120
   199         85
   209         64
   217         92
   219         69
   232        226
   233        136
   234        104
   235        138
   242         48
   243         48
   245         50
   250         64
   251         71
   256        162
   257         69
   260        356
   261        106
   265         88
   267        298
   268        106
   271        106
   277        120
   278         83
   284         88
   285        787
   286        592
   287        143
   293         64
   295        143
   296         44
   300         41
   303        379
   304        136
   310        247
   311         69
   318         71
   321        340
   322         71
   328        233
   329        120
   331         85
   339        175
   340         41
   346        465
   347        113
   349         62
   364        298
   365         69