##TITLE=Library Entry 17396
##JCAMP-DX=Revision 4.10 
##DATA TYPE=MASS SPECTRUM
##SAMPLE DESCRIPTION=Chemical Concepts
##NAMES=HP
##CAS NAME=1,4,7,10,13-Pentaoxacyclopentadecane, 2-phenyl-
##MOLFORM=C16H24O5
##CAS REGISTRY NO=68756-67-2
##MP= -300
##BP= -300
##MW= 296
##$RETENTION INDEX=0
##$CONDENSED SPECTRUM=NO
##NPOINTS= 144
##XYDATA=(XY..XY) 1 
    25          0
    26          3
    27         55
    28         81
    29         84
    30         32
    31        142
    33          1
    38          1
    39         12
    40         82
    41         56
    42        104
    43        369
    44        285
    45        999
    46         23
    47          1
    50          4
    51         20
    52          9
    53          3
    55          6
    56         20
    57         48
    58        171
    59        160
    60          6
    61          7
    62          2
    63          9
    64          1
    65         29
    66          4
    67          1
    69          6
    70         15
    71         52
    72        115
    73        303
    74         27
    75         23
    76          7
    77         96
    78         56
    79         39
    80          5
    83          1
    84          0
    85          2
    86         39
    87        181
    88        118
    89        549
    90         34
    91        188
    92         29
    93          2
    96          4
    99          3
   100          6
   101         19
   102         14
   103         73
   104        395
   105        218
   106         55
   107         48
   108          4
   109          1
   111          1
   114          1
   115         15
   116         38
   117        105
   118         72
   119         40
   120         47
   121         56
   122          4
   127          0
   128          4
   129          5
   130          9
   131         17
   132         24
   133        189
   134         27
   135         11
   136          2
   138          1
   144          1
   145         10
   146         19
   147         14
   148          9
   149         74
   150          9
   151         45
   152          3
   154          1
   159          3
   160          1
   161          4
   162          3
   163         31
   164         26
   165         16
   166          1
   167          1
   175          3
   176          0
   177         75
   178         44
   179         19
   180          1
   190          6
   191          5
   192          1
   193          2
   194          0
   195         27
   196          2
   197          1
   199          1
   207          5
   208         10
   209        140
   210         13
   211          2
   221          5
   222          1
   223          1
   234          0
   239          6
   251          1
   252          1
   253          3
   265          1
   266          1
   267          2
   296        291
   297         52
   298          5