##TITLE=Library Entry 21070
##JCAMP-DX=Revision 4.10 
##DATA TYPE=MASS SPECTRUM
##SAMPLE DESCRIPTION=Japan AIST/NIMC Database- Spectrum MS-NW-8340
##NAMES=HP
##CAS NAME=Cyclohexane, 1,2-dimethyl-, trans-
##MOLFORM=C8H16
##CAS REGISTRY NO=6876-23-9
##MP= -300
##BP= -300
##MW= 112
##$RETENTION INDEX=807
##$CONDENSED SPECTRUM=NO
##NPOINTS= 54
##XYDATA=(XY..XY) 1 
    15          6
    26          7
    27        125
    28         27
    29        123
    30          3
    37          1
    38          6
    39        157
    40         27
    41        447
    42        247
    43        153
    44          5
    45          1
    46          1
    50          7
    51         18
    52          8
    53         56
    54         33
    55        999
    56        368
    57         91
    58          4
    62          1
    63          5
    65         11
    66          5
    67         60
    68        109
    69        299
    70        284
    71         29
    72          1
    77         10
    78          2
    79          9
    80          1
    81         14
    82         32
    83        180
    84         83
    85          5
    93          1
    95          5
    96          9
    97        918
    98         70
    99          2
   111          9
   112        257
   113         22
   114          1