##TITLE=Library Entry 9594
##JCAMP-DX=Revision 4.10 
##DATA TYPE=MASS SPECTRUM
##SAMPLE DESCRIPTION=J. Klune, Insect Chem. Ecol. Lab., USDA, Beltsville, MD
 20705
##NAMES=HP
##CAS NAME=Z-6-Pentadecen-1-ol acetate
##MOLFORM=C17H32O2
##CAS REGISTRY NO=68760-72-5
##MP= -300
##BP= -300
##MW= 268
##$RETENTION INDEX=0
##$CONDENSED SPECTRUM=NO
##NPOINTS= 144
##XYDATA=(XY..XY) 1 
    41        450
    42         61
    43        999
    44         38
    45         35
    47         11
    52          2
    53         72
    54        257
    55        426
    56        101
    57        157
    58         15
    59         11
    60         80
    61         73
    62          2
    63          1
    65         23
    66         42
    67        568
    68        254
    69        214
    70         64
    71         56
    73         75
    74          5
    75          1
    77         21
    78          1
    79         86
    80         59
    81        340
    82        657
    83        253
    84         60
    85         45
    86         15
    87         14
    88          4
    89          1
    91         13
    92          3
    93         28
    94         44
    95        390
    96        375
    97        120
    98         28
    99         17
   100         11
   101         17
   102          2
   103          1
   104          0
   105          2
   106          1
   107          8
   108         16
   109        151
   110        121
   111         43
   112         12
   113          5
   114          6
   115         13
   116          2
   117          1
   119          1
   120          0
   121          4
   122         13
   123         84
   124         85
   125         19
   126         13
   127          6
   128          1
   129          7
   130          1
   131          0
   133          0
   135          3
   136          6
   137         54
   138         47
   139          9
   140          5
   141          4
   142          1
   143          1
   144          1
   145          0
   147          0
   149          1
   150          1
   151         28
   152         38
   153          7
   154          1
   155          3
   156          1
   157          0
   158          1
   159          1
   161          0
   163          0
   165         10
   166         15
   167          5
   168          1
   169          2
   170          0
   171          0
   172          0
   177          0
   178          0
   179          4
   180         36
   181          6
   182          2
   183          1
   184          0
   185          1
   186          0
   191          0
   193          1
   194          0
   195          1
   196          0
   197          0
   198          0
   206          1
   207          3
   208        232
   209         37
   210          6
   211          0
   222          0
   223          0
   225          1
   268          5
   269          1
   270          0