##TITLE=Library Entry 50020
##JCAMP-DX=Revision 4.10 
##DATA TYPE=MASS SPECTRUM
##SAMPLE DESCRIPTION=Chemical Concepts
##NAMES=HP
##CAS NAME=Isomyocorene
##MOLFORM=C10H16
##CAS REGISTRY NO=6876-07-9
##MP= -300
##BP= -300
##MW= 136
##$RETENTION INDEX=0
##$CONDENSED SPECTRUM=NO
##NPOINTS= 82
##XYDATA=(XY..XY) 1 
    26         12
    27        183
    28         10
    29        153
    30          3
    31          0
    35          0
    37          2
    38          9
    39        195
    40         34
    41        258
    42         15
    43         10
    44          0
    45          0
    49          0
    50         14
    51         40
    52         22
    53        235
    54         20
    55        298
    56         13
    57          0
    58          1
    59          0
    61          0
    62          3
    63         11
    64          2
    65         48
    66         35
    67         61
    68         37
    69          6
    70          0
    71          0
    74          1
    75          2
    76          1
    77         73
    78         15
    79        272
    80         48
    81        999
    82        104
    83          4
    84          2
    85          0
    86          0
    87          0
    89          1
    90          0
    91         31
    92          9
    93         59
    94         27
    95         14
    96          1
    98          0
   102          0
   103          2
   104          1
   105          9
   106          5
   107         86
   108         43
   109          4
   110          0
   115          1
   116          0
   117          0
   119          2
   120          1
   121         95
   122         10
   123          0
   134          0
   135          0
   136         33
   137          3