##TITLE=Library Entry 23926
##JCAMP-DX=Revision 4.10 
##DATA TYPE=MASS SPECTRUM
##SAMPLE DESCRIPTION=H. Fales, LC, NHLBI, NIH, Bethesda, MD 20892
##NAMES=HP
##CAS NAME=1,2,3,4,7,7a-Hexahydro-2,4,7-trimethyl-6H-2-pyrindin-6-one
##MOLFORM=C11H17NO
##CAS REGISTRY NO=6878-83-7
##MP= -300
##BP= -300
##MW= 179
##$RETENTION INDEX=0
##$CONDENSED SPECTRUM=NO
##NPOINTS= 109
##XYDATA=(XY..XY) 1 
    41        174
    42        659
    43         92
    44        274
    45          8
    46          1
    50         21
    51         72
    52         42
    53        128
    54         24
    55         93
    56         21
    57        999
    58        366
    59         16
    60          4
    61          2
    62         11
    63         23
    64         10
    65         86
    66         42
    67         40
    68         19
    69         11
    70         19
    71          9
    72          4
    73          3
    74          4
    75          7
    76          5
    77        144
    78         35
    79        107
    80         37
    81         25
    82         47
    83         15
    84          8
    85          4
    87          4
    89          5
    90          3
    91        130
    92         25
    93        279
    94         77
    95         18
    96         28
    97         17
    98          7
   101          1
   102          2
   103          8
   104          4
   105         17
   106         11
   107         44
   108         77
   109         40
   110         30
   111        198
   112         20
   113          3
   115          1
   116          2
   117          6
   118          5
   119          6
   120         21
   121        114
   122         51
   123         21
   124          7
   125          2
   129          1
   130          1
   131          1
   132          8
   133          4
   134         24
   135         14
   136        118
   137         74
   138         15
   139          3
   140          1
   144          1
   145          1
   146          4
   148         12
   149          5
   150         76
   151         16
   152          3
   160          1
   161          1
   162         18
   163          2
   164        125
   165         16
   166          1
   168          3
   178         45
   179        530
   180         63
   181          7