##TITLE=Library Entry 76380
##JCAMP-DX=Revision 4.10 
##DATA TYPE=MASS SPECTRUM
##SAMPLE DESCRIPTION=Exported from NIST MS Search
##NAMES=HP
##CAS NAME=Heptane, 1,1-diethoxy-
##MOLFORM=C11H24O2
##CAS REGISTRY NO=688-82-4
##MP= -300
##BP= -300
##MW= 188
##$RETENTION INDEX=1179
##$CONDENSED SPECTRUM=NO
##NPOINTS= 56
##XYDATA=(XY..XY) 1 
    14          7
    15         11
    16          1
    18         12
    19         11
    26         11
    27         74
    28         42
    29        219
    30         12
    31         73
    32         17
    39         31
    40          8
    41        120
    42         31
    43        132
    44         63
    45         59
    46         21
    47        329
    53         11
    54         12
    55        292
    56         30
    57        366
    58         27
    59         40
    60          5
    61          5
    67         20
    68         24
    69         61
    70         27
    71         25
    72         41
    73         12
    75        335
    76         11
    81         25
    83         16
    85        260
    86         15
    95         11
    96         20
    97        254
    98         15
    99         38
   103        999
   104         48
   113         16
   114          5
   115          9
   131          7
   143        366
   187          4