##TITLE=Library Entry 23284
##JCAMP-DX=Revision 4.10 
##DATA TYPE=MASS SPECTRUM
##SAMPLE DESCRIPTION=NIST Mass Spectrometry Data Center, 1994
##NAMES=HP
##CAS NAME=Tributyl borate
##MOLFORM=C12H27BO3
##CAS REGISTRY NO=688-74-4
##MP= -300
##BP= -300
##MW= 230
##$RETENTION INDEX=0
##$CONDENSED SPECTRUM=NO
##NPOINTS= 87
##XYDATA=(XY..XY) 1 
    15          5
    16          0
    27        171
    28         49
    29        373
    30         20
    39         81
    41        450
    42         21
    43         71
    44         35
    45        123
    51          1
    52          3
    53         16
    54          1
    55        332
    56        267
    57        999
    58         77
    59         38
    63          2
    67          3
    69         33
    70         10
    71         16
    72         13
    73         16
    74          5
    75         15
    76          3
    77         10
    82          3
    83          8
    84         10
    85         11
    86          8
    87         27
    88          9
    89         31
    90          2
    91          3
    98          2
   100         73
   101        236
   102         12
   103         12
   111          4
   112          4
   113          9
   114          5
   115         23
   116         59
   117        174
   118         22
   119         33
   120          3
   128          3
   130         53
   131        197
   132         13
   133          5
   141          6
   142          7
   143          8
   144         11
   145         35
   146          5
   156         20
   157         57
   158          5
   159          4
   172         23
   173         85
   174         29
   175          6
   186         29
   187        101
   188         10
   189          3
   200          4
   201         19
   202          3
   215          5
   229          6
   230         24
   231          3