##TITLE=Library Entry 8319
##JCAMP-DX=Revision 4.10 
##DATA TYPE=MASS SPECTRUM
##SAMPLE DESCRIPTION=Chemical Concepts
##NAMES=HP
##CAS NAME=2,5-Hexanediol, 1,1,1,6,6,6-hexafluoro-, diacetate
##MOLFORM=C10H12F6O4
##CAS REGISTRY NO=688-00-6
##MP= -300
##BP= -300
##MW= 310
##$RETENTION INDEX=0
##$CONDENSED SPECTRUM=NO
##NPOINTS= 89
##XYDATA=(XY..XY) 1 
    27          5
    28          3
    29          6
    31          1
    39          6
    40          0
    41          9
    42         28
    43        999
    44         30
    45          6
    46          1
    47          2
    51          5
    55          2
    56          1
    57          3
    58          7
    59          4
    60          2
    61         62
    62          1
    63          0
    64          3
    65          1
    69         11
    70          1
    71          2
    72          0
    73          1
    75          1
    77          9
    83          1
    85          1
    89          3
    90          8
    91          6
    93          1
    95          3
    97          0
   100          2
   101          2
   103         12
   104          0
   105          1
   107          1
   109          2
   110          1
   119          1
   121         26
   122          1
   127         10
   132          0
   139         40
   140          2
   141          1
   149          1
   150          2
   151          2
   152          4
   155          2
   159          0
   162          1
   168          0
   169         23
   170          2
   171         34
   172          2
   186          0
   187          0
   188          1
   189          0
   190         60
   191          7
   199          0
   206          3
   207          2
   210          0
   229          1
   230          0
   232          1
   248          4
   249          1
   250         47
   251          5
   267          4
   268          0
   290          0
   311          0