##TITLE=Library Entry 37495
##JCAMP-DX=Revision 4.10 
##DATA TYPE=MASS SPECTRUM
##SAMPLE DESCRIPTION=Japan AIST/NIMC Database- Spectrum MS-NW-3424
##NAMES=HP
##CAS NAME=2-Ethylhexyl methacrylate
##MOLFORM=C12H22O2
##CAS REGISTRY NO=688-84-6
##MP= -300
##BP= -300
##MW= 198
##$RETENTION INDEX=1296
##$CONDENSED SPECTRUM=NO
##NPOINTS= 84
##XYDATA=(XY..XY) 1 
    14          1
    15          8
    17          1
    18          3
    26          7
    27        101
    28         19
    29        142
    30          4
    31          9
    32          5
    37          4
    38         10
    39        185
    40         48
    41        702
    42        107
    43        188
    44          7
    45          5
    50          3
    51          5
    52          3
    53         23
    54         24
    55        341
    56        218
    57        317
    58         15
    59         11
    60          1
    63          1
    65          3
    66          2
    67         18
    68         22
    69        936
    70        999
    71        136
    72          9
    73          3
    74          3
    77          2
    79          3
    81          8
    82         32
    83        239
    84        110
    85         17
    86         25
    87        130
    88          9
    89          1
    95          5
    96          4
    97         28
    98         12
    99         52
   100         31
   101         10
   109          2
   110          5
   111         13
   112        317
   113         28
   114          2
   123          2
   124          3
   125          7
   126          3
   127          1
   128          2
   129          3
   137          1
   138          1
   139          4
   140          3
   141          4
   142          1
   151          3
   155          1
   156          1
   169          4
   170          1