##TITLE=Library Entry 10100
##JCAMP-DX=Revision 4.10 
##DATA TYPE=MASS SPECTRUM
##SAMPLE DESCRIPTION=P.J.FALLON UNIV. OF NEWCASTLE UPON TYNE, UK
##NAMES=HP
##CAS NAME=Tripropyl borate
##MOLFORM=C9H21BO3
##CAS REGISTRY NO=688-71-1
##MP= -300
##BP= -300
##MW= 188
##$RETENTION INDEX=0
##$CONDENSED SPECTRUM=NO
##NPOINTS= 27
##XYDATA=(XY..XY) 1 
    27        180
    28         60
    29         70
    31        150
    39         80
    41        310
    42        110
    43        999
    44        130
    45        490
    55         50
    56         60
    57         70
    58         80
    59        120
    87        840
   101        100
   103        230
   104         30
   117        510
   129        270
   145        130
   146         60
   159        380
   173        140
   187         60
   188        110