##TITLE=Library Entry 961
##JCAMP-DX=Revision 4.10 
##DATA TYPE=MASS SPECTRUM
##SAMPLE DESCRIPTION=Japan AIST/NIMC Database- Spectrum MS-NW-1832
##NAMES=HP
##CAS NAME=DL-Leucine, N-glycyl-
##MOLFORM=C8H16N2O3
##CAS REGISTRY NO=688-14-2
##MP= -300
##BP= -300
##MW= 188
##$RETENTION INDEX=0
##$CONDENSED SPECTRUM=NO
##NPOINTS= 129
##XYDATA=(XY..XY) 1 
    12          3
    13          1
    14          4
    15         20
    16         11
    17          8
    18         45
    25          2
    26         15
    27        113
    28        134
    29         74
    30        999
    31         58
    32          7
    35          1
    36          6
    37          4
    38         10
    39         71
    40         17
    41        157
    42         72
    43        169
    44         88
    45          7
    46          2
    47          1
    48          1
    49          1
    50          9
    51         11
    52          9
    53         16
    54         21
    55         62
    56         54
    57         54
    58          7
    59         14
    60          7
    61          2
    62          1
    63          2
    64          2
    65          4
    66          5
    67         18
    68         20
    69         35
    70         39
    71         10
    72          4
    73         16
    74         15
    75          4
    76          6
    77         11
    78          4
    79          5
    80          6
    81         12
    82         19
    83         14
    84         45
    85         45
    86         56
    87          4
    88          3
    89          3
    90          1
    91          5
    92          4
    93          4
    94          5
    95          8
    96          8
    97         20
    98         22
    99         17
   100          5
   101          4
   102          2
   103          5
   104          6
   105          9
   106          3
   107          4
   108          3
   109          6
   110          5
   111          5
   112          7
   113          9
   114        105
   115          8
   116          6
   117          2
   118          1
   119          2
   120          2
   121          2
   122          6
   123          3
   124          2
   125          9
   126          6
   127         20
   128          4
   129          3
   130          3
   131          2
   132         28
   133          2
   134          1
   143          5
   144          2
   145          4
   146          1
   154          2
   155          2
   157          1
   158          2
   159          1
   168          2
   169          1
   170          1
   173          1
   188          4