##TITLE=Library Entry 3721
##JCAMP-DX=Revision 4.10 
##DATA TYPE=MASS SPECTRUM
##SAMPLE DESCRIPTION=MASS SPECTRA OF ORGANIC COMPOUNDS, CSIRO, B.H. KENNETT
 ET AL
##NAMES=HP
##CAS NAME=trans-Undec-4-enal
##MOLFORM=C11H20O
##CAS REGISTRY NO=68820-35-9
##MP= -300
##BP= -300
##MW= 168
##$RETENTION INDEX=1195
##$CONDENSED SPECTRUM=NO
##NPOINTS= 55
##XYDATA=(XY..XY) 1 
    26         30
    27        310
    29        460
    30         10
    31         20
    39        340
    41        999
    42        240
    43        580
    45         20
    50         10
    51         30
    52         20
    53        150
    54        460
    55        800
    56        250
    57        180
    58         10
    65         50
    66         60
    67        430
    68        230
    69        360
    70        290
    71         50
    75         30
    77         70
    78         20
    79        160
    80         80
    81        200
    82        210
    83        440
    84        950
    85        100
    86         10
    91         30
    93         40
    94         20
    95        120
    96        110
    97        230
    98        220
   107         20
   109         20
   111         40
   112         20
   113         40
   121         20
   124        180
   125         30
   139         10
   150         70
   168         10