##TITLE=Library Entry 60877
##JCAMP-DX=Revision 4.10 
##DATA TYPE=MASS SPECTRUM
##SAMPLE DESCRIPTION=NIST Mass Spectrometry Data Center, 2010
##NAMES=HP
##CAS NAME=(1R,9R,E)-4,11,11-Trimethyl-8-methylenebicyclo[7.2.0]undec-4-ene
##MOLFORM=C15H24
##CAS REGISTRY NO=68832-35-9
##MP= -300
##BP= -300
##MW= 204
##$RETENTION INDEX=1466
##$CONDENSED SPECTRUM=NO
##NPOINTS= 71
##XYDATA=(XY..XY) 1 
    27         88
    29        135
    39        333
    40         38
    41        929
    42         58
    43        219
    51         95
    52         51
    53        326
    54         48
    55        514
    56         28
    57         49
    65        219
    66         78
    67        591
    68         77
    69        699
    70         31
    77        509
    78        145
    79        752
    80        141
    81        632
    82        222
    83         90
    89         14
    91        999
    92        251
    93        777
    94        168
    95        298
    96         64
   105        947
   106        322
   107        798
   108        208
   109        171
   115         97
   116         34
   117        152
   118         37
   119        730
   120        327
   121        417
   122        332
   123         89
   128         38
   129         41
   130         26
   133        763
   134        256
   135        212
   136         37
   145         36
   146         32
   147        474
   148        357
   149        117
   150         18
   159         11
   160         27
   161        754
   162        138
   163         20
   175         61
   189        250
   190         43
   204        373
   205         64