##TITLE=Library Entry 40758
##JCAMP-DX=Revision 4.10 
##DATA TYPE=MASS SPECTRUM
##SAMPLE DESCRIPTION=E. Zissis, LC, NIDDK, NIH, Bethesda, MD 20892
##NAMES=HP
##CAS NAME=1-Deoxy-d-altritol
##MOLFORM=C6H14O5
##CAS REGISTRY NO=68832-18-8
##MP= -300
##BP= -300
##MW= 166
##$RETENTION INDEX=0
##$CONDENSED SPECTRUM=NO
##NPOINTS= 89
##XYDATA=(XY..XY) 1 
    42        413
    43        733
    44        206
    45        788
    46         24
    47         32
    48          0
    49          3
    50          3
    51          6
    52          2
    53         24
    54         18
    55        176
    56        228
    57        462
    58        304
    59         88
    60        301
    61        395
    62         13
    63          6
    64          1
    65          2
    66          0
    67          3
    68          5
    69         53
    70        150
    71        140
    72         21
    73        999
    74        401
    75        134
    76          8
    77          3
    78          5
    79          1
    81          2
    83          6
    84          2
    85         32
    86         23
    87         78
    88        144
    89         19
    90          3
    91         44
    92          4
    93          0
    95          2
    96          0
    97          3
    98          0
    99          9
   100          0
   101          1
   102          3
   103         95
   104         26
   105         32
   106          3
   107          1
   111          0
   112          1
   113          6
   115          4
   117        164
   118         10
   119          1
   120          0
   121          3
   124          2
   127          0
   129          1
   130          1
   131         19
   132          1
   133          6
   135          1
   147          1
   148          1
   149         14
   150          1
   153          0
   165          0
   166         16
   167          1
   168          0