##TITLE=Library Entry 64994
##JCAMP-DX=Revision 4.10 
##DATA TYPE=MASS SPECTRUM
##SAMPLE DESCRIPTION=M. Lozynski, Dep. Chem., Poznan Tech. Univ., Poznan, Po
land
##NAMES=HP
##CAS NAME=Methylcarbamothioic acid, O-butyl ester
##MOLFORM=C6H13NOS
##CAS REGISTRY NO=6884-86-2
##MP= -300
##BP= -300
##MW= 147
##$RETENTION INDEX=0
##$CONDENSED SPECTRUM=NO
##NPOINTS= 25
##XYDATA=(XY..XY) 1 
    27        300
    28        200
    29        400
    30        230
    39        170
    41        400
    42         90
    43         54
    45         49
    47         60
    55         75
    56        220
    57        120
    58        920
    59         44
    60         65
    74        330
    75         41
    91        100
    92        999
    93         37
    94         47
   147        190
   148         15
   149         10