##TITLE=Library Entry 69474
##JCAMP-DX=Revision 4.10 
##DATA TYPE=MASS SPECTRUM
##SAMPLE DESCRIPTION=NIST Mass Spectrometry Data Center, 1998.
##NAMES=HP
##CAS NAME=Astemizole
##MOLFORM=C28H31FN4O
##CAS REGISTRY NO=68844-77-9
##MP= -300
##BP= -300
##MW= 458
##$RETENTION INDEX=0
##$CONDENSED SPECTRUM=NO
##NPOINTS= 148
##XYDATA=(XY..XY) 1 
    15          1
    27          3
    29          3
    30          3
    39          6
    41         24
    42         67
    43          7
    44          6
    45          1
    50          2
    51          6
    52          4
    53          4
    54          7
    55         13
    56          7
    57          4
    58          1
    59          1
    62          1
    63          6
    64          3
    65         11
    66          4
    67         28
    68         20
    69         10
    70         11
    71          1
    74          1
    75          1
    76          3
    77         26
    78         17
    79         16
    80         11
    81          6
    82         14
    83         16
    84          1
    89          4
    90         10
    91         25
    92          9
    93          2
    94         41
    95         94
    96        999
    97         75
    98          4
   102          3
   103         13
   104          6
   105         26
   106          5
   107          8
   108          4
   109        251
   110         19
   111          2
   115          1
   116          1
   117          4
   118          9
   119         10
   120          6
   121         67
   122          8
   123          1
   129          2
   130          3
   131          4
   132         10
   133         15
   134         10
   135         63
   136          5
   143          2
   144          4
   145          9
   146          6
   147          3
   155          1
   157          3
   158          8
   159          2
   160          4
   161          1
   162          2
   170         12
   171          5
   172         17
   173          4
   178          1
   183          2
   184         12
   185         10
   186          8
   187          1
   188          1
   190          2
   196          2
   198          5
   199          3
   200          2
   213          1
   214          3
   215          6
   216         14
   217          4
   218          1
   220          1
   223          2
   224          1
   225         11
   226          2
   227          3
   228          1
   237          1
   238          5
   239          2
   240          5
   241         19
   242         29
   243          5
   252          2
   253          2
   254          3
   255          1
   266          2
   268          1
   269          1
   278          2
   279          1
   280          4
   292          1
   294         63
   295         13
   296          1
   321          1
   335          3
   336          2
   337        251
   338         59
   339          7
   457          1
   458          4