##TITLE=Library Entry 35592
##JCAMP-DX=Revision 4.10 
##DATA TYPE=MASS SPECTRUM
##SAMPLE DESCRIPTION=Vladimir Zaikin,TIPS RAS, Moscow, Russia
##NAMES=HP
##CAS NAME=Cyclopropanecarboxylic acid,isopropyl ester
##MOLFORM=C7H12O2
##CAS REGISTRY NO=6887-83-8
##MP= -300
##BP= -300
##MW= 128
##$RETENTION INDEX=0
##$CONDENSED SPECTRUM=NO
##NPOINTS= 29
##XYDATA=(XY..XY) 1 
    36          7
    37         18
    38         25
    39        240
    40         52
    41        483
    42        140
    43        478
    44         45
    45         70
    51          4
    55         33
    56         33
    57          6
    58         12
    59        400
    60         12
    68         28
    69        999
    70         65
    71          7
    85         37
    86         50
    87        520
    88         23
   113         50
   114          3
   128          4
   129          1