##TITLE=Library Entry 50756
##JCAMP-DX=Revision 4.10 
##DATA TYPE=MASS SPECTRUM
##SAMPLE DESCRIPTION=James Little,Eastman Chem.Co.,Kingsport,TN
##NAMES=HP
##CAS NAME=4(1H)-Pyridinethione,1-methyl-
##MOLFORM=C6H7NS
##CAS REGISTRY NO=6887-59-8
##MP= -300
##BP= -300
##MW= 125
##$RETENTION INDEX=0
##$CONDENSED SPECTRUM=NO
##NPOINTS= 29
##XYDATA=(XY..XY) 1 
    27         45
    39        285
    41         86
    42        348
    45        148
    51         85
    52         74
    53         71
    55         61
    57         98
    65         40
    66         59
    68         38
    69        270
    70         58
    71         65
    80        316
    81        999
    82        132
    83        150
    92         52
    93         68
    97         74
    98         33
   110        107
   124        127
   125        927
   126         94
   127         48