##TITLE=Library Entry 31450
##JCAMP-DX=Revision 4.10 
##DATA TYPE=MASS SPECTRUM
##SAMPLE DESCRIPTION=HCACAV,61(1)357(1978); G. BIERI ET AL
##NAMES=HP
##CAS NAME=Ethyne, difluoro-
##MOLFORM=C2F2
##CAS REGISTRY NO=689-99-6
##MP= -300
##BP= -300
##MW= 62
##$RETENTION INDEX=0
##$CONDENSED SPECTRUM=NO
##NPOINTS= 3
##XYDATA=(XY..XY) 1 
    31         70
    43        140
    62        999