##TITLE=Library Entry 33119
##JCAMP-DX=Revision 4.10 
##DATA TYPE=MASS SPECTRUM
##SAMPLE DESCRIPTION=Japan AIST/NIMC Database- Spectrum MS-NW-4690
##NAMES=HP
##CAS NAME=Methyl sorbate
##MOLFORM=C7H10O2
##CAS REGISTRY NO=689-89-4
##MP= -300
##BP= -300
##MW= 126
##$RETENTION INDEX=998
##$CONDENSED SPECTRUM=NO
##NPOINTS= 88
##XYDATA=(XY..XY) 1 
    13          2
    14          4
    15        122
    16          2
    17          1
    18          3
    25          2
    26         23
    27         96
    28         22
    29         37
    30          9
    31         17
    32          3
    33          2
    36          2
    37         22
    38         60
    39        421
    40         91
    41        591
    42         28
    43         49
    44          4
    45          9
    46          2
    47          2
    48          1
    49          6
    50         31
    51         60
    52         28
    53         47
    54          9
    55         73
    56          5
    57         10
    58          3
    59         84
    60          5
    61         13
    62         21
    63         39
    64         12
    65        205
    66        283
    67        999
    68         70
    69         15
    70          2
    71          9
    72         35
    73          2
    74          2
    75          5
    77         12
    78          6
    79         21
    80          3
    81         21
    82          9
    83         56
    84          9
    85         13
    86          1
    87          1
    91          9
    92          5
    93         29
    94         43
    95        708
    96         57
    97         28
    98         14
    99          2
   107          5
   108          1
   109          8
   110          1
   111        849
   112         58
   113          6
   124          1
   125         52
   126        491
   127         44
   128          4
   129          5