##TITLE=Library Entry 928
##JCAMP-DX=Revision 4.10 
##DATA TYPE=MASS SPECTRUM
##SAMPLE DESCRIPTION=Japan AIST/NIMC Database- Spectrum MS-NW-4967
##NAMES=HP
##CAS NAME=2-Chloroethylamine
##MOLFORM=C2H6ClN
##CAS REGISTRY NO=689-98-5
##MP= -300
##BP= -300
##MW= 79
##$RETENTION INDEX=0
##$CONDENSED SPECTRUM=NO
##NPOINTS= 36
##XYDATA=(XY..XY) 1 
    12          1
    13          1
    14          8
    15         42
    16          2
    17          6
    18         13
    25          1
    26          9
    27         44
    28          9
    29          9
    30        999
    31         13
    35          9
    36        100
    37          4
    38         33
    39          4
    40          9
    41         16
    42         88
    43         34
    44         21
    47          2
    48          3
    49          8
    50          1
    51          2
    61          1
    62          2
    63          1
    78         18
    79         31
    80          7
    81          9