##TITLE=Library Entry 89712
##JCAMP-DX=Revision 4.10 
##DATA TYPE=MASS SPECTRUM
##SAMPLE DESCRIPTION=Institute of Organic Chemistry, Novosibirsk, USSR 1988
##NAMES=HP
##CAS NAME=Methyl 5-oxotridecanoate
##MOLFORM=C14H26O3
##CAS REGISTRY NO=689-68-9
##MP= -300
##BP= -300
##MW= 242
##$RETENTION INDEX=0
##$CONDENSED SPECTRUM=NO
##NPOINTS= 119
##XYDATA=(XY..XY) 1 
    39         40
    40        120
    41        319
    42         76
    43        345
    44        116
    45         16
    51          7
    53         16
    54         26
    55        266
    56         43
    57        552
    58         42
    59        253
    66          6
    67        103
    68         30
    69        133
    70         36
    71        356
    72         23
    73         32
    74        110
    75          8
    77          9
    79         22
    80          9
    81        126
    82         29
    83         79
    84        268
    85         46
    87         90
    88        260
    89         15
    91          9
    93         19
    94         15
    95         52
    96         32
    97        106
    98        125
    99         18
   100          9
   101        343
   102         26
   103          7
   105          6
   107         15
   108          5
   109         23
   110          9
   111         32
   112        999
   113        100
   114         18
   115         23
   119         10
   121         25
   122          7
   123         50
   124         18
   125        113
   126         42
   127         10
   129        356
   130         45
   131          6
   133          6
   135         13
   136          7
   137         13
   138          9
   139         62
   140         12
   141        250
   142         25
   143          7
   144        600
   145         52
   146          9
   147          7
   149         17
   150          9
   151          9
   152         25
   153         40
   154         15
   155          9
   157         36
   158          7
   166         13
   167         30
   168          6
   169          8
   170          6
   171         45
   172          7
   173         19
   175          6
   176          6
   181          9
   182          6
   183         62
   184         13
   185         35
   186          6
   193          8
   194         10
   199         40
   200          7
   207         29
   208          5
   210          6
   211        125
   212         17
   213          7
   242         11