##TITLE=Library Entry 18474
##JCAMP-DX=Revision 4.10 
##DATA TYPE=MASS SPECTRUM
##SAMPLE DESCRIPTION=A.Pleshkova, Nesmeyanov Inst.Org.Elem.Cpds, Moscow
##NAMES=HP
##CAS NAME=HC.$.CCOCH2CH2CH3
##MOLFORM=C6H8O
##CAS REGISTRY NO=689-00-9
##MP= -300
##BP= -300
##MW= 96
##$RETENTION INDEX=0
##$CONDENSED SPECTRUM=NO
##NPOINTS= 35
##XYDATA=(XY..XY) 1 
    15         50
    25         30
    26         80
    27        470
    28         50
    29        100
    30          2
    37         40
    38         60
    39        280
    40        210
    41        510
    42        150
    43        400
    44         14
    50         40
    51         40
    53        999
    54        150
    55        150
    56         30
    66         40
    67        200
    68        997
    69         80
    70         30
    71         30
    77         30
    78         30
    79         30
    81        250
    82         30
    83         30
    95        250
    96         30