##TITLE=Library Entry 88332
##JCAMP-DX=Revision 4.10 
##DATA TYPE=MASS SPECTRUM
##SAMPLE DESCRIPTION=A.A.Kutin, Moscow, Russia
##NAMES=HP
##CAS NAME=4-Pyridinol-1-oxide
##MOLFORM=C5H5NO2
##CAS REGISTRY NO=6890-62-6
##MP= -300
##BP= -300
##MW= 111
##$RETENTION INDEX=0
##$CONDENSED SPECTRUM=NO
##NPOINTS= 71
##XYDATA=(XY..XY) 1 
    33          5
    34          2
    36          7
    37         44
    38        102
    39        244
    40        131
    41        169
    42         86
    43        102
    44         52
    45         18
    47         14
    49         20
    50         53
    51         62
    52         51
    53        112
    54         95
    55        322
    57         20
    58         39
    59          4
    60         15
    61          8
    62         10
    63         14
    64         17
    65         17
    66         47
    67         90
    68        128
    69         46
    71         87
    72          4
    73          6
    74          6
    75          6
    76         18
    77          5
    78          4
    79          5
    80          1
    81          6
    82         14
    83         34
    84         34
    85         12
    86          0
    87          1
    91          2
    92          3
    94         53
    95        354
    96         20
    97          5
    98          1
    99          0
   101          1
   103          0
   104          0
   105          0
   106          1
   107          1
   108          0
   109          5
   110         73
   111        999
   112         57
   113          6
   114          1