##TITLE=Library Entry 18165
##JCAMP-DX=Revision 4.10 
##DATA TYPE=MASS SPECTRUM
##SAMPLE DESCRIPTION=CHBEAM, 111( )3857(1978); T. KAPPE ET AL
##NAMES=HP
##CAS NAME=2H-1-Benzopyran-2-one, 3-iodo-4-phenoxy-
##MOLFORM=C15H9IO3
##CAS REGISTRY NO=68903-74-2
##MP= -300
##BP= -300
##MW= 364
##$RETENTION INDEX=0
##$CONDENSED SPECTRUM=NO
##NPOINTS= 19
##XYDATA=(XY..XY) 1 
    50        440
    51        999
    76        440
    77        670
    92        100
   105        140
   106        130
   116        200
   144         80
   152        110
   153         80
   181        110
   193        170
   209         90
   236         80
   237        550
   238        100
   364        600
   365        110