##TITLE=Library Entry 47593
##JCAMP-DX=Revision 4.10 
##DATA TYPE=MASS SPECTRUM
##SAMPLE DESCRIPTION=A.A.Kutin, Moscow, Russia
##NAMES=HP
##CAS NAME=3-Methyl-4-(4-nitrobenzylidene)-1-phenyl-2-pyrazolin-5-one
##MOLFORM=C17H13N3O3
##CAS REGISTRY NO=68901-70-2
##MP= -300
##BP= -300
##MW= 307
##$RETENTION INDEX=0
##$CONDENSED SPECTRUM=NO
##NPOINTS= 163
##XYDATA=(XY..XY) 1 
    37          7
    38         28
    39         93
    40         42
    41         36
    42         21
    43         20
    44         12
    46          6
    50         98
    51        329
    52         48
    53         14
    54          5
    55          8
    57          8
    61          5
    62         27
    63        103
    64        105
    65         46
    66          7
    67          5
    69          5
    74         44
    75         82
    76         79
    77        999
    78        121
    79          9
    80          5
    82          8
    86          6
    87         13
    88         15
    89         55
    90         24
    91        201
    92         22
    93          5
    98          7
    99          7
   100         13
   101         43
   102         88
   103         17
   104         10
   105         38
   106          8
   113          7
   114         11
   115         84
   116         69
   117         15
   118         31
   119          7
   126         33
   127         95
   128        126
   129         24
   130         26
   131          9
   132          6
   140          5
   141          6
   142          7
   143         14
   144         32
   145         10
   146          1
   147          0
   148          0
   149          3
   150          4
   151          5
   152          4
   153         22
   155         10
   156          5
   157          4
   158          6
   159          2
   160          0
   161          0
   163          2
   164          3
   165          9
   166          2
   169          2
   171          2
   173          3
   174         19
   175          3
   178          3
   179          2
   180          2
   183          5
   185        901
   186        123
   187         10
   188          1
   189          3
   190          7
   191          8
   192          4
   193          1
   194          0
   195          0
   197          0
   198          0
   199          1
   200          1
   201          1
   202          4
   203          3
   204          2
   205          1
   206          1
   207          0
   208          1
   215          0
   216          1
   217          1
   218          3
   219          2
   220          2
   221          1
   222          0
   225          0
   230          0
   231          3
   232          8
   233          2
   234          0
   235          0
   236          0
   245          0
   246          0
   247          0
   248          1
   249          2
   250          0
   251          0
   259          3
   260         28
   261         24
   262          4
   263          0
   265          0
   266          0
   267          0
   276          4
   277         15
   278          6
   279          1
   290          0
   291          1
   292          0
   306         33
   307        317
   308         65
   309          7
   310          0