##TITLE=Library Entry 35454
##JCAMP-DX=Revision 4.10 
##DATA TYPE=MASS SPECTRUM
##SAMPLE DESCRIPTION=W.Jennings, T.Shibamoto
##NAMES=HP
##CAS NAME=Butanoic acid, 3-methyl-, 3,7-dimethyl-6-octenyl ester
##MOLFORM=C15H28O2
##CAS REGISTRY NO=68922-10-1
##MP= -300
##BP= -300
##MW= 240
##$RETENTION INDEX=1561
##$CONDENSED SPECTRUM=NO
##NPOINTS= 46
##XYDATA=(XY..XY) 1 
    24          7
    29         81
    32          7
    36         19
    38         19
    39          7
    40          7
    41        392
    42         59
    43        159
    48         29
    53         49
    54         19
    55        421
    56        131
    57        767
    58         39
    59          7
    66         79
    67        519
    68        419
    69        999
    70        113
    71         19
    80        102
    81        952
    82        975
    83        259
    84         19
    85        375
    86         19
    93          7
    94         84
    95        956
    96        272
    97         39
    99          7
   109        375
   110        131
   111         19
   121          7
   123        737
   124         81
   137         39
   138        315
   139         39