##TITLE=Library Entry 89306
##JCAMP-DX=Revision 4.10 
##DATA TYPE=MASS SPECTRUM
##SAMPLE DESCRIPTION=Japan AIST/NIMC Database- Spectrum MS-NW-6451
##NAMES=HP
##CAS NAME=1,1'-Methylenebis(3-methylpiperidine)
##MOLFORM=C13H26N2
##CAS REGISTRY NO=68922-17-8
##MP= -300
##BP= -300
##MW= 210
##$RETENTION INDEX=0
##$CONDENSED SPECTRUM=NO
##NPOINTS= 84
##XYDATA=(XY..XY) 1 
    14          2
    15         26
    16          1
    26          6
    27         53
    28         68
    29         66
    30        161
    31          3
    32          1
    37          3
    38          7
    39         66
    40         16
    41        151
    42        201
    43        122
    44        305
    45          9
    46          1
    49          1
    50          4
    51          7
    52          5
    53         18
    54         16
    55         77
    56        122
    57        137
    58         59
    59          2
    60          1
    62          1
    63          3
    64          1
    65          7
    66          5
    67         24
    68         43
    69         64
    70         78
    71         34
    72          3
    73          1
    77          4
    78          2
    79          6
    80         10
    81         14
    82         33
    83         13
    84        115
    85          9
    91          1
    92          3
    93          9
    94         20
    95          8
    96         63
    97         12
    98        132
    99        123
   100         10
   105          1
   106          2
   107          3
   108         21
   109         18
   110         33
   111         86
   112        999
   113        102
   114          6
   121          1
   122          3
   123          5
   124          9
   125          4
   126          2
   127          5
   128          1
   152          1
   209          3
   210          2