##TITLE=Library Entry 23826
##JCAMP-DX=Revision 4.10 
##DATA TYPE=MASS SPECTRUM
##SAMPLE DESCRIPTION=Chemical Concepts
##NAMES=HP
##CAS NAME=[2-(5-Hydroxypent-2-ynyl)-3-oxocyclopentyl]thioacetic acid, S-t-b
utyl ester
##MOLFORM=C16H24O3S
##CAS REGISTRY NO=68931-47-5
##MP= -300
##BP= -300
##MW= 296
##$RETENTION INDEX=0
##$CONDENSED SPECTRUM=NO
##NPOINTS= 206
##XYDATA=(XY..XY) 1 
    26         12
    27        170
    28         51
    29        361
    30         12
    31        129
    33          4
    34          7
    37          5
    38         14
    39        247
    40         49
    41        591
    42         51
    43        128
    44         14
    45         28
    46          3
    47         19
    48          2
    49         28
    50         24
    51         76
    52         55
    53        182
    54         39
    55        342
    56         70
    57        999
    58         65
    59         51
    60         12
    61         17
    62          6
    63         28
    64         14
    65        165
    66         65
    67        157
    68         30
    69        109
    70         21
    71         43
    72          7
    73         29
    74         20
    75         38
    76         17
    77        204
    78         92
    79        237
    80         34
    81        115
    82         47
    83        144
    84         76
    85         33
    86          5
    87         17
    88          3
    89         30
    90         47
    91        397
    92         90
    93        142
    94         50
    95        248
    96         70
    97         98
    98         21
    99         18
   100          4
   101          7
   102          9
   103         56
   104         43
   105        212
   106         46
   107        224
   108         59
   109        143
   110         55
   111         53
   112         10
   113         19
   114          6
   115         54
   116         22
   117        124
   118         34
   119        128
   120         48
   121        123
   122         52
   123        210
   124         43
   125         31
   126          8
   127         17
   128         31
   129         39
   130         11
   131         55
   132         45
   133        187
   134        221
   135        172
   136         55
   137         87
   138         80
   139        102
   140         20
   141         15
   142          8
   143         31
   144         12
   145         88
   146         40
   147        143
   148         55
   149        199
   150        157
   151         47
   152         17
   153         19
   154         11
   155          9
   156          4
   157         34
   158          9
   159         25
   160         26
   161         91
   162         31
   163         86
   164        218
   165        541
   166         83
   167         35
   168         13
   169         10
   170          6
   171         33
   172          5
   173          4
   174          3
   175         14
   176         27
   177         74
   178        105
   179        100
   180         24
   181         12
   182          7
   183          3
   184          4
   185          4
   186          7
   187          7
   188         10
   189        145
   190         21
   191          8
   192          4
   193          7
   194         16
   195         53
   196         14
   197         21
   198         12
   199          4
   203          3
   204          6
   205         28
   206         74
   207        148
   208         21
   209         58
   210         53
   211         13
   212         10
   213          4
   214          2
   219          3
   220          2
   221         13
   222         39
   223         15
   224          9
   225          3
   237          2
   238          2
   239        452
   240        113
   241         37
   242          5
   251          2
   262          5
   263          2
   265          2
   277          6
   278          3
   279          4
   296          9
   297          3
   298          2