##TITLE=Library Entry 46143
##JCAMP-DX=Revision 4.10 
##DATA TYPE=MASS SPECTRUM
##SAMPLE DESCRIPTION=Chemical Concepts
##NAMES=HP
##CAS NAME=2,3-Naphthalenediol, 2,3,4,4a,5,6,7,8-octahydro-1,4a-dimethyl-7-(
1-methylethenyl)-,  [2R-(2.alpha.,3.alpha.,4a.alpha.,7.alpha.]-, TBDMS deriv
ative
##MOLFORM=C21H38O2Si
##CAS REGISTRY NO=68961-96-6
##MP= -300
##BP= -300
##MW= 350
##$RETENTION INDEX=0
##$CONDENSED SPECTRUM=NO
##NPOINTS= 216
##XYDATA=(XY..XY) 1 
    26          4
    27         33
    28          5
    29         94
    31          6
    38          4
    39         60
    40         14
    41        244
    42         20
    43         83
    44          4
    45         35
    46          2
    47         45
    48          2
    49          2
    50          4
    51         13
    52          7
    53         66
    54         10
    55        160
    56         24
    57        137
    58         14
    59         86
    60         10
    61         28
    62          2
    63          8
    64          2
    65         32
    66         11
    67        116
    68         16
    69        135
    70          9
    71         13
    72          3
    73        353
    74         37
    75        999
    76         74
    77        157
    78         23
    79        128
    80         18
    81        231
    82         21
    83         43
    84          5
    85         13
    87          4
    89         10
    90          2
    91        181
    92         28
    93        415
    94         43
    95        204
    96         20
    97         13
    98          3
    99          9
   100          2
   101         39
   102          7
   103         26
   104         12
   105        287
   106         40
   107        315
   108         53
   109        164
   110         30
   111          7
   113          3
   115         39
   116         18
   117         85
   118         23
   119        343
   120         49
   121        148
   122         30
   123         81
   124         12
   125          4
   127          9
   128         23
   129         39
   130         22
   131        185
   132         35
   133        167
   134         38
   135         46
   136         30
   137         13
   139          4
   141         14
   142         15
   143         45
   144         23
   145        482
   146         71
   147         66
   148         17
   149        132
   150         30
   151          8
   152          3
   153          5
   154          3
   155          8
   156          7
   157         37
   158         20
   159        285
   160         45
   161         50
   162          8
   163         22
   164          5
   165         10
   166          3
   167          7
   168          2
   169         11
   170          5
   171         80
   172         19
   173        125
   174         21
   175         33
   176         14
   177         23
   178          4
   179         18
   180          4
   181         10
   182          3
   183         14
   184          5
   185         52
   186         16
   187         13
   188          2
   189         10
   190          3
   191          9
   192         18
   193         22
   194          5
   195         35
   196          8
   197         24
   198          4
   199         69
   200         17
   201        414
   202         74
   203         19
   204          3
   205          6
   207          6
   208          3
   209        124
   210         33
   211         46
   212          8
   213          4
   215          3
   217          6
   218         11
   219         12
   220          2
   221          7
   222          2
   223         10
   224          5
   225          5
   233          2
   235          8
   236          3
   237         21
   238          6
   239          2
   249          9
   250         10
   251         11
   252          6
   261          5
   263          2
   265          2
   268          9
   275         11
   276          3
   277          8
   278          2
   279          2
   290          2
   291          7
   292          4
   293        505
   294        119
   295         31
   296          5
   317         20
   318          6
   319          2
   332          7
   333          6
   335          6
   350          2