##TITLE=Library Entry 82905
##JCAMP-DX=Revision 4.10 
##DATA TYPE=MASS SPECTRUM
##SAMPLE DESCRIPTION=I. MAZHEIKA, INST. ORG. SYNTH. ACAD. SCI., LATV.SSR, RI
GA,US
##NAMES=HP
##CAS NAME=N-Ethyl-N-phenyl-2-methyl-1,4-naphthoquinone-3-carboxamide
##MOLFORM=C20H17NO3
##CAS REGISTRY NO=68979-14-6
##MP= -300
##BP= -300
##MW= 319
##$RETENTION INDEX=0
##$CONDENSED SPECTRUM=NO
##NPOINTS= 24
##XYDATA=(XY..XY) 1 
    41        250
    43        350
    55        330
    57        460
    69        300
    71        250
    77        440
   106        999
   115        530
   120        790
   121        540
   143        210
   144         80
   171        600
   172        260
   198        130
   199        300
   200        160
   262         30
   275         30
   276         70
   290         40
   304        750
   319        150