##TITLE=Library Entry 82849
##JCAMP-DX=Revision 4.10 
##DATA TYPE=MASS SPECTRUM
##SAMPLE DESCRIPTION=I. MAZHEIKA, INST. ORG. SYNTH. ACAD. SCI., LATV.SSR, RI
GA,US
##NAMES=HP
##CAS NAME=N-Methyl-N-phenyl-2-methyl-1,4-naphthoquinone-3-carboxamide
##MOLFORM=C19H15NO3
##CAS REGISTRY NO=68979-10-2
##MP= -300
##BP= -300
##MW= 305
##$RETENTION INDEX=0
##$CONDENSED SPECTRUM=NO
##NPOINTS= 22
##XYDATA=(XY..XY) 1 
    41        120
    42        240
    43         98
    77        566
    82        349
    83        530
   106        999
   107        891
   113        216
   115        373
   135        216
   143        240
   167        180
   170         30
   171         33
   172         72
   199        108
   200         96
   261         36
   262         36
   290        228
   305         36