##TITLE=Library Entry 99001
##JCAMP-DX=Revision 4.10 
##DATA TYPE=MASS SPECTRUM
##SAMPLE DESCRIPTION=G. Lange, Inst. Org. Chem., Univ. Wurzburg, Germany
##NAMES=HP
##CAS NAME=2-Propenal, 3-(2-pyridinylamino)-
##MOLFORM=C8H8N2O
##CAS REGISTRY NO=68970-82-1
##MP= -300
##BP= -300
##MW= 148
##$RETENTION INDEX=0
##$CONDENSED SPECTRUM=NO
##NPOINTS= 40
##XYDATA=(XY..XY) 1 
    37         10
    38         36
    39        103
    40         40
    41         37
    42         26
    43         11
    50         33
    51        189
    52        167
    53         36
    54          6
    55         20
    63          9
    64         19
    65         47
    66         34
    67         87
    68         11
    70         17
    74         11
    76          9
    77          5
    78        473
    79        213
    80         16
    91         10
    92         27
    93         16
    94         46
    95          7
   105         44
   118         27
   119        999
   120        121
   121          7
   131         26
   147         25
   148        249
   149         26