##TITLE=Library Entry 22392
##JCAMP-DX=Revision 4.10 
##DATA TYPE=MASS SPECTRUM
##SAMPLE DESCRIPTION=CARL DJERASSI DEPT OF CHEM STANFORD UNIV STANFORD CALIF
 94305
##NAMES=HP
##CAS NAME=1-Butanamine, N-ethylidene-
##MOLFORM=C6H13N
##CAS REGISTRY NO=6898-74-4
##MP= -300
##BP= -300
##MW= 99
##$RETENTION INDEX=0
##$CONDENSED SPECTRUM=NO
##NPOINTS= 18
##XYDATA=(XY..XY) 1 
    40        140
    41         30
    42        340
    43        220
    44         70
    45         70
    53         20
    54         50
    55         70
    56        999
    57        460
    58         30
    70         50
    71         30
    84        340
    85         10
    98         20
    99        100