##TITLE=Library Entry 23915
##JCAMP-DX=Revision 4.10 
##DATA TYPE=MASS SPECTRUM
##SAMPLE DESCRIPTION=CARL DJERASSI DEPT OF CHEM STANFORD UNIV STANFORD CALIF
 94305
##NAMES=HP
##CAS NAME=Methanamine, N-heptylidene-
##MOLFORM=C8H17N
##CAS REGISTRY NO=6898-71-1
##MP= -300
##BP= -300
##MW= 127
##$RETENTION INDEX=0
##$CONDENSED SPECTRUM=NO
##NPOINTS= 25
##XYDATA=(XY..XY) 1 
    26         20
    27        150
    28         90
    29        100
    30         40
    39         80
    40         20
    41        140
    42        650
    43         70
    44         50
    54         20
    55         40
    56         70
    57        999
    58         50
    67         20
    68         30
    69         10
    70        290
    71         30
    84         60
    98         20
   112         60
   127         20