##TITLE=Library Entry 41174
##JCAMP-DX=Revision 4.10 
##DATA TYPE=MASS SPECTRUM
##SAMPLE DESCRIPTION=Japan AIST/NIMC Database- Spectrum MS-NW-9246
##NAMES=HP
##CAS NAME=D-Mannitol
##MOLFORM=C6H14O6
##CAS REGISTRY NO=69-65-8
##MP= -300
##BP= -300
##MW= 182
##$RETENTION INDEX=0
##$CONDENSED SPECTRUM=NO
##NPOINTS= 94
##XYDATA=(XY..XY) 1 
    14          3
    15         74
    16          1
    17          9
    18         51
    19        110
    20          1
    26          6
    27         45
    28        116
    29         95
    30         13
    31        167
    32          9
    33          1
    36          1
    38          1
    39         15
    40          5
    41         41
    42         41
    43        332
    44        249
    45        224
    46         11
    47         12
    49          5
    51          1
    53          4
    54          5
    55         79
    56        272
    57        187
    58         15
    59         16
    60        130
    61        795
    62         31
    63          4
    67          1
    68          4
    69         39
    70          4
    71         55
    72         13
    73        999
    74        473
    75         34
    76          3
    77          3
    79          1
    81          3
    82          1
    83          3
    84          2
    85        125
    86         24
    87         14
    88          2
    89         10
    90          1
    91         70
    92          4
    93          1
    94          1
    95          1
    96          1
    97         14
    98          2
    99          5
   100          1
   101          1
   102          6
   103        619
   104         50
   105          6
   110          2
   111          4
   115         35
   116          9
   117          2
   121          6
   128          1
   129          9
   133        152
   134          9
   135          1
   146         13
   147          8
   151          1
   165          8
   182          1
   183         20
   184          1