##TITLE=Library Entry 41123
##JCAMP-DX=Revision 4.10 
##DATA TYPE=MASS SPECTRUM
##SAMPLE DESCRIPTION=RADIAN CORP
##NAMES=HP
##CAS NAME=Maltose
##MOLFORM=C12H22O11
##CAS REGISTRY NO=69-79-4
##MP= -300
##BP= -300
##MW= 342
##$RETENTION INDEX=0
##$CONDENSED SPECTRUM=NO
##NPOINTS= 148
##XYDATA=(XY..XY) 1 
    15          9
    16          3
    17         23
    18        127
    19         20
    25          1
    26         12
    27         50
    28         59
    29        232
    30         37
    31        236
    32         27
    33          3
    36          8
    37         12
    38         24
    39        117
    40         23
    41        186
    42        160
    43        433
    44        351
    45        198
    46         22
    47         54
    48          1
    49         19
    50         16
    51         30
    52         20
    53         70
    54         38
    55        214
    56        148
    57        457
    58         87
    59         45
    60        740
    61        318
    62         17
    63          5
    64          2
    65          6
    66          7
    67         22
    68         50
    69        307
    70        106
    71        268
    72         77
    73        999
    74        129
    75         18
    76          5
    77         27
    78          3
    79         10
    80         15
    81         57
    82         13
    83         29
    84         33
    85        274
    86         85
    87        102
    88         12
    89         36
    90         11
    91         57
    92          3
    93          3
    94          3
    95         66
    96         69
    97        363
    98         93
    99         48
   100         10
   101         62
   102         42
   103         68
   104          5
   105          2
   107          2
   108          3
   109         51
   110         44
   111         12
   112          7
   113         43
   114         21
   115         48
   116         23
   117          5
   119         15
   120          2
   121          4
   122          1
   123          9
   124          7
   125         18
   126        108
   127         89
   128         37
   129          8
   130          1
   131         42
   132         10
   133         24
   134          3
   135          2
   137          3
   138          2
   139          5
   140          3
   141          2
   142          2
   143          7
   144         59
   145         95
   146         11
   147          3
   149          6
   150          1
   151          2
   152          1
   153          1
   155          5
   156          2
   157          3
   161          4
   162          6
   163         37
   164          3
   165          2
   169          2
   173         22
   174          3
   175          2
   191         21
   192          2
   193          2
   203          1
   204          2
   207          2
   215          1
   221          2