##TITLE=Library Entry 2
##JCAMP-DX=Revision 4.10 
##DATA TYPE=MASS SPECTRUM
##SAMPLE DESCRIPTION=TNO Volatile Compounds in Food - Chemical Concepts
##NAMES=HP
##CAS NAME=Xanthine
##MOLFORM=C5H4N4O2
##CAS REGISTRY NO=69-89-6
##MP= -300
##BP= -300
##MW= 152
##$RETENTION INDEX=0
##$CONDENSED SPECTRUM=NO
##NPOINTS= 43
##XYDATA=(XY..XY) 1 
    38         32
    39         25
    40         17
    41         13
    42         20
    43         46
    44         42
    45          3
    50          2
    52         20
    53        183
    54        828
    55         38
    56          3
    64          3
    65          5
    66          4
    67         10
    68          6
    69         20
    70         60
    71          4
    76          2
    79          3
    80         28
    81         91
    82         48
    83          3
    97          8
   107          3
   108         10
   109        686
   110         42
   111          3
   112          8
   124          5
   134          6
   135          4
   136          5
   151         32
   152        999
   153         73
   154          5