##TITLE=Library Entry 11756
##JCAMP-DX=Revision 4.10 
##DATA TYPE=MASS SPECTRUM
##SAMPLE DESCRIPTION=Japan AIST/NIMC Database- Spectrum MS-NW- 226
##NAMES=HP
##CAS NAME=Uric acid
##MOLFORM=C5H4N4O3
##CAS REGISTRY NO=69-93-2
##MP= -300
##BP= -300
##MW= 168
##$RETENTION INDEX=0
##$CONDENSED SPECTRUM=NO
##NPOINTS= 139
##XYDATA=(XY..XY) 1 
    12         20
    13         11
    14          9
    15         37
    16         11
    17          2
    18         19
    24          4
    25          6
    26         60
    27        314
    28        334
    29        135
    30         18
    32         37
    34          6
    35          3
    36         24
    37          5
    38         36
    39         62
    40         56
    41        105
    42        237
    43        999
    44        330
    45         19
    48          3
    49          2
    50         12
    51         22
    52         41
    53        193
    54        410
    55        248
    56         39
    57         56
    58          5
    59          4
    60         12
    61          3
    62          9
    63          9
    64          8
    65         18
    66         15
    67         44
    68         33
    69        368
    70        125
    71         22
    72          9
    73         21
    74          8
    75          6
    76          8
    77         27
    78         12
    79         16
    80         11
    81         51
    82        135
    83         45
    84         63
    85         14
    86          4
    87          8
    88          4
    89          5
    90          5
    91         34
    92         14
    93         16
    94         17
    95         24
    96         23
    97        192
    98         36
    99         24
   100         10
   101          6
   102          6
   103         15
   104          7
   105         24
   106          6
   107         10
   108          8
   109         14
   110          9
   111         14
   112         13
   113          7
   114          9
   115         13
   116          6
   117          9
   118          8
   119          9
   120          8
   121          6
   122          6
   123          8
   124         26
   125        871
   126         56
   127         12
   128         12
   129         13
   130          6
   131          9
   132          6
   133          6
   134          6
   135          9
   136          5
   137          9
   138          5
   140         16
   141         11
   142          8
   143          7
   144          9
   145          6
   146          7
   147          7
   148          5
   149          8
   150         10
   151          7
   152         12
   153          5
   164          6
   165          8
   166          8
   167         11
   168        274
   169         20
   170          1