##TITLE=Library Entry 20740
##JCAMP-DX=Revision 4.10 
##DATA TYPE=MASS SPECTRUM
##SAMPLE DESCRIPTION=Exported from NIST MS Search
##NAMES=HP
##CAS NAME=3-Hexene, 2,2-dimethyl-, (Z)-
##MOLFORM=C8H16
##CAS REGISTRY NO=690-92-6
##MP= -300
##BP= -300
##MW= 112
##$RETENTION INDEX=717
##$CONDENSED SPECTRUM=NO
##NPOINTS= 76
##XYDATA=(XY..XY) 1 
    12          1
    13          2
    14         11
    15        112
    16          4
    24          1
    25          1
    26         27
    27        278
    28         49
    29        196
    30          4
    31          1
    36          1
    37          6
    38         21
    39        278
    40         38
    41        488
    42         50
    43        115
    44          4
    45          2
    46          3
    47          1
    48          1
    49          2
    50         22
    51         46
    52         18
    53         96
    54         18
    55        999
    56         75
    57        126
    58          6
    61          1
    62          4
    63         10
    64          2
    65         20
    66          9
    67         53
    68         19
    69        284
    70        127
    71          7
    72          1
    73          1
    74          2
    75          1
    76          1
    77         19
    78          5
    79         21
    80          4
    81         30
    82         13
    83        617
    84         46
    85          2
    86          1
    87          1
    91          3
    92          1
    93          1
    94          1
    95          4
    96          2
    97        239
    98         18
    99          1
   111          1
   112        152
   113         13
   114          1