##TITLE=Library Entry 20746
##JCAMP-DX=Revision 4.10 
##DATA TYPE=MASS SPECTRUM
##SAMPLE DESCRIPTION=Exported from NIST MS Search
##NAMES=HP
##CAS NAME=3-Hexene, 2,2-dimethyl-, (E)-
##MOLFORM=C8H16
##CAS REGISTRY NO=690-93-7
##MP= -300
##BP= -300
##MW= 112
##$RETENTION INDEX=693
##$CONDENSED SPECTRUM=NO
##NPOINTS= 71
##XYDATA=(XY..XY) 1 
    12          1
    13          2
    14         11
    15        109
    16          3
    25          1
    26         23
    27        264
    28         45
    29        189
    30          4
    31          1
    32          1
    37          6
    38         20
    39        260
    40         36
    41        458
    42         43
    43        111
    44          4
    45          2
    46          4
    47          1
    48          1
    49          2
    50         20
    51         43
    52         17
    53         92
    54         18
    55        999
    56         71
    57        117
    58          5
    61          1
    62          4
    63         10
    64          2
    65         19
    66          8
    67         50
    68         17
    69        282
    70        111
    71          6
    73          1
    74          2
    75          1
    76          1
    77         18
    78          5
    79         21
    80          4
    81         32
    82         12
    83        556
    84         42
    85          2
    91          3
    92          1
    93          1
    94          1
    95          4
    96          2
    97        345
    98         22
    99          1
   111          1
   112        182
   113         17