##TITLE=Library Entry 90076
##JCAMP-DX=Revision 4.10 
##DATA TYPE=MASS SPECTRUM
##SAMPLE DESCRIPTION=THE M.W. KELLOGG CO., JERSEY CITY, N.J., USA
##NAMES=HP
##CAS NAME=1-Propene, 1,1,3,3,3-pentafluoro-
##MOLFORM=C3HF5
##CAS REGISTRY NO=690-27-7
##MP= -300
##BP= -300
##MW= 132
##$RETENTION INDEX=0
##$CONDENSED SPECTRUM=NO
##NPOINTS= 35
##XYDATA=(XY..XY) 1 
    19         20
    20          2
    24         20
    25         27
    26          0
    31        424
    32         41
    36          6
    37         17
    43         26
    44        122
    45          3
    47         28
    50         61
    51        103
    52          1
    55         17
    56          8
    62         12
    63        130
    69        861
    70          9
    74         22
    75         23
    81          7
    82        292
    83          6
    93        111
    94          8
   112         15
   113        999
   114         32
   131          2
   132        418
   133         13