##TITLE=Library Entry 35184
##JCAMP-DX=Revision 4.10 
##DATA TYPE=MASS SPECTRUM
##SAMPLE DESCRIPTION=Exported from NIST MS Search
##NAMES=HP
##CAS NAME=Propane, 1,1,1,3,3,3-hexafluoro-
##MOLFORM=C3H2F6
##CAS REGISTRY NO=690-39-1
##MP= -300
##BP= -300
##MW= 152
##$RETENTION INDEX=0
##$CONDENSED SPECTRUM=NO
##NPOINTS= 46
##XYDATA=(XY..XY) 1 
     2          1
    12          9
    13          5
    14         10
    19          4
    20          1
    24          2
    25          5
    26          9
    31        103
    32          8
    33         60
    34          1
    36          1
    37          2
    38          1
    43          4
    44         29
    45         76
    46          2
    50         18
    51         27
    52          1
    55          2
    56          1
    57         17
    62          3
    63         18
    64        337
    65          9
    69        999
    70         11
    81          2
    82         18
    83         14
    93         11
    94          1
   100          2
   101          1
   112          2
   113         64
   114          2
   131          7
   132         10
   133        297
   134         10