##TITLE=Library Entry 35913
##JCAMP-DX=Revision 4.10 
##DATA TYPE=MASS SPECTRUM
##SAMPLE DESCRIPTION=A.Pleshkova,Moscow,Russia
##NAMES=HP
##CAS NAME=Trifluoromethylthiocyanate
##MOLFORM=C2F3NS
##CAS REGISTRY NO=690-24-4
##MP= -300
##BP= -300
##MW= 127
##$RETENTION INDEX=0
##$CONDENSED SPECTRUM=NO
##NPOINTS= 14
##XYDATA=(XY..XY) 1 
    26         34
    31         45
    46         64
    50         43
    51         65
    58         54
    69        999
    70         11
   101        319
   102         11
   108         76
   109          7
   127        169
   128         11