##TITLE=Library Entry 444
##JCAMP-DX=Revision 4.10 
##DATA TYPE=MASS SPECTRUM
##SAMPLE DESCRIPTION=Exported from NIST MS Search
##NAMES=HP
##CAS NAME=Peroxide, dimethyl
##MOLFORM=C2H6O2
##CAS REGISTRY NO=690-02-8
##MP= -300
##BP= -300
##MW= 62
##$RETENTION INDEX=0
##$CONDENSED SPECTRUM=NO
##NPOINTS= 37
##XYDATA=(XY..XY) 1 
     2         11
    12         16
    13         28
    14         62
    15        345
    16         10
    17          9
    18         22
    19          4
    26          1
    27          5
    28         74
    29        999
    30        244
    31        962
    32        111
    33         11
    34          1
    39          1
    40          1
    41          2
    42          1
    43          8
    44          5
    45         12
    46          6
    47          1
    55          1
    56          1
    57          1
    58          1
    59          1
    60          4
    61         52
    62        584
    63         12
    64          2