##TITLE=Library Entry 6975
##JCAMP-DX=Revision 4.10 
##DATA TYPE=MASS SPECTRUM
##SAMPLE DESCRIPTION=Exported from NIST MS Search
##NAMES=HP
##CAS NAME=5-Hexen-3-yn-2-ol, 2-methyl-
##MOLFORM=C7H10O
##CAS REGISTRY NO=690-94-8
##MP= -300
##BP= -300
##MW= 110
##$RETENTION INDEX=0
##$CONDENSED SPECTRUM=NO
##NPOINTS= 88
##XYDATA=(XY..XY) 1 
    12         14
    13         11
    14         40
    15         26
    16         11
    17         55
    18        255
    19          2
    20          1
    24          4
    25         25
    26        111
    27        137
    28        311
    29         41
    30          3
    31         10
    35          1
    36         11
    37         49
    38         58
    39        198
    40         48
    41         79
    42         62
    43        999
    44         21
    45         13
    46          3
    47          4
    48          3
    49         20
    50         88
    51        326
    52        467
    53        531
    54         84
    55          7
    56         25
    57          2
    58          7
    59        190
    60         12
    61         14
    62        348
    63         77
    64         49
    65        114
    66         34
    67         47
    68          4
    69          5
    70          1
    71          1
    72          1
    73          7
    74         33
    75         24
    76         11
    77         90
    78         15
    79         32
    80          3
    81          5
    82          4
    83          5
    84          1
    85          4
    86          8
    87          6
    88          2
    89         18
    90         23
    91        398
    92        355
    93         43
    94         14
    95        328
    96         23
    97          2
    98          1
   105          1
   106          1
   107          1
   108          2
   109         27
   110         15
   111          1