##TITLE=Library Entry 52194
##JCAMP-DX=Revision 4.10 
##DATA TYPE=MASS SPECTRUM
##SAMPLE DESCRIPTION=Exported from NIST MS Search
##NAMES=HP
##CAS NAME=2-Pentene, 4,4-dimethyl-, (E)-
##MOLFORM=C7H14
##CAS REGISTRY NO=690-08-4
##MP= -300
##BP= -300
##MW= 98
##$RETENTION INDEX=615
##$CONDENSED SPECTRUM=NO
##NPOINTS= 70
##XYDATA=(XY..XY) 1 
     1          6
     2          3
    12          1
    13          2
    14          8
    15         94
    16          5
    25          1
    26         19
    27        226
    28         32
    29        158
    30          3
    31          1
    32          1
    33          1
    37         12
    38         26
    39        297
    40         48
    41        557
    42         38
    43        166
    44          6
    45          1
    46          1
    47          1
    49          2
    50         18
    51         34
    52         13
    53         68
    54         16
    55        851
    56         80
    57         46
    58          2
    60          1
    61          2
    62          4
    63         10
    64          2
    65         18
    66          9
    67         61
    68         11
    69         67
    70         24
    71          2
    73          1
    74          2
    75          1
    76          1
    77          8
    78          2
    79          8
    80          1
    81         13
    82         14
    83        999
    84         65
    85          2
    91          1
    93          1
    95          1
    96          1
    97          1
    98        272
    99         20
   100          1