##TITLE=Library Entry 2211
##JCAMP-DX=Revision 4.10 
##DATA TYPE=MASS SPECTRUM
##SAMPLE DESCRIPTION=HCACAV,61(7)2542(1978); H. SCHMID ET AL
##NAMES=HP
##CAS NAME=Pyridine, 2-methyl-3-(2-propenyloxy)-
##MOLFORM=C9H11NO
##CAS REGISTRY NO=69022-75-9
##MP= -300
##BP= -300
##MW= 149
##$RETENTION INDEX=0
##$CONDENSED SPECTRUM=NO
##NPOINTS= 18
##XYDATA=(XY..XY) 1 
    39        990
    41        999
    44        190
    53        320
    65        180
    67        100
    79        370
    80        880
    81        150
    93        190
   106        120
   108        100
   109        180
   120        220
   121        160
   134        310
   148        570
   149        810