##TITLE=Library Entry 48335
##JCAMP-DX=Revision 4.10 
##DATA TYPE=MASS SPECTRUM
##SAMPLE DESCRIPTION=Exported from NIST MS Search
##NAMES=HP
##CAS NAME=Cyclopenta[c]pyran-4-carboxylic acid, 1,4a,5,7a-tetrahydro-1-hydr
oxy-7-(hydroxymethyl)-, methyl ester, [1R-(1.alpha.,4a.alpha.,7a.alpha.)]-
##MOLFORM=C11H14O5
##CAS REGISTRY NO=6902-77-8
##MP= -300
##BP= -300
##MW= 226
##$RETENTION INDEX=0
##$CONDENSED SPECTRUM=NO
##NPOINTS= 67
##XYDATA=(XY..XY) 1 
    51        400
    52        175
    53        350
    54         75
    55        275
    57        100
    59        238
    60         75
    61         53
    63        150
    65        350
    66        225
    67        475
    68        125
    69        125
    70         75
    71        300
    74        138
    77        638
    78        999
    79        600
    80        125
    81        350
    82        100
    83         75
    89         50
    90         50
    91        700
    92        175
    93         75
    94         55
    95        350
    96        450
    97         75
   102         75
   103        138
   104         63
   105        200
   106        300
   107        200
   108         75
   109         70
   118         53
   119        338
   120        488
   121        200
   124        300
   130         50
   137         63
   139         63
   147        400
   148        950
   149        145
   151         55
   162        188
   163         50
   165        150
   175         53
   176        300
   177         75
   179         50
   180        200
   190        125
   194         45
   195         58
   208        100
   226         50