##TITLE=Library Entry 25506
##JCAMP-DX=Revision 4.10 
##DATA TYPE=MASS SPECTRUM
##SAMPLE DESCRIPTION=NIST Mass Spectrometry Data Center
##NAMES=HP
##CAS NAME=3-Methylpentacosane
##MOLFORM=C26H54
##CAS REGISTRY NO=6902-54-1
##MP= -300
##BP= -300
##MW= 366
##$RETENTION INDEX=2573
##$CONDENSED SPECTRUM=NO
##NPOINTS= 66
##XYDATA=(XY..XY) 1 
    29         40
    39         13
    41        172
    42         41
    43        400
    44         16
    53         13
    54         17
    55        238
    56        383
    57        999
    58         42
    67         41
    68         34
    69        198
    70        142
    71        720
    72         39
    82         38
    83        150
    84         47
    85        489
    86         35
    96         38
    97        154
    98         36
    99        202
   100         14
   111         82
   112         21
   113        182
   114         15
   125         42
   126         19
   127        125
   128         12
   138         11
   139         29
   140         13
   141         95
   153         19
   155         67
   156          9
   167         10
   169         57
   170         10
   183         38
   184          7
   197         34
   211         39
   212          8
   225         26
   226          6
   239         26
   253         20
   267         17
   281         17
   308         30
   309         42
   310          8
   336        121
   337        324
   338         79
   339         12
   351         11
   352          5