##TITLE=Library Entry 84183
##JCAMP-DX=Revision 4.10 
##DATA TYPE=MASS SPECTRUM
##SAMPLE DESCRIPTION=TNO Volatile Compounds in Food - Chemical Concepts
##NAMES=HP
##CAS NAME=3,7-Cyclodecadien-1-one, 3,7-dimethyl-10-(1-methylethylidene)-, (
E,E)-
##MOLFORM=C15H22O
##CAS REGISTRY NO=6902-91-6
##MP= -300
##BP= -300
##MW= 218
##$RETENTION INDEX=1693
##$CONDENSED SPECTRUM=NO
##NPOINTS= 90
##XYDATA=(XY..XY) 1 
    27        200
    28         90
    29        148
    30          5
    33         12
    38         10
    39        306
    40         92
    41        568
    42         69
    43         87
    46         10
    50         10
    51         73
    52         36
    53        283
    54         38
    55        141
    56          8
    57         10
    63         24
    65        107
    66         55
    67        714
    68        261
    69         79
    70         13
    73         16
    75         10
    77        159
    78         49
    79        189
    80         54
    81         80
    82        202
    83         39
    89         10
    91        283
    92         37
    93        171
    94         40
    95         77
    96         50
    97         19
   103         19
   104         10
   105        157
   106         38
   107        999
   108        153
   109         85
   110         14
   115         21
   117         29
   119         65
   120         23
   121        236
   122        129
   123         47
   128         10
   131         18
   132         25
   133         70
   135        783
   136        521
   137         65
   138         10
   143         11
   145         26
   146         10
   147         84
   148         27
   149         59
   150         63
   157         11
   161         35
   162         15
   175        127
   176         59
   185         23
   189         14
   190         20
   200         11
   202          4
   203         41
   205         13
   207          3
   218        114
   219         19
   221          3