##TITLE=Library Entry 98083
##JCAMP-DX=Revision 4.10 
##DATA TYPE=MASS SPECTRUM
##SAMPLE DESCRIPTION=NIST Mass Spectrometry Data Center
##NAMES=HP
##CAS NAME=2-Ethoxycinnamic acid
##MOLFORM=C11H12O3
##CAS REGISTRY NO=69038-81-9
##MP= -300
##BP= -300
##MW= 192
##$RETENTION INDEX=0
##$CONDENSED SPECTRUM=NO
##NPOINTS= 102
##XYDATA=(XY..XY) 1 
    12          2
    13          2
    14          6
    15         14
    16          3
    19          2
    26         30
    27        177
    28         27
    29        157
    30          4
    31          2
    35          1
    36          3
    37          9
    38         34
    39        165
    40         23
    41         27
    42          5
    43         16
    44          3
    45         38
    46          2
    50         52
    51        122
    52         27
    53         36
    54          3
    55         23
    56          3
    57          3
    59          3
    61          8
    62         44
    63        148
    64         53
    65        140
    66         21
    67          4
    68          2
    69          6
    72          2
    73          4
    74         24
    75         51
    76         24
    77         89
    78         33
    79         28
    80          4
    81          4
    82          4
    85          2
    86          7
    87         11
    89        188
    90        219
    91        249
    92         32
    93          2
    94         17
    95          3
    98          3
    99          4
   101         20
   102         18
   103         42
   104          8
   105         37
   106          8
   107         30
   108          4
   115          6
   116          6
   118        999
   119        123
   120         24
   121          9
   122          2
   123          6
   127          5
   128          5
   129          5
   131         80
   132        116
   133        115
   134         10
   135          7
   146        220
   147        117
   148         20
   149          5
   159          9
   163          3
   173          5
   174         15
   175          2
   181          2
   192        215
   193         29
   194          2