##TITLE=Library Entry 9960
##JCAMP-DX=Revision 4.10 
##DATA TYPE=MASS SPECTRUM
##SAMPLE DESCRIPTION=O A MAMER, MCGILL UNIVERSITY, MONTREX Z
##NAMES=HP
##CAS NAME=1,4-Dichlorobutane-2,3-acetonide
##MOLFORM=C7H12Cl2O2
##CAS REGISTRY NO=69055-79-4
##MP= -300
##BP= -300
##MW= 198
##$RETENTION INDEX=0
##$CONDENSED SPECTRUM=NO
##NPOINTS= 86
##XYDATA=(XY..XY) 1 
    13          1
    14         10
    15        100
    16          2
    26         21
    27        158
    28          6
    29         60
    30          1
    31         55
    35          2
    36          6
    37          3
    38          8
    39         86
    40         15
    41        111
    42         56
    43        999
    44         28
    45          5
    47          1
    48          4
    49         61
    50         12
    51         34
    52          5
    53         22
    54          3
    55         16
    56          1
    57         36
    58         30
    59        271
    60         12
    61         59
    62          8
    63         34
    64          3
    65         11
    67          0
    69          0
    70          2
    73          2
    74          1
    75          0
    76          3
    77         16
    78          3
    79         11
    81          0
    84          2
    85        325
    86         19
    87         42
    88          3
    89         17
    90          1
    91         17
    93          6
   100          2
   105          6
   107          3
   109          1
   113          4
   120         19
   121          4
   122          6
   123         82
   124          4
   125         50
   126          3
   127          8
   131          4
   133          3
   147          1
   149         71
   150          5
   151         23
   152          2
   183        309
   184         23
   185        199
   186         15
   187         37
   188          3