##TITLE=Library Entry 55709
##JCAMP-DX=Revision 4.10 
##DATA TYPE=MASS SPECTRUM
##SAMPLE DESCRIPTION=NIST Mass Spectrometry Data Center
##NAMES=HP
##CAS NAME=3-Trifluoromethylcrotonic acid
##MOLFORM=C5H5F3O2
##CAS REGISTRY NO=69056-67-3
##MP= -300
##BP= -300
##MW= 154
##$RETENTION INDEX=0
##$CONDENSED SPECTRUM=NO
##NPOINTS= 69
##XYDATA=(XY..XY) 1 
    12          5
    13          2
    15         17
    18          5
    25          2
    26         19
    27         37
    29        101
    31         91
    33         30
    35          2
    36         10
    37         78
    38        167
    39        713
    40         84
    41        132
    42         49
    43         73
    44         13
    45        248
    46          3
    49         11
    50         35
    51         66
    53         12
    55         23
    56         28
    57        102
    58        197
    59        168
    60         16
    63          2
    64        106
    65         11
    66         59
    67        222
    68         27
    69        167
    70         13
    71          2
    73          2
    74          2
    75         90
    76         19
    77         47
    83          5
    84         14
    86        999
    87         95
    88         48
    89        275
    90         30
    91         10
    93          2
    95          5
   105         30
   107         99
   108          4
   109         30
   114        271
   115         25
   117          9
   134        691
   135        139
   136         39
   137        265
   138         15
   154         74