##TITLE=Library Entry 23463
##JCAMP-DX=Revision 4.10 
##DATA TYPE=MASS SPECTRUM
##SAMPLE DESCRIPTION=NIST Mass Spectrometry Data Center
##NAMES=HP
##CAS NAME=trans-2-Dodecen-1-ol
##MOLFORM=C12H24O
##CAS REGISTRY NO=69064-37-5
##MP= -300
##BP= -300
##MW= 184
##$RETENTION INDEX=1478
##$CONDENSED SPECTRUM=NO
##NPOINTS= 87
##XYDATA=(XY..XY) 1 
    15          2
    26          4
    27         97
    28         19
    29        179
    30          6
    31         36
    37          1
    39        125
    40         25
    41        490
    42        106
    43        456
    44         89
    45         26
    46          1
    50          3
    51         12
    52          8
    53         74
    54        179
    55        439
    56        190
    57        999
    58         71
    59          7
    63          2
    64          1
    65         19
    66         43
    67        299
    68        273
    69        245
    70        161
    71        176
    72         42
    73          9
    77         14
    78          3
    79         39
    80         20
    81        264
    82        383
    83        185
    84         61
    85         66
    86         11
    87          1
    91          5
    92          1
    93         10
    94         12
    95        216
    96        205
    97         90
    98         29
    99         21
   100          3
   105          1
   107          3
   108          4
   109        106
   110         94
   111         29
   112         19
   113          8
   114          2
   121          3
   122          2
   123         39
   124         34
   125          5
   126          2
   127          3
   128          1
   136          1
   137         17
   138         35
   139          4
   140          3
   141          3
   151          2
   155          2
   156          1
   166          9
   167          1
   184          2