##TITLE=Library Entry 23460
##JCAMP-DX=Revision 4.10 
##DATA TYPE=MASS SPECTRUM
##SAMPLE DESCRIPTION=M.Horiike ET AL.Biomed.Mass Spectr.,13,117(1986)
##NAMES=HP
##CAS NAME=Z-2-Dodecenol
##MOLFORM=C12H24O
##CAS REGISTRY NO=69064-36-4
##MP= -300
##BP= -300
##MW= 184
##$RETENTION INDEX=0
##$CONDENSED SPECTRUM=NO
##NPOINTS= 28
##XYDATA=(XY..XY) 1 
    27        185
    29        381
    31         51
    39        190
    41        688
    42        188
    43        581
    44        216
    53        104
    54        363
    55        523
    56        206
    57        999
    67        424
    68        307
    69        289
    70        145
    71        147
    81        261
    82        332
    83        193
    95        150
    96        168
    97         89
   108         63
   109         53
   138         41
   166         41