##TITLE=Library Entry 8633
##JCAMP-DX=Revision 4.10 
##DATA TYPE=MASS SPECTRUM
##SAMPLE DESCRIPTION=HCACAV,61(7)2351(1978); P. DUBS AND R. STUSSI
##NAMES=HP
##CAS NAME=Ethanethioic acid, S-(2-methylbutyl) ester
##MOLFORM=C7H14OS
##CAS REGISTRY NO=69078-80-4
##MP= -300
##BP= -300
##MW= 146
##$RETENTION INDEX=0
##$CONDENSED SPECTRUM=NO
##NPOINTS= 9
##XYDATA=(XY..XY) 1 
    41        110
    42         40
    43        999
    55         80
    57         70
    70        410
    71        110
    72         50
   146         10