##TITLE=Library Entry 45199
##JCAMP-DX=Revision 4.10 
##DATA TYPE=MASS SPECTRUM
##SAMPLE DESCRIPTION=HCACAV,61(7)2351(1978); P. DUBS AND R. STUSSI
##NAMES=HP
##CAS NAME=Disulfide, bis[1-(methylthio)ethyl]
##MOLFORM=C6H14S4
##CAS REGISTRY NO=69078-77-9
##MP= -300
##BP= -300
##MW= 214
##$RETENTION INDEX=0
##$CONDENSED SPECTRUM=NO
##NPOINTS= 9
##XYDATA=(XY..XY) 1 
    41        100
    45         90
    47        100
    59        140
    60         50
    75        999
    76         40
   135         40
   214         10