##TITLE=Library Entry 76337
##JCAMP-DX=Revision 4.10 
##DATA TYPE=MASS SPECTRUM
##SAMPLE DESCRIPTION=HCACAV,61(7)2351(1978); P. DUBS AND R. STUSSI
##NAMES=HP
##CAS NAME=Disulfide, methyl 1-methyl-1-(methylthio)propyl
##MOLFORM=C6H14S3
##CAS REGISTRY NO=69078-85-9
##MP= -300
##BP= -300
##MW= 182
##$RETENTION INDEX=0
##$CONDENSED SPECTRUM=NO
##NPOINTS= 8
##XYDATA=(XY..XY) 1 
    45        110
    55        860
    59        170
    61        100
    79         50
    87        150
   103        999
   135         30