##TITLE=Library Entry 76396
##JCAMP-DX=Revision 4.10 
##DATA TYPE=MASS SPECTRUM
##SAMPLE DESCRIPTION=HCACAV,61(7)2351(1978); P. DUBS AND R. STUSSI
##NAMES=HP
##CAS NAME=Disulfide, propyl 1-(propylthio)ethyl
##MOLFORM=C8H18S3
##CAS REGISTRY NO=69078-86-0
##MP= -300
##BP= -300
##MW= 210
##$RETENTION INDEX=0
##$CONDENSED SPECTRUM=NO
##NPOINTS= 9
##XYDATA=(XY..XY) 1 
    41        200
    43        430
    45         80
    59        120
    60         80
    61        490
    75         40
   103        999
   210         10