##TITLE=Library Entry 68531
##JCAMP-DX=Revision 4.10 
##DATA TYPE=MASS SPECTRUM
##SAMPLE DESCRIPTION=Japan AIST/NIMC Database- Spectrum MS-IW-7176
##NAMES=HP
##CAS NAME=Endo-2-bornyl carbanilate
##MOLFORM=C17H23NO2
##CAS REGISTRY NO=6907-15-9
##MP= -300
##BP= -300
##MW= 273
##$RETENTION INDEX=0
##$CONDENSED SPECTRUM=NO
##NPOINTS= 111
##XYDATA=(XY..XY) 1 
    15          2
    16          1
    17          1
    18          1
    26          5
    27         52
    28         17
    29         40
    30          1
    31          5
    36          1
    37         21
    38         40
    39        112
    40         24
    41        197
    42         14
    43         97
    44         48
    45         24
    46          8
    48          1
    49          5
    50         29
    51         55
    52         29
    53         56
    54         12
    55        111
    56         12
    57         42
    58          4
    59         34
    60          5
    61          9
    62         18
    63         64
    64        175
    65         85
    66         69
    67        171
    68         61
    69        135
    70         29
    71         63
    72         24
    73          3
    74          9
    75          7
    76          7
    77        100
    78         18
    79        121
    80         42
    81        416
    82         84
    83         46
    84         36
    85          9
    86          2
    87          2
    88          3
    89          2
    90         13
    91        404
    92        115
    93        660
    94         88
    95        999
    96         86
    97         15
    98          6
    99          9
   100          2
   103          4
   104          1
   105         33
   106         10
   107        103
   108         55
   109         40
   110        236
   111         48
   112          4
   113          8
   115          2
   117          3
   118          1
   119        945
   120         86
   121        286
   122         27
   123          9
   124          1
   125          3
   126          1
   134          6
   135          6
   136        181
   137        343
   138         37
   139         93
   140          9
   146          1
   153          2
   154         15
   155          2
   165          1
   273         57
   274         10
   275          1