##TITLE=Library Entry 84191
##JCAMP-DX=Revision 4.10 
##DATA TYPE=MASS SPECTRUM
##SAMPLE DESCRIPTION=Japan AIST/NIMC Database- Spectrum MS-NW-7704
##NAMES=HP
##CAS NAME=Benzoic acid, 4-(hydroxymethyl)-, methyl ester
##MOLFORM=C9H10O3
##CAS REGISTRY NO=6908-41-4
##MP= -300
##BP= -300
##MW= 166
##$RETENTION INDEX=0
##$CONDENSED SPECTRUM=NO
##NPOINTS= 105
##XYDATA=(XY..XY) 1 
    14          1
    15         66
    16          1
    18          2
    26          5
    27         34
    28         40
    29         42
    30          5
    31         42
    32          4
    33          3
    37          7
    38         21
    39         69
    40          8
    41          6
    42          1
    43          7
    44          5
    45          8
    49          6
    50        101
    51        164
    52         49
    53         52
    54          3
    55         10
    56          1
    57          1
    58          1
    59        114
    60          4
    61         48
    62         23
    63         64
    64         15
    65         18
    66          7
    67         19
    68          2
    69          1
    73          7
    74         33
    75         41
    76         56
    77        449
    78        101
    79        353
    80         26
    81          3
    82          2
    84          1
    85          3
    86          5
    87          5
    88          3
    89        361
    90         58
    91         61
    92          9
    93         43
    94          6
    95          1
   101          1
   103         17
   104         23
   105        238
   106         74
   107        999
   108         78
   109          7
   113          1
   114          1
   115          1
   117          5
   118         17
   119         22
   120         11
   121         27
   122          3
   123          2
   131          1
   132          1
   133        112
   134         36
   135        924
   136         91
   137        421
   138         40
   139          4
   140          1
   148          3
   149         14
   150          6
   151         44
   152          5
   153          1
   162          1
   163         16
   164         23
   165         39
   166        346
   167         37
   168          5