##TITLE=Library Entry 66519
##JCAMP-DX=Revision 4.10 
##DATA TYPE=MASS SPECTRUM
##SAMPLE DESCRIPTION=Exported from NIST MS Search
##NAMES=HP
##CAS NAME=5-Caranol, (1S,3R,5S,6R)-(-)-
##MOLFORM=C10H18O
##CAS REGISTRY NO=6909-21-3
##MP= -300
##BP= -300
##MW= 154
##$RETENTION INDEX=0
##$CONDENSED SPECTRUM=NO
##NPOINTS= 81
##XYDATA=(XY..XY) 1 
    15         33
    26          8
    27        292
    28         42
    29        275
    30          8
    31         58
    38         17
    39        375
    40         67
    41        775
    42         92
    43        783
    44         42
    45         33
    50         17
    51         92
    52         50
    53        217
    54         92
    55        667
    56        167
    57        192
    58        100
    59        508
    60         17
    63         33
    65        100
    66         58
    67        383
    68        167
    69        533
    70        150
    71        167
    72         58
    77        275
    78         67
    79        575
    80        117
    81        508
    82        158
    83        267
    84        208
    85        183
    86         17
    91        258
    92        150
    93        999
    94        175
    95        517
    96        317
    97        250
    98        125
    99         17
   103         25
   105        117
   106         33
   107        408
   108         92
   109        167
   110        217
   111        800
   112        167
   113         17
   115          8
   117          8
   119         42
   120         17
   121        917
   122        100
   123         67
   125         17
   135         25
   136        858
   137        108
   138         17
   139        183
   140         17
   152         17
   154        167
   155         17