##TITLE=Library Entry 67341
##JCAMP-DX=Revision 4.10 
##DATA TYPE=MASS SPECTRUM
##SAMPLE DESCRIPTION=Chemical Concepts
##NAMES=HP
##CAS NAME=(+)-(E)-Limonene oxide
##MOLFORM=C10H16O
##CAS REGISTRY NO=6909-30-4
##MP= -300
##BP= -300
##MW= 152
##$RETENTION INDEX=1139
##$CONDENSED SPECTRUM=NO
##NPOINTS= 92
##XYDATA=(XY..XY) 1 
    26          6
    27        165
    28         12
    29         67
    30          0
    31          3
    37          0
    38          5
    39        187
    40         38
    41        274
    42         24
    43        725
    44        107
    45         20
    46          0
    50          8
    51         34
    52         18
    53        129
    54         36
    55        174
    56         30
    57         14
    58         13
    59          6
    62          1
    63         10
    64          1
    65         57
    66         26
    67        671
    68        150
    69        113
    70         12
    71         83
    72          6
    73          0
    74          0
    75          0
    76          0
    77        109
    78         28
    79        536
    80         81
    81        477
    82        135
    83         87
    84        172
    85         11
    86          0
    89          0
    91        134
    92         50
    93        575
    94        999
    95        242
    96         34
    97         39
    98          2
   102          0
   103          5
   104          0
   105         41
   106         21
   107         55
   108        748
   109        226
   110         31
   111         12
   112          0
   115          2
   116          0
   117          6
   118          0
   119         69
   120          7
   121         39
   122          5
   123         42
   124          7
   125          0
   127          0
   133          1
   134         10
   135          2
   136          0
   137         71
   138          5
   151          0
   152          4
   153          0