##TITLE=Library Entry 42557
##JCAMP-DX=Revision 4.10 
##DATA TYPE=MASS SPECTRUM
##SAMPLE DESCRIPTION=Japan AIST/NIMC Database- Spectrum MS-IW-1449
##NAMES=HP
##CAS NAME=Tris(trimethylsiloxy)ethylene
##MOLFORM=C11H28O3Si3
##CAS REGISTRY NO=69097-20-7
##MP= -300
##BP= -300
##MW= 292
##$RETENTION INDEX=0
##$CONDENSED SPECTRUM=NO
##NPOINTS= 101
##XYDATA=(XY..XY) 1 
    15          2
    27          2
    28          6
    29          7
    42          2
    43         23
    44         22
    45        138
    46          9
    47         12
    51          2
    52          7
    53          1
    55          9
    56          1
    57          7
    58          9
    59         34
    60          3
    61          4
    66         29
    67          2
    70          2
    71          4
    72         16
    73        999
    74         90
    75         77
    76          4
    77          3
    81          3
    85          2
    87          3
    88          2
    89          2
    95          1
    99          3
   100          1
   101          3
   102        297
   103         38
   104         13
   105          4
   113          1
   115          6
   116          2
   117          9
   118          1
   119          4
   129          3
   130         70
   131         36
   132          8
   133         32
   134          4
   135          3
   145          1
   146          1
   147        414
   148         64
   149         35
   150          4
   151          1
   159          1
   161          7
   162          1
   163          3
   173          1
   175          1
   177         12
   178          2
   179          1
   188          1
   189          7
   190          2
   191         25
   192          5
   193          2
   202          1
   204          2
   205         16
   206          3
   207         10
   208          2
   209          1
   218          6
   219          3
   220          1
   221         66
   222         14
   223          9
   224          1
   249          1
   265          2
   277          3
   278          1
   292        155
   293         44
   294         21
   295          4
   296          1