##TITLE=Library Entry 98807
##JCAMP-DX=Revision 4.10 
##DATA TYPE=MASS SPECTRUM
##SAMPLE DESCRIPTION=M. LOZYNSKI, POZNAN TECH. UNIV., POZNAN, POLAND
##NAMES=HP
##CAS NAME=Carbamothioic acid, O-isopropyl ester
##MOLFORM=C4H9NOS
##CAS REGISTRY NO=691-61-2
##MP= -300
##BP= -300
##MW= 119
##$RETENTION INDEX=0
##$CONDENSED SPECTRUM=NO
##NPOINTS= 20
##XYDATA=(XY..XY) 1 
    27        320
    28        130
    29         25
    39        200
    40         49
    41        510
    42        210
    43        560
    44        870
    45        220
    58         54
    59        190
    60        350
    61        160
    77        770
    78        520
    79         49
   119        999
   120         45
   121         55