##TITLE=Library Entry 3317
##JCAMP-DX=Revision 4.10 
##DATA TYPE=MASS SPECTRUM
##SAMPLE DESCRIPTION=NIST Mass Spectrometry Data Center, 1990.
##NAMES=HP
##CAS NAME=2-Pentene, 4-methyl-, (Z)-
##MOLFORM=C6H12
##CAS REGISTRY NO=691-38-3
##MP= -300
##BP= -300
##MW= 84
##$RETENTION INDEX=557
##$CONDENSED SPECTRUM=NO
##NPOINTS= 34
##XYDATA=(XY..XY) 1 
    15         58
    18          3
    26         22
    27        183
    28         10
    29         61
    37         15
    38         47
    39        333
    40         10
    41        999
    42         82
    43         58
    44          2
    49          3
    50         26
    51         40
    52         15
    53         87
    54         21
    55        100
    56         70
    57          4
    61          4
    62          8
    63         14
    65         24
    67         83
    69        887
    70         47
    77          3
    79          2
    84        260
    85         18