##TITLE=Library Entry 25739
##JCAMP-DX=Revision 4.10 
##DATA TYPE=MASS SPECTRUM
##SAMPLE DESCRIPTION=Japan AIST/NIMC Database- Spectrum MS-NW-9555
##NAMES=HP
##CAS NAME=N,N'-di-tert-Butylcarbodiimide
##MOLFORM=C9H18N2
##CAS REGISTRY NO=691-24-7
##MP= -300
##BP= -300
##MW= 154
##$RETENTION INDEX=0
##$CONDENSED SPECTRUM=NO
##NPOINTS= 57
##XYDATA=(XY..XY) 1 
    15         20
    26          3
    27         35
    28         31
    29        175
    30          7
    32          1
    37          1
    38          3
    39         66
    40         17
    41        348
    42         39
    43        168
    44          2
    46          1
    47          3
    48          2
    50          2
    51          3
    52          3
    53         10
    54          9
    55         78
    56        287
    57        999
    58         71
    59          1
    60          3
    61          9
    62         10
    66          1
    67         14
    68          5
    69          5
    70          2
    71          1
    80          3
    81          2
    82          5
    83        977
    84         54
    85          1
    95          1
    97         36
    98         30
    99         84
   100          5
   109          1
   112          5
   125          2
   139        283
   140         27
   141          1
   154         35
   155          6
   157          1