##TITLE=Library Entry 15184
##JCAMP-DX=Revision 4.10 
##DATA TYPE=MASS SPECTRUM
##SAMPLE DESCRIPTION=Div. of Experiment Therapeutics WRAIR, WRAMC, Washingto
n DC 20307
##NAMES=HP
##CAS NAME=4-Acetamido-1-pentanol
##MOLFORM=C7H15NO2
##CAS REGISTRY NO=691-97-4
##MP= -300
##BP= -300
##MW= 145
##$RETENTION INDEX=0
##$CONDENSED SPECTRUM=NO
##NPOINTS= 69
##XYDATA=(XY..XY) 1 
    41        583
    42         57
    43        574
    44        999
    45          6
    46          3
    47          2
    49          3
    50          2
    51          3
    52          2
    53          7
    54          3
    55         13
    56         21
    57         23
    58         46
    59          3
    60         53
    61          2
    62          1
    63          0
    65          2
    66          1
    67          5
    68          5
    69         11
    70         14
    71         64
    72          9
    73          1
    74          3
    82          0
    83          1
    84          7
    85          9
    86         89
    87          9
    88          1
    89          2
    90          0
    94          3
    98          5
    99          9
   100         67
   101          2
   102        455
   103         70
   104          1
   112          2
   113         17
   114         79
   115        243
   116        143
   117         10
   118          1
   119          0
   124          0
   125          0
   127         70
   128        245
   129         85
   130          4
   131          0
   142          0
   144          2
   145         34
   146          4
   147          0