##TITLE=Library Entry 53026
##JCAMP-DX=Revision 4.10 
##DATA TYPE=MASS SPECTRUM
##SAMPLE DESCRIPTION=A.A.Kutin, Moscow, Russia
##NAMES=HP
##CAS NAME=Phosphinous acid, diisopropyl ester
##MOLFORM=C6H15O3P
##CAS REGISTRY NO=691-96-3
##MP= -300
##BP= -300
##MW= 166
##$RETENTION INDEX=0
##$CONDENSED SPECTRUM=NO
##NPOINTS= 77
##XYDATA=(XY..XY) 1 
    34          0
    37          6
    38         16
    39        155
    40         28
    41        246
    42         81
    43        484
    44         51
    45        363
    46         10
    47         75
    48          3
    49          3
    50          0
    51          0
    52          0
    53          0
    54          0
    55          1
    56          0
    57          4
    59        109
    60          4
    61          0
    62          1
    63          3
    65        122
    66          8
    67          2
    68          1
    69          5
    70          0
    71          0
    72          0
    73          0
    74          0
    75          0
    76          0
    77          0
    78          0
    79          0
    80          0
    81         11
    83        999
    85          6
    87          0
    88          0
    89          0
    90          0
    91          9
    92          0
    93          0
    96          0
   103          0
   105          1
   106          1
   107          6
   109        787
   110         20
   111          4
   112          0
   121          0
   123         32
   124         19
   125         25
   126          1
   129          0
   133          0
   135          0
   147          0
   151         20
   152          1
   153          0
   165          0
   167          1
   168          0