##TITLE=Library Entry 24700
##JCAMP-DX=Revision 4.10 
##DATA TYPE=MASS SPECTRUM
##SAMPLE DESCRIPTION=LAC, NIDDK, NIH, Bethesda, MD 20892
##NAMES=HP
##CAS NAME=Testosterone, oxime
##MOLFORM=C19H29NO2
##CAS REGISTRY NO=6911-95-1
##MP= -300
##BP= -300
##MW= 303
##$RETENTION INDEX=0
##$CONDENSED SPECTRUM=NO
##NPOINTS= 80
##XYDATA=(XY..XY) 1 
    41        427
    42         22
    43        310
    44        316
    45         75
    53        151
    54         33
    55        459
    57        999
    58        109
    65         78
    66         45
    67        200
    68         62
    69         31
    71         17
    77        170
    78         50
    79        227
    80         72
    81         75
    83         17
    91        294
    92         65
    93        153
    94         62
    95         49
   103         26
   104         48
   105        133
   106         53
   107         70
   108         32
   109         24
   110          9
   111         86
   112        111
   115         45
   116         24
   117         68
   118         45
   119         74
   120         60
   121         36
   122         45
   123        102
   124        107
   125         26
   128         21
   129         37
   130         35
   131         59
   132         26
   133         47
   134         25
   135          8
   136         27
   137        125
   138         46
   139        178
   143         31
   144         19
   145         30
   146         10
   147         44
   148          9
   157         21
   158          9
   159          9
   162         11
   172          9
   173          8
   268         24
   270         11
   286        101
   287          8
   288         10
   303        211
   304         46
   305          9