##TITLE=Library Entry 92776
##JCAMP-DX=Revision 4.10 
##DATA TYPE=MASS SPECTRUM
##SAMPLE DESCRIPTION=NIST Mass Spectrometry Data Center, 1994
##NAMES=HP
##CAS NAME=Thiophene, 2,2'-dithiobis-
##MOLFORM=C8H6S4
##CAS REGISTRY NO=6911-51-9
##MP= -300
##BP= -300
##MW= 230
##$RETENTION INDEX=1871
##$CONDENSED SPECTRUM=NO
##NPOINTS= 55
##XYDATA=(XY..XY) 1 
    18          5
    25          4
    33          4
    34          2
    36          4
    37         30
    38         61
    39        104
    40          7
    44         16
    45        295
    46         10
    47         16
    49          5
    50         11
    51         11
    56          9
    57         75
    58         66
    64         11
    68         15
    69        193
    70         72
    71        947
    72         51
    73         40
    76         15
    77          6
    80          4
    81         39
    82         72
    83         10
    84         10
    88         17
    89          8
   103         10
   112          4
   115        999
   116        146
   117         91
   118         13
   119          3
   121          4
   127          3
   153          4
   166         99
   167          9
   168          8
   197          4
   198          9
   230        368
   231         43
   232         62
   233          8
   234          4