##TITLE=Library Entry 22381
##JCAMP-DX=Revision 4.10 
##DATA TYPE=MASS SPECTRUM
##SAMPLE DESCRIPTION=V.Zaikin,Inst.Petrochem.Synth.,RAS,Moscow
##NAMES=HP
##CAS NAME=iso-Butyl 2-bromopropionate
##MOLFORM=C7H13BrO2
##CAS REGISTRY NO=69122-46-9
##MP= -300
##BP= -300
##MW= 208
##$RETENTION INDEX=1060
##$CONDENSED SPECTRUM=NO
##NPOINTS= 68
##XYDATA=(XY..XY) 1 
    25         12
    26         78
    27        310
    28         35
    29        252
    30         12
    39        108
    40         37
    41        409
    42         47
    43        159
    44          9
    50         18
    51         41
    52         57
    53         17
    54          5
    55        107
    56        999
    57        756
    58         37
    59          7
    61          2
    62          3
    63         45
    64         23
    65         13
    66          3
    67          3
    69          6
    71         25
    72         18
    73         36
    74          6
    75          4
    76          2
    77          2
    78         13
    79         91
    80          4
    81          4
    82          3
    83          4
    84          3
    85          3
    86          7
    87          3
    91         19
    92          3
    93          6
    94          3
    95          4
   105          6
   106          3
   107        157
   108          5
   109        142
   110          5
   119          3
   134          5
   135        123
   136          5
   137        128
   138          4
   153          6
   155          8
   165          4
   167          6