##TITLE=Library Entry 7850
##JCAMP-DX=Revision 4.10 
##DATA TYPE=MASS SPECTRUM
##SAMPLE DESCRIPTION=Exported from NIST MS Search
##NAMES=HP
##CAS NAME=Hexadecane, 5-butyl-
##MOLFORM=C20H42
##CAS REGISTRY NO=6912-07-8
##MP= -300
##BP= -300
##MW= 282
##$RETENTION INDEX=1897
##$CONDENSED SPECTRUM=NO
##NPOINTS= 174
##XYDATA=(XY..XY) 1 
    35          1
    36          2
    37          2
    38          3
    39         84
    40         18
    41        600
    42        132
    43        999
    44         10
    45          2
    46          1
    47          1
    48          1
    49          1
    50          1
    51          3
    52          3
    53         31
    54         37
    55        355
    56        158
    57        930
    58         44
    59          1
    60          1
    61          1
    62          1
    63          1
    64          1
    65          5
    66          3
    67         36
    68         23
    69        149
    70         96
    71        724
    72         42
    73          1
    74          1
    75          1
    76          1
    77          4
    78          1
    79          6
    80          2
    81         14
    82         20
    83         90
    84         56
    85        479
    86         33
    87          1
    88          1
    89          1
    90          1
    91          3
    92          1
    93          2
    94          1
    95          5
    96         11
    97         68
    98         30
    99         83
   100          7
   101          1
   102          1
   103          1
   104          1
   105          1
   106          1
   107          1
   108          1
   109          2
   110          5
   111         24
   112         14
   113         55
   114          5
   115          1
   116          1
   117          1
   118          1
   119          1
   120          1
   121          1
   122          1
   123          1
   124          3
   125         13
   126        155
   127         99
   128          9
   129          1
   130          1
   131          1
   132          1
   133          1
   134          1
   135          1
   136          1
   137          1
   138          2
   139          6
   140         10
   141         34
   142          4
   143          1
   144          1
   145          1
   146          1
   147          1
   148          1
   149          1
   150          1
   151          1
   152          2
   153          4
   154          7
   155         27
   156          4
   157          1
   158          1
   159          1
   160          1
   161          1
   162          1
   163          1
   164          1
   165          1
   166          1
   167          3
   168          4
   169         19
   170          3
   171          1
   178          1
   179          1
   180          1
   181          2
   182          3
   183         10
   184          2
   185          1
   186          1
   193          1
   194          1
   195          1
   196          7
   197          3
   198          1
   210          4
   211          4
   212          1
   224        104
   225        121
   226         20
   227          2
   228          1
   237          1
   238          3
   239          4
   240          1
   241          1
   242          1
   252          1
   253          2
   254          1
   255          1
   280          1
   281          1
   282          1
   283          1