##TITLE=Library Entry 81225
##JCAMP-DX=Revision 4.10 
##DATA TYPE=MASS SPECTRUM
##SAMPLE DESCRIPTION=Asinex Ltd, Moscow, Russia
##NAMES=HP
##CAS NAME=1,2,4-Thiadiazole, 5-amino-3-(methylthio)-
##MOLFORM=C3H5N3S2
##CAS REGISTRY NO=6913-13-9
##MP= -300
##BP= -300
##MW= 147
##$RETENTION INDEX=0
##$CONDENSED SPECTRUM=NO
##NPOINTS= 72
##XYDATA=(XY..XY) 1 
    33         33
    34         13
    35          0
    38          5
    40        121
    41         46
    42        114
    43        190
    44         80
    45        313
    46        421
    47        253
    48         54
    49         12
    50          1
    53         42
    54          2
    55          7
    56          5
    58         97
    59        202
    60        397
    61         36
    62         35
    63          0
    64         43
    66          3
    67         12
    68         60
    69          6
    70         15
    71        107
    72         39
    73         46
    74        191
    76        282
    77         36
    78         20
    79         36
    80          2
    81          3
    83          4
    84         10
    85         91
    86         23
    87         12
    88         55
    90        381
    91         16
    92         31
    99          8
   101        175
   102         19
   103          8
   105        999
   106         40
   107         84
   108          1
   109          0
   114         62
   115          8
   116          0
   118          3
   120          3
   130         59
   131          1
   132          5
   146        176
   147        760
   148         53
   149         68
   150          1