##TITLE=Library Entry 18909
##JCAMP-DX=Revision 4.10 
##DATA TYPE=MASS SPECTRUM
##SAMPLE DESCRIPTION=Japan AIST/NIMC Database- Spectrum MS-NW-8562
##NAMES=HP
##CAS NAME=1-Methylcyclopropanecarboxylic acid
##MOLFORM=C5H8O2
##CAS REGISTRY NO=6914-76-7
##MP= -300
##BP= -300
##MW= 100
##$RETENTION INDEX=0
##$CONDENSED SPECTRUM=NO
##NPOINTS= 62
##XYDATA=(XY..XY) 1 
    13          1
    14          6
    15         20
    17          1
    18          3
    25          7
    26         75
    27        357
    28        159
    29        468
    30         12
    31         16
    32          1
    33          1
    36          2
    37         19
    38         36
    39        369
    40         40
    41        286
    42         36
    43        119
    44         15
    45        166
    46          7
    47          3
    48          1
    49          9
    50         48
    51         54
    52         18
    53        198
    54        205
    55        999
    56        224
    57         70
    58         36
    59         32
    60         13
    61          1
    66          1
    67          7
    68          1
    69         32
    70          3
    71         28
    72         42
    73         28
    74         24
    75          1
    81         18
    82        130
    83         43
    84          3
    85        287
    86         13
    87          2
    98          3
    99        278
   100        244
   101         17
   102          1