##TITLE=Library Entry 10284
##JCAMP-DX=Revision 4.10 
##DATA TYPE=MASS SPECTRUM
##SAMPLE DESCRIPTION=John Halket,Royal Holloway, University of London, UK
##NAMES=HP
##CAS NAME=4-Hydroxy-3-(phenyldiazenyl)-3-penten-2-one
##MOLFORM=C11H12N2O2
##CAS REGISTRY NO=69147-23-5
##MP= -300
##BP= -300
##MW= 204
##$RETENTION INDEX=0
##$CONDENSED SPECTRUM=NO
##NPOINTS= 103
##XYDATA=(XY..XY) 1 
    14          6
    15         42
    25          1
    26          6
    27         19
    28         13
    29         10
    30          1
    31          3
    37          9
    38         31
    39        132
    40         20
    41         22
    43        999
    44         24
    45          4
    49          3
    50         31
    51         98
    52         34
    53         11
    54          8
    55         21
    56          1
    57          1
    61          5
    62         16
    63         62
    64         75
    65        316
    66         49
    67          9
    68          1
    69          5
    70         11
    71          4
    73          1
    74          9
    75          6
    77        238
    78         22
    79          5
    82          1
    83          5
    84          2
    85          4
    86          1
    87          1
    88          1
    89          3
    90          9
    91         65
    92        492
    93        344
    94         37
    95          2
    99         40
   100          3
   101          2
   102          1
   103          3
   104          5
   105         34
   106         63
   107         10
   112         15
   113          3
   115          6
   116          2
   117          2
   118         11
   119         34
   120          4
   127         22
   128          2
   131          2
   132          1
   133          5
   134          3
   135         10
   136         19
   137          2
   143          9
   144          2
   145          5
   146          1
   149          1
   161         47
   162          8
   169          1
   171         53
   172          6
   175          2
   176          1
   186         21
   187         28
   188          3
   189          3
   203         58
   204        474
   205         60
   206          5