##TITLE=Library Entry 38548
##JCAMP-DX=Revision 4.10 
##DATA TYPE=MASS SPECTRUM
##SAMPLE DESCRIPTION=Japan AIST/NIMC Database- Spectrum MS-NW-3754
##NAMES=HP
##CAS NAME=Malic Acid
##MOLFORM=C4H6O5
##CAS REGISTRY NO=6915-15-7
##MP= -300
##BP= -300
##MW= 134
##$RETENTION INDEX=944
##$CONDENSED SPECTRUM=NO
##NPOINTS= 67
##XYDATA=(XY..XY) 1 
    12          3
    13          8
    14         37
    15        144
    16          6
    17         12
    18         57
    24          2
    25          9
    26         51
    27        206
    28         59
    29        213
    30         13
    31         27
    32          1
    35          1
    36          9
    37          2
    38          3
    39          1
    40          3
    41         20
    42        239
    43        972
    44        228
    45        264
    46         27
    47        142
    48          2
    52          2
    53         15
    54          9
    55         88
    56          6
    57          1
    58          4
    59          1
    60        156
    61          5
    62          3
    63          7
    67          1
    69         19
    70          9
    71        999
    72        253
    73         23
    74          7
    75          3
    76          2
    81          3
    82          1
    85          3
    87          6
    88         60
    89        844
    90         75
    91          7
    92          1
    98          5
    99         15
   100          5
   101          1
   106          3
   116          6
   117          2