##TITLE=Library Entry 21358
##JCAMP-DX=Revision 4.10 
##DATA TYPE=MASS SPECTRUM
##SAMPLE DESCRIPTION=K. NAGAI, YASUDA WOMEN'S UNIV., KAMIYASU, HIROSHIMA, JA
P
##NAMES=HP
##CAS NAME=2,2,5,5,8-Pentamethyl-3,6-dioxa-8-nonen-1-ol
##MOLFORM=C12H24O3
##CAS REGISTRY NO=69161-46-2
##MP= -300
##BP= -300
##MW= 216
##$RETENTION INDEX=0
##$CONDENSED SPECTRUM=NO
##NPOINTS= 36
##XYDATA=(XY..XY) 1 
    39        110
    40         50
    41        130
    42         60
    43        170
    44         50
    45        180
    46         60
    47         60
    53         40
    54         30
    55        999
    56        140
    57        110
    58         40
    59        110
    69         40
    70         50
    71        120
    72        100
    73        210
    74         40
    81         40
    83         40
    85         30
    95         40
    96         40
    97         40
   101         90
   109         60
   113        280
   114         60
   127         60
   143         40
   185         50
   216          1