##TITLE=Library Entry 33958
##JCAMP-DX=Revision 4.10 
##DATA TYPE=MASS SPECTRUM
##SAMPLE DESCRIPTION=K. NAGAI, YASUDA WOMEN'S UNIV., KAMIYASU, HIROSHIMA, JA
P
##NAMES=HP
##CAS NAME=3,3,7-Trimethyl-4-oxa-7-octen-1-ol
##MOLFORM=C10H20O2
##CAS REGISTRY NO=69161-47-3
##MP= -300
##BP= -300
##MW= 172
##$RETENTION INDEX=0
##$CONDENSED SPECTRUM=NO
##NPOINTS= 42
##XYDATA=(XY..XY) 1 
    31        410
    39         50
    40         20
    41        300
    42         30
    43        100
    44         10
    45         40
    53         30
    54         10
    55         70
    56         60
    57         70
    58         10
    59         60
    60         10
    67         40
    68         60
    69        999
    70        110
    71        100
    81         40
    87        220
    88         10
    89         50
    97         10
    99        160
   100         10
   103         30
   105         30
   115         30
   116         10
   117         50
   127         50
   138         10
   139         10
   143         10
   147         10
   154         30
   155         10
   157         10
   172         20