##TITLE=Library Entry 66305
##JCAMP-DX=Revision 4.10 
##DATA TYPE=MASS SPECTRUM
##SAMPLE DESCRIPTION=NIST Mass Spectrometry Data Center
##NAMES=HP
##CAS NAME=Chlorodimethylethylsilane
##MOLFORM=C4H11ClSi
##CAS REGISTRY NO=6917-76-6
##MP= -300
##BP= -300
##MW= 122
##$RETENTION INDEX=676
##$CONDENSED SPECTRUM=NO
##NPOINTS= 76
##XYDATA=(XY..XY) 1 
    12          1
    13          2
    14         13
    15         44
    16          3
    17          1
    19          1
    26         23
    27         83
    28         60
    29         93
    30          8
    31         35
    32          4
    35          1
    36          2
    37          1
    38          2
    39         10
    40          3
    41         17
    42         47
    43        141
    44         19
    45         13
    46          1
    53         34
    54          8
    55         20
    56          3
    57          9
    58         45
    59        121
    60         10
    61          4
    63        217
    64         31
    65        203
    66         18
    67         50
    68          3
    69          2
    70          1
    71          2
    74          2
    76          6
    77         24
    78         73
    79        363
    80         48
    81        127
    82          7
    83          4
    85          1
    86         17
    87        116
    88         12
    89          4
    90          3
    91          4
    93        999
    94         90
    95        365
    96         25
    97         11
   105          1
   107        169
   108         18
   109         62
   110          5
   111          2
   122         67
   123          7
   124         23
   125          2
   126          1