##TITLE=Library Entry 71581
##JCAMP-DX=Revision 4.10 
##DATA TYPE=MASS SPECTRUM
##SAMPLE DESCRIPTION=Chemical Concepts
##NAMES=HP
##CAS NAME=Dodecahydro-7,14-methanodipyrido[1,2-a:1',2'-e][1,5]diazocine
##MOLFORM=C15H26N2
##CAS REGISTRY NO=6917-37-9
##MP= -300
##BP= -300
##MW= 234
##$RETENTION INDEX=0
##$CONDENSED SPECTRUM=NO
##NPOINTS= 170
##XYDATA=(XY..XY) 1 
    25          3
    26         20
    27         57
    28         94
    29         63
    30         58
    31          1
    32          5
    37          2
    38          4
    39         66
    40         16
    41        312
    42        155
    43         48
    44         65
    45          2
    49          5
    50         10
    51         13
    52         10
    53         50
    54         80
    55        206
    56         76
    57         18
    58          9
    59          1
    61          2
    62          4
    63         10
    64          5
    65         41
    66         18
    67        102
    68         85
    69         72
    70         75
    71          8
    72          2
    73          1
    74          2
    75         10
    76          4
    77         27
    78         11
    79         43
    80         66
    81         44
    82         72
    83         93
    84        204
    85         14
    86          1
    87          1
    88          3
    89         23
    90          5
    91        187
    92         25
    93         34
    94         49
    95         50
    96        115
    97        384
    98        999
    99         73
   100          5
   101          2
   102          4
   103          6
   104          4
   105          8
   106         27
   107         22
   108         59
   109         69
   110        204
   111         49
   112          9
   113          1
   115          3
   116          6
   117         32
   118          8
   119          6
   120         28
   121         21
   122        109
   123         64
   124         93
   125         15
   126          7
   127          2
   128          1
   129          1
   130         11
   131          4
   132         17
   133         13
   134        119
   135         79
   136        323
   137        885
   138        122
   139         11
   140          1
   141          1
   143          1
   144          1
   145          2
   146          5
   147          7
   148         53
   149         43
   150        124
   151         65
   152         39
   153          6
   154          1
   155          1
   158          1
   159          7
   160          8
   161          5
   162         26
   163         18
   164         22
   165         24
   166          8
   167          2
   172          3
   173          1
   174          5
   175          4
   176         33
   177         32
   178         20
   179          6
   180          2
   181          1
   184          2
   186          1
   188          2
   189          4
   190         22
   191         70
   192         33
   193        264
   194         36
   195          2
   199          4
   202          2
   203          2
   204         12
   205         41
   206         15
   207          3
   217          2
   218          5
   219         13
   220          2
   229          1
   230          1
   231          4
   232          9
   233         75
   234        257
   235         42
   236          3