##TITLE=Library Entry 41149
##JCAMP-DX=Revision 4.10 
##DATA TYPE=MASS SPECTRUM
##SAMPLE DESCRIPTION=G.BRAMMER,UNIVERSITY OF TEXAS
##NAMES=HP
##CAS NAME=Inositol
##MOLFORM=C6H12O6
##CAS REGISTRY NO=6917-35-7
##MP= -300
##BP= -300
##MW= 180
##$RETENTION INDEX=0
##$CONDENSED SPECTRUM=NO
##NPOINTS= 74
##XYDATA=(XY..XY) 1 
    25          0
    26          4
    27         22
    29         49
    30          6
    31         39
    33          0
    36          0
    37          0
    38          1
    39         11
    41         18
    42         41
    43         66
    45         38
    46          1
    47          9
    48          0
    49          0
    50          0
    51          2
    52          1
    53          5
    54         10
    55         27
    56         18
    57         31
    58          9
    59          4
    60        184
    61         35
    62          2
    63          0
    64          0
    65          0
    66          0
    67          0
    68          1
    69         14
    70          5
    71         87
    72         59
    73        999
    74         50
    75          6
    76          0
    77          0
    78          0
    79          0
    80          1
    81          4
    82          1
    83          4
    84          5
    85         15
    86          4
    87          2
    88          3
    89         29
    90          6
    91         12
    92          0
    93          0
    94          0
    95          0
    96          0
    97         10
    98          5
    99          3
   100          1
   101          3
   102        116
   103         49
   104          5