##TITLE=Library Entry 28641
##JCAMP-DX=Revision 4.10 
##DATA TYPE=MASS SPECTRUM
##SAMPLE DESCRIPTION=J.SCRIVENS, ICI PETROCHEM. & PLAST. PLC, WILTON, CLEVEL
AND, UK
##NAMES=HP
##CAS NAME=N,N-Dimethyl-1,7-octadien-3-amine
##MOLFORM=C10H19N
##CAS REGISTRY NO=69196-06-1
##MP= -300
##BP= -300
##MW= 153
##$RETENTION INDEX=0
##$CONDENSED SPECTRUM=NO
##NPOINTS= 20
##XYDATA=(XY..XY) 1 
    39        150
    41        210
    42        270
    43         80
    44        320
    45        440
    46         90
    53         50
    55        100
    58        999
    67        170
    71         90
    82        100
    84        520
    85         60
    97         80
    98        150
   110        190
   152        120
   153         80