##TITLE=Library Entry 582
##JCAMP-DX=Revision 4.10 
##DATA TYPE=MASS SPECTRUM
##SAMPLE DESCRIPTION=A.Pleshkova, Nesmeyanov Inst.Org.Elem.Cpds, Moscow
##NAMES=HP
##CAS NAME=N-Carbethoxy-N-methoxymethylamine
##MOLFORM=C5H11NO3
##CAS REGISTRY NO=6919-62-6
##MP= -300
##BP= -300
##MW= 133
##$RETENTION INDEX=0
##$CONDENSED SPECTRUM=NO
##NPOINTS= 18
##XYDATA=(XY..XY) 1 
    28        181
    29        999
    30         56
    31         26
    42         33
    45         48
    46        278
    47         13
    58         19
    59         19
    60         70
    61        285
    62         13
    74        178
    75         11
    88         30
   133         63
   134          3