##TITLE=Library Entry 44527
##JCAMP-DX=Revision 4.10 
##DATA TYPE=MASS SPECTRUM
##SAMPLE DESCRIPTION=A.Pleshkova, Nesmeyanov Inst.Org.Elem.Cpds, Moscow
##NAMES=HP
##CAS NAME=Bis(N-methoxy-N-methylamino)methane
##MOLFORM=C5H14N2O2
##CAS REGISTRY NO=6919-46-6
##MP= -300
##BP= -300
##MW= 134
##$RETENTION INDEX=0
##$CONDENSED SPECTRUM=NO
##NPOINTS= 10
##XYDATA=(XY..XY) 1 
    39         23
    40          8
    42        211
    43         81
    44          8
    61         34
    74        999
    75         39
    76          3
   134          4