##TITLE=Library Entry 57703
##JCAMP-DX=Revision 4.10 
##DATA TYPE=MASS SPECTRUM
##SAMPLE DESCRIPTION=W.Jennings, T.Shibamoto
##NAMES=HP
##CAS NAME=10-Undecenoic acid, ethyl ester
##MOLFORM=C13H24O2
##CAS REGISTRY NO=692-86-4
##MP= -300
##BP= -300
##MW= 212
##$RETENTION INDEX=1469
##$CONDENSED SPECTRUM=NO
##NPOINTS= 82
##XYDATA=(XY..XY) 1 
    29         79
    41         69
    42         39
    43        219
    45        126
    53          7
    54         69
    55        727
    56        129
    57         69
    59         19
    60        258
    61        352
    66          7
    67        299
    68        228
    69        471
    70        653
    71         99
    73        381
    74         48
    75          7
    78          7
    79         39
    80         48
    81        271
    82        439
    83        499
    84        489
    85         99
    86          7
    87         69
    88        999
    89        131
    90          7
    93         48
    94         59
    95        159
    96        551
    97        362
    98        299
    99         59
   100          7
   101        659
   102         68
   106          7
   107         48
   108          7
   109         79
   110        128
   111         79
   112          7
   113          7
   114          7
   115         79
   116          7
   119         39
   121          7
   122         79
   123        179
   124        433
   125        119
   126          7
   127         28
   128         39
   129         39
   130          7
   133          7
   137         99
   138         68
   143          7
   147          7
   148         48
   149        148
   150          7
   151          7
   155         19
   165          7
   166        128
   167         39
   169          7
   213          7