##TITLE=Library Entry 34932
##JCAMP-DX=Revision 4.10 
##DATA TYPE=MASS SPECTRUM
##SAMPLE DESCRIPTION=NIST Mass Spectrometry Data Center, 1990.
##NAMES=HP
##CAS NAME=3-Heptene, 2-methyl-, (E)-
##MOLFORM=C8H16
##CAS REGISTRY NO=692-96-6
##MP= -300
##BP= -300
##MW= 112
##$RETENTION INDEX=741
##$CONDENSED SPECTRUM=NO
##NPOINTS= 38
##XYDATA=(XY..XY) 1 
    15         17
    26         16
    27        146
    28         60
    29        113
    39        290
    40         68
    41        646
    42         72
    43        100
    44         13
    50         27
    51         51
    52         28
    53        143
    54         13
    55        952
    56        499
    57        107
    63         18
    65         44
    66         23
    67        147
    68        123
    69        999
    70        197
    71         11
    77         33
    78          8
    79         32
    80          8
    81         32
    82         10
    83         63
    84         56
    97         92
   112        237
   113         22