##TITLE=Library Entry 53710
##JCAMP-DX=Revision 4.10 
##DATA TYPE=MASS SPECTRUM
##SAMPLE DESCRIPTION=NIST Mass Spectrometry Data Center
##NAMES=HP
##CAS NAME=N-.epsilon.-Acetyl-L-lysine
##MOLFORM=C8H16N2O3
##CAS REGISTRY NO=692-04-6
##MP= -300
##BP= -300
##MW= 188
##$RETENTION INDEX=0
##$CONDENSED SPECTRUM=NO
##NPOINTS= 60
##XYDATA=(XY..XY) 1 
    15         37
    17          6
    18         24
    27         59
    28        110
    29         49
    30        386
    31         24
    39         47
    40         11
    41        105
    42        138
    43        504
    44        172
    45         43
    46         24
    53         22
    54         36
    55         62
    56        254
    57         59
    58         41
    59         29
    60         42
    65         19
    67         43
    68         33
    69         19
    70         64
    71         37
    72        225
    73        104
    74         63
    75         20
    77         18
    79         17
    82         92
    83        101
    84        999
    85         67
    86         65
    87         61
    91         47
    92         19
    97         20
    98         24
    99         28
   100        129
   101         49
   112         23
   114         23
   115         55
   120         21
   125         23
   126        394
   127         77
   128         73
   142         53
   143         59
   170         19