##TITLE=Library Entry 88008
##JCAMP-DX=Revision 4.10 
##DATA TYPE=MASS SPECTRUM
##SAMPLE DESCRIPTION=ORMSBG,10(10)842(1975); A. MANDELBAUM
##NAMES=HP
##CAS NAME=2,4-Hexadienedioic acid, dimethyl ester, (E,Z)-
##MOLFORM=C8H10O4
##CAS REGISTRY NO=692-92-2
##MP= -300
##BP= -300
##MW= 170
##$RETENTION INDEX=0
##$CONDENSED SPECTRUM=NO
##NPOINTS= 32
##XYDATA=(XY..XY) 1 
    50         98
    51        205
    52        161
    53         98
    54         76
    55         71
    56         18
    57         22
    59        188
    65         22
    67         18
    68         94
    69         18
    79        196
    80         80
    81         18
    83         36
    85         18
    91         18
    95         27
    96         18
   107         45
   108         27
   110         18
   111        999
   112         71
   123        116
   139        170
   140         18
   155         36
   170         36
   171          3