##TITLE=Library Entry 3535
##JCAMP-DX=Revision 4.10 
##DATA TYPE=MASS SPECTRUM
##SAMPLE DESCRIPTION=Exported from NIST MS Search
##NAMES=HP
##CAS NAME=3-Hexene, 2,2,5,5-tetramethyl-, (Z)-
##MOLFORM=C10H20
##CAS REGISTRY NO=692-47-7
##MP= -300
##BP= -300
##MW= 140
##$RETENTION INDEX=0
##$CONDENSED SPECTRUM=NO
##NPOINTS= 77
##XYDATA=(XY..XY) 1 
    26         24
    27        417
    28         70
    29        423
    30         10
    37          6
    38         22
    39        435
    40         66
    41        999
    42        145
    43        297
    44         10
    45          5
    46          5
    49          1
    50         22
    51         70
    52         32
    53        190
    54         41
    55        796
    56         99
    57        743
    58         34
    59          1
    61          1
    62          5
    63         16
    64          3
    65         43
    66         15
    67        131
    68         22
    69        935
    70        961
    71        123
    72          5
    73          1
    74          2
    75          2
    76          2
    77         56
    78         13
    79         50
    80         10
    81         50
    82         98
    83        830
    84        268
    85         21
    86          2
    87          1
    89          2
    90          1
    91         28
    92          5
    93         16
    94          7
    95         45
    96         13
    97        201
    98         17
   105          2
   107          3
   108          2
   109         17
   110         11
   111          6
   112          1
   123          2
   124          1
   125        197
   126         20
   127          4
   140         13
   141          2