##TITLE=Library Entry 34899
##JCAMP-DX=Revision 4.10 
##DATA TYPE=MASS SPECTRUM
##SAMPLE DESCRIPTION=NIST Mass Spectrometry Data Center, 1990.
##NAMES=HP
##CAS NAME=3-Hexene, 2-methyl-, (E)-
##MOLFORM=C7H14
##CAS REGISTRY NO=692-24-0
##MP= -300
##BP= -300
##MW= 98
##$RETENTION INDEX=647
##$CONDENSED SPECTRUM=NO
##NPOINTS= 32
##XYDATA=(XY..XY) 1 
    14         64
    15        101
    16         24
    26         40
    27        103
    28        253
    29        153
    38         46
    39        488
    40         91
    41        873
    42         72
    43        144
    50         51
    51         86
    52         34
    53        150
    55        880
    56        400
    57         33
    63         23
    65         55
    66         25
    67        150
    69        999
    70        103
    77         36
    79         29
    81         25
    83        163
    98        307
    99         26