##TITLE=Library Entry 34217
##JCAMP-DX=Revision 4.10 
##DATA TYPE=MASS SPECTRUM
##SAMPLE DESCRIPTION=Exported from NIST MS Search
##NAMES=HP
##CAS NAME=3-Hexene, 2,5-dimethyl-, (E)-
##MOLFORM=C8H16
##CAS REGISTRY NO=692-70-6
##MP= -300
##BP= -300
##MW= 112
##$RETENTION INDEX=695
##$CONDENSED SPECTRUM=NO
##NPOINTS= 78
##XYDATA=(XY..XY) 1 
    12          1
    13          2
    14          8
    15         85
    16          2
    25          1
    26         15
    27        243
    28         39
    29        120
    30          3
    31          1
    36          1
    37          4
    38         16
    39        228
    40         34
    41        610
    42         44
    43        137
    44          5
    45          2
    46          3
    47          1
    48          1
    49          1
    50         17
    51         37
    52         16
    53         99
    54         20
    55        529
    56        400
    57        137
    58          6
    59          1
    60          1
    61          1
    62          4
    63         11
    64          2
    65         20
    66         10
    67         57
    68        104
    69        999
    70        160
    71          8
    72          1
    73          1
    74          2
    75          1
    76          1
    77         21
    78          5
    79         22
    80          4
    81         36
    82          5
    83          6
    84          2
    85          1
    86          1
    87          1
    89          1
    91          3
    92          1
    93          1
    94          1
    95          6
    96          3
    97         20
    98          2
   110          1
   111          4
   112        178
   113         16
   114          1