##TITLE=Library Entry 88011
##JCAMP-DX=Revision 4.10 
##DATA TYPE=MASS SPECTRUM
##SAMPLE DESCRIPTION=ORMSBG,10(10)842(1975); A. MANDELBAUM
##NAMES=HP
##CAS NAME=2,4-Hexadienedioic acid, dimethyl ester, (Z,Z)-
##MOLFORM=C8H10O4
##CAS REGISTRY NO=692-91-1
##MP= -300
##BP= -300
##MW= 170
##$RETENTION INDEX=0
##$CONDENSED SPECTRUM=NO
##NPOINTS= 21
##XYDATA=(XY..XY) 1 
    41         44
    50         55
    51        143
    52        110
    53         44
    54         44
    55         33
    59         88
    68         66
    79        109
    80         44
    83         22
    95         33
   107         22
   108         22
   111        999
   112         76
   123        143
   139        110
   155         30
   170         77