##TITLE=Library Entry 10606
##JCAMP-DX=Revision 4.10 
##DATA TYPE=MASS SPECTRUM
##SAMPLE DESCRIPTION=Exported from NIST MS Search
##NAMES=HP
##CAS NAME=2-Propen-1-ol, 2-chloro-, acetate
##MOLFORM=C5H7ClO2
##CAS REGISTRY NO=692-72-8
##MP= -300
##BP= -300
##MW= 134
##$RETENTION INDEX=0
##$CONDENSED SPECTRUM=NO
##NPOINTS= 91
##XYDATA=(XY..XY) 1 
    12          1
    13          3
    14         11
    15         47
    16          3
    17          3
    18          9
    19          1
    24          1
    25          5
    26         29
    27         61
    28         23
    29         93
    30          5
    31         60
    32          2
    35          2
    36          4
    37         14
    38         23
    39        128
    40         15
    41          8
    42         37
    43        999
    44         28
    45         66
    46          1
    47          3
    48          2
    49         36
    50          1
    51         12
    52          1
    53          7
    54          2
    55         27
    56          9
    57        223
    58          8
    59          1
    60         50
    61         44
    62         19
    63         26
    64          6
    65          9
    66          1
    67          2
    68          1
    69          1
    70          2
    71          1
    72          1
    73         13
    74          5
    75         58
    76          5
    77         20
    78          2
    79          2
    81          1
    82          1
    83          1
    84          1
    85          1
    86          1
    87          1
    88          1
    89          2
    90          1
    91         28
    92         51
    93         12
    94         17
    95          2
    96          1
    97          2
    98          2
    99        489
   100         28
   101          4
   104          1
   105          4
   106          1
   107          1
   116          1
   117          1
   119          1
   134          1