##TITLE=Library Entry 6663
##JCAMP-DX=Revision 4.10 
##DATA TYPE=MASS SPECTRUM
##SAMPLE DESCRIPTION=Japan AIST/NIMC Database- Spectrum MS-NW-4432
##NAMES=HP
##CAS NAME=Formic acid, ethenyl ester
##MOLFORM=C3H4O2
##CAS REGISTRY NO=692-45-5
##MP= -300
##BP= -300
##MW= 72
##$RETENTION INDEX=1090
##$CONDENSED SPECTRUM=NO
##NPOINTS= 30
##XYDATA=(XY..XY) 1 
    12          8
    13         22
    15        264
    17          2
    18          7
    24          6
    25         21
    26        115
    27        314
    28         42
    29        692
    30         10
    31         10
    32          1
    36          1
    39          3
    40          4
    41         19
    42        117
    43        999
    44        863
    45        153
    46         67
    47          3
    69          2
    70          3
    71          1
    72         97
    73          5
    74          1