##TITLE=Library Entry 35582
##JCAMP-DX=Revision 4.10 
##DATA TYPE=MASS SPECTRUM
##SAMPLE DESCRIPTION=Exported from NIST MS Search
##NAMES=HP
##CAS NAME=1,2-Hexanediol
##MOLFORM=C6H14O2
##CAS REGISTRY NO=6920-22-5
##MP= -300
##BP= -300
##MW= 118
##$RETENTION INDEX=1147
##$CONDENSED SPECTRUM=NO
##NPOINTS= 77
##XYDATA=(XY..XY) 1 
    14          1
    15         27
    16          1
    17          5
    18         23
    19          3
    26          5
    27         93
    28         22
    29        118
    30          7
    31        122
    32          7
    33          6
    36          1
    37          1
    38          3
    39         46
    40          7
    41        432
    42         37
    43        265
    44         43
    45        138
    46          4
    47          4
    49          1
    50          2
    51          3
    52          1
    53         11
    54          4
    55         94
    56         16
    57        121
    58         16
    59         21
    60         17
    61        180
    62          5
    63          1
    65          1
    66          1
    67         19
    68          3
    69        999
    70         58
    71         13
    72         13
    73         30
    74          3
    75          9
    76          2
    77          1
    79          1
    81          5
    82          4
    83         11
    84          1
    85          4
    86         44
    87        445
    88         25
    89          8
    90          1
    91          1
    95          1
    97          1
    99          1
   100          1
   101          7
   102          1
   103          2
   115          1
   116          1
   117          6
   118          1