##TITLE=Library Entry 35777
##JCAMP-DX=Revision 4.10 
##DATA TYPE=MASS SPECTRUM
##SAMPLE DESCRIPTION=Chemical Concepts
##NAMES=HP
##CAS NAME=Hexadecane-1,2-diol
##MOLFORM=C16H34O2
##CAS REGISTRY NO=6920-24-7
##MP= -300
##BP= -300
##MW= 258
##$RETENTION INDEX=2031
##$CONDENSED SPECTRUM=NO
##NPOINTS= 120
##XYDATA=(XY..XY) 1 
    26          2
    27         84
    29        233
    30          8
    31         79
    33          2
    39         43
    41        543
    42         98
    43        851
    44         54
    45         29
    46          1
    49          2
    52          1
    53         29
    54         87
    55        881
    56        152
    57        970
    58         58
    59         18
    60         35
    61        251
    62          5
    63          3
    65          6
    66         28
    67        254
    68        160
    69        999
    70        154
    71        455
    72         33
    73          7
    74          5
    75          4
    76          2
    77          5
    78          2
    79         27
    80         16
    81        267
    82        241
    83        968
    84        125
    85        245
    86         20
    87          8
    91          3
    92          3
    93         14
    94          8
    95        223
    96        188
    97        972
    98        104
    99         75
   100          9
   101          7
   105          0
   108          4
   109         82
   110         63
   111        546
   112         61
   113         48
   114          5
   115          7
   121          4
   122          7
   123         34
   124         34
   125        328
   126         33
   127         36
   128          5
   129          5
   135          3
   136          4
   137         20
   138         21
   139        127
   140         17
   141          9
   143          8
   149          3
   151          6
   152         19
   153         61
   154         11
   155          2
   157          3
   165          7
   166         11
   167         17
   168          5
   171          5
   179          6
   180         11
   181          6
   182          8
   183          9
   184          3
   185          2
   193          1
   194         11
   199          9
   200          4
   208         28
   209         15
   210          3
   222         20
   223          5
   225          4
   226         18
   227        598
   228        101
   229          9
   240          0