##TITLE=Library Entry 1900
##JCAMP-DX=Revision 4.10 
##DATA TYPE=MASS SPECTRUM
##SAMPLE DESCRIPTION=Japan AIST/NIMC Database- Spectrum MS-IW-2331
##NAMES=HP
##CAS NAME=2-Propyn-1-amine, N,N-di-2-propynyl-
##MOLFORM=C9H9N
##CAS REGISTRY NO=6921-29-5
##MP= -300
##BP= -300
##MW= 131
##$RETENTION INDEX=0
##$CONDENSED SPECTRUM=NO
##NPOINTS= 74
##XYDATA=(XY..XY) 1 
    14          2
    15         11
    24          1
    25          5
    26         22
    27         44
    28         75
    29          3
    30          4
    36          6
    37        100
    38        359
    39        999
    40        136
    41        255
    42        233
    43          7
    44          1
    46          2
    49          5
    50         49
    51        201
    52        273
    53         92
    54         49
    55          8
    56          1
    60          2
    61         15
    62         49
    63        288
    64        186
    65        893
    66        912
    67         75
    68         68
    69          3
    73          3
    74         14
    75         20
    76         48
    77        468
    78        230
    79        115
    80         47
    81          9
    82          4
    86          1
    87          3
    88          4
    89         50
    90        232
    91        135
    92        539
    93         45
    94          3
    98          1
   101         20
   102        111
   103        453
   104        136
   105         30
   106         79
   107          7
   114          1
   115          3
   116         19
   117          2
   128         54
   129         21
   130        952
   131        779
   132         77
   133          4