##TITLE=Library Entry 40511
##JCAMP-DX=Revision 4.10 
##DATA TYPE=MASS SPECTRUM
##SAMPLE DESCRIPTION=Japan AIST/NIMC Database- Spectrum MS-IW-1778
##NAMES=HP
##CAS NAME=N,N'-Methylenebis(formamide)
##MOLFORM=C3H6N2O2
##CAS REGISTRY NO=6921-98-8
##MP= -300
##BP= -300
##MW= 102
##$RETENTION INDEX=0
##$CONDENSED SPECTRUM=NO
##NPOINTS= 45
##XYDATA=(XY..XY) 1 
    13          2
    14          3
    15          3
    16         10
    17         24
    18        144
    19          3
    26          3
    27         30
    28        527
    29        241
    30        728
    31         15
    32          2
    38          3
    39          3
    40          6
    41          9
    42         21
    43         69
    44         51
    45         84
    46        350
    47          8
    53          1
    54          2
    55          4
    56         11
    57         32
    58        149
    59         97
    60          3
    69          1
    71          7
    72          2
    73        999
    74        491
    75         19
    76          1
    84         57
    85          3
    86          2
   101          4
   102         48
   103          2