##TITLE=Library Entry 1779
##JCAMP-DX=Revision 4.10 
##DATA TYPE=MASS SPECTRUM
##SAMPLE DESCRIPTION=Exported from NIST MS Search
##NAMES=HP
##CAS NAME=1-Propyne, 3,3'-oxybis-
##MOLFORM=C6H6O
##CAS REGISTRY NO=6921-27-3
##MP= -300
##BP= -300
##MW= 94
##$RETENTION INDEX=0
##$CONDENSED SPECTRUM=NO
##NPOINTS= 54
##XYDATA=(XY..XY) 1 
    24         21
    25         77
    26        157
    27        201
    28         85
    29        242
    30         13
    31         14
    32          2
    36         23
    37        145
    38        261
    39        999
    40        411
    41         24
    42          9
    43         13
    44          7
    45          1
    48          1
    49          3
    50          8
    51         13
    52         17
    53        168
    54         18
    55        322
    56         13
    57          3
    58          3
    59          1
    60          2
    61          8
    62         18
    63         57
    64        518
    65        314
    66         35
    67          3
    68         12
    69          2
    70          1
    73          1
    74          2
    75          1
    76          2
    77          1
    78          2
    79          3
    91          3
    92          1
    93         22
    94          3
    95          1