##TITLE=Library Entry 33295
##JCAMP-DX=Revision 4.10 
##DATA TYPE=MASS SPECTRUM
##SAMPLE DESCRIPTION=NIST Mass Spectrometry Data Center, 1994
##NAMES=HP
##CAS NAME=10-Dodecyn-1-ol
##MOLFORM=C12H22O
##CAS REGISTRY NO=69221-99-4
##MP= -300
##BP= -300
##MW= 182
##$RETENTION INDEX=0
##$CONDENSED SPECTRUM=NO
##NPOINTS= 63
##XYDATA=(XY..XY) 1 
    17          4
    18          8
    19          8
    26          0
    27        313
    29        227
    31        265
    39        363
    40         89
    41        947
    42        127
    43        232
    44         23
    50         23
    51         77
    52         65
    53        342
    54        363
    55        746
    56         71
    57         98
    58         13
    62          4
    63         14
    65         94
    66        115
    67        922
    68        999
    69        299
    70         51
    71         84
    72         10
    77         95
    79        378
    80        145
    81        486
    82        164
    83         50
    84         29
    85         31
    86          4
    91         74
    93        255
    94         97
    95        437
    96        111
    97         46
    98         32
    99          7
   105         12
   107         84
   108         38
   109        105
   110         26
   111         24
   112         10
   121         54
   122         24
   123         13
   125          8
   135         44
   136         18
   149          4