##TITLE=Library Entry 83470
##JCAMP-DX=Revision 4.10 
##DATA TYPE=MASS SPECTRUM
##SAMPLE DESCRIPTION=Chemical Concepts
##NAMES=HP
##CAS NAME=2H-Pyran-3-carbonitrile, 5,6-dihydro-4,6,6-trimethyl-2-oxo-
##MOLFORM=C9H11NO2
##CAS REGISTRY NO=69245-73-4
##MP= -300
##BP= -300
##MW= 165
##$RETENTION INDEX=0
##$CONDENSED SPECTRUM=NO
##NPOINTS= 101
##XYDATA=(XY..XY) 1 
    25          0
    26         32
    27        176
    28         59
    29         51
    30          1
    31          3
    37         40
    38         58
    39        304
    40         41
    41        191
    42        146
    43        664
    44         16
    45          4
    48          0
    49          6
    50         55
    51        115
    52        360
    53        150
    54         20
    55         26
    56         84
    57          9
    58          3
    59          4
    61          4
    62         10
    63         34
    64         58
    65         33
    66         38
    67        749
    68         32
    69          4
    70          1
    71          1
    73          1
    74          4
    75         15
    76         17
    77         54
    78         54
    79        269
    80         81
    81         28
    82          4
    83          1
    84          0
    85          1
    87          2
    88          2
    89          2
    90          1
    91         15
    92          7
    93         11
    94         22
    95          5
    96          1
    97          1
   102          1
   103          1
   104         15
   105          2
   106         20
   107        999
   108        271
   109         18
   110          1
   111          0
   115          0
   116          1
   117          1
   118          6
   119         33
   120         15
   121         12
   122         36
   123          3
   125          0
   132          3
   134          1
   137          2
   138          7
   139          1
   141          3
   142          1
   147         49
   148          5
   149          6
   150        212
   151         19
   152          1
   155          1
   164          0
   165        194
   166         20
   167          2