##TITLE=Library Entry 60177
##JCAMP-DX=Revision 4.10 
##DATA TYPE=MASS SPECTRUM
##SAMPLE DESCRIPTION=A.A.Kutin, Moscow, Russia
##NAMES=HP
##CAS NAME=Dithiocarbamic acid, N-methyl-N-phenyl-, benzyl ester
##MOLFORM=C15H15NS2
##CAS REGISTRY NO=69243-59-0
##MP= -300
##BP= -300
##MW= 273
##$RETENTION INDEX=0
##$CONDENSED SPECTRUM=NO
##NPOINTS= 116
##XYDATA=(XY..XY) 1 
    33          7
    34          4
    35          0
    36          1
    37          9
    38         41
    39        233
    41         59
    42         18
    43          4
    44         18
    45        124
    46          6
    47         10
    50        102
    51        296
    52         47
    53         14
    54          2
    55          0
    57          3
    58          5
    59          4
    60          0
    61          7
    62         36
    63        136
    64         65
    65        389
    66         26
    68          0
    69         27
    70          5
    71          5
    72         18
    73         11
    74         41
    75         24
    76         60
    77        561
    78        105
    79         82
    80          5
    81          3
    82          7
    83          3
    84          1
    85          0
    86          3
    87          3
    89         86
    91        999
    92         78
    93          7
    94          4
    95          3
    96          2
    97         10
   102          2
   103          7
   104         62
   105         22
   106        111
   107         15
   108         24
   109        197
   110         20
   111          9
   116          1
   117          4
   118         41
   119          5
   121         84
   122         15
   123         20
   124          3
   125          0
   132          2
   133          1
   135         98
   136         28
   137          5
   138          5
   139          0
   141         32
   142          1
   143          1
   148         12
   149         44
   150        253
   151         25
   152         12
   153          1
   162          0
   164         19
   165          4
   166          5
   167        142
   168         16
   169          2
   180          2
   181         12
   182        162
   183         16
   184         11
   194          2
   196          1
   199          0
   207          0
   208          2
   240         18
   241          2
   242          0
   273         62
   274          8
   275          5