##TITLE=Library Entry 31767
##JCAMP-DX=Revision 4.10 
##DATA TYPE=MASS SPECTRUM
##SAMPLE DESCRIPTION=Exported from NIST MS Search
##NAMES=HP
##CAS NAME=Benzenediazonium, 4-hydroxy-, hydroxide, inner salt
##MOLFORM=C6H4N2O
##CAS REGISTRY NO=6925-01-5
##MP= -300
##BP= -300
##MW= 120
##$RETENTION INDEX=0
##$CONDENSED SPECTRUM=NO
##NPOINTS= 43
##XYDATA=(XY..XY) 1 
    25         30
    26         80
    27         20
    28         51
    29         20
    31        170
    32         10
    36         30
    37        170
    38        460
    39         70
    40         20
    41         10
    42         10
    44         20
    46         60
    47         10
    48         10
    49         40
    50         80
    51         40
    52         30
    53         30
    54         10
    55         10
    60         60
    61        140
    62        230
    63        830
    64        999
    65         90
    66         50
    73         10
    74         20
    75         10
    76         10
    78         10
    92        380
    93         30
    94        180
    95         20
   120        830
   121         70