##TITLE=Library Entry 1604
##JCAMP-DX=Revision 4.10 
##DATA TYPE=MASS SPECTRUM
##SAMPLE DESCRIPTION=James Little,Eastman Chem.Co.,Kingsport,TN
##NAMES=HP
##CAS NAME=2-Methoxyethylsemithiocarbazide
##MOLFORM=C4H11N3OS
##CAS REGISTRY NO=6926-54-1
##MP= -300
##BP= -300
##MW= 149
##$RETENTION INDEX=0
##$CONDENSED SPECTRUM=NO
##NPOINTS= 38
##XYDATA=(XY..XY) 1 
    27         83
    28        202
    29        251
    30        305
    31        293
    32        999
    41         43
    42        105
    43        198
    44        219
    45        313
    47         22
    55         33
    57         32
    58        119
    59        498
    60        306
    61         29
    69         42
    72         28
    73         41
    74        111
    75        155
    76         35
    86        364
    90         89
    91         84
    99         43
   100        106
   101        206
   102         31
   117        168
   118         76
   119         14
   134         19
   149        870
   150         83
   151         45