##TITLE=Library Entry 24536
##JCAMP-DX=Revision 4.10 
##DATA TYPE=MASS SPECTRUM
##SAMPLE DESCRIPTION=James Little, Eastman Chemical Co.
##NAMES=HP
##CAS NAME=Hexanoic acid, 2-ethyl-, 2-octyldodecyl ester
##MOLFORM=C28H56O2
##CAS REGISTRY NO=69275-04-3
##MP= -300
##BP= -300
##MW= 424
##$RETENTION INDEX=0
##$CONDENSED SPECTRUM=NO
##NPOINTS= 148
##XYDATA=(XY..XY) 1 
    26          2
    27         24
    28          8
    29         82
    30          2
    31          2
    39         21
    40          6
    41        234
    42         48
    43        404
    44         15
    45          6
    47          1
    51          1
    53         11
    54         32
    55        333
    56        239
    57        999
    58         44
    59          7
    65          3
    66          4
    67         58
    68         52
    69        255
    70        145
    71        243
    72         14
    73         30
    74          2
    77          2
    79          9
    80          6
    81         51
    82         70
    83        247
    84         88
    85        168
    86         13
    87         25
    88        203
    89         21
    90          2
    91          2
    93          3
    94          2
    95         29
    96         57
    97        261
    98        103
    99        179
   100         14
   101         28
   102          5
   103          4
   107          1
   109         12
   110         31
   111        164
   112         52
   113         34
   114          4
   115         27
   116         44
   117          7
   118          1
   122          1
   123          5
   124         21
   125         73
   126         83
   127        196
   128         17
   129         12
   130          1
   137          4
   138         43
   139        118
   140         51
   141         17
   142          3
   143          9
   144         34
   145        400
   146         35
   151          2
   152         10
   153         18
   154         94
   155         35
   157          1
   158          2
   159          2
   165          2
   166         34
   167         72
   168         31
   169         10
   170          2
   180          6
   181          9
   182         52
   183         24
   184          4
   194          4
   195          4
   196          6
   197          6
   198          4
   199          1
   209          4
   210          3
   211          3
   212          1
   222          2
   223          2
   224          3
   225          3
   226          2
   236          1
   237          2
   238          3
   239          2
   240          1
   252         18
   254          2
   256          4
   257          1
   267          2
   278          3
   279          3
   280        106
   281         50
   282         10
   284          3
   289          1
   297          2
   298          1
   307          6
   308          2
   312          1
   325         54
   326         13
   350          1
   368          1
   424          1