##TITLE=Library Entry 96724
##JCAMP-DX=Revision 4.10 
##DATA TYPE=MASS SPECTRUM
##SAMPLE DESCRIPTION=M. MIYAKE, DEP. NEUROPSYCHIATRY, EHIME UNIV., EHIME
##NAMES=HP
##CAS NAME=.beta.-Citryl-L-glutamic acid tetramethyl ester
##MOLFORM=C15H23NO10
##CAS REGISTRY NO=69281-06-7
##MP= -300
##BP= -300
##MW= 377
##$RETENTION INDEX=0
##$CONDENSED SPECTRUM=NO
##NPOINTS= 86
##XYDATA=(XY..XY) 1 
    53         21
    54         29
    55        106
    56        287
    57        141
    58         32
    59        267
    60         20
    67         38
    68         31
    69        116
    70         29
    71         61
    74        154
    75         22
    81         21
    82        126
    83         42
    84        359
    85         59
    87         34
    88         63
    95         24
    97         23
    98         62
    99         47
   100        105
   101        357
   102         23
   110         53
   111         47
   114         42
   115         26
   116        999
   117         84
   125         24
   126         79
   127         68
   128        130
   142        126
   143        875
   144        202
   145         29
   149         41
   152         22
   153         61
   154         23
   159         32
   160        111
   170         42
   174         85
   175        534
   176        201
   177         26
   180         31
   185         30
   194         33
   204         27
   208         85
   209         20
   212         27
   222         22
   226        105
   227         24
   236         59
   237         20
   240         26
   253         21
   254        106
   255         21
   258         21
   259         29
   268         44
   272         37
   282         31
   285         89
   286        108
   287         22
   295         34
   296         22
   313         52
   314         64
   318         63
   345         36
   346         60
   347         20