##TITLE=Library Entry 72067
##JCAMP-DX=Revision 4.10 
##DATA TYPE=MASS SPECTRUM
##SAMPLE DESCRIPTION=Japan AIST/NIMC Database- Spectrum MS-IW-2626
##NAMES=HP
##CAS NAME=1-Amino-4-methylpiperazine
##MOLFORM=C5H13N3
##CAS REGISTRY NO=6928-85-4
##MP= -300
##BP= -300
##MW= 115
##$RETENTION INDEX=0
##$CONDENSED SPECTRUM=NO
##NPOINTS= 63
##XYDATA=(XY..XY) 1 
    14          3
    15         55
    16          2
    17          7
    18         22
    26         18
    27         82
    28        193
    29         84
    30        100
    31          9
    38          2
    39         11
    40         19
    41         81
    42        577
    43        615
    44        515
    45         28
    46          1
    48          1
    49          3
    50          1
    51          2
    52          8
    53          5
    54         62
    55         62
    56        993
    57        171
    58        421
    59         23
    60          2
    66          1
    67          4
    68         12
    69         14
    70        319
    71        117
    72        103
    73         51
    74          2
    80          3
    81          6
    82         10
    83         22
    84         24
    85         21
    86         17
    87          2
    95          7
    96          5
    97         40
    98        230
    99        999
   100        157
   101          8
   112          1
   113          1
   114          2
   115        884
   116         59
   117          1