##TITLE=Library Entry 44744
##JCAMP-DX=Revision 4.10 
##DATA TYPE=MASS SPECTRUM
##SAMPLE DESCRIPTION=Chemical Concepts
##NAMES=HP
##CAS NAME=Hexadecanoic acid, 15-methyl-, methyl ester
##MOLFORM=C18H36O2
##CAS REGISTRY NO=6929-04-0
##MP= -300
##BP= -300
##MW= 284
##$RETENTION INDEX=1990
##$CONDENSED SPECTRUM=NO
##NPOINTS= 113
##XYDATA=(XY..XY) 1 
    25          3
    26          3
    27         33
    28         11
    29        113
    30          6
    31          8
    33          1
    35          1
    37          1
    38          3
    39         31
    41        271
    42         59
    43        444
    44         20
    45         16
    46          2
    50          3
    51          2
    52          3
    53         12
    54         20
    55        238
    56         72
    57        175
    58         15
    59         72
    60          5
    61          1
    62          0
    67         32
    68         16
    69        137
    70         25
    71         61
    72          4
    73         13
    74        999
    75        229
    76         12
    77          4
    78          5
    79          6
    80          4
    81         25
    82         10
    83         81
    84         27
    85         30
    86          3
    87        618
    88         55
    94          1
    95         17
    96          9
    97         65
    98         30
    99          7
   101         41
   102          4
   103          1
   105          2
   106          2
   110          5
   111         24
   112          3
   113          2
   114          2
   115          9
   116          5
   117          0
   119          0
   120          2
   121          6
   122          3
   123          5
   124          2
   125         11
   126          1
   127          2
   128          3
   129         33
   130          7
   131          2
   141          1
   143         95
   144         12
   145          0
   146          1
   147          0
   148          0
   149          2
   150          1
   157          9
   158          2
   171          8
   172          1
   185         25
   186          2
   199         31
   200          3
   213          3
   226          1
   227          8
   228          1
   241         30
   242          8
   253          6
   254          1
   255          7
   256          0
   285          7