##TITLE=Library Entry 107312
##JCAMP-DX=Revision 4.10 
##DATA TYPE=MASS SPECTRUM
##SAMPLE DESCRIPTION=HCACAV,61(7)2681(1978);A.P. ALDER ET AL
##NAMES=HP
##CAS NAME=Cyclohexanone, 2,3,3-trimethyl-2-(3-methyl-1,3-butadienyl)-, (E)-
##MOLFORM=C14H22O
##CAS REGISTRY NO=69296-91-9
##MP= -300
##BP= -300
##MW= 206
##$RETENTION INDEX=0
##$CONDENSED SPECTRUM=NO
##NPOINTS= 28
##XYDATA=(XY..XY) 1 
    41        510
    43        260
    53        130
    55        300
    67        200
    69        270
    77        250
    79        320
    81        150
    91        320
    93        460
    94        430
    95        740
   105        200
   107        530
   109        320
   119        180
   121        260
   122        280
   123        999
   132         90
   135        230
   137        300
   149        100
   163        100
   173         40
   191        590
   206        770