##TITLE=Library Entry 30084
##JCAMP-DX=Revision 4.10 
##DATA TYPE=MASS SPECTRUM
##SAMPLE DESCRIPTION=Japan AIST/NIMC Database- Spectrum MS-NW-2153
##NAMES=HP
##CAS NAME=Undecanol-3
##MOLFORM=C11H24O
##CAS REGISTRY NO=6929-08-4
##MP= -300
##BP= -300
##MW= 172
##$RETENTION INDEX=1308
##$CONDENSED SPECTRUM=NO
##NPOINTS= 73
##XYDATA=(XY..XY) 1 
    15          4
    17          2
    18          7
    26          3
    27         85
    28         16
    29        144
    30          5
    31        105
    32          4
    38          1
    39         53
    40          9
    41        271
    42         69
    43        219
    44         16
    45         11
    50          1
    51          4
    52          2
    53         16
    54         21
    55        346
    56        149
    57        214
    58        113
    59        999
    60         33
    61          2
    65          3
    66          2
    67         28
    68         20
    69        622
    70        136
    71         52
    72         37
    73          9
    77          2
    79          3
    81         15
    82         18
    83        339
    84         72
    85         24
    86          2
    87          1
    95          6
    96         10
    97         72
    98         30
    99          5
   109          1
   110          3
   111         22
   112         14
   113          1
   114          2
   123          1
   124          4
   125         33
   126         11
   127          1
   141         13
   142          4
   143        200
   144         20
   145          1
   154         63
   155          8
   170          2
   171          3