##TITLE=Library Entry 109761
##JCAMP-DX=Revision 4.10 
##DATA TYPE=MASS SPECTRUM
##SAMPLE DESCRIPTION=Chemical Concepts
##NAMES=HP
##CAS NAME=Cyclohexanone, 2,3,3-trimethyl-2-(3-methylbutyl)-
##MOLFORM=C14H26O
##CAS REGISTRY NO=69296-95-3
##MP= -300
##BP= -300
##MW= 210
##$RETENTION INDEX=0
##$CONDENSED SPECTRUM=NO
##NPOINTS= 101
##XYDATA=(XY..XY) 1 
    26         14
    27        129
    28         44
    29        175
    30          5
    38          6
    39        140
    40         30
    41        720
    42         79
    43        378
    44         14
    45          9
    50          6
    51         16
    52         10
    53         83
    54         24
    55        520
    56        176
    57        235
    58         13
    59         25
    63          6
    65         26
    66         13
    67        134
    68         41
    69        912
    70        100
    71         80
    72         32
    73          8
    77         39
    78          9
    79         64
    80         14
    81        145
    82         58
    83        443
    84        154
    85        133
    86         22
    87          4
    91         31
    92         15
    93        109
    94         18
    95        195
    96         55
    97        333
    98        360
    99         51
   100          5
   104          4
   105         14
   107         87
   108         18
   109        128
   110         23
   111        147
   112         34
   113         12
   115          5
   116          4
   119          9
   120          5
   121         38
   122         13
   123         77
   124         27
   125        999
   126         93
   127         18
   128          5
   131          4
   135        186
   136         25
   137         23
   138          8
   139         52
   140        969
   141         93
   142         11
   149         17
   151          5
   153        666
   154        117
   155         16
   158          4
   165          7
   166          5
   167         22
   168          5
   177         14
   191          4
   195         25
   196          6
   209          4
   210         27
   211          9