##TITLE=Library Entry 11084
##JCAMP-DX=Revision 4.10 
##DATA TYPE=MASS SPECTRUM
##SAMPLE DESCRIPTION=HCACAV,61(7)2671(1978); R. KAISER AND D. LAMPARSKY
##NAMES=HP
##CAS NAME=1-Naphthalenol, decahydro-4a-methyl-8-methylene-2-(1-methylethyl)
-, acetate, [1S-(1.alpha.,2.beta.,4a.alpha.,8a.alpha.)]-
##MOLFORM=C17H28O2
##CAS REGISTRY NO=69297-57-0
##MP= -300
##BP= -300
##MW= 264
##$RETENTION INDEX=0
##$CONDENSED SPECTRUM=NO
##NPOINTS= 17
##XYDATA=(XY..XY) 1 
    41        240
    43        999
    55        180
    67        150
    79        190
    81        190
    93        370
   107        430
   109        770
   119        150
   133        200
   148        180
   151        180
   161        770
   189        470
   204        640
   264         10