##TITLE=Library Entry 45154
##JCAMP-DX=Revision 4.10 
##DATA TYPE=MASS SPECTRUM
##SAMPLE DESCRIPTION=Japan AIST/NIMC Database- Spectrum MS-IW-1535
##NAMES=HP
##CAS NAME=2-Chloroethyl ethyl sulfide
##MOLFORM=C4H9ClS
##CAS REGISTRY NO=693-07-2
##MP= -300
##BP= -300
##MW= 124
##$RETENTION INDEX=0
##$CONDENSED SPECTRUM=NO
##NPOINTS= 75
##XYDATA=(XY..XY) 1 
    15          2
    25          1
    26         21
    27        152
    28         35
    29        125
    30          3
    31          2
    32          2
    33          2
    34          6
    35         41
    36          5
    37          2
    38          1
    39          2
    41         41
    42          2
    43          3
    44          5
    45         86
    46         55
    47        343
    48         10
    49         27
    50          2
    51          4
    53          1
    55          3
    57         11
    58         36
    59         77
    60         43
    61        168
    62        104
    63         94
    64         23
    65         26
    66          5
    68          1
    69          1
    73         17
    74          2
    75        999
    76         45
    77         49
    78          2
    80          1
    81          6
    83          2
    87          1
    88          6
    89         49
    90          6
    91          3
    92          3
    93          3
    94          4
    95          9
    96         19
    97          4
    98          7
   104          1
   105          1
   109         41
   110          2
   111         14
   121          1
   122          3
   123          4
   124        284
   125         16
   126        104
   127          5
   128          4