##TITLE=Library Entry 38494
##JCAMP-DX=Revision 4.10 
##DATA TYPE=MASS SPECTRUM
##SAMPLE DESCRIPTION=Japan AIST/NIMC Database- Spectrum MS-NW-1576
##NAMES=HP
##CAS NAME=n-Amyl ether
##MOLFORM=C10H22O
##CAS REGISTRY NO=693-65-2
##MP= -300
##BP= -300
##MW= 158
##$RETENTION INDEX=1057
##$CONDENSED SPECTRUM=NO
##NPOINTS= 49
##XYDATA=(XY..XY) 1 
    15          4
    18          2
    26          4
    27         80
    28          9
    29        125
    30          4
    31         16
    38          1
    39         44
    40          9
    41        166
    42        173
    43        830
    44         27
    45         23
    51          1
    53          7
    54          4
    55        120
    56         12
    57         13
    58          3
    59          9
    60          1
    66          2
    67          3
    68          7
    69        170
    70        419
    71        999
    72         55
    73          4
    83          1
    85          3
    86          4
    87         20
    88          2
    89         17
    97          1
    99          1
   101         59
   102          4
   103          2
   115          9
   116          1
   129          7
   158         19
   159          2