##TITLE=Library Entry 36012
##JCAMP-DX=Revision 4.10 
##DATA TYPE=MASS SPECTRUM
##SAMPLE DESCRIPTION=Japan AIST/NIMC Database- Spectrum MS-NW-3116
##NAMES=HP
##CAS NAME=2-Propanamine, N,N'-methanetetraylbis-
##MOLFORM=C7H14N2
##CAS REGISTRY NO=693-13-0
##MP= -300
##BP= -300
##MW= 126
##$RETENTION INDEX=908
##$CONDENSED SPECTRUM=NO
##NPOINTS= 39
##XYDATA=(XY..XY) 1 
    14          1
    15         26
    26          6
    27         70
    28         13
    29          4
    30          1
    37          2
    38          4
    39         48
    40         16
    41        119
    42         73
    43        213
    44          8
    48          1
    51          1
    52          3
    53          8
    54          7
    55         19
    56          8
    57          2
    66          1
    67         10
    68          6
    69        999
    70         41
    71          1
    81          1
    82          1
    83         49
    84          8
    85          2
    95          1
   111        223
   112         15
   126         77
   127          7