##TITLE=Library Entry 19937
##JCAMP-DX=Revision 4.10 
##DATA TYPE=MASS SPECTRUM
##SAMPLE DESCRIPTION=Exported from NIST MS Search
##NAMES=HP
##CAS NAME=Heptane, 1-nitro-
##MOLFORM=C7H15NO2
##CAS REGISTRY NO=693-39-0
##MP= -300
##BP= -300
##MW= 145
##$RETENTION INDEX=1150
##$CONDENSED SPECTRUM=NO
##NPOINTS= 54
##XYDATA=(XY..XY) 1 
    26         35
    27        325
    28         87
    29        580
    30        111
    31         49
    32         15
    37         11
    38         20
    39        236
    40         53
    41        415
    42        209
    43        665
    44         31
    45         58
    46         35
    50         11
    51         22
    52         20
    53         58
    54        111
    55        999
    56        183
    57        674
    58         35
    59         80
    60         13
    62        100
    65         13
    66         13
    67         53
    68         53
    69        212
    70         67
    71         33
    72          8
    73          8
    75         17
    77         13
    79         13
    80         13
    81         31
    82        138
    83        102
    84         31
    85         13
    86         13
    88         11
    95         11
    96         17
    97         17
    99         11
   103         11