##TITLE=Library Entry 72200
##JCAMP-DX=Revision 4.10 
##DATA TYPE=MASS SPECTRUM
##SAMPLE DESCRIPTION=B.J.MILLARD, SCHOOL OF PHARMACY, UNIV. OF LONDON, LONDO
N, UK
##NAMES=HP
##CAS NAME=Isothiazole, 5-methyl-
##MOLFORM=C4H5NS
##CAS REGISTRY NO=693-97-0
##MP= -300
##BP= -300
##MW= 99
##$RETENTION INDEX=862
##$CONDENSED SPECTRUM=NO
##NPOINTS= 11
##XYDATA=(XY..XY) 1 
    45        220
    53        170
    57        110
    58         90
    59        220
    60         90
    69         90
    71        560
    72        420
    98        260
    99        999