##TITLE=Library Entry 19306
##JCAMP-DX=Revision 4.10 
##DATA TYPE=MASS SPECTRUM
##SAMPLE DESCRIPTION=NIST Mass Spectrometry Data Center
##NAMES=HP
##CAS NAME=trans-13-Octadecenoic acid
##MOLFORM=C18H34O2
##CAS REGISTRY NO=693-71-0
##MP= -300
##BP= -300
##MW= 282
##$RETENTION INDEX=2164
##$CONDENSED SPECTRUM=NO
##NPOINTS= 204
##XYDATA=(XY..XY) 1 
    15          1
    26          2
    27         46
    28         11
    29         82
    30          3
    31          5
    38          2
    39         71
    40         14
    41        463
    42         91
    43        248
    44          9
    45         51
    46          1
    47          1
    50          2
    51          5
    52          5
    53         58
    54        150
    55        999
    56        222
    57        169
    58         19
    59         22
    60        126
    61         11
    62          1
    63          1
    65         18
    66         13
    67        188
    68        112
    69        448
    70        166
    71         74
    72          5
    73        100
    74          9
    75          4
    76          1
    77         16
    78          5
    79         47
    80         22
    81        157
    82        138
    83        362
    84        206
    85         54
    86          7
    87         34
    88          4
    89          1
    91         18
    92          4
    93         26
    94         27
    95        119
    96        177
    97        333
    98        174
    99         30
   100         26
   101         41
   102          6
   103          2
   104          1
   105         11
   106          4
   107         22
   108         23
   109         72
   110        107
   111        150
   112         65
   113         32
   114         55
   115         30
   116          7
   117          4
   118          2
   119         18
   120          8
   121         25
   122         17
   123         68
   124         62
   125         69
   126         28
   127         39
   128         12
   129         30
   130          5
   131          3
   132          1
   133         19
   134         18
   135         20
   136         11
   137         43
   138         40
   139         35
   140         14
   141         11
   142          3
   143          8
   144          2
   145          2
   146          1
   147         15
   148         16
   149         16
   150          9
   151         32
   152         28
   153         18
   154          8
   155          8
   156          2
   157          5
   158          2
   159          1
   161         11
   162          5
   163         10
   164          7
   165         22
   166         17
   167         12
   168          4
   169          7
   170          2
   171          4
   172          2
   173          1
   174          1
   175          8
   176          3
   177          5
   178          4
   179         14
   180         20
   181          9
   182          4
   183          4
   184          2
   185          5
   186          3
   187          1
   189          6
   190          2
   191          2
   192          2
   193         10
   194          8
   195          5
   196          2
   197          1
   198          1
   199          2
   200          2
   203          2
   204          1
   205          1
   206          1
   207         10
   208          7
   209          3
   210          1
   211          1
   213          1
   214          1
   217          2
   218          1
   219          1
   220         15
   221         15
   222         20
   223          5
   224          1
   225          1
   226          1
   227          1
   235         11
   236          5
   237          1
   239          2
   240          1
   241          1
   246          4
   247          1
   249          2
   250          1
   264         60
   265         15
   266          2
   278          1
   280          1
   282         12
   283          3
   284          1