##TITLE=Library Entry 71218
##JCAMP-DX=Revision 4.10 
##DATA TYPE=MASS SPECTRUM
##SAMPLE DESCRIPTION=Japan AIST/NIMC Database- Spectrum MS-NW-7932
##NAMES=HP
##CAS NAME=Dodecanedioic acid
##MOLFORM=C12H22O4
##CAS REGISTRY NO=693-23-2
##MP= -300
##BP= -300
##MW= 230
##$RETENTION INDEX=0
##$CONDENSED SPECTRUM=NO
##NPOINTS= 159
##XYDATA=(XY..XY) 1 
    15          5
    17          3
    18         15
    19          2
    26          5
    27        120
    28         36
    29        174
    30          6
    31         26
    32          1
    38          1
    39         85
    40         15
    41        393
    42         67
    43        159
    44          6
    45         87
    46          3
    47          3
    50          2
    51          4
    52          2
    53         32
    54         42
    55        466
    56         64
    57         80
    58         11
    59         45
    60        324
    61         25
    62          2
    63          1
    64          1
    65          6
    66          5
    67         85
    68         68
    69        342
    70         53
    71         48
    72          4
    73        259
    74         26
    75          3
    76          1
    77          5
    78          3
    79         29
    80         29
    81         78
    82         45
    83        171
    84        627
    85         55
    86          7
    87         54
    88          6
    89          2
    91          8
    92          5
    93         32
    94         24
    95         45
    96         48
    97        143
    98        999
    99         77
   100         15
   101         44
   102          6
   103          1
   104          1
   105          5
   106          8
   107         21
   108         23
   109         32
   110         33
   111         86
   112        214
   113         23
   114         12
   115         29
   116          7
   117          2
   118          1
   119          7
   120          6
   121         15
   122         12
   123         25
   124         23
   125         20
   126         60
   127         10
   128          5
   129         38
   130          9
   131          2
   132          2
   133          6
   134         14
   135        110
   136         13
   137         15
   138         32
   139          9
   140          8
   141          5
   142          2
   143         25
   144          4
   145          1
   147          6
   148         15
   149          6
   150         10
   151         11
   152         26
   153        116
   154         14
   155          2
   156          7
   157          7
   158          3
   159          1
   164          1
   165          7
   166         59
   167          9
   168          9
   169          4
   170          9
   171         24
   172          3
   175          3
   176          7
   177          1
   179          1
   181          3
   182          2
   183          2
   184          6
   185          1
   186         33
   187          4
   192          1
   193          3
   194         83
   195         11
   196          1
   211          2
   212          3
   213         17
   214          2
   231          1