##TITLE=Library Entry 7987
##JCAMP-DX=Revision 4.10 
##DATA TYPE=MASS SPECTRUM
##SAMPLE DESCRIPTION=Japan AIST/NIMC Database- Spectrum MS-NW-3825
##NAMES=HP
##CAS NAME=Undecane, 1-bromo-
##MOLFORM=C11H23Br
##CAS REGISTRY NO=693-67-4
##MP= -300
##BP= -300
##MW= 234
##$RETENTION INDEX=1447
##$CONDENSED SPECTRUM=NO
##NPOINTS= 100
##XYDATA=(XY..XY) 1 
    14          1
    15          5
    26          8
    27        176
    28          9
    29        275
    30          5
    38          3
    39        102
    40         21
    41        538
    42        147
    43        999
    44         35
    45          1
    50          3
    51          6
    52          4
    53         33
    54         28
    55        551
    56        168
    57        935
    58         44
    59          1
    63          2
    65          5
    66          3
    67         24
    68         22
    69        384
    70        104
    71        399
    72         24
    73          1
    74          4
    75          1
    77          4
    79          3
    80          4
    81         10
    82         11
    83        145
    84         44
    85        262
    86         17
    87          4
    91         21
    92          2
    93          7
    95          4
    96          4
    97         62
    98         17
    99         62
   100          6
   101          1
   105          9
   106          1
   107         18
   108          1
   109         19
   110          2
   111         17
   112          8
   113         28
   114          3
   119          1
   120          1
   121         12
   122          2
   123         11
   125          4
   126          4
   127          1
   129          1
   134          2
   135        590
   136         29
   137        570
   138         26
   143          2
   148          4
   149        100
   150          9
   151         99
   152          6
   153          1
   154          1
   155          4
   162          1
   163         11
   164          1
   165          9
   166          1
   169          2
   177          1
   179          1
   234          3
   236          2