##TITLE=Library Entry 51142
##JCAMP-DX=Revision 4.10 
##DATA TYPE=MASS SPECTRUM
##SAMPLE DESCRIPTION=Japan AIST/NIMC Database- Spectrum MS-NW-4953
##NAMES=HP
##CAS NAME=1H-Imidazole, 2-methyl-
##MOLFORM=C4H6N2
##CAS REGISTRY NO=693-98-1
##MP= -300
##BP= -300
##MW= 82
##$RETENTION INDEX=1050
##$CONDENSED SPECTRUM=NO
##NPOINTS= 38
##XYDATA=(XY..XY) 1 
    12          3
    13          5
    14         13
    15         41
    24          2
    25          9
    26         74
    27         99
    28        229
    29         16
    30          7
    36          2
    37          2
    38         12
    39         20
    40         88
    41        191
    42        204
    43          8
    44          2
    45          2
    47          1
    50          3
    51         19
    52         40
    53         28
    54        385
    55        107
    56          7
    66          4
    67          4
    68          1
    79          1
    80         12
    81        372
    82        999
    83         54
    84          1