##TITLE=Library Entry 17919
##JCAMP-DX=Revision 4.10 
##DATA TYPE=MASS SPECTRUM
##SAMPLE DESCRIPTION=MINISTRY OF TECH. E.R.D.E., WALTHAM ABBEY, UK
##NAMES=HP
##CAS NAME=Ethanol, 2,2'-oxybis-, dinitrate
##MOLFORM=C4H8N2O7
##CAS REGISTRY NO=693-21-0
##MP= -300
##BP= -300
##MW= 196
##$RETENTION INDEX=1348
##$CONDENSED SPECTRUM=NO
##NPOINTS= 33
##XYDATA=(XY..XY) 1 
    15         52
    26         11
    27         20
    28         39
    29        111
    30        132
    31         31
    39          7
    40          2
    41          8
    42         11
    43         72
    44         89
    45        111
    46        999
    47          5
    55          3
    57         11
    58          6
    60          4
    61          1
    69          5
    71          8
    72          2
    73        377
    74         18
    76         32
    77          1
    90         28
   105          2
   119          1
   120          2
   134          2