##TITLE=Library Entry 27978
##JCAMP-DX=Revision 4.10 
##DATA TYPE=MASS SPECTRUM
##SAMPLE DESCRIPTION=NIST Mass Spectrometry Data Center, 1990.
##NAMES=HP
##CAS NAME=2-Decanone
##MOLFORM=C10H20O
##CAS REGISTRY NO=693-54-9
##MP= -300
##BP= -300
##MW= 156
##$RETENTION INDEX=1193
##$CONDENSED SPECTRUM=NO
##NPOINTS= 43
##XYDATA=(XY..XY) 1 
    14         10
    15         12
    27         97
    28         10
    29        103
    39        121
    40         28
    41        273
    42        118
    43        845
    44         26
    45          9
    51         11
    53         34
    54         22
    55        134
    56         61
    57        191
    58        999
    59        279
    60          9
    67         29
    68         16
    69         39
    70          9
    71        377
    72         25
    81         35
    82         25
    83         14
    84         14
    85         54
    95         15
    96         50
    97         10
    98         50
    99         14
   100         14
   113         25
   114          9
   127         15
   141         22
   156         44