##TITLE=Library Entry 24552
##JCAMP-DX=Revision 4.10 
##DATA TYPE=MASS SPECTRUM
##SAMPLE DESCRIPTION=Japan AIST/NIMC Database- Spectrum MS-NW-5984
##NAMES=HP
##CAS NAME=Palmitic acid vinyl ester
##MOLFORM=C18H34O2
##CAS REGISTRY NO=693-38-9
##MP= -300
##BP= -300
##MW= 282
##$RETENTION INDEX=1986
##$CONDENSED SPECTRUM=NO
##NPOINTS= 164
##XYDATA=(XY..XY) 1 
    14          5
    15          9
    16          3
    17          1
    18          3
    26          6
    27         93
    28         28
    29        193
    30          4
    31          2
    32          1
    38          1
    39         47
    40         11
    41        393
    42        108
    43        731
    44         24
    45          5
    46          1
    50          1
    51          2
    52          2
    53         23
    54         34
    55        402
    56        115
    57        999
    58         57
    59          8
    60          3
    61          1
    62          1
    63          2
    65          5
    66          3
    67         96
    68         33
    69        276
    70         82
    71        598
    72         33
    73          4
    74          2
    77          5
    78          2
    79         11
    80          6
    81        129
    82         33
    83        255
    84         56
    85        380
    86        154
    87         29
    88          2
    91          9
    92          9
    93          9
    94          4
    95        216
    96         32
    97        151
    98         58
    99         77
   100          7
   101          2
   105          2
   106          1
   107          7
   108          2
   109        129
   110         16
   111         57
   112         20
   113         37
   114          4
   115          2
   117          1
   119          2
   120          1
   121          9
   122          2
   123         68
   124         10
   125         30
   126         11
   127         20
   128          4
   129          2
   133          2
   135          6
   136          1
   137         33
   138          6
   139         13
   140          7
   141         12
   142          2
   143          1
   149          4
   150          1
   151         12
   152          3
   153          5
   154          5
   155          8
   156          1
   157          1
   163          1
   165          9
   166          3
   167          3
   168          4
   169          5
   170          1
   171          1
   177          1
   179          4
   180          1
   181          1
   182          3
   183          6
   184          1
   191          1
   193          1
   194          1
   195          1
   196          3
   197          3
   198          1
   201          1
   205          1
   207          1
   208          1
   209          2
   210          2
   211         22
   212          4
   213          1
   217          1
   219          2
   220          1
   221          9
   222          3
   224          1
   225         23
   226          4
   227          1
   232          1
   234          1
   235          1
   236          1
   237          3
   238         10
   239        685
   240        128
   241         14
   242          1
   246          2
   247          1
   253          1
   264          1