##TITLE=Library Entry 72218
##JCAMP-DX=Revision 4.10 
##DATA TYPE=MASS SPECTRUM
##SAMPLE DESCRIPTION=DK268-13-2A
##NAMES=HP
##CAS NAME=Isothiazole, 3-methyl-
##MOLFORM=C4H5NS
##CAS REGISTRY NO=693-92-5
##MP= -300
##BP= -300
##MW= 99
##$RETENTION INDEX=796
##$CONDENSED SPECTRUM=NO
##NPOINTS= 19
##XYDATA=(XY..XY) 1 
    39         60
    41         39
    42         46
    45         80
    46         30
    53         40
    54         50
    57        120
    58        280
    59         90
    60         24
    71        110
    72        340
    73        120
    74         20
    98        120
    99        999
   100         46
   101         34