##TITLE=Library Entry 19128
##JCAMP-DX=Revision 4.10 
##DATA TYPE=MASS SPECTRUM
##SAMPLE DESCRIPTION=D.HENNEBERG, MAX-PLANCK INSTITUTE, MULHEIM, WEST GERMAN
Y
##NAMES=HP
##CAS NAME=4-Undecene, (E)-
##MOLFORM=C11H22
##CAS REGISTRY NO=693-62-9
##MP= -300
##BP= -300
##MW= 154
##$RETENTION INDEX=1081
##$CONDENSED SPECTRUM=NO
##NPOINTS= 68
##XYDATA=(XY..XY) 1 
    24          1
    26         15
    27        258
    28         32
    29        332
    30         10
    32         14
    34          0
    37          3
    39        191
    40         18
    41        754
    42        286
    43        561
    46          2
    49          3
    50          4
    51          7
    52         13
    53         61
    54        133
    55        999
    56        646
    57        230
    58          7
    59          0
    60          1
    62          2
    63          3
    65         13
    67        104
    68         53
    69        575
    70        421
    71         74
    72          6
    73          3
    74          0
    75          2
    77          7
    79         11
    80          2
    81         23
    82         50
    83        244
    84        185
    85         37
    86          1
    91          0
    92          1
    93          0
    94          1
    95          5
    96         12
    97        114
    98         47
    99          6
   109          2
   110          4
   111         45
   112         14
   113          2
   125         10
   126          9
   133          1
   147          1
   154        129
   155         18