##TITLE=Library Entry 19125
##JCAMP-DX=Revision 4.10 
##DATA TYPE=MASS SPECTRUM
##SAMPLE DESCRIPTION=S.A. Rang et al., IR & MS of Unsatd. Hydrocarbons, 1977
##NAMES=HP
##CAS NAME=2-Undecene, (E)-
##MOLFORM=C11H22
##CAS REGISTRY NO=693-61-8
##MP= -300
##BP= -300
##MW= 154
##$RETENTION INDEX=1097
##$CONDENSED SPECTRUM=NO
##NPOINTS= 74
##XYDATA=(XY..XY) 1 
    14          1
    15          6
    16          1
    25          2
    26         16
    27        240
    28         68
    29        453
    30          9
    36          0
    37          1
    38          4
    39        213
    40         40
    41        793
    42        281
    43        620
    44         12
    45          0
    50          4
    51         11
    52          8
    53         90
    54        113
    55        999
    56        689
    57        482
    58         19
    63          2
    64          0
    65         13
    66         11
    67         95
    68         86
    69        508
    70        480
    71         77
    72          3
    77          8
    78          2
    79         11
    80          3
    81         23
    82         43
    83        199
    84        163
    85         32
    86          2
    91          4
    92          2
    93          1
    94          0
    95          5
    96         18
    97        127
    98         68
    99          5
   100          0
   105          0
   106          0
   109          0
   110          6
   111         45
   112         22
   113          2
   124          2
   125         16
   126         16
   127          1
   139          0
   152          0
   154        136
   155         14
   156          0