##TITLE=Library Entry 32968
##JCAMP-DX=Revision 4.10 
##DATA TYPE=MASS SPECTRUM
##SAMPLE DESCRIPTION=Japan AIST/NIMC Database- Spectrum MS-NW-3064
##NAMES=HP
##CAS NAME=Cyclopentene, 1-methyl-
##MOLFORM=C6H10
##CAS REGISTRY NO=693-89-0
##MP= -300
##BP= -300
##MW= 82
##$RETENTION INDEX=647
##$CONDENSED SPECTRUM=NO
##NPOINTS= 43
##XYDATA=(XY..XY) 1 
    15          4
    26          9
    27         72
    28          6
    29         14
    37          7
    38         16
    39        134
    40         26
    41        159
    42         21
    43         11
    44          1
    49          3
    50         25
    51         37
    52         17
    53         81
    54         60
    55         27
    56          6
    57          2
    58          1
    61          2
    62          4
    63          9
    64          1
    65         45
    66         20
    67        999
    68         55
    69          4
    73          1
    74          4
    75          2
    77         30
    78          8
    79         80
    80         20
    81        180
    82        312
    83         23
    84          1