##TITLE=Library Entry 4835
##JCAMP-DX=Revision 4.10 
##DATA TYPE=MASS SPECTRUM
##SAMPLE DESCRIPTION=J.VOTH UNIV. OF CALIFORNIA, DAVIS, CALIFORNIA, 95616, U
SA
##NAMES=HP
##CAS NAME=Aziridine, 1,2,3-trimethyl-, trans-
##MOLFORM=C5H11N
##CAS REGISTRY NO=693-88-9
##MP= -300
##BP= -300
##MW= 85
##$RETENTION INDEX=0
##$CONDENSED SPECTRUM=NO
##NPOINTS= 57
##XYDATA=(XY..XY) 1 
     2          7
    12          3
    13          6
    14         24
    15        293
    16          4
    17          8
    18         40
    19          0
    24          1
    25         88
    26        107
    27        311
    28        329
    29        154
    30         83
    31          2
    32          1
    36          0
    37          8
    38         16
    39         90
    40         28
    41        155
    42        999
    43         57
    44         35
    45          1
    48          0
    49          2
    50         11
    51         14
    52         15
    53         19
    54         50
    55         63
    56        202
    57        107
    58         15
    59          0
    63          0
    64          0
    65          0
    66          3
    67          3
    68         43
    69         15
    70        683
    71         33
    72          0
    80          0
    82          3
    83          0
    84         55
    85        210
    86         12
    87          0