##TITLE=Library Entry 52385
##JCAMP-DX=Revision 4.10 
##DATA TYPE=MASS SPECTRUM
##SAMPLE DESCRIPTION=HCACAV, 61(8)3062(1978); B. SCHOLL ET AL
##NAMES=HP
##CAS NAME=2,4-Azetidinedione, 3,3-diethyl-1-methyl-
##MOLFORM=C8H13NO2
##CAS REGISTRY NO=69315-91-9
##MP= -300
##BP= -300
##MW= 155
##$RETENTION INDEX=0
##$CONDENSED SPECTRUM=NO
##NPOINTS= 10
##XYDATA=(XY..XY) 1 
    39        400
    41        430
    42        180
    53        120
    55        840
    69         60
    70         80
    83        999
    98        720
   155         10