##TITLE=Library Entry 80715
##JCAMP-DX=Revision 4.10 
##DATA TYPE=MASS SPECTRUM
##SAMPLE DESCRIPTION=NIST Mass Spectrometry Data Center, 1998.
##NAMES=HP
##CAS NAME=Buprofezin
##MOLFORM=C16H23N3OS
##CAS REGISTRY NO=69327-76-0
##MP= -300
##BP= -300
##MW= 305
##$RETENTION INDEX=2195
##$CONDENSED SPECTRUM=NO
##NPOINTS= 190
##XYDATA=(XY..XY) 1 
    15          4
    26          2
    27         38
    28          9
    29         68
    30          5
    37          1
    38          5
    39         59
    40         13
    41        261
    42         53
    43        157
    44          6
    45         13
    46          9
    47          6
    49          1
    50         13
    51         70
    52         14
    53          8
    54          6
    55         52
    56         62
    57        351
    58         80
    59          7
    60         13
    61          2
    62          3
    63         11
    64         22
    65         18
    66          6
    67         11
    68          6
    69         69
    70         47
    71         11
    72         71
    73          7
    74          9
    75         12
    76         11
    77        316
    78         47
    79         19
    80          3
    81          2
    82          2
    83        408
    84        182
    85         86
    86         54
    87         27
    88          9
    89         12
    90          6
    91         72
    92         14
    93         30
    94         17
    95          2
    96          1
    97         25
    98         29
    99          1
   100        250
   101         22
   102         45
   103         41
   104        405
   105        999
   106        602
   107         94
   108          7
   109         20
   110          6
   111         27
   112          4
   113          4
   114         17
   115        153
   116        158
   117         23
   118         25
   119        288
   120         35
   121          4
   123          2
   124          1
   125         61
   126          6
   127          2
   129         19
   130         18
   131         88
   132         21
   133         14
   134          8
   135          2
   136         29
   137          5
   138         15
   139         79
   140        158
   141         20
   142          3
   143         10
   144          6
   145          4
   146          2
   147          6
   148          2
   149          6
   150          1
   155          2
   157         77
   158         64
   159         11
   160         21
   161         11
   162          3
   163          2
   164          3
   165         17
   166          8
   167          1
   171        194
   172        589
   173         73
   174         43
   175        400
   176         48
   177          5
   178          1
   179          1
   185         45
   186          6
   187          2
   188          4
   189         24
   190        194
   191         30
   192         14
   193         27
   194          4
   195          1
   200          2
   201          1
   202          1
   203          5
   204          1
   205          1
   206          4
   207          4
   208          3
   216         33
   217          7
   218          3
   219          1
   220          1
   221          1
   222          2
   230          6
   231          1
   233          1
   234          1
   244          1
   248         79
   249        101
   250         18
   251          5
   252          1
   258          1
   263         28
   264          5
   265          1
   272          1
   277         23
   278          4
   279          1
   290         15
   291          3
   292          1
   305        208
   306         42
   307         14
   308          2