##TITLE=Library Entry 83135
##JCAMP-DX=Revision 4.10 
##DATA TYPE=MASS SPECTRUM
##SAMPLE DESCRIPTION=NIST Mass Spectrometry Data Center, 1992
##NAMES=HP
##CAS NAME=Benzenamine, 4-bromo-3-methyl-
##MOLFORM=C7H8BrN
##CAS REGISTRY NO=6933-10-4
##MP= -300
##BP= -300
##MW= 185
##$RETENTION INDEX=0
##$CONDENSED SPECTRUM=NO
##NPOINTS= 101
##XYDATA=(XY..XY) 1 
    12          1
    15         17
    17          4
    18         21
    25          4
    26         33
    27         91
    28         33
    29         10
    30         41
    31          2
    36          5
    37         48
    38        112
    39        179
    40         39
    41         77
    42         29
    43          4
    44          2
    46          2
    48          3
    49         23
    50        136
    51        258
    52        218
    53        182
    54         51
    55          4
    56          1
    60          5
    61         39
    62         80
    63        127
    64         44
    65         59
    66         37
    67         16
    68          2
    72          2
    73         17
    74         51
    75         43
    76         65
    77        465
    78        291
    79        378
    80         80
    81         16
    82          5
    83          2
    84          2
    85          7
    86         12
    87         11
    88          7
    89         47
    90         14
    91         14
    92         32
    93         26
    95          1
    99          3
   100          3
   102         11
   104        283
   105        182
   106        999
   107         80
   108          4
   115          1
   116          4
   117          9
   118          4
   119          6
   128          1
   129          0
   130          1
   131          2
   132          1
   133          2
   141          2
   142          1
   143          3
   144          1
   145          2
   156          2
   157          6
   158          9
   159          7
   160          6
   168          1
   169          3
   170          1
   171          3
   182          2
   185        939
   186        200
   187        863
   188         71
   189          2