##TITLE=Library Entry 47420
##JCAMP-DX=Revision 4.10 
##DATA TYPE=MASS SPECTRUM
##SAMPLE DESCRIPTION=Japan AIST/NIMC Database- Spectrum MS-IW-4507
##NAMES=HP
##CAS NAME=2'-Nitrobenzenesulfonanilide
##MOLFORM=C12H10N2O4S
##CAS REGISTRY NO=6933-51-3
##MP= -300
##BP= -300
##MW= 278
##$RETENTION INDEX=0
##$CONDENSED SPECTRUM=NO
##NPOINTS= 110
##XYDATA=(XY..XY) 1 
    26          2
    27         11
    28          1
    30         13
    37          4
    38         15
    39         46
    40          5
    41          8
    42          1
    44          3
    45          3
    48          1
    49          1
    50         38
    51        183
    52         76
    53         13
    54          1
    55          1
    61          2
    62          9
    63         56
    64         54
    65         33
    66         14
    67          2
    68          1
    69          3
    70          1
    71          1
    73          1
    74          9
    75          9
    76         19
    77        999
    78        113
    79         21
    80          9
    81          3
    82          1
    87          1
    88          1
    89          2
    90         21
    91         46
    92         12
    93          2
    94         32
    95          2
    97         13
    98          1
    99          1
   102          1
   103          7
   104          7
   105          3
   106          3
   107         10
   108          3
   109          3
   110          1
   113          1
   114          1
   115          6
   116          1
   120         14
   121         17
   122          3
   125         45
   126          6
   127          3
   128          2
   129          1
   136          1
   137          8
   138          7
   139          8
   140          6
   141        738
   142         54
   143         37
   144          2
   152          1
   153          1
   154          2
   155          1
   165          1
   166         15
   167         37
   168         18
   169          4
   179          1
   180          5
   181          5
   182          1
   183          1
   184          2
   197          3
   213          7
   214          4
   215          1
   231          1
   232          5
   233          1
   262          1
   278        568
   279         86
   280         35
   281          4