##TITLE=Library Entry 97416
##JCAMP-DX=Revision 4.10 
##DATA TYPE=MASS SPECTRUM
##SAMPLE DESCRIPTION=Japan AIST/NIMC Database- Spectrum MS-IW- 917
##NAMES=HP
##CAS NAME=(+-)-2-Phenylbutyronitrile
##MOLFORM=C10H11N
##CAS REGISTRY NO=69350-73-8
##MP= -300
##BP= -300
##MW= 145
##$RETENTION INDEX=0
##$CONDENSED SPECTRUM=NO
##NPOINTS= 66
##XYDATA=(XY..XY) 1 
    26          2
    27         22
    28          2
    29         41
    30          1
    37          2
    38          6
    39         36
    40          3
    41          7
    50         17
    51         44
    52         10
    53          2
    54          2
    57          3
    58          1
    61          3
    62         10
    63         40
    64         11
    65         17
    66          5
    70          1
    74          6
    75          7
    76          9
    77         44
    78         30
    79          6
    86          1
    87          4
    88          9
    89        136
    90        170
    91         43
    92          9
   101          3
   102          9
   103         36
   104         10
   105         33
   106          3
   107          1
   108          2
   113          1
   114          6
   115         30
   116        779
   117        999
   118         95
   119          6
   122          2
   127          2
   128          4
   129          5
   130         43
   131          5
   134          1
   140          2
   142          2
   143          7
   144         71
   145        507
   146         57
   147          3