##TITLE=Library Entry 85199
##JCAMP-DX=Revision 4.10 
##DATA TYPE=MASS SPECTRUM
##SAMPLE DESCRIPTION=G.Paulson ET AL.Biomed.Mass Spectrom.,5,413(1978)
##NAMES=HP
##CAS NAME=Isopropyl 4-hydroxycarbonilate, o-propoxysulfonyl-
##MOLFORM=C13H19NO6S
##CAS REGISTRY NO=69363-24-2
##MP= -300
##BP= -300
##MW= 317
##$RETENTION INDEX=0
##$CONDENSED SPECTRUM=NO
##NPOINTS= 18
##XYDATA=(XY..XY) 1 
   107         51
   108        999
   109        500
   112         51
   120         83
   135         77
   136         85
   152        367
   153        403
   189        103
   194        127
   195        216
   233        460
   234         40
   275        387
   276         47
   317        266
   318         39