##TITLE=Library Entry 76167
##JCAMP-DX=Revision 4.10 
##DATA TYPE=MASS SPECTRUM
##SAMPLE DESCRIPTION=NIST Mass Spectrometry Data Center, 1994
##NAMES=HP
##CAS NAME=2-Cyanobenzenesulfonyl chloride
##MOLFORM=C7H4ClNO2S
##CAS REGISTRY NO=69360-26-5
##MP= -300
##BP= -300
##MW= 201
##$RETENTION INDEX=0
##$CONDENSED SPECTRUM=NO
##NPOINTS= 78
##XYDATA=(XY..XY) 1 
    16          4
    18          4
    26         10
    27         25
    35         23
    36         36
    37         47
    38         56
    39         89
    40          5
    44          8
    48        103
    49         34
    50        170
    51        196
    52         48
    53          6
    57          6
    60          5
    61         17
    62         23
    63         46
    64        147
    65          8
    66          6
    69         21
    70          6
    71          4
    72          4
    73         23
    74         58
    75        320
    76        216
    77         29
    78         10
    81          5
    82          9
    83         16
    84          4
    85          5
    87          5
    88          5
    90         29
    91          9
    93          3
    94          4
    95          7
    96          4
    98          4
    99         31
   100         17
   101          3
   102        999
   103        194
   104         14
   106          4
   108          6
   110          4
   111          4
   112          3
   118          8
   122         13
   134          5
   135          9
   137         23
   138          3
   139          8
   141          5
   150          9
   151          8
   166        649
   167         58
   168         35
   169          3
   201        133
   202         13
   203         53
   204          5