##TITLE=Library Entry 54052
##JCAMP-DX=Revision 4.10 
##DATA TYPE=MASS SPECTRUM
##SAMPLE DESCRIPTION=Leung Pu, NIH, Bethesda, Maryland, U.S.
##NAMES=HP
##CAS NAME=N-Methylmaleamic acid
##MOLFORM=C5H7NO3
##CAS REGISTRY NO=6936-48-7
##MP= -300
##BP= -300
##MW= 129
##$RETENTION INDEX=0
##$CONDENSED SPECTRUM=NO
##NPOINTS= 34
##XYDATA=(XY..XY) 1 
    42         96
    44        298
    45        379
    46         14
    51         12
    52         42
    53        172
    54        168
    55        317
    56         51
    58        395
    59        130
    66         23
    67          5
    68         53
    69         11
    71        199
    72         85
    80          6
    81         25
    82        104
    84        999
    85        630
    86         36
    88          3
    99        627
   100        130
   101         12
   111         45
   112        146
   113         15
   128         48
   129        125
   130          5