##TITLE=Library Entry 24847
##JCAMP-DX=Revision 4.10 
##DATA TYPE=MASS SPECTRUM
##SAMPLE DESCRIPTION=Chemical Concepts
##NAMES=HP
##CAS NAME=Dodecanoic acid, 1-methylpropyl ester
##MOLFORM=C16H32O2
##CAS REGISTRY NO=6937-42-4
##MP= -300
##BP= -300
##MW= 256
##$RETENTION INDEX=0
##$CONDENSED SPECTRUM=NO
##NPOINTS= 156
##XYDATA=(XY..XY) 1 
    25          1
    26         16
    27        228
    28        103
    29        668
    30         16
    31         14
    37          1
    38          4
    39        129
    40         33
    41        861
    42        205
    43        772
    44         37
    45         62
    46          1
    47          1
    48          1
    49          1
    50          3
    51          4
    52          2
    53         31
    54         40
    55        432
    56        898
    57        999
    58         57
    59         24
    60        527
    61        167
    62          6
    63          2
    64          0
    65          4
    66          3
    67         57
    68         35
    69        175
    70         73
    71        285
    72         35
    73        461
    74         45
    75          4
    76          0
    77          2
    78          0
    79         12
    80          5
    81         52
    82         31
    83        149
    84         86
    85        205
    86         18
    87         90
    88         15
    89         20
    90          1
    91          1
    92          0
    93          9
    94          4
    95         72
    96         28
    97        115
    98         86
    99         45
   100          7
   101         68
   102         12
   103         16
   104          1
   105          0
   106          0
   107          6
   108          2
   109         43
   110         13
   111         44
   112         23
   113          6
   114          4
   115         59
   116        107
   117         23
   118          2
   119          0
   120          0
   121          6
   122          1
   123         11
   124          3
   125         10
   126          3
   127          2
   129        111
   130         10
   131          3
   132          0
   133          0
   134          0
   135          2
   136          1
   137          2
   138         13
   139          7
   140         26
   141          8
   143         35
   144          4
   145          1
   149          1
   150          0
   151          0
   152          0
   153          1
   154          0
   155          0
   157         73
   158          8
   159          1
   161          0
   162          0
   163          7
   164          3
   165          1
   166          0
   167          1
   168          0
   169          0
   171         25
   172          3
   173          0
   179          0
   180          1
   181          5
   183        369
   184         53
   185          5
   186          0
   196          0
   197          0
   200        269
   201        392
   202         51
   203          4
   212          0
   227          5
   228          0
   241          1
   242          0
   256          1
   257          0