##TITLE=Library Entry 66565
##JCAMP-DX=Revision 4.10 
##DATA TYPE=MASS SPECTRUM
##SAMPLE DESCRIPTION=Chemical Concepts
##NAMES=HP
##CAS NAME=1-(5-Ethyl-1,3,4-thiadiazol-2-yl)-3-phenylurea
##MOLFORM=C11H12N4OS
##CAS REGISTRY NO=69378-05-8
##MP= -300
##BP= -300
##MW= 248
##$RETENTION INDEX=0
##$CONDENSED SPECTRUM=NO
##NPOINTS= 110
##XYDATA=(XY..XY) 1 
    33         11
    34          9
    35          2
    37         66
    38        117
    39        297
    40         85
    41        157
    42         46
    43         47
    44         30
    45        219
    46         45
    47         54
    48          5
    49          9
    50         62
    51        143
    52         69
    53         18
    54         72
    55         31
    56        101
    57         38
    58         72
    59         91
    60        102
    61         23
    62         33
    63         95
    64        170
    65        198
    66        164
    67         23
    68         19
    69        130
    70        447
    71         64
    72         86
    73        126
    74        249
    75         24
    76         25
    77        191
    78         20
    79          3
    80          2
    81          2
    82          2
    83          7
    84          9
    85         15
    86        101
    87         38
    88         25
    89          5
    91        222
    92        107
    93        999
    94         66
    95          4
    96          6
    97          7
    98          2
   100        102
   101         29
   102          7
   103          2
   105         11
   106          2
   109          1
   110          1
   111          5
   113         37
   114         14
   115          4
   116          2
   117          2
   119        279
   120         39
   121          3
   122          1
   123          1
   124          4
   125          2
   126          2
   128         74
   129        613
   130         40
   131         26
   132          2
   133          1
   135          2
   140          5
   141          3
   149          2
   150          1
   154         99
   155         96
   156        145
   157         13
   158          7
   159          1
   160          1
   161          1
   169          1
   171          1
   248         34
   249          5
   250          1