##TITLE=Library Entry 4816
##JCAMP-DX=Revision 4.10 
##DATA TYPE=MASS SPECTRUM
##SAMPLE DESCRIPTION=A.A.Kutin, Moscow, Russia
##NAMES=HP
##CAS NAME=1,2,3-Triazolo[4,5-f]benzotriazole-4,8(4H,8H)-dione
##MOLFORM=C6H2N6O2
##CAS REGISTRY NO=69370-63-4
##MP= -300
##BP= -300
##MW= 190
##$RETENTION INDEX=0
##$CONDENSED SPECTRUM=NO
##NPOINTS= 66
##XYDATA=(XY..XY) 1 
    33        103
    34          4
    36         28
    38        191
    39        191
    40        353
    42        999
    43        193
    44        217
    45         31
    46          1
    47         13
    50          7
    51         25
    52         20
    53         23
    54         24
    55         34
    56         63
    57         80
    58         13
    60         69
    61         33
    62          9
    63          7
    64          9
    65          9
    66         14
    67         34
    69        399
    71         15
    73         44
    74          9
    75          5
    77         28
    78         14
    79          1
    80          0
    81          3
    83          0
    84         53
    85         44
    86          4
    88          1
    89          6
    90          4
    94          4
    95          6
    96          7
    97          9
    98         14
   101          1
   102         10
   103          9
   104          0
   105          6
   106          1
   107          0
   109         10
   112          1
   113          8
   114          3
   115          1
   116          0
   144          1
   190         11