##TITLE=Library Entry 99633
##JCAMP-DX=Revision 4.10 
##DATA TYPE=MASS SPECTRUM
##SAMPLE DESCRIPTION=ASES Database, Dalian Institute, P.R. China
##NAMES=HP
##CAS NAME=2-Ethyl-6-phenyl-1,3,4-thiadiazolo(3,2-a)(1,3,5)-triazine-5,7-dio
ne
##MOLFORM=C12H10N4O2S
##CAS REGISTRY NO=69378-04-7
##MP= -300
##BP= -300
##MW= 274
##$RETENTION INDEX=0
##$CONDENSED SPECTRUM=NO
##NPOINTS= 8
##XYDATA=(XY..XY) 1 
    72         19
    86         30
    91        101
   100         29
   119        999
   154         39
   155         39
   274         20