##TITLE=Library Entry 42361
##JCAMP-DX=Revision 4.10 
##DATA TYPE=MASS SPECTRUM
##SAMPLE DESCRIPTION=O A MAMER, MCGILL UNIVERSITY, MONTRE+
##NAMES=HP
##CAS NAME=Ethyl 2-methyl-3-trimethylsiloxyvalerate
##MOLFORM=C11H24O3Si
##CAS REGISTRY NO=69382-52-1
##MP= -300
##BP= -300
##MW= 232
##$RETENTION INDEX=0
##$CONDENSED SPECTRUM=NO
##NPOINTS= 106
##XYDATA=(XY..XY) 1 
    16          1
    18          1
    25          1
    27          2
    29         68
    45         45
    46          9
    47          7
    48          3
    49          3
    54          2
    55          0
    56          1
    57         23
    61         33
    62          4
    63          3
    64          1
    65          1
    67          5
    68          4
    69         45
    70         13
    71          9
    73        999
    74         77
    75         28
    81          1
    84          1
    85         45
    86          8
    87         10
    88          3
    89         12
    90          1
    91          7
    92          1
    93          1
    94          1
    95          1
    96          1
    97         15
    98          2
    99         13
   101         20
   102          8
   103        152
   104         14
   105          8
   108          1
   111          1
   113          9
   114          4
   117         56
   119         26
   120          2
   121          1
   125          1
   127          6
   128          2
   129          9
   130         30
   131        727
   132         90
   133        142
   134         14
   135          6
   142          4
   143         38
   144          7
   145          6
   146          2
   147          5
   155          1
   157          6
   158         24
   159         29
   160          5
   161         19
   162          3
   163          1
   165          6
   171         21
   172          5
   173          5
   174        112
   175         17
   176          5
   187         17
   188          4
   189         74
   190         11
   191          4
   201          1
   202          6
   203        106
   204         17
   205          6
   207          2
   217        205
   218         34
   219         10
   220          1
   231          2
   232          1
   233          2