##TITLE=Library Entry 61262
##JCAMP-DX=Revision 4.10 
##DATA TYPE=MASS SPECTRUM
##SAMPLE DESCRIPTION=W.Jennings, T.Shibamoto
##NAMES=HP
##CAS NAME=Hexanoic acid, phenylmethyl ester
##MOLFORM=C13H18O2
##CAS REGISTRY NO=6938-45-0
##MP= -300
##BP= -300
##MW= 206
##$RETENTION INDEX=1547
##$CONDENSED SPECTRUM=NO
##NPOINTS= 45
##XYDATA=(XY..XY) 1 
    26         21
    29         43
    41         65
    42          9
    43        497
    44          9
    51         32
    55         75
    57         22
    58          9
    64         19
    65         41
    69        191
    70         19
    71        302
    72          8
    73         61
    77         21
    78          8
    79        106
    80          8
    82          8
    89          7
    90        188
    91        999
    92        379
    93         21
    97        132
    98          9
    99        331
   100         21
   104          8
   105          8
   106          8
   107        114
   108        739
   109         85
   114          9
   115        152
   116          9
   117          9
   119          9
   188         12
   206         94
   207          8