##TITLE=Library Entry 25329
##JCAMP-DX=Revision 4.10 
##DATA TYPE=MASS SPECTRUM
##SAMPLE DESCRIPTION=Japan AIST/NIMC Database- Spectrum MS-NW-2655
##NAMES=HP
##CAS NAME=1-Bromodocosane
##MOLFORM=C22H45Br
##CAS REGISTRY NO=6938-66-5
##MP= -300
##BP= -300
##MW= 388
##$RETENTION INDEX=0
##$CONDENSED SPECTRUM=NO
##NPOINTS= 173
##XYDATA=(XY..XY) 1 
    15          1
    17          9
    18         57
    26          2
    27         34
    28         12
    29        105
    30          2
    32          3
    36          3
    39         22
    40          6
    41        236
    42         60
    43        571
    44         18
    51          1
    52          1
    53         10
    54         25
    55        313
    56        141
    57        999
    58         43
    65          2
    66          3
    67         31
    68         36
    69        308
    70        125
    71        673
    72         36
    73          1
    77          2
    78          1
    79          4
    80          8
    81         20
    82         53
    83        256
    84         86
    85        458
    86         29
    91          3
    93          1
    94          1
    95         12
    96         30
    97        214
    98         62
    99        154
   100         10
   105          2
   107          4
   109          6
   110         13
   111        104
   112         45
   113        107
   114          9
   119          1
   121          4
   123          4
   124          8
   125         49
   126         33
   127         77
   128          8
   133          1
   134          1
   135        442
   136         20
   137        435
   138         18
   139         21
   140         23
   141         60
   142          7
   148          9
   149         93
   150         15
   151         91
   152          5
   153         11
   154         18
   155         49
   156          6
   162          6
   163         24
   164          7
   165         22
   166          3
   167          8
   168         12
   169         40
   170          5
   176          2
   177         14
   178          2
   179         14
   180          2
   181          5
   182          9
   183         33
   184          4
   190          1
   191         12
   192          2
   193         10
   194          2
   195          3
   196          7
   197         27
   198          4
   205          9
   206          1
   207          9
   208          1
   209          2
   210          5
   211         22
   212          4
   218          1
   219          8
   220          2
   221          6
   222          1
   223          2
   224          4
   225         17
   226          3
   232          1
   233          5
   234          1
   235          5
   237          1
   238          3
   239         11
   240          2
   246          1
   247          5
   248          1
   249          4
   252          2
   253          7
   254          1
   260          1
   261          3
   262          1
   263          3
   266          1
   267          3
   274          1
   275          3
   276          1
   277          2
   280          2
   289          3
   290          1
   291          3
   303          2
   304          1
   305          2
   308          7
   309         61
   310         15
   311          1
   317          2
   319          2
   331          1
   333          1
   388          3
   390          2