##TITLE=Library Entry 11440
##JCAMP-DX=Revision 4.10 
##DATA TYPE=MASS SPECTRUM
##SAMPLE DESCRIPTION=V.G.Zaikin, TIPS RAS, Moscow, Russia
##NAMES=HP
##CAS NAME=Hexanoic acid, dodecyl ester
##MOLFORM=C18H36O2
##CAS REGISTRY NO=6938-60-9
##MP= -300
##BP= -300
##MW= 284
##$RETENTION INDEX=1966
##$CONDENSED SPECTRUM=NO
##NPOINTS= 97
##XYDATA=(XY..XY) 1 
    25          7
    26         39
    27        238
    28         64
    29        358
    30         17
    31         17
    36          4
    37          6
    38         17
    39        178
    40         48
    41        681
    42        259
    43        999
    44         88
    45         41
    50         11
    51         17
    52          8
    53         49
    54         82
    55        583
    56        331
    57        419
    58         29
    59          9
    60        103
    61         79
    62          4
    63          2
    65          7
    66         11
    67         83
    68        122
    69        361
    70        316
    71        365
    72         24
    73        103
    74         15
    75          7
    77          9
    79         15
    80          7
    81         41
    82        129
    83        293
    84        191
    85        103
    86          9
    87         51
    88          3
    89         17
    91          8
    93          6
    94          2
    95         19
    96         51
    97        209
    98        138
    99        447
   100         35
   101         18
   102          3
   106          3
   109          3
   110         19
   111        103
   112         69
   113         15
   114          7
   115         19
   116         86
   117        881
   118         62
   119          7
   124         12
   125         44
   126         39
   127          9
   129          6
   130          6
   138          7
   139         17
   140         88
   141         12
   143          7
   157          7
   158          1
   168        149
   169         22
   172         11
   183          3
   185          3
   213         18
   214          3