##TITLE=Library Entry 40905
##JCAMP-DX=Revision 4.10 
##DATA TYPE=MASS SPECTRUM
##SAMPLE DESCRIPTION=Chemical Concepts
##NAMES=HP
##CAS NAME=Pentanoic acid, 2-hydroxy-, ethyl ester
##MOLFORM=C7H14O3
##CAS REGISTRY NO=6938-26-7
##MP= -300
##BP= -300
##MW= 146
##$RETENTION INDEX=0
##$CONDENSED SPECTRUM=NO
##NPOINTS= 60
##XYDATA=(XY..XY) 1 
    26          2
    27        129
    28         23
    30         10
    31         60
    35          0
    37          1
    38          7
    39         21
    41         65
    42         14
    43          2
    44         33
    45         45
    46          0
    47         11
    49          0
    50          3
    51          1
    52          0
    53          6
    54          6
    55        613
    56         35
    57         37
    58         14
    59          1
    60          3
    64          0
    69          1
    70          0
    71         15
    72         24
    73        999
    74         31
    75         48
    76         47
    77          1
    80          0
    82          1
    83          1
    84          3
    85          1
    86          0
    87          0
    88          1
    89          1
    99          3
   100          2
   101          3
   103         24
   104         32
   105          1
   116          0
   117          1
   127          0
   128          0
   133          0
   145          0
   146          1