##TITLE=Library Entry 63779
##JCAMP-DX=Revision 4.10 
##DATA TYPE=MASS SPECTRUM
##SAMPLE DESCRIPTION=Chemical Concepts
##NAMES=HP
##CAS NAME=.beta.-Alanine, N-(3-ethoxy-3-oxopropyl)-N-(phenylmethyl)-, ethyl
 ester
##MOLFORM=C17H25NO4
##CAS REGISTRY NO=6938-07-4
##MP= -300
##BP= -300
##MW= 307
##$RETENTION INDEX=0
##$CONDENSED SPECTRUM=NO
##NPOINTS= 141
##XYDATA=(XY..XY) 1 
    24          0
    26          2
    27         18
    28          8
    29         57
    30          5
    31          6
    38          0
    39          9
    40          5
    41          7
    42         32
    43          6
    44          1
    45          5
    46          0
    50          1
    51          4
    52          1
    53          0
    54          3
    55         17
    56         14
    57          2
    58          1
    59          7
    60          2
    61          1
    62          0
    63          3
    64          1
    65         45
    66          2
    67          0
    68          1
    69          0
    70          3
    71          1
    72          0
    73         20
    74          3
    75          0
    76          0
    77          6
    78          3
    79          3
    80          0
    82          1
    83          0
    84         13
    85          0
    86          2
    87          0
    88          1
    89          8
    90          6
    91        999
    92         74
    93          2
    96          1
    97          0
    98          1
    99          0
   100          4
   101          8
   102          2
   103          2
   104          7
   105          9
   106         33
   107          3
   114          0
   115          1
   116          8
   117          5
   118         32
   119          4
   120         15
   121          1
   124          2
   125          0
   128         13
   129          1
   130          6
   131          1
   132         13
   133          2
   134          1
   135          0
   142          1
   143          0
   144          4
   145          0
   146          8
   147          1
   148          0
   156          0
   158          0
   160          8
   161          1
   162          0
   170         28
   171          2
   172          0
   174          1
   176          0
   177          0
   178          2
   179          0
   188          0
   189          0
   190          8
   191          1
   192          1
   202          0
   204          1
   205          0
   206        162
   207         23
   208          2
   216         42
   217          5
   218          5
   219          1
   220        524
   221         70
   222          7
   223          0
   230          6
   231          0
   232          1
   234          0
   235          0
   250          2
   260          0
   262          1
   278          3
   279          0
   306          1
   307         10
   308          2