##TITLE=Library Entry 42164
##JCAMP-DX=Revision 4.10 
##DATA TYPE=MASS SPECTRUM
##SAMPLE DESCRIPTION=Chemical Concepts
##NAMES=HP
##CAS NAME=Ethyl 3-hydroxy-2,2-dimethylbutanoate, TMS derivative
##MOLFORM=C11H24O3Si
##CAS REGISTRY NO=69382-53-2
##MP= -300
##BP= -300
##MW= 232
##$RETENTION INDEX=0
##$CONDENSED SPECTRUM=NO
##NPOINTS= 94
##XYDATA=(XY..XY) 1 
    25          3
    27         22
    28          9
    29         61
    30          2
    31          6
    39          8
    40          2
    41         44
    42         16
    43         57
    44         29
    45         98
    46          7
    47         40
    48          2
    51          2
    53          5
    55         21
    56          4
    57         12
    58         16
    59         41
    60          7
    61         30
    62          2
    64          2
    66          3
    67          4
    68          2
    69         23
    70         77
    71         16
    72         28
    73        999
    74         93
    75        343
    76         24
    77         21
    82          6
    83          5
    85          8
    87         12
    88         13
    89          8
    91          3
    95          2
    96          7
    97          3
    99          7
   101         26
   102          4
   103        103
   104         10
   105          5
   113          5
   114          3
   115          5
   116         16
   117        799
   118         87
   119         66
   120          6
   121          3
   127          3
   129         13
   130          2
   131          6
   133          4
   142          9
   143         34
   144         14
   145         22
   146          3
   147         38
   148          5
   149          3
   157         11
   158         15
   159         10
   160          2
   161         12
   163          2
   171          6
   172          4
   173          6
   187          7
   188        113
   189         49
   190          9
   191          2
   217         59
   218         10
   219          3