##TITLE=Library Entry 82949
##JCAMP-DX=Revision 4.10 
##DATA TYPE=MASS SPECTRUM
##SAMPLE DESCRIPTION=Japan AIST/NIMC Database- Spectrum MS-NW-3670
##NAMES=HP
##CAS NAME=Butyl nicotinate
##MOLFORM=C10H13NO2
##CAS REGISTRY NO=6938-06-3
##MP= -300
##BP= -300
##MW= 179
##$RETENTION INDEX=1384
##$CONDENSED SPECTRUM=NO
##NPOINTS= 79
##XYDATA=(XY..XY) 1 
    15          6
    17          1
    18          3
    25          1
    26         17
    27        104
    28         39
    29        173
    30          4
    31          7
    37          4
    38         10
    39         61
    40         10
    41        201
    42         10
    43         21
    44          4
    45          4
    49          8
    50         81
    51        311
    52         51
    53         20
    54          5
    55         64
    56        321
    57         44
    58          2
    65          2
    66          3
    67          2
    68          1
    73          8
    75          5
    76         11
    77         34
    78        565
    79         97
    80         18
    81          1
    89          1
    91          1
    92          1
    93          2
    94          3
    95          2
   101          2
   104          2
   105        137
   106        999
   107         73
   108          9
   109          1
   117          1
   118          1
   119          1
   121          2
   122          2
   123        185
   124        939
   125         66
   126          6
   134          3
   135          2
   136          5
   137        132
   138         11
   139          1
   146          1
   150         52
   151         49
   152          4
   164        107
   165         12
   166          1
   179         72
   180          9
   181          1