##TITLE=Library Entry 87137
##JCAMP-DX=Revision 4.10 
##DATA TYPE=MASS SPECTRUM
##SAMPLE DESCRIPTION=Chemical Concepts
##NAMES=HP
##CAS NAME=Ethanone, 2-cyclopentyl-1-(1H-imidazol-2-yl)-
##MOLFORM=C10H14N2O
##CAS REGISTRY NO=69393-24-4
##MP= -300
##BP= -300
##MW= 178
##$RETENTION INDEX=0
##$CONDENSED SPECTRUM=NO
##NPOINTS= 106
##XYDATA=(XY..XY) 1 
    26          7
    27         81
    28         51
    29         76
    30          5
    31         27
    37          2
    38          8
    39        111
    40        108
    41        249
    42         74
    43        105
    44         21
    45         14
    46          3
    50          6
    51         14
    52         13
    53         47
    54         37
    55        153
    56         27
    57         89
    58         29
    59         20
    60         25
    61         37
    62          3
    63          4
    64          1
    65         15
    66         16
    67        115
    68        509
    69        227
    70         24
    71         53
    72          6
    73         11
    74          6
    75          7
    76          6
    77         23
    78         15
    79         19
    80         11
    81         69
    82        483
    83        103
    84         18
    85         28
    86          4
    87          9
    88          4
    89          2
    91          8
    92          3
    93         27
    94         35
    95        296
    96        174
    97         41
    98         16
    99         13
   100          9
   101          5
   102          2
   103          2
   104          6
   105          8
   106         10
   107         52
   108         23
   109         44
   110        999
   111        163
   112         16
   113         12
   114          2
   115          3
   116          2
   117          2
   118          7
   119         15
   120          6
   121         65
   122         61
   123         20
   124          5
   134          5
   135        107
   136         15
   137         28
   138          4
   149         82
   150         42
   151         12
   160          2
   161         33
   162          4
   176          2
   177         49
   178        326
   179         45
   180          5