##TITLE=Library Entry 33705
##JCAMP-DX=Revision 4.10 
##DATA TYPE=MASS SPECTRUM
##SAMPLE DESCRIPTION=HCACAV, 61(8)2831(1978); S. IWASAKI
##NAMES=HP
##CAS NAME=Methanone, (3,3-dimethylcyclopentyl)-1H-imidazol-4-yl-
##MOLFORM=C11H16N2O
##CAS REGISTRY NO=69393-29-9
##MP= -300
##BP= -300
##MW= 192
##$RETENTION INDEX=0
##$CONDENSED SPECTRUM=NO
##NPOINTS= 11
##XYDATA=(XY..XY) 1 
    39        150
    52        220
    68        999
    95        460
   110         60
   123        460
   136         90
   149         50
   164         60
   177         80
   192        220