##TITLE=Library Entry 33779
##JCAMP-DX=Revision 4.10 
##DATA TYPE=MASS SPECTRUM
##SAMPLE DESCRIPTION=Chemical Concepts
##NAMES=HP
##CAS NAME=4-Penten-1-one, 1-(1H-imidazol-2-yl)-
##MOLFORM=C8H10N2O
##CAS REGISTRY NO=69393-37-9
##MP= -300
##BP= -300
##MW= 150
##$RETENTION INDEX=0
##$CONDENSED SPECTRUM=NO
##NPOINTS= 85
##XYDATA=(XY..XY) 1 
    26         30
    27        198
    28        135
    29        131
    30          8
    31          2
    37          7
    38         26
    39        192
    40        253
    41        194
    42        133
    43         32
    44          2
    45          1
    49          3
    50         25
    51         43
    52         33
    53        114
    54         84
    55        197
    56         15
    57         14
    59          1
    60          4
    61          4
    62          2
    63          3
    64          2
    65         10
    66         22
    67        120
    68        999
    69        181
    70          6
    71          3
    74          6
    75          0
    76          3
    77          5
    78         11
    79          7
    80         21
    81         90
    82        121
    83         17
    84          1
    85          2
    91          1
    92          5
    93         48
    94        137
    95        579
    96        112
    97         12
   101          8
   104          8
   105          7
   106         41
   107        243
   108         42
   109         15
   110         11
   111          3
   119         20
   120         22
   121        424
   122        641
   123         71
   124          8
   125          1
   127          0
   131         10
   132         12
   133         69
   134         11
   135        327
   136         25
   147          1
   148          5
   149        187
   150        216
   151         23
   152          2