##TITLE=Library Entry 87300
##JCAMP-DX=Revision 4.10 
##DATA TYPE=MASS SPECTRUM
##SAMPLE DESCRIPTION=Chemical Concepts
##NAMES=HP
##CAS NAME=Ethanone, 2-cyclohexyl-1-(1H-imidazol-4-yl)-
##MOLFORM=C11H16N2O
##CAS REGISTRY NO=69393-23-3
##MP= -300
##BP= -300
##MW= 192
##$RETENTION INDEX=0
##$CONDENSED SPECTRUM=NO
##NPOINTS= 74
##XYDATA=(XY..XY) 1 
    27         32
    28         25
    29         40
    31          6
    39         38
    40         46
    41        100
    42         14
    43         54
    44          8
    45          6
    51          5
    52          4
    53         22
    54         19
    55         89
    56         14
    57         47
    59          4
    60         14
    61         14
    65         10
    66          6
    67         60
    68         69
    69         73
    70         12
    71         27
    73          6
    77          8
    78          4
    79         12
    80          6
    81         54
    82         41
    83         28
    84          8
    85         17
    91          7
    92          4
    93         20
    94          7
    95        271
    96         25
    97         24
    98          7
    99          7
   104          3
   105          6
   107          7
   108          5
   109         12
   110        999
   111        108
   112          8
   113          5
   119          4
   121          9
   122          4
   123         14
   124          3
   125          7
   127         13
   135         12
   136          5
   137          9
   149         76
   150          8
   151          3
   163          3
   164          5
   191          5
   192         42
   193          8