##TITLE=Library Entry 87709
##JCAMP-DX=Revision 4.10 
##DATA TYPE=MASS SPECTRUM
##SAMPLE DESCRIPTION=HCACAV,61(8)2823(1978); T. YATSUNAMI AND S. IWASAKI
##NAMES=HP
##CAS NAME=Cyclobutanol, 1-(1H-imidazol-2-yl)-2-tetradecyl-
##MOLFORM=C21H38N2O
##CAS REGISTRY NO=69393-17-5
##MP= -300
##BP= -300
##MW= 334
##$RETENTION INDEX=0
##$CONDENSED SPECTRUM=NO
##NPOINTS= 33
##XYDATA=(XY..XY) 1 
    55         90
    69        170
    82        290
    95         90
   110        999
   123         80
   133         50
   137         80
   147         60
   151         50
   161         30
   165         30
   175         10
   179         30
   189         10
   193         30
   203         10
   207         20
   217          5
   221         10
   231          5
   235         20
   245          5
   249         10
   259         10
   263         10
   273          5
   278         60
   287         10
   301         10
   306         50
   316         30
   334        320