##TITLE=Library Entry 64829
##JCAMP-DX=Revision 4.10 
##DATA TYPE=MASS SPECTRUM
##SAMPLE DESCRIPTION=F.S.G. SOLIMAN, FAC. PHARM., UNIV. ALEXANDRIA, Ed o
##NAMES=HP
##CAS NAME=6-Benzyl-2-(benzylthio)-7-hydroxy-5H-1,3,4-thiadiazolo(3,2-a)pyri
midin-5-one
##MOLFORM=C19H15N3O2S2
##CAS REGISTRY NO=69395-70-6
##MP= -300
##BP= -300
##MW= 381
##$RETENTION INDEX=0
##$CONDENSED SPECTRUM=NO
##NPOINTS= 21
##XYDATA=(XY..XY) 1 
    44         60
    51         50
    65        110
    77         70
    86         50
    91        999
    92         90
   103         50
   105         50
   108         60
   131         50
   134        110
   148         50
   231        280
   232        200
   233         50
   290        340
   291         50
   381        350
   382         90
   383         50