##TITLE=Library Entry 68073
##JCAMP-DX=Revision 4.10 
##DATA TYPE=MASS SPECTRUM
##SAMPLE DESCRIPTION=HCACAV, 61(8)2831(1978); S. IWASAKI
##NAMES=HP
##CAS NAME=Bicyclo[1.1.1]pentan-2-ol, 2-(1H-imidazol-4-yl)-
##MOLFORM=C8H10N2O
##CAS REGISTRY NO=69393-38-0
##MP= -300
##BP= -300
##MW= 150
##$RETENTION INDEX=0
##$CONDENSED SPECTRUM=NO
##NPOINTS= 17
##XYDATA=(XY..XY) 1 
    41        160
    53         70
    55         90
    68        420
    78         50
    81         60
    95        999
    97        250
   104         40
   105         40
   106         50
   107         50
   108         60
   123        120
   135        250
   149         50
   150         50