##TITLE=Library Entry 68984
##JCAMP-DX=Revision 4.10 
##DATA TYPE=MASS SPECTRUM
##SAMPLE DESCRIPTION=Chemical Concepts
##NAMES=HP
##CAS NAME=Methanone, 1H-imidazol-4-yl(octahydro-4a(2H)-naphthalenyl)-, tran
s-
##MOLFORM=C14H20N2O
##CAS REGISTRY NO=69393-47-1
##MP= -300
##BP= -300
##MW= 232
##$RETENTION INDEX=0
##$CONDENSED SPECTRUM=NO
##NPOINTS= 169
##XYDATA=(XY..XY) 1 
    26          4
    27         45
    28         39
    29         51
    30          5
    31          1
    38          4
    39         75
    40         74
    41        284
    42         32
    43         41
    44         10
    45          5
    50          4
    51         19
    52         17
    53         73
    54         24
    55        189
    56         21
    57         43
    58          2
    59          3
    60          4
    61          1
    62          1
    63          8
    64          5
    65         40
    66         27
    67        281
    68        433
    69        280
    70         23
    71         18
    72          3
    73          4
    74          5
    75          2
    76          6
    77         70
    78         27
    79        105
    80         43
    81        695
    82         84
    83         56
    84          8
    85         10
    86          1
    87          3
    88          3
    89          4
    90          3
    91         55
    92         17
    93         82
    94         56
    95        999
    96        647
    97        284
    98         37
    99          8
   101          3
   102          2
   103          6
   104          9
   105         22
   106         12
   107         42
   108         35
   109         27
   110         49
   111        106
   112          9
   113          5
   114          0
   115          6
   116          4
   117          8
   118          7
   119         17
   120         14
   121         35
   122         25
   123         69
   124         25
   125          8
   126          2
   127          3
   128          2
   129          5
   130          4
   131          9
   132          8
   133         17
   134         11
   135         34
   136        265
   137        674
   138         80
   139          7
   140          2
   141          5
   142          2
   143          3
   145          8
   146          5
   147         18
   148         11
   149         87
   150         12
   151          4
   152          2
   153          2
   154          3
   155          2
   156          1
   157          4
   158          3
   159          7
   160          5
   161         27
   162         14
   163         11
   164          5
   165          2
   166          1
   167          6
   168          2
   169          2
   170          1
   171          6
   172          3
   173          8
   174          2
   175         23
   176         10
   177         44
   178          6
   179          3
   183          1
   185          8
   186         12
   187          5
   188          4
   189         61
   190         13
   191          5
   192          1
   193          2
   199          3
   202          3
   203         16
   204         72
   205         17
   206          2
   207          1
   211          1
   212          2
   213         16
   214         25
   215         17
   230          3
   231         38
   232        866
   233        159
   234         12