##TITLE=Library Entry 68751
##JCAMP-DX=Revision 4.10 
##DATA TYPE=MASS SPECTRUM
##SAMPLE DESCRIPTION=Chemical Concepts
##NAMES=HP
##CAS NAME=Methanone, cyclobutyl-1H-imidazol-4-yl-
##MOLFORM=C8H10N2O
##CAS REGISTRY NO=69393-27-7
##MP= -300
##BP= -300
##MW= 150
##$RETENTION INDEX=0
##$CONDENSED SPECTRUM=NO
##NPOINTS= 75
##XYDATA=(XY..XY) 1 
    26         11
    27         71
    28         43
    29         48
    37          3
    38         10
    39         56
    40        115
    41         34
    42          7
    43         14
    44          6
    45          4
    50          8
    51         12
    52         11
    53         29
    54         15
    55        144
    56         11
    57         14
    60          5
    61          2
    65          5
    66         11
    67         91
    68         92
    69         26
    70          3
    71          9
    73          3
    74          3
    76          2
    77          4
    78         14
    79          5
    80         10
    81         21
    82         24
    83          8
    84          2
    85          5
    92          3
    93         13
    94         58
    95        999
    96         84
    97         15
    98          2
    99          2
   104          6
   105         11
   106         14
   107         19
   108         18
   109          4
   110          3
   111          2
   119          3
   120          4
   121         61
   122         93
   123         21
   124          3
   127          4
   131          5
   132         32
   133         31
   134          5
   135        104
   136          9
   149         63
   150        186
   151         22
   152          2