##TITLE=Library Entry 87287
##JCAMP-DX=Revision 4.10 
##DATA TYPE=MASS SPECTRUM
##SAMPLE DESCRIPTION=Chemical Concepts
##NAMES=HP
##CAS NAME=Ethanone, 2-cyclopentyl-1-(1H-imidazol-4-yl)-
##MOLFORM=C10H14N2O
##CAS REGISTRY NO=69393-25-5
##MP= -300
##BP= -300
##MW= 178
##$RETENTION INDEX=0
##$CONDENSED SPECTRUM=NO
##NPOINTS= 103
##XYDATA=(XY..XY) 1 
    26          2
    27         27
    28         23
    29         18
    30          0
    31          0
    38          3
    39         46
    40         68
    41         98
    42         12
    43         10
    44          1
    45          2
    46          2
    50          2
    51          6
    52          6
    53         18
    54         13
    55         45
    56          4
    57          5
    60          3
    61          2
    62          0
    63          1
    64          0
    65          8
    66          7
    67         72
    68         84
    69         35
    70          2
    71          6
    72          0
    73          2
    74          1
    75          0
    76          1
    77          4
    78          2
    79          5
    80          5
    81         20
    82         26
    83         12
    84          1
    85          1
    87          1
    91          1
    92          2
    93         13
    94          7
    95        442
    96         37
    97          9
    98          2
    99          0
   104          1
   105          1
   106          2
   107          6
   108          5
   109          4
   110        999
   111         86
   112          5
   115          1
   117          0
   118          1
   119          2
   120          1
   121          6
   122          5
   123         12
   124          2
   127          1
   129          1
   131          1
   132          3
   133          2
   134          1
   135         17
   136          2
   137          3
   138          0
   139          0
   145          1
   147          1
   148          0
   149         11
   150          2
   151          0
   155          0
   159          1
   160          1
   161          2
   163          1
   177          4
   178         46
   179          7
   180          0