##TITLE=Library Entry 87219
##JCAMP-DX=Revision 4.10 
##DATA TYPE=MASS SPECTRUM
##SAMPLE DESCRIPTION=Chemical Concepts
##NAMES=HP
##CAS NAME=Ethanone, 2-cyclohexyl-1-(1H-imidazol-2-yl)-
##MOLFORM=C11H16N2O
##CAS REGISTRY NO=69393-22-2
##MP= -300
##BP= -300
##MW= 192
##$RETENTION INDEX=0
##$CONDENSED SPECTRUM=NO
##NPOINTS= 73
##XYDATA=(XY..XY) 1 
    26          3
    27         48
    28         33
    29         47
    38          3
    39         73
    40         72
    41        168
    42         53
    43         27
    50          3
    51          9
    52          7
    53         31
    54         28
    55        120
    56          9
    57          6
    65          9
    66          8
    67         54
    68        289
    69        143
    70          7
    71          8
    74          3
    77         11
    78         15
    79         12
    80          6
    81         47
    82        420
    83         32
    91          4
    93         17
    94          7
    95        144
    96         78
    97         24
    98          7
   106          4
   107         21
   108         15
   109         18
   110        999
   111        163
   112         10
   119          8
   120          2
   121         25
   122         20
   123         15
   124          4
   133          5
   135         50
   136         10
   137          6
   145          7
   147          5
   148         12
   149         37
   150          4
   161          3
   163         20
   164         43
   165          5
   173          8
   175         25
   176          3
   191         29
   192        280
   193         44
   194          4