##TITLE=Library Entry 90879
##JCAMP-DX=Revision 4.10 
##DATA TYPE=MASS SPECTRUM
##SAMPLE DESCRIPTION=Chemical Concepts
##NAMES=HP
##CAS NAME=Cyclopentanecarboxylic acid, 3,3-dimethyl-
##MOLFORM=C8H14O2
##CAS REGISTRY NO=69393-30-2
##MP= -300
##BP= -300
##MW= 142
##$RETENTION INDEX=0
##$CONDENSED SPECTRUM=NO
##NPOINTS= 94
##XYDATA=(XY..XY) 1 
    26         16
    27        194
    28         18
    29        147
    30          4
    31          6
    37          3
    38         14
    39        240
    40         40
    41        441
    42         88
    43        145
    44          9
    45         63
    46          3
    47          6
    50         15
    51         39
    52         19
    53        118
    54         35
    55        469
    56        332
    57         69
    58         10
    59        193
    60         14
    61          5
    62          3
    63          9
    64          3
    65         32
    66         14
    67        114
    68         54
    69        840
    70        405
    71         47
    72         12
    73        272
    74        154
    75          8
    76          2
    77         44
    78          9
    79         65
    80         17
    81        658
    82        173
    83         35
    84          8
    85         15
    86        120
    87        203
    88          9
    89          2
    91         13
    92          2
    93          8
    94          6
    95         54
    96         55
    97        205
    98         21
    99         57
   100         21
   101          4
   104          2
   105          4
   107          5
   108          5
   109        345
   110         30
   111          8
   112          2
   113         32
   114        999
   115         66
   116          9
   117          2
   121          2
   122          5
   123          4
   124        108
   125         29
   126          6
   127        189
   128         16
   129          4
   140          2
   141          5
   142         54
   143          5