##TITLE=Library Entry 50102
##JCAMP-DX=Revision 4.10 
##DATA TYPE=MASS SPECTRUM
##SAMPLE DESCRIPTION=Y. FUJIWARA, KYOTO COLL. PHARMACY, KYOTO, JA O
##NAMES=HP
##CAS NAME=cis-Hexahydrophthalide
##MOLFORM=C8H12O2
##CAS REGISTRY NO=6939-71-5
##MP= -300
##BP= -300
##MW= 140
##$RETENTION INDEX=0
##$CONDENSED SPECTRUM=NO
##NPOINTS= 36
##XYDATA=(XY..XY) 1 
    27        192
    28        172
    29         97
    39        258
    40         68
    41        258
    42         37
    43         23
    51         46
    53        141
    54        461
    55        331
    65         34
    66         54
    67        681
    68        449
    69         35
    77         53
    79         75
    80         95
    81        999
    82        154
    83         13
    85        128
    93         24
    95         83
    96         70
   108          3
   109          3
   110          9
   111          4
   125          2
   139          3
   140        292
   141         34
   142          3