##TITLE=Library Entry 1875
##JCAMP-DX=Revision 4.10 
##DATA TYPE=MASS SPECTRUM
##SAMPLE DESCRIPTION=ASES Database, Dalian Institute, P.R. China
##NAMES=HP
##CAS NAME=1,1-Difluoro-2-vinylcyclopropane
##MOLFORM=C5H6F2
##CAS REGISTRY NO=694-34-8
##MP= -300
##BP= -300
##MW= 104
##$RETENTION INDEX=0
##$CONDENSED SPECTRUM=NO
##NPOINTS= 34
##XYDATA=(XY..XY) 1 
    37         81
    38        168
    39        999
    40        178
    41         19
    42         10
    43        241
    44         19
    45         30
    50        101
    51        280
    52         40
    53        573
    54        299
    57        100
    58        101
    59        150
    63         19
    64        159
    65        149
    71         29
    75         80
    76         39
    77        483
    78         40
    83        219
    84        361
    85         69
    88          9
    89         70
   101         29
   103        509
   104        751
   105         39