##TITLE=Library Entry 77118
##JCAMP-DX=Revision 4.10 
##DATA TYPE=MASS SPECTRUM
##SAMPLE DESCRIPTION=AMERICAN OIL CO., WHITING, IND, USA
##NAMES=HP
##CAS NAME=Bicyclo[4.2.0]octa-1,3,5-triene
##MOLFORM=C8H8
##CAS REGISTRY NO=694-87-1
##MP= -300
##BP= -300
##MW= 104
##$RETENTION INDEX=1269
##$CONDENSED SPECTRUM=NO
##NPOINTS= 77
##XYDATA=(XY..XY) 1 
    13          4
    14          7
    15         18
    16          0
    17          0
    18          0
    24          0
    25          5
    26         47
    27         88
    28          7
    29          1
    31          1
    32          0
    33          0
    36          3
    37         38
    38         61
    39        172
    40          8
    41          7
    42          0
    43          2
    44          0
    45          0
    48          2
    49         24
    50        188
    51        315
    52         99
    53         19
    54          6
    55          1
    56          0
    57          0
    60          3
    61         24
    62         45
    63        103
    64         13
    65         23
    66          1
    67          6
    68          1
    72          1
    73         13
    74         62
    75         62
    76         41
    77        188
    78        420
    79         27
    80          1
    81          2
    82          4
    83          0
    84          1
    85          3
    86          5
    87          7
    88          1
    89         25
    90          2
    94          0
    95          0
    96          0
    97          2
    98          9
    99          2
   100          0
   101          7
   102         72
   103        482
   104        999
   105         83
   106          2
   110          0