##TITLE=Library Entry 54619
##JCAMP-DX=Revision 4.10 
##DATA TYPE=MASS SPECTRUM
##SAMPLE DESCRIPTION=CARL DJERASSI DEPT OF CHEM STANFORD UNIV STANFORD CALIF
 94305
##NAMES=HP
##CAS NAME=2H-Pyran-2-ol, tetrahydro-
##MOLFORM=C5H10O2
##CAS REGISTRY NO=694-54-2
##MP= -300
##BP= -300
##MW= 102
##$RETENTION INDEX=0
##$CONDENSED SPECTRUM=NO
##NPOINTS= 25
##XYDATA=(XY..XY) 1 
    41        660
    42         70
    43        230
    44        240
    45         30
    47         30
    50         10
    51         10
    53         40
    54         20
    55        240
    56        470
    57        160
    58         10
    67        120
    68         10
    69         20
    71         20
    74         20
    83         60
    84         90
    85        999
    86         50
   101         70
   102         20