##TITLE=Library Entry 84604
##JCAMP-DX=Revision 4.10 
##DATA TYPE=MASS SPECTRUM
##SAMPLE DESCRIPTION=A.J. MACLEOD, DEP. CHEM., QUEEN ELIZ. COLL., UNIV. LOND
ON, U
##NAMES=HP
##CAS NAME=Pyrimidine, 4,5-dimethyl-
##MOLFORM=C6H8N2
##CAS REGISTRY NO=694-81-5
##MP= -300
##BP= -300
##MW= 108
##$RETENTION INDEX=1395
##$CONDENSED SPECTRUM=NO
##NPOINTS= 13
##XYDATA=(XY..XY) 1 
    39        400
    40        280
    41        120
    42        230
    51        140
    52        160
    66        100
    67        100
    81         80
    93        100
   107        250
   108        999
   109         80