##TITLE=Library Entry 69397
##JCAMP-DX=Revision 4.10 
##DATA TYPE=MASS SPECTRUM
##SAMPLE DESCRIPTION=V.A. KOPTYUG, VOL.4, ATLAS OF MASS SPECTRA OF ORGANIC C
OMPOUNDS
##NAMES=HP
##CAS NAME=1H-Pyrazole, 1,3-dimethyl-
##MOLFORM=C5H8N2
##CAS REGISTRY NO=694-48-4
##MP= -300
##BP= -300
##MW= 96
##$RETENTION INDEX=833
##$CONDENSED SPECTRUM=NO
##NPOINTS= 31
##XYDATA=(XY..XY) 1 
    26         37
    27         87
    28        110
    29         14
    30         13
    38         18
    39         51
    40         42
    41         92
    42        141
    43         60
    50         33
    51         57
    52         66
    53         94
    54        127
    55         69
    56         38
    66         30
    67         32
    68        121
    69         16
    80         11
    81        174
    82         11
    93          7
    94         14
    95        698
    96        999
    97         64
    98          3