##TITLE=Library Entry 22229
##JCAMP-DX=Revision 4.10 
##DATA TYPE=MASS SPECTRUM
##SAMPLE DESCRIPTION=A.E.FONTAINE DYESTUFFS DIV., I.C.I., MANCHESTER
##NAMES=HP
##CAS NAME=1,2-Cyclohexanediamine
##MOLFORM=C6H14N2
##CAS REGISTRY NO=694-83-7
##MP= -300
##BP= -300
##MW= 114
##$RETENTION INDEX=972
##$CONDENSED SPECTRUM=NO
##NPOINTS= 99
##XYDATA=(XY..XY) 1 
    12          1
    13          0
    14          1
    15         20
    16          5
    17         19
    18        116
    19          0
    24          0
    25          0
    26          8
    27         82
    28        395
    29         61
    30        432
    31         23
    32          0
    34          0
    35          0
    36          0
    37          1
    38          4
    39         69
    40         11
    41        130
    42        145
    43        698
    44        101
    45         87
    46          2
    47          1
    48          0
    49          0
    50          3
    51          6
    52          6
    53         21
    54         48
    55         31
    56        999
    57         78
    58         48
    59         72
    60          3
    61          0
    62          0
    63          1
    64          1
    65          6
    66          6
    67         34
    68         51
    69        509
    70        306
    71        148
    72         98
    73          4
    74          0
    75          0
    76          1
    77         17
    78          4
    79         29
    80         19
    81         17
    82        116
    83          9
    84         47
    85         21
    86          6
    87          1
    89          0
    90          0
    91          1
    92          1
    93          4
    94          6
    95          5
    96        116
    97        512
    98         48
    99          2
   100          0
   101          1
   102          0
   103          0
   104          0
   105          1
   106          1
   107          3
   108          1
   109          1
   110          1
   111          1
   112          1
   113          5
   114        219
   115         49
   116          3