##TITLE=Library Entry 32922
##JCAMP-DX=Revision 4.10 
##DATA TYPE=MASS SPECTRUM
##SAMPLE DESCRIPTION=NIST Mass Spectrometry Data Center, 1990.
##NAMES=HP
##CAS NAME=Pentalene, octahydro-
##MOLFORM=C8H14
##CAS REGISTRY NO=694-72-4
##MP= -300
##BP= -300
##MW= 110
##$RETENTION INDEX=870
##$CONDENSED SPECTRUM=NO
##NPOINTS= 39
##XYDATA=(XY..XY) 1 
    15          5
    26         10
    27         73
    28         35
    29         28
    32          3
    37          3
    38         17
    39        183
    40         37
    41        190
    42         18
    43          4
    44          4
    50         17
    51         36
    52         19
    53         78
    54        122
    55         44
    56          4
    62          4
    63         11
    65         52
    66        186
    67        999
    68        118
    69         29
    77         38
    78         10
    79         60
    80         22
    81        152
    82        513
    83         32
    91          9
    95         52
   110         86
   111          7