##TITLE=Library Entry 72805
##JCAMP-DX=Revision 4.10 
##DATA TYPE=MASS SPECTRUM
##SAMPLE DESCRIPTION=Chemical Concepts
##NAMES=HP
##CAS NAME=1-Methylimidazolidin-2-one
##MOLFORM=C4H8N2O
##CAS REGISTRY NO=694-32-6
##MP= -300
##BP= -300
##MW= 100
##$RETENTION INDEX=0
##$CONDENSED SPECTRUM=NO
##NPOINTS= 40
##XYDATA=(XY..XY) 1 
    25          4
    26         50
    27        164
    28        549
    29        251
    30        331
    31         24
    38         12
    39         25
    40         81
    41        172
    42        874
    43        433
    44        667
    45         17
    46          4
    49         12
    51          7
    52         13
    53          9
    54         34
    55         45
    56        281
    57         51
    58         43
    59          3
    68          2
    69         15
    70         53
    71         58
    72         35
    73          8
    82          2
    83          4
    84          5
    85         16
    99        432
   100        999
   101         65
   102          5