##TITLE=Library Entry 69392
##JCAMP-DX=Revision 4.10 
##DATA TYPE=MASS SPECTRUM
##SAMPLE DESCRIPTION=V.A. KOPTYUG, VOL.4, ATLAS OF MASS SPECTRA OF ORGANIC C
OMPOUNDS
##NAMES=HP
##CAS NAME=1H-Pyrazole, 1,5-dimethyl-
##MOLFORM=C5H8N2
##CAS REGISTRY NO=694-31-5
##MP= -300
##BP= -300
##MW= 96
##$RETENTION INDEX=0
##$CONDENSED SPECTRUM=NO
##NPOINTS= 31
##XYDATA=(XY..XY) 1 
    26         26
    27         90
    28        117
    29         18
    30         20
    37         14
    38         30
    39         92
    40         34
    41        107
    42         89
    43         59
    50         34
    51         58
    52         62
    53        126
    54        115
    55         54
    56        102
    65         11
    66         30
    67         33
    68        141
    69         17
    80          8
    81         67
    82          7
    94         10
    95        590
    96        999
    97         64