##TITLE=Library Entry 76607
##JCAMP-DX=Revision 4.10 
##DATA TYPE=MASS SPECTRUM
##SAMPLE DESCRIPTION=Exported from NIST MS Search
##NAMES=HP
##CAS NAME=Cyclopropane, 1,1-dichloro-2,2-dimethyl-
##MOLFORM=C5H8Cl2
##CAS REGISTRY NO=694-16-6
##MP= -300
##BP= -300
##MW= 138
##$RETENTION INDEX=0
##$CONDENSED SPECTRUM=NO
##NPOINTS= 98
##XYDATA=(XY..XY) 1 
    14          3
    15         12
    25          4
    26         38
    27        160
    28         58
    29         38
    31         10
    32         16
    35          5
    36          7
    37         27
    38         42
    39        349
    40         90
    41        634
    42        250
    43         26
    47         12
    48          6
    49         39
    50         69
    51        227
    52         29
    53        106
    54          7
    55         35
    56         11
    57          6
    59          3
    60         14
    61        113
    62         27
    63         98
    64          8
    65        138
    66         22
    67        432
    68         29
    69          4
    70          2
    71          2
    72          5
    73         23
    74          7
    75        245
    76         18
    77         96
    78         10
    79         10
    81          3
    82          8
    83         19
    84          8
    85         23
    86          6
    87        598
    88         33
    89        247
    90         13
    91         98
    92          9
    95          2
    96         86
    97         14
    98         54
    99         11
   100          9
   101          6
   102         22
   103        999
   104         65
   105        335
   106         57
   107          7
   109         45
   110         20
   111         29
   112         13
   113          5
   114          2
   117          3
   121          2
   122          3
   123        968
   124         47
   125        618
   126         29
   127        100
   128          5
   133          4
   135          3
   137          2
   138        195
   139         13
   140        125
   141          7
   142         20