##TITLE=Library Entry 83433
##JCAMP-DX=Revision 4.10 
##DATA TYPE=MASS SPECTRUM
##SAMPLE DESCRIPTION=NIST Mass Spectrometry Data Center
##NAMES=HP
##CAS NAME=1-Chloro-2,3,3-trifluorocyclobutene
##MOLFORM=C4H2ClF3
##CAS REGISTRY NO=694-62-2
##MP= -300
##BP= -300
##MW= 142
##$RETENTION INDEX=0
##$CONDENSED SPECTRUM=NO
##NPOINTS= 82
##XYDATA=(XY..XY) 1 
    12          7
    13          3
    14          5
    16          1
    18          4
    19          3
    24          6
    25         17
    26         37
    31        345
    32          8
    33          6
    35         26
    36         31
    37         90
    38         55
    39          2
    43          7
    44         21
    45         18
    47         36
    48          8
    49         27
    50         41
    51         16
    53          3
    55         29
    56        120
    57        654
    58         25
    59          5
    60         14
    61         38
    62          9
    63         16
    64         87
    65          2
    66         12
    67          8
    68         34
    69         24
    70          1
    71          8
    72         20
    73        161
    74         20
    75        117
    76          9
    78         35
    79          3
    80         13
    81          6
    82          7
    84          2
    85         23
    86          6
    87         33
    88         33
    89          1
    91         83
    92         15
    93         37
    94          5
    95          2
    98          2
   102          2
   103          3
   104          1
   107        999
   108         42
   109          8
   111          6
   116         23
   118          6
   122         15
   123         71
   124          9
   125         20
   142        313
   143         16
   144        105
   145          4