##TITLE=Library Entry 5022
##JCAMP-DX=Revision 4.10 
##DATA TYPE=MASS SPECTRUM
##SAMPLE DESCRIPTION=Japan AIST/NIMC Database- Spectrum MS-NW-6409
##NAMES=HP
##CAS NAME=1-Methyl-1,2,3,6-tetrahydropyridine
##MOLFORM=C6H11N
##CAS REGISTRY NO=694-55-3
##MP= -300
##BP= -300
##MW= 97
##$RETENTION INDEX=1030
##$CONDENSED SPECTRUM=NO
##NPOINTS= 68
##XYDATA=(XY..XY) 1 
    13          1
    14          6
    15         93
    16          2
    25          1
    26         26
    27        128
    28         71
    29         29
    30         33
    31          4
    36          1
    37         10
    38         22
    39        203
    40         28
    41        140
    42        999
    43        550
    44        191
    45         32
    46          3
    47          6
    48          2
    49          4
    50         22
    51         38
    52         40
    53         97
    54        420
    55         86
    56         22
    57         14
    58          5
    59          2
    60          1
    61          3
    62          4
    63          7
    64          3
    65         19
    66         14
    67         60
    68        176
    69         45
    70         23
    71          4
    72          2
    74          1
    75          2
    76          1
    77          6
    78         14
    79         32
    80         58
    81         96
    82        234
    83         16
    84          2
    91         11
    92         12
    93         10
    94        181
    95         24
    96        864
    97        923
    98         78
    99          4