##TITLE=Library Entry 49468
##JCAMP-DX=Revision 4.10 
##DATA TYPE=MASS SPECTRUM
##SAMPLE DESCRIPTION=D.HENNEBERG, MAX-PLANCK INSTITUTE, MULHEIM, WEST GERMAN
Y
##NAMES=HP
##CAS NAME=Bicyclo[2.2.1]hept-2-ene, 2-methyl-
##MOLFORM=C8H12
##CAS REGISTRY NO=694-92-8
##MP= -300
##BP= -300
##MW= 108
##$RETENTION INDEX=1097
##$CONDENSED SPECTRUM=NO
##NPOINTS= 79
##XYDATA=(XY..XY) 1 
    24          0
    25          1
    26         29
    27        145
    28         34
    29         17
    30          0
    31          0
    32          0
    36          0
    37         10
    38         28
    39        201
    40         28
    41         78
    42          5
    43          1
    44          0
    46          0
    48          0
    49          3
    50         34
    51         69
    52         38
    53         51
    54          9
    55          5
    56          0
    57          0
    58          0
    60          0
    61          3
    62          9
    63         22
    64          4
    65         47
    66         14
    67         15
    68          2
    69          0
    70          0
    73          1
    74          4
    75          2
    76          3
    77        111
    78         59
    79        381
    80        999
    81         66
    82          1
    83          0
    84          0
    85          0
    86          0
    87          0
    88          0
    89          2
    90          2
    91         69
    92         10
    93         67
    94          5
    95          0
    96          0
    97          0
    98          0
    99          0
   100          0
   101          0
   102          0
   103          2
   104          0
   105          5
   106          1
   107          6
   108        132
   109         11
   110          0