##TITLE=Library Entry 28361
##JCAMP-DX=Revision 4.10 
##DATA TYPE=MASS SPECTRUM
##SAMPLE DESCRIPTION=OGDEN BioServices Corp., NCI, Rockville, MD 20852
##NAMES=HP
##CAS NAME=Amonafide
##MOLFORM=C16H17N3O2
##CAS REGISTRY NO=69408-81-7
##MP= -300
##BP= -300
##MW= 283
##$RETENTION INDEX=0
##$CONDENSED SPECTRUM=NO
##NPOINTS= 100
##XYDATA=(XY..XY) 1 
    42        184
    43         56
    44         30
    45          2
    46          0
    47          1
    48          0
    49          5
    50          2
    51          7
    52          3
    53          1
    54          4
    55          8
    56         53
    58        999
    59         44
    62          3
    63         12
    64          3
    65          3
    66          0
    67          0
    68          1
    69          1
    70         23
    71        340
    72         15
    74          3
    75          3
    76          2
    77          3
    78          1
    83          2
    84          3
    85          2
    86          3
    87          3
    88          6
    89          4
    90          1
    91          0
    97          2
    99          1
   100          1
   101          3
   102          2
   103          0
   106          0
   111          0
   112          1
   113         17
   114         17
   115         39
   116          5
   125          1
   126          1
   127          3
   128          3
   129          1
   130          0
   138          1
   139          3
   140         29
   141         17
   142         14
   143          1
   152          1
   153          1
   154          1
   155          5
   156          1
   165          0
   166          1
   167          9
   168          8
   169          9
   170          3
   181          1
   182          0
   183          0
   184          0
   193          0
   195         11
   196          1
   197          1
   198          0
   212          5
   213          3
   225          7
   226          1
   237          1
   238          1
   239          4
   240          0
   252          0
   282          0
   283         39
   284          9
   285          0