##TITLE=Library Entry 3604
##JCAMP-DX=Revision 4.10 
##DATA TYPE=MASS SPECTRUM
##SAMPLE DESCRIPTION=RADIAN CORP
##NAMES=HP
##CAS NAME=Propane, 1-chloro-3-iodo-
##MOLFORM=C3H6ClI
##CAS REGISTRY NO=6940-76-7
##MP= -300
##BP= -300
##MW= 204
##$RETENTION INDEX=0
##$CONDENSED SPECTRUM=NO
##NPOINTS= 43
##XYDATA=(XY..XY) 1 
    14          3
    15          7
    25          5
    26         52
    27        154
    28         47
    35         14
    36         11
    37         48
    38         77
    39        363
    40         46
    41        999
    42         54
    47          8
    48         10
    49        193
    50          5
    51         60
    61         17
    63          7
    73          4
    75         21
    76         18
    77        498
    78         23
    79        158
    80          4
   127        424
   128         65
   129          1
   139          9
   140          8
   141         70
   142          2
   153          2
   154          2
   155         62
   162          2
   204        406
   205         13
   206        128
   207          1