##TITLE=Library Entry 66266
##JCAMP-DX=Revision 4.10 
##DATA TYPE=MASS SPECTRUM
##SAMPLE DESCRIPTION=Philip Morris R&D
##NAMES=HP
##CAS NAME=Ketone, methyl 6-methyl-2-pyridyl
##MOLFORM=C8H9NO
##CAS REGISTRY NO=6940-57-4
##MP= -300
##BP= -300
##MW= 135
##$RETENTION INDEX=1107
##$CONDENSED SPECTRUM=NO
##NPOINTS= 55
##XYDATA=(XY..XY) 1 
    37         25
    38         49
    39        301
    40         41
    41         29
    42         35
    43        435
    44         11
    45          2
    46          9
    47          0
    50         36
    51         39
    52         41
    53         21
    54          7
    60          0
    61          4
    62         15
    63         47
    64         53
    65        423
    66        366
    67         42
    74          0
    75          1
    76          5
    77         13
    78         26
    79         10
    80          2
    85          1
    87          0
    88          0
    89          0
    90          5
    91         13
    92        656
    93        999
    94         73
    95          1
   104          1
   105          0
   106         13
   107        181
   108         11
   116          1
   117          2
   118          1
   120         17
   121          0
   134          3
   135        613
   136         53
   137          2