##TITLE=Library Entry 21335
##JCAMP-DX=Revision 4.10 
##DATA TYPE=MASS SPECTRUM
##SAMPLE DESCRIPTION=Chemical Concepts
##NAMES=HP
##CAS NAME=1-But-2-enylazetidine
##MOLFORM=C7H13N
##CAS REGISTRY NO=69416-65-5
##MP= -300
##BP= -300
##MW= 111
##$RETENTION INDEX=0
##$CONDENSED SPECTRUM=NO
##NPOINTS= 63
##XYDATA=(XY..XY) 1 
    26         19
    27        169
    28        105
    29        170
    30         37
    37          3
    38         10
    39        149
    40         20
    41        321
    42        356
    43         47
    44          9
    45          8
    46          1
    49          1
    50          9
    51         18
    52         12
    53         65
    54        111
    55        999
    56        200
    57        200
    58          7
    59          1
    65          4
    66          5
    67         23
    68        179
    69         60
    70        243
    71         10
    73          3
    74          0
    75          0
    76          0
    77          3
    78          1
    79          4
    80         21
    81         14
    82        165
    83         27
    84          4
    85          0
    91          1
    92          1
    93          1
    94         20
    95          8
    96        207
    97         14
    98          0
   105          1
   106          1
   107          3
   108         10
   109          2
   110        139
   111        384
   112         25
   113          1