##TITLE=Library Entry 46809
##JCAMP-DX=Revision 4.10 
##DATA TYPE=MASS SPECTRUM
##SAMPLE DESCRIPTION=Japan AIST/NIMC Database- Spectrum MS-NW-4674
##NAMES=HP
##CAS NAME=Ethyleneglycol bischloro acetate
##MOLFORM=C6H8Cl2O4
##CAS REGISTRY NO=6941-69-1
##MP= -300
##BP= -300
##MW= 214
##$RETENTION INDEX=0
##$CONDENSED SPECTRUM=NO
##NPOINTS= 68
##XYDATA=(XY..XY) 1 
    13          3
    14         18
    15         20
    16          1
    18          2
    26          7
    27         19
    28         18
    29         37
    30          6
    31         13
    35          3
    36         11
    37          1
    38          3
    41          6
    42        145
    43         44
    44         14
    45         52
    46          1
    47          4
    48         12
    49        258
    50          9
    51         84
    52          2
    55          2
    57         53
    58          2
    59          4
    61          1
    63          2
    72          4
    74          1
    76         27
    77        999
    78         30
    79        328
    80          8
    81          1
    84          2
    85          1
    86          1
    89          4
    91          1
    92         11
    93          1
    94          4
    95          6
    97          2
   107         70
   108          9
   109         23
   110          3
   120        134
   121         53
   122         46
   123         17
   124          1
   135         89
   136          4
   137         28
   138          2
   169          1
   171          9
   173          6
   175          1