##TITLE=Library Entry 99671
##JCAMP-DX=Revision 4.10 
##DATA TYPE=MASS SPECTRUM
##SAMPLE DESCRIPTION=Chemical Concepts
##NAMES=HP
##CAS NAME=4-Oxo-4-p-tolylbutanoic acid, ethyl ester
##MOLFORM=C13H16O3
##CAS REGISTRY NO=6942-61-6
##MP= -300
##BP= -300
##MW= 220
##$RETENTION INDEX=0
##$CONDENSED SPECTRUM=NO
##NPOINTS= 129
##XYDATA=(XY..XY) 1 
    25          0
    26          5
    27         33
    28         31
    29         43
    30          1
    31          4
    32          6
    38          2
    39         32
    40          3
    41         19
    42          4
    43         14
    44          2
    45          7
    46          0
    50          5
    51         14
    52          4
    53          3
    54          1
    55         28
    56          4
    57          8
    58          1
    59          6
    60          0
    61          0
    62          3
    63         19
    64          7
    65         92
    66          6
    67          2
    68          0
    69          5
    70          3
    71          5
    72          1
    73         10
    74          1
    75          3
    76          2
    77          9
    78          3
    79          3
    80          0
    81          2
    82          1
    83          3
    84          1
    85          1
    86          0
    87          1
    88          3
    89         26
    90         21
    91        229
    92         19
    93          2
    94          0
    95          3
    96          1
    97          2
    98          0
    99          1
   101          8
   102          1
   103          4
   104          4
   105          6
   106          1
   107          1
   108          0
   109          1
   110          0
   111          1
   112          1
   113          4
   114          0
   115          5
   116          2
   117          6
   118          8
   119        999
   120         88
   121          6
   122          0
   123          1
   124          0
   125          0
   127          1
   128          1
   129          6
   130          1
   131          8
   132          8
   133          6
   134          3
   135          1
   137          0
   141          0
   145          2
   146          1
   147         11
   148          2
   149          7
   150          0
   151          1
   157          0
   158          0
   159          0
   161          0
   163          0
   165          0
   167          2
   173          0
   174          5
   175        147
   176         19
   177          2
   202          0
   206          0
   218          0
   219          0
   220         68
   221         10
   222          1