##TITLE=Library Entry 47831
##JCAMP-DX=Revision 4.10 
##DATA TYPE=MASS SPECTRUM
##SAMPLE DESCRIPTION=A.A.Kutin, Moscow, Russia
##NAMES=HP
##CAS NAME=1-(4-Phenoxyphenyl)-2,5-dihydro-1H-pyrrole-2,5-dione
##MOLFORM=C16H11NO3
##CAS REGISTRY NO=69422-82-8
##MP= -300
##BP= -300
##MW= 265
##$RETENTION INDEX=0
##$CONDENSED SPECTRUM=NO
##NPOINTS= 176
##XYDATA=(XY..XY) 1 
    33          1
    34          0
    37         22
    38         71
    39        262
    40         24
    41          8
    42          9
    43         27
    44          4
    45          1
    50        187
    51        709
    52        136
    53        166
    54        465
    55         36
    56          4
    57          2
    58          0
    61         13
    62         53
    63        214
    64        100
    65        108
    66         23
    67          3
    68          6
    69          5
    70          4
    71          2
    73          5
    74         45
    75         55
    77        999
    78        231
    79         31
    80         78
    82        158
    84          8
    85          0
    86          2
    87          6
    88         15
    89         75
    90        129
    91         22
    92         13
    93         25
    94        168
    95          9
    96          3
    98          4
    99          2
   100          2
   101         12
   102         35
   103         47
   104         74
   105         26
   106        130
   107         28
   108         62
   109          7
   110          2
   111          0
   113          5
   114         11
   115         92
   116        205
   117         24
   118         13
   119         15
   120          6
   121          0
   122          0
   125          2
   126         11
   127         46
   128         53
   129         41
   130          9
   131         25
   132        102
   133         43
   134         50
   135         28
   136          2
   137          1
   139         50
   140         43
   141         70
   143         40
   144         66
   145          9
   146          1
   147          0
   148          0
   150          0
   151          3
   152         12
   153         20
   154         62
   155         26
   156         28
   157          9
   158          2
   160        106
   161         14
   162          1
   163          1
   164          3
   165         16
   166         33
   167         70
   168         47
   169         18
   170          3
   172         57
   173          6
   174          0
   176          0
   177          1
   178          3
   180         86
   181         34
   182         76
   183         40
   184         53
   185         58
   186         11
   188        102
   189         20
   190          6
   191          5
   192          7
   193          6
   194         28
   195        243
   196         52
   197          6
   198          0
   202          0
   205          0
   206          1
   207          5
   208         55
   209         29
   210          9
   211         45
   212          6
   213          0
   218          5
   219          4
   220         23
   221         11
   222          7
   223          4
   224          1
   227         19
   228          2
   229          0
   234          0
   236         41
   237         38
   238          6
   239          0
   246          0
   248          0
   249          0
   259          0
   260          0
   265        931
   266        153
   267         20
   268          1