##TITLE=Library Entry 73966
##JCAMP-DX=Revision 4.10 
##DATA TYPE=MASS SPECTRUM
##SAMPLE DESCRIPTION=Exported from NIST MS Search
##NAMES=HP
##CAS NAME=Ethanol, 2,2'-oxybis-, dipropanoate
##MOLFORM=C10H18O5
##CAS REGISTRY NO=6942-59-2
##MP= -300
##BP= -300
##MW= 218
##$RETENTION INDEX=0
##$CONDENSED SPECTRUM=NO
##NPOINTS= 55
##XYDATA=(XY..XY) 1 
    14          2
    15          9
    17          3
    18         14
    19          5
    26          6
    27         45
    28         64
    29        248
    30          8
    31         21
    32          6
    38          1
    39          3
    41          3
    42         12
    43         28
    44         36
    45         91
    46          2
    50          3
    51          4
    52          4
    55         10
    56         17
    57        865
    58         43
    59          6
    64          2
    70         27
    71          5
    72          7
    73          8
    74          5
    75         29
    76          3
    77          6
    78         26
    79          3
    86          3
    87         19
    88         12
    89          3
    99          8
   100         10
   101        999
   102         66
   103          9
   104          2
   114          4
   115          4
   117          2
   131         23
   132          9
   133          1