##TITLE=Library Entry 41498
##JCAMP-DX=Revision 4.10 
##DATA TYPE=MASS SPECTRUM
##SAMPLE DESCRIPTION=O A MAMER, MCGILL UNIVERSITY, MONTRE9
##NAMES=HP
##CAS NAME=Cyclohexanecarboxylic acid, TMS derivative
##MOLFORM=C10H20O2Si
##CAS REGISTRY NO=69435-89-8
##MP= -300
##BP= -300
##MW= 200
##$RETENTION INDEX=1188
##$CONDENSED SPECTRUM=NO
##NPOINTS= 77
##XYDATA=(XY..XY) 1 
    15          8
    26          5
    27         42
    28          4
    29         44
    31          4
    39         46
    40          8
    41        109
    42         10
    43         36
    44         17
    45         69
    46          6
    47         49
    51          6
    52          4
    53         24
    54         24
    55         90
    56          8
    57          8
    58         15
    59         24
    60          9
    61         41
    65          4
    66          5
    67         42
    68         13
    69          6
    71          3
    72         16
    73        999
    74         95
    75        587
    76         43
    77         28
    79         13
    80          5
    81         33
    82         46
    83         43
    84          5
    85          5
    89          6
    91          4
    93          4
    99          5
   103         12
   109         19
   110         32
   111          6
   116          5
   117         84
   118          8
   119          4
   129         41
   130          9
   131          4
   132         11
   141         10
   142          4
   143          4
   145         38
   146          5
   155         15
   156         16
   157          4
   159          7
   183          4
   184         15
   185        426
   186         70
   187         29
   200         57
   201         10