##TITLE=Library Entry 9189
##JCAMP-DX=Revision 4.10 
##DATA TYPE=MASS SPECTRUM
##SAMPLE DESCRIPTION=Japan AIST/NIMC Database- Spectrum MS-NW-7837
##NAMES=HP
##CAS NAME=2-Propanol, 1-chloro-3-propoxy-
##MOLFORM=C6H13ClO2
##CAS REGISTRY NO=6943-58-4
##MP= -300
##BP= -300
##MW= 152
##$RETENTION INDEX=1059
##$CONDENSED SPECTRUM=NO
##NPOINTS= 71
##XYDATA=(XY..XY) 1 
    14          3
    15         32
    16          1
    17          1
    18          4
    26          7
    27        114
    28         17
    29         99
    30          4
    31         73
    32          3
    33          4
    35          1
    36          9
    37          2
    38          4
    39         40
    40          8
    41        172
    42         37
    43        999
    44        205
    45         43
    46          2
    48          1
    49         14
    50          2
    51          6
    55         39
    56          5
    57         56
    58         10
    59         15
    60          4
    61        196
    62          6
    63          6
    65          4
    67          2
    69          1
    71          5
    72          2
    73        404
    74         20
    75          6
    76          2
    77          2
    78          4
    79         41
    80          2
    81         13
    85          5
    86          8
    87          2
    91          2
    92          2
    93         58
    94          3
    95         18
    96          1
    99          2
   103         23
   104          2
   109          2
   111          1
   116         26
   117          3
   121          4
   123          5
   125          2