##TITLE=Library Entry 7009
##JCAMP-DX=Revision 4.10 
##DATA TYPE=MASS SPECTRUM
##SAMPLE DESCRIPTION=Humboldt-Universitat zu Berlin, Department of Chemistry
, Analytical Group
##NAMES=HP
##CAS NAME=1,6-Di-(4-bromophenoxy)hexane
##MOLFORM=C18H20Br2O2
##CAS REGISTRY NO=6943-11-9
##MP= -300
##BP= -300
##MW= 426
##$RETENTION INDEX=0
##$CONDENSED SPECTRUM=NO
##NPOINTS= 146
##XYDATA=(XY..XY) 1 
    12          9
    13         30
    14         91
    15        462
    16         15
    17         65
    18        224
    19          5
    20          2
    24          5
    25         22
    26         89
    27        215
    28         55
    29        178
    30          6
    31         16
    36          6
    37         23
    38         47
    39        179
    40         24
    41        373
    42         99
    43        999
    44         28
    45          8
    49          4
    50         36
    51         20
    52          6
    53         41
    54         22
    55        650
    56         41
    57         31
    58        263
    59         15
    60          5
    61          7
    62         18
    63         91
    64         50
    65        120
    66         14
    67         82
    68          8
    69         16
    70          4
    71          7
    73         25
    74         15
    75         46
    76         62
    77         28
    78         28
    79         20
    80         13
    81         26
    82         71
    83        379
    84         30
    85          5
    86          2
    89          2
    91         16
    92         12
    93         47
    94         13
    95          6
    96          2
    97          3
    99          2
   101         10
   102          2
   103          2
   104          2
   105          6
   106          9
   107          8
   109          6
   111          2
   112          2
   115          1
   117          8
   118          2
   119         11
   120          3
   121          4
   123          3
   128          1
   129          2
   131          5
   132          3
   133          8
   134          1
   143         36
   144          5
   145         17
   146          3
   149          2
   155         21
   156          2
   157         24
   158          2
   159          4
   163          9
   164          1
   165         11
   168          2
   169          2
   170          1
   171          4
   172        221
   173         18
   174        212
   175         15
   176          8
   177          1
   185         11
   186          3
   187         10
   188          1
   198          1
   200          1
   211          1
   213          1
   254          5
   255         15
   256          7
   257         15
   258          2
   314          2
   315          0
   316          2
   317          0
   334          7
   336         14
   337          1
   338          6
   339          1
   426         18
   428         37
   429          7
   430         18
   431          3