##TITLE=Library Entry 65595
##JCAMP-DX=Revision 4.10 
##DATA TYPE=MASS SPECTRUM
##SAMPLE DESCRIPTION=NIST Mass Spectrometry Data Center
##NAMES=HP
##CAS NAME=2-Amino-5-bromo-3-nitropyridine
##MOLFORM=C5H4BrN3O2
##CAS REGISTRY NO=6945-68-2
##MP= -300
##BP= -300
##MW= 217
##$RETENTION INDEX=0
##$CONDENSED SPECTRUM=NO
##NPOINTS= 60
##XYDATA=(XY..XY) 1 
    10          4
    11          5
    12         19
    13         13
    15         11
    19         12
    20          2
    26         15
    27         32
    28        167
    29         15
    30        232
    32         21
    36         15
    37        240
    38        280
    39         65
    40         44
    41         63
    42         24
    43         32
    44         20
    46         67
    49         25
    50        214
    51         73
    52        149
    53        124
    54          8
    62         24
    63        118
    64        371
    65        357
    66         72
    79         21
    80         17
    81          4
    91        139
    92        999
    93         95
   108         68
   116         22
   117        167
   118         49
   119        158
   143         13
   144        118
   146        100
   159         69
   161         68
   171        277
   172          5
   173        277
   187         23
   189         18
   200          6
   217        987
   218         26
   219        927
   220         61