##TITLE=Library Entry 48552
##JCAMP-DX=Revision 4.10 
##DATA TYPE=MASS SPECTRUM
##SAMPLE DESCRIPTION=D. CORINA, DEP. BIOCHEM., UNIV. SOUTHAMPTON, SOUTHAMPTO
N, U.
##NAMES=HP
##CAS NAME=S-(2,2,2-Trifluoroethyl) methanesulfonothioate
##MOLFORM=C3H5F3O2S2
##CAS REGISTRY NO=69466-44-0
##MP= -300
##BP= -300
##MW= 194
##$RETENTION INDEX=0
##$CONDENSED SPECTRUM=NO
##NPOINTS= 36
##XYDATA=(XY..XY) 1 
    44         51
    45        660
    46        310
    47        130
    48        140
    61        120
    63        340
    64        250
    65        160
    69         70
    76         13
    77         19
    79        999
    80         54
    81        120
    82         65
    94         10
    95        130
    96        180
    97         13
    98          7
   111          9
   114         27
   115         51
   130          5
   147          3
   148          0
   149          0
   161          0
   162          3
   163          4
   164          0
   179          2
   194        160
   195          6
   196         14