##TITLE=Library Entry 35588
##JCAMP-DX=Revision 4.10 
##DATA TYPE=MASS SPECTRUM
##SAMPLE DESCRIPTION=Japan AIST/NIMC Database- Spectrum MS-IW-1333
##NAMES=HP
##CAS NAME=Ethyl dl-2-hydroxycaproate
##MOLFORM=C8H16O3
##CAS REGISTRY NO=6946-90-3
##MP= -300
##BP= -300
##MW= 160
##$RETENTION INDEX=1062
##$CONDENSED SPECTRUM=NO
##NPOINTS= 76
##XYDATA=(XY..XY) 1 
    14          1
    15          6
    18          2
    26          6
    27         84
    28         36
    29        180
    30          9
    31         64
    32          2
    38          1
    39         32
    40          5
    41        371
    42         29
    43        124
    44         58
    45        113
    46          7
    47         31
    50          1
    51          2
    53          7
    54          2
    55         30
    56          6
    57        106
    58         26
    59          5
    60          2
    65          1
    67         15
    68          6
    69        999
    70         71
    71         11
    72          2
    73         12
    74          2
    75         51
    76         64
    77          2
    80          1
    81          3
    83          2
    85         28
    86         22
    87        715
    88         41
    89          5
    90          3
    95          1
    96          2
    97          3
    98          1
    99          7
   101          5
   102          1
   103         20
   104         56
   105          2
   113          1
   114         12
   115          9
   116          1
   117         16
   118          3
   127          2
   131          1
   132          1
   133          5
   142          3
   158          1
   160          1
   161         12
   162          1