##TITLE=Library Entry 98657
##JCAMP-DX=Revision 4.10 
##DATA TYPE=MASS SPECTRUM
##SAMPLE DESCRIPTION=Chemical Concepts
##NAMES=HP
##CAS NAME=Ethene,-1-(4-ethoxyphenyl)-2-nitro-
##MOLFORM=C10H11NO3
##CAS REGISTRY NO=6946-30-1
##MP= -300
##BP= -300
##MW= 193
##$RETENTION INDEX=0
##$CONDENSED SPECTRUM=NO
##NPOINTS= 100
##XYDATA=(XY..XY) 1 
    26         51
    27        301
    28        128
    29        402
    30        117
    32         12
    36         16
    37         12
    38         68
    39        261
    40         31
    41         41
    42         10
    43         41
    44         12
    46         14
    49          6
    50        118
    51        179
    52         63
    53         60
    54         31
    55         54
    57          6
    61         20
    62         96
    63        286
    64        123
    65        466
    66         65
    67         20
    68         27
    69         40
    70         15
    71          8
    73          8
    74         42
    75         79
    76         86
    77        145
    78         56
    79         68
    80         33
    81         32
    82        130
    83         29
    84          6
    85          5
    86          8
    87         12
    88         10
    89        303
    90        101
    91        409
    92         85
    93         32
    94        101
    95         20
    96        112
    97         15
    98          7
   101         44
   102         58
   103         12
   104         11
   105         21
   106         34
   107        317
   108         34
   109         34
   110         77
   111          7
   115          6
   117         56
   118        999
   119        225
   120         73
   121         69
   122         57
   123          9
   131          9
   132         19
   133         17
   134         19
   135         25
   136          9
   137          8
   145          7
   146        456
   147         54
   148         85
   149         11
   150         10
   163          9
   164          8
   165          7
   177          5
   192          7
   193        488
   194         54