##TITLE=Library Entry 67462
##JCAMP-DX=Revision 4.10 
##DATA TYPE=MASS SPECTRUM
##SAMPLE DESCRIPTION=Japan AIST/NIMC Database- Spectrum MS-IW-5044
##NAMES=HP
##CAS NAME=Beta-phenoxycinnamic acid
##MOLFORM=C15H12O3
##CAS REGISTRY NO=6948-54-5
##MP= -300
##BP= -300
##MW= 240
##$RETENTION INDEX=0
##$CONDENSED SPECTRUM=NO
##NPOINTS= 126
##XYDATA=(XY..XY) 1 
    16          2
    27          9
    28          7
    37          2
    38          6
    39         48
    40          9
    41          4
    42          1
    43          5
    44         65
    45         10
    50         32
    51        124
    52         20
    53          6
    54          1
    55          9
    56          1
    57          5
    61          2
    62          9
    63         33
    64          8
    65         46
    66         40
    67          3
    68          1
    69        291
    70         10
    71          5
    73          1
    74         17
    75         27
    76         53
    77        373
    78         27
    79          9
    80          1
    81          3
    82         10
    83         16
    84          3
    85          2
    86          1
    87          3
    88          2
    89         12
    90          8
    91          9
    92          2
    93          7
    94        999
    95         75
    96          5
    97         10
    98          9
    99          2
   100          1
   101         13
   102        155
   103        315
   104         27
   105        449
   106         36
   107          6
   108          1
   109          2
   110          1
   111          3
   113          1
   115          5
   118         63
   119         12
   120          9
   121          5
   122          1
   123          1
   125          1
   126          1
   127          2
   128          2
   129         27
   130          3
   134          9
   135          2
   137          1
   139          3
   141          2
   145          1
   146          4
   147        590
   148         56
   149          9
   150          1
   151          3
   152         16
   153          5
   162          5
   163          3
   164          2
   165         24
   166          8
   167         33
   168          5
   169          1
   176          2
   177          2
   178          2
   179          1
   181          3
   182          1
   194         62
   195         75
   196        134
   197         19
   198          2
   205          1
   221         10
   222        108
   223         31
   224          4
   239          2
   240        155
   241         25
   242          3