##TITLE=Library Entry 98744
##JCAMP-DX=Revision 4.10 
##DATA TYPE=MASS SPECTRUM
##SAMPLE DESCRIPTION=E. STECKHAN, INST. ORG. CHEM. BIOCHEM., UNIV. BONN, W.
 GER.
##NAMES=HP
##CAS NAME=3.alpha.-Hydroxy-5.beta.-androstan-17-one 1,2-ethanediyl dithioac
etal
##MOLFORM=C21H34OS2
##CAS REGISTRY NO=69483-58-5
##MP= -300
##BP= -300
##MW= 366
##$RETENTION INDEX=0
##$CONDENSED SPECTRUM=NO
##NPOINTS= 24
##XYDATA=(XY..XY) 1 
    67         90
    69         90
    79        110
    81        100
    91         90
    93        110
    95         90
   105         90
   107        110
   118        999
   120        100
   133         60
   147         80
   215         60
   246        320
   255         80
   271         80
   272         70
   273         60
   305         50
   306         30
   338        450
   339         90
   366        220