##TITLE=Library Entry 7656
##JCAMP-DX=Revision 4.10 
##DATA TYPE=MASS SPECTRUM
##SAMPLE DESCRIPTION=T. BRYCE UNILEVER RESEARCH COLWORTH/WELWYN. BEDFORD U.K
.
##NAMES=HP
##CAS NAME=1-Hexanamine, N-hexyl-N-nitroso-
##MOLFORM=C12H26N2O
##CAS REGISTRY NO=6949-28-6
##MP= -300
##BP= -300
##MW= 214
##$RETENTION INDEX=1705
##$CONDENSED SPECTRUM=NO
##NPOINTS= 60
##XYDATA=(XY..XY) 1 
    39         76
    40         17
    41        373
    42        210
    43        999
    44        270
    45         30
    53         12
    54         24
    55        158
    56        189
    57        427
    58         67
    59         13
    60          7
    67          8
    68         10
    69         43
    70        151
    71         40
    72         11
    73          9
    74         48
    75          3
    82          9
    83         27
    84        136
    85        102
    86          9
    87          9
    97          8
    98         59
    99          9
   100         18
   112        236
   113          4
   114         81
   115          7
   126         28
   127        289
   128         42
   129         32
   131         90
   132          7
   140         15
   141         38
   142          5
   143         54
   144         42
   145          9
   154         30
   155          8
   157         22
   158         13
   184         44
   185         11
   197        218
   198         41
   214         33
   215          4