##TITLE=Library Entry 13106
##JCAMP-DX=Revision 4.10 
##DATA TYPE=MASS SPECTRUM
##SAMPLE DESCRIPTION=HCACAV,60(4)1273(1977);40; A. VASELLA, EIDGENOSSISCHEN
 TECHNISCHEN HOCHSCHULE, ZURICH, SWITZERLAND
##NAMES=HP
##CAS NAME=5-Isoxazolidinecarboxylic acid, 5-methyl-2-[2,3:5,6-bis-O-(1-meth
ylethylidene)-.alpha.-D-mannofuranosyl]-, methyl ester, (S)-
##MOLFORM=C18H29NO8
##CAS REGISTRY NO=69494-19-5
##MP= -300
##BP= -300
##MW= 387
##$RETENTION INDEX=0
##$CONDENSED SPECTRUM=NO
##NPOINTS= 49
##XYDATA=(XY..XY) 1 
    41        170
    43        999
    55        120
    57        100
    59        220
    68         70
    69        140
    70         40
    71        150
    72         70
    73         50
    81         90
    83         50
    84         40
    85        190
    86        160
    95         40
    97         60
    98        150
    99        170
   101        300
   113         60
   126         90
   127        170
   129         70
   141        150
   145        230
   146         60
   149         40
   154         20
   156         30
   158         40
   167         50
   173         90
   174        360
   175         30
   185        240
   186         60
   199         30
   200         20
   243         30
   270         40
   286        160
   314         20
   328         20
   372        200
   373         40
   387        160
   388         40