##TITLE=Library Entry 5064
##JCAMP-DX=Revision 4.10 
##DATA TYPE=MASS SPECTRUM
##SAMPLE DESCRIPTION=Chemical Concepts
##NAMES=HP
##CAS NAME=2H-Pyran-2-acetic acid, tetrahydro-6-methyl-, cis-
##MOLFORM=C8H14O3
##CAS REGISTRY NO=69493-11-4
##MP= -300
##BP= -300
##MW= 158
##$RETENTION INDEX=0
##$CONDENSED SPECTRUM=NO
##NPOINTS= 67
##XYDATA=(XY..XY) 1 
    26         24
    27        249
    28        108
    29        207
    31         36
    39        360
    40         79
    41        630
    42        999
    43        719
    44         91
    45        596
    51         24
    53        105
    54        197
    55        892
    56         83
    57        120
    58        239
    59         33
    60        381
    65         21
    67        105
    68        336
    69        292
    70        372
    71        365
    72         39
    73        153
    79         53
    80         75
    81        375
    82         30
    83         71
    84         97
    85         65
    86        568
    87        117
    89        448
    91         19
    94         31
    95         49
    96         98
    97        281
    98        449
    99        436
   100         32
   102        920
   103         66
   107         21
   111         44
   112        210
   113         27
   114         71
   115        523
   116        448
   117         38
   125        371
   126         25
   129         31
   139         26
   140        115
   141         20
   143        113
   157         35
   158        211
   159         28