##TITLE=Library Entry 49514
##JCAMP-DX=Revision 4.10 
##DATA TYPE=MASS SPECTRUM
##SAMPLE DESCRIPTION=Chemical Concepts
##NAMES=HP
##CAS NAME=1H-Indene, 2,3,4,5,6,7-hexahydro-
##MOLFORM=C9H14
##CAS REGISTRY NO=695-90-9
##MP= -300
##BP= -300
##MW= 122
##$RETENTION INDEX=1011
##$CONDENSED SPECTRUM=NO
##NPOINTS= 77
##XYDATA=(XY..XY) 1 
    26          6
    27         91
    29         37
    38          9
    39        170
    40         32
    41        150
    42         11
    43         17
    44         13
    45          4
    47          2
    49         16
    50         18
    51         73
    52         48
    53        108
    54         35
    55         58
    56          5
    57          8
    58         15
    59         15
    60         12
    61          2
    62          8
    63         31
    64          9
    65         90
    66         84
    67        174
    68         48
    69          9
    70          5
    71          8
    72          2
    73          3
    74          4
    75          7
    76          5
    77        256
    78         88
    79        969
    80        999
    81        487
    82         36
    83          8
    84         16
    85          3
    86          9
    87          2
    88          2
    89         13
    90          4
    91        208
    92         73
    93        851
    94        687
    95         61
    96          6
   103         15
   104          7
   105         35
   106          8
   107        176
   108         24
   109          5
   115         20
   116          7
   117         15
   118          4
   119          9
   120         21
   121         90
   122        835
   123         80
   124          5