##TITLE=Library Entry 54560
##JCAMP-DX=Revision 4.10 
##DATA TYPE=MASS SPECTRUM
##SAMPLE DESCRIPTION=Japan AIST/NIMC Database- Spectrum MS-NW-3147
##NAMES=HP
##CAS NAME=2(3H)-Furanone, 5-ethyldihydro-
##MOLFORM=C6H10O2
##CAS REGISTRY NO=695-06-7
##MP= -300
##BP= -300
##MW= 114
##$RETENTION INDEX=1057
##$CONDENSED SPECTRUM=NO
##NPOINTS= 46
##XYDATA=(XY..XY) 1 
    14          4
    15         10
    18          4
    25          1
    26         26
    27        122
    28        135
    29        364
    30         16
    31         11
    32          1
    37          3
    38          7
    39         52
    40         10
    41         61
    42        150
    43         13
    44          2
    45          2
    50          4
    51          4
    52          2
    53          8
    54          5
    55         85
    56        173
    57        160
    58         16
    59         17
    60          2
    61          1
    67          3
    68          2
    69          2
    70        101
    71          7
    72          5
    84          4
    85        999
    86         74
    87          7
    99          1
   113          9
   114          9
   115          1