##TITLE=Library Entry 50129
##JCAMP-DX=Revision 4.10 
##DATA TYPE=MASS SPECTRUM
##SAMPLE DESCRIPTION=Japan AIST/NIMC Database- Spectrum MS-IW-1591
##NAMES=HP
##CAS NAME=Cyclohexane, ethenyl-
##MOLFORM=C8H14
##CAS REGISTRY NO=695-12-5
##MP= -300
##BP= -300
##MW= 110
##$RETENTION INDEX=824
##$CONDENSED SPECTRUM=NO
##NPOINTS= 52
##XYDATA=(XY..XY) 1 
    15          1
    26          4
    27         68
    28         16
    29         35
    37          1
    38          6
    39        140
    40         25
    41        270
    42         21
    43         12
    45          1
    46          1
    50          9
    51         23
    52         14
    53         84
    54        292
    55        126
    56         21
    57          1
    62          2
    63          5
    64          1
    65         32
    66         36
    67        679
    68        227
    69        125
    70          8
    74          1
    77         25
    78          6
    79         72
    80         60
    81        999
    82        391
    83         27
    84          1
    91          9
    92          1
    93          9
    94          2
    95        207
    96         16
    97          1
   107          1
   109         16
   110        249
   111         22
   112          1