##TITLE=Library Entry 5187
##JCAMP-DX=Revision 4.10 
##DATA TYPE=MASS SPECTRUM
##SAMPLE DESCRIPTION=J. MITERA
##NAMES=HP
##CAS NAME=1-Azabicyclo[2.2.2]octane, 3-methyl-
##MOLFORM=C8H15N
##CAS REGISTRY NO=695-88-5
##MP= -300
##BP= -300
##MW= 125
##$RETENTION INDEX=0
##$CONDENSED SPECTRUM=NO
##NPOINTS= 53
##XYDATA=(XY..XY) 1 
    26         14
    27         97
    29         55
    30         35
    38          7
    39         97
    40         21
    41        197
    42        999
    43         90
    44         48
    45         85
    50          7
    51         14
    52         14
    53         41
    54         41
    55        145
    56         69
    57         62
    58         62
    63          3
    64          3
    65         14
    66         14
    67         55
    68        121
    69        100
    70         48
    71         48
    77          7
    78          3
    79         14
    80         14
    81         21
    82        179
    83         72
    84         28
    93          7
    94         14
    95         14
    96        241
    97         90
    98         14
   108         14
   109          7
   110        180
   111         24
   122         14
   123         21
   124        131
   125        297
   126         28