##TITLE=Library Entry 8160
##JCAMP-DX=Revision 4.10 
##DATA TYPE=MASS SPECTRUM
##SAMPLE DESCRIPTION=Tox21 Consortium/NIST Mass Spectrometry Data Center, 20
12
##NAMES=HP
##CAS NAME=Dimethadione
##MOLFORM=C5H7NO3
##CAS REGISTRY NO=695-53-4
##MP= -300
##BP= -300
##MW= 129
##$RETENTION INDEX=1060
##$CONDENSED SPECTRUM=NO
##NPOINTS= 49
##XYDATA=(XY..XY) 1 
    14          3
    15         28
    16          2
    17          1
    18          1
    25          2
    26         14
    27         43
    28         20
    29         19
    30          2
    31          8
    36          1
    37         13
    38         30
    39        155
    40         63
    41        261
    42        265
    43        999
    44         48
    45          9
    47          1
    51          2
    52          4
    53          5
    54          2
    55          2
    56          4
    57          4
    58        156
    59        625
    60         19
    61          1
    62          1
    63          1
    67          1
    68          1
    69          4
    70         36
    71          4
    75          2
    78          1
    86          2
   101          1
   114         10
   129        236
   130         12
   131          2