##TITLE=Library Entry 74622
##JCAMP-DX=Revision 4.10 
##DATA TYPE=MASS SPECTRUM
##SAMPLE DESCRIPTION=Exported from NIST MS Search
##NAMES=HP
##CAS NAME=D-Xylose, 3,4,5-tri-O-methyl-
##MOLFORM=C8H16O5
##CAS REGISTRY NO=69502-90-5
##MP= -300
##BP= -300
##MW= 192
##$RETENTION INDEX=0
##$CONDENSED SPECTRUM=NO
##NPOINTS= 33
##XYDATA=(XY..XY) 1 
    29        208
    30        128
    38         48
    41        112
    42         25
    43         89
    44         22
    45        339
    59         83
    60         64
    69         48
    71         57
    73        182
    75        121
    83         32
    85         44
    87         44
    88        439
    99         32
   101        999
   102         28
   110         57
   130        169
   131         51
   139          4
   140         14
   141          8
   159          3
   160          7
   173          3
   174          7
   175          5
   176          1