##TITLE=Library Entry 20930
##JCAMP-DX=Revision 4.10 
##DATA TYPE=MASS SPECTRUM
##SAMPLE DESCRIPTION=R.T.HOLMAN,UNIVERSITY OF MINNESOTA
##NAMES=HP
##CAS NAME=2H-Pyran, 2-(2-heptadecynyloxy)tetrahydro-
##MOLFORM=C22H40O2
##CAS REGISTRY NO=69502-96-1
##MP= -300
##BP= -300
##MW= 336
##$RETENTION INDEX=0
##$CONDENSED SPECTRUM=NO
##NPOINTS= 238
##XYDATA=(XY..XY) 1 
    25          4
    26         48
    27        245
    28        116
    29        385
    30         14
    31         93
    32          9
    33          4
    34          1
    36          5
    37          8
    38         14
    39        228
    40         41
    41        622
    42         82
    43        438
    44         29
    45         27
    46          3
    47          1
    48          1
    49          4
    50         22
    51         44
    52         40
    53        166
    54        333
    55        999
    56        271
    57        359
    58         29
    59         21
    60          7
    61          3
    62          3
    63          7
    64          5
    65         64
    66         88
    67        482
    68        403
    69        298
    70        157
    71        162
    72         14
    73          9
    74         12
    75          4
    76          3
    77        120
    78         46
    79        666
    80        166
    81        385
    82        263
    83        447
    84        614
    85        815
    86         51
    87          7
    89          3
    90          2
    91        140
    92         30
    93        315
    94        447
    95        359
    96        184
    97        543
    98        324
    99         36
   100          7
   101         40
   102          4
   103          6
   104          3
   105         30
   106         13
   107         84
   108        289
   109        149
   110         66
   111        342
   112        298
   113         39
   114          7
   115          6
   116          2
   117          6
   118          2
   119         11
   120          8
   121        157
   122         35
   123         55
   124         34
   125         41
   126         14
   127          6
   128          3
   129          4
   130          2
   131          3
   132          1
   133          7
   134          6
   135         74
   136         21
   137         28
   138         25
   139         15
   140         13
   141          7
   142          3
   143          2
   145          5
   146          1
   147          4
   148          2
   149         18
   150          6
   151         12
   152         18
   153         12
   154          7
   155          4
   156          2
   157          1
   158          1
   159          2
   160          1
   161          2
   162          1
   163          6
   164          3
   165          9
   166         25
   167         14
   168          4
   169          3
   170          1
   171          1
   172          1
   173          2
   174          1
   175          1
   176          1
   177          6
   178          2
   179          9
   180         16
   181         41
   182         13
   183         28
   184          5
   185          3
   187          1
   190          1
   191          3
   192          2
   193          3
   194          2
   195         15
   196          9
   197          4
   198          1
   199          1
   202          1
   203          1
   204          1
   205          3
   206          3
   207          2
   208         30
   209         10
   210          4
   211          6
   212          2
   213          1
   214          1
   215          1
   216          1
   217          2
   218          4
   219         10
   220          3
   221          1
   222          1
   223          4
   224          7
   225          1
   226          2
   227          1
   231          1
   232          1
   233          2
   234         18
   235          6
   236          2
   237          2
   238          1
   239          1
   241          1
   242          1
   243          1
   244          1
   245          1
   246          1
   247          1
   248          1
   249          3
   250          2
   251          5
   252         25
   253          6
   254          3
   255          1
   261          1
   263         39
   264          9
   265         11
   266          3
   270          1
   271          2
   277          4
   278          1
   279          3
   280          1
   281          1
   284          3
   285          3
   286          3
   291          2
   292          3
   336          7
   337          2