##TITLE=Library Entry 86114
##JCAMP-DX=Revision 4.10 
##DATA TYPE=MASS SPECTRUM
##SAMPLE DESCRIPTION=Albert Lebedev, Moscow State University, Russia
##NAMES=HP
##CAS NAME=1,2-Ethanediol, 1,2-di-4-pyridinyl-
##MOLFORM=C12H12N2O2
##CAS REGISTRY NO=6950-04-5
##MP= -300
##BP= -300
##MW= 216
##$RETENTION INDEX=0
##$CONDENSED SPECTRUM=NO
##NPOINTS= 80
##XYDATA=(XY..XY) 1 
    18         20
    26         10
    27         75
    28         14
    29         48
    30          2
    31          4
    37          2
    38          9
    39         39
    40          6
    41          7
    42          4
    43          6
    44          1
    45          1
    49          2
    50         39
    51        127
    52         87
    53        227
    54         20
    55         10
    56          1
    58          3
    62          6
    63         23
    64         12
    65         20
    66          5
    67          3
    68          2
    74          2
    75          4
    76          5
    77          5
    78        108
    79         83
    80        504
    81         35
    82          1
    89          4
    90          1
    91          6
    92         12
    93         45
    94          5
   105          1
   106         51
   107         17
   108        648
   109        999
   110         91
   111          6
   113          1
   114          2
   115          5
   116          2
   123          6
   124          1
   140          2
   141          3
   142          2
   143          1
   168          4
   169          3
   170          1
   171          1
   181          4
   182          2
   197          2
   198          6
   199          5
   200          1
   213          5
   214          1
   215          1
   216         54
   217          7
   218          1