##TITLE=Library Entry 74636
##JCAMP-DX=Revision 4.10 
##DATA TYPE=MASS SPECTRUM
##SAMPLE DESCRIPTION=Exported from NIST MS Search
##NAMES=HP
##CAS NAME=D-Xylopyranose, 5-C-hydroxy-2,3,4-tri-O-methyl-
##MOLFORM=C8H16O6
##CAS REGISTRY NO=69502-93-8
##MP= -300
##BP= -300
##MW= 208
##$RETENTION INDEX=0
##$CONDENSED SPECTRUM=NO
##NPOINTS= 34
##XYDATA=(XY..XY) 1 
    43        180
    71         50
    73         61
    75        315
    81         40
    83         35
    85         50
    87         50
    88        533
    95         30
    96         40
    97         27
    99         30
   101        999
   102         63
   103         62
   111         26
   113         20
   115         12
   116         50
   117         78
   119         15
   123         10
   127         21
   129         41
   131         23
   135         21
   141         30
   145         33
   155         13
   159         14
   161         18
   169         13
   173         15