##TITLE=Library Entry 74637
##JCAMP-DX=Revision 4.10 
##DATA TYPE=MASS SPECTRUM
##SAMPLE DESCRIPTION=Exported from NIST MS Search
##NAMES=HP
##CAS NAME=d-Xylopyranoside, methyl 5-C-methoxy-2,3,4-tri-O-methyl-
##MOLFORM=C10H20O6
##CAS REGISTRY NO=69502-94-9
##MP= -300
##BP= -300
##MW= 236
##$RETENTION INDEX=0
##$CONDENSED SPECTRUM=NO
##NPOINTS= 21
##XYDATA=(XY..XY) 1 
    43         80
    71         47
    73        260
    75        316
    81         21
    83         20
    85        160
    87         31
    88        829
   101        999
   102         65
   111         20
   113         15
   117         18
   127         20
   129         19
   131         20
   141         30
   145         21
   173         13
   205         12