##TITLE=Library Entry 76179
##JCAMP-DX=Revision 4.10 
##DATA TYPE=MASS SPECTRUM
##SAMPLE DESCRIPTION=Japan AIST/NIMC Database- Spectrum MS-NW-6225
##NAMES=HP
##CAS NAME=Benzonitrile, 3-bromo-
##MOLFORM=C7H4BrN
##CAS REGISTRY NO=6952-59-6
##MP= -300
##BP= -300
##MW= 181
##$RETENTION INDEX=0
##$CONDENSED SPECTRUM=NO
##NPOINTS= 81
##XYDATA=(XY..XY) 1 
    12          1
    14          1
    25          3
    26          9
    27         22
    28          9
    36          9
    37         43
    38         47
    39         23
    40          2
    43          3
    44          1
    48          7
    49         36
    50        177
    51        167
    52         28
    53          1
    55          1
    56          1
    57          1
    60          6
    61         16
    62         20
    63         17
    64         10
    65          1
    72          5
    73         24
    74         76
    75        243
    76        125
    77         10
    78          6
    79          9
    80          4
    81          9
    82          4
    84          2
    85          3
    86          5
    87          4
    88          2
    90         35
    91         34
    92          4
    93          1
    98          4
    99         29
   100         28
   101         21
   102        999
   103         83
   104          4
   105          2
   106          4
   107          2
   116          1
   117          3
   118          2
   119          3
   128          2
   129          2
   130          3
   131          1
   132          1
   141          1
   142          1
   153          2
   154          2
   155          2
   156          1
   157          1
   179          1
   180          2
   181        907
   182         77
   183        865
   184         71
   185          3