##TITLE=Library Entry 7244
##JCAMP-DX=Revision 4.10 
##DATA TYPE=MASS SPECTRUM
##SAMPLE DESCRIPTION=Japan AIST/NIMC Database- Spectrum MS-IW-2319
##NAMES=HP
##CAS NAME=Ethanethioic acid, S-(dihydro-2,5-dioxo-3-furanyl) ester
##MOLFORM=C6H6O4S
##CAS REGISTRY NO=6953-60-2
##MP= -300
##BP= -300
##MW= 174
##$RETENTION INDEX=0
##$CONDENSED SPECTRUM=NO
##NPOINTS= 64
##XYDATA=(XY..XY) 1 
    12          1
    13          3
    14         11
    15         58
    16          1
    24          2
    25         10
    26         78
    27        102
    28         10
    29          9
    32          9
    33         11
    34          3
    36          1
    37          2
    38          1
    39          1
    40          1
    41         10
    42         57
    43        999
    44         61
    45         84
    46          8
    47          9
    48          1
    52          2
    53         14
    54         73
    55        196
    56          9
    57         27
    58         97
    59        103
    60         53
    61         20
    62          3
    63          1
    69          1
    71          2
    72          9
    73          1
    74          1
    75          2
    76         13
    85          2
    86         12
    87         19
    88          3
    89          1
    90          2
    98         28
    99         12
   100          1
   102         57
   103          5
   104         24
   105          1
   106          1
   132          2
   174         76
   175          5
   176          4