##TITLE=Library Entry 64114
##JCAMP-DX=Revision 4.10 
##DATA TYPE=MASS SPECTRUM
##SAMPLE DESCRIPTION=Leung Pu, NIH, Bethesda, Maryland, U.S.
##NAMES=HP
##CAS NAME=5-Benzyloxyindole-3-carboxaldehyde
##MOLFORM=C16H13NO2
##CAS REGISTRY NO=6953-22-6
##MP= -300
##BP= -300
##MW= 251
##$RETENTION INDEX=0
##$CONDENSED SPECTRUM=NO
##NPOINTS= 111
##XYDATA=(XY..XY) 1 
    41          9
    42          0
    43          1
    44          1
    46          2
    47          0
    49          4
    50         21
    51         45
    52         18
    53         10
    54          2
    55          1
    57          0
    61          1
    62         10
    63         30
    64          7
    65        107
    66          5
    70          0
    73          1
    74          6
    75         11
    76         28
    77         68
    78         18
    79          2
    80          2
    81          5
    82          0
    84          4
    86          5
    87          4
    88          4
    89         39
    91        999
    92         84
    93          2
    96          1
    97          0
    99          0
   102         10
   103         29
   104         14
   105          8
   106          1
   111          0
   114          4
   115          5
   116          5
   117          1
   118          1
   125          1
   130          1
   131         34
   132        177
   133         15
   134          0
   139          1
   140          0
   143          3
   144          2
   145          6
   152          1
   153          0
   158          1
   159         14
   160         84
   161         10
   162          1
   163          1
   164          0
   165          5
   166          1
   167          1
   173         14
   174          9
   175          2
   176          0
   177          1
   178          0
   179          0
   180          0
   181          1
   190          0
   191          1
   192          3
   193          2
   194          6
   195          1
   203          0
   204          3
   205          1
   206          1
   207          1
   220          2
   222         32
   223         10
   224          1
   232          1
   233         17
   234          9
   235          1
   236          1
   248          0
   250         33
   251        683
   252        114
   253         11
   254          0