##TITLE=Library Entry 84026
##JCAMP-DX=Revision 4.10 
##DATA TYPE=MASS SPECTRUM
##SAMPLE DESCRIPTION=NIST Mass Spectrometry Data Center, 1994
##NAMES=HP
##CAS NAME=1-(2-Bromoethoxy)-2,4-dichlorobenzene
##MOLFORM=C8H7BrCl2O
##CAS REGISTRY NO=6954-77-4
##MP= -300
##BP= -300
##MW= 268
##$RETENTION INDEX=0
##$CONDENSED SPECTRUM=NO
##NPOINTS= 93
##XYDATA=(XY..XY) 1 
    14         12
    15         14
    17          4
    18         11
    25         12
    26         96
    27        518
    28         83
    29         19
    31          4
    35          8
    36         10
    37         43
    38         48
    39         18
    42          6
    43          8
    44          6
    47         11
    48          8
    49         30
    50         36
    51         16
    53         22
    60         13
    61         76
    62        145
    63        302
    64         17
    65          6
    71          7
    72         49
    73        153
    74         78
    75         95
    76          7
    77          3
    79         10
    80          4
    81         11
    82          5
    83         46
    84         16
    85         42
    86          8
    87          8
    89         12
    91         19
    92          4
    93         15
    95         10
    96         11
    97         59
    98        103
    99         65
   100         39
   101         14
   107        999
   109        965
   110         33
   111         26
   112          7
   119          6
   125         21
   126         43
   127         14
   128         21
   133        190
   135        137
   136         11
   137         19
   145         20
   147         18
   149          6
   153          4
   161         77
   162        216
   163         67
   164        146
   165         18
   166         23
   175          7
   177          6
   188          6
   189         13
   190          7
   191          8
   268        140
   270        209
   271         23
   272         92
   273          9
   274         17