##TITLE=Library Entry 67791
##JCAMP-DX=Revision 4.10 
##DATA TYPE=MASS SPECTRUM
##SAMPLE DESCRIPTION=NIST Mass Spectrometry Data Center, 1990.
##NAMES=HP
##CAS NAME=Cyclohexanol, 2,4-dimethyl-
##MOLFORM=C8H16O
##CAS REGISTRY NO=69542-91-2
##MP= -300
##BP= -300
##MW= 128
##$RETENTION INDEX=1032
##$CONDENSED SPECTRUM=NO
##NPOINTS= 57
##XYDATA=(XY..XY) 1 
    15         48
    16          0
    18         27
    26         35
    27        430
    28        207
    29        516
    30         41
    31        125
    38         41
    39        492
    40        106
    41        870
    42        242
    43        944
    44        280
    45        110
    50         26
    51         64
    52         29
    53        165
    54         69
    55        658
    56        460
    57        939
    58        639
    59         41
    63         18
    65         41
    67        394
    68        200
    69        491
    70        172
    71        546
    72         91
    73         11
    77         38
    78         12
    79         54
    80         49
    81        406
    82        363
    83         77
    84        454
    85        196
    86         28
    91         24
    93         28
    95        999
    96         75
    97         39
    99         18
   100         46
   109         69
   110        323
   111         37
   128         22