##TITLE=Library Entry 65932
##JCAMP-DX=Revision 4.10 
##DATA TYPE=MASS SPECTRUM
##SAMPLE DESCRIPTION=Chemical Concepts
##NAMES=HP
##CAS NAME=2-Pyridinamine, N-[(4-chlorophenyl)methylene]-3-methyl-
##MOLFORM=C13H11ClN2
##CAS REGISTRY NO=69556-14-5
##MP= -300
##BP= -300
##MW= 230
##$RETENTION INDEX=0
##$CONDENSED SPECTRUM=NO
##NPOINTS= 95
##XYDATA=(XY..XY) 1 
    26          2
    27         12
    28          6
    29          2
    37          2
    38         10
    39         66
    40         12
    41         10
    42          3
    43          3
    50         16
    51         21
    52         11
    53         12
    54          5
    57          3
    61          3
    62         10
    63         28
    64         19
    65        121
    66         68
    67         24
    68          2
    69          2
    74          5
    75         23
    76          9
    78          9
    79          2
    80          4
    81          2
    84          7
    85          2
    86          3
    88          3
    89         32
    90          5
    91         12
    92        105
    93        999
    94         71
    95          3
    96          5
    97         31
    99          2
   101          2
   102          9
   107          2
   108          8
   111         16
   112          3
   113          6
   114          4
   115         14
   116          4
   118          8
   119         25
   120          2
   123          5
   124          2
   125          4
   137          5
   138          6
   139         13
   140          5
   141          5
   142          2
   149          7
   150          3
   152          2
   156          7
   158          2
   166          4
   167         13
   168          7
   179          2
   188          1
   192          2
   194          7
   195         14
   196          2
   202         18
   203          5
   204          6
   205          2
   215          7
   217          2
   228          4
   229        103
   230        102
   231         35
   232         32
   233          3