##TITLE=Library Entry 61018
##JCAMP-DX=Revision 4.10 
##DATA TYPE=MASS SPECTRUM
##SAMPLE DESCRIPTION=Japan AIST/NIMC Database- Spectrum MS-NW-6942
##NAMES=HP
##CAS NAME=N-(Diphenylmethylene)glycine ethyl ester
##MOLFORM=C17H17NO2
##CAS REGISTRY NO=69555-14-2
##MP= -300
##BP= -300
##MW= 267
##$RETENTION INDEX=0
##$CONDENSED SPECTRUM=NO
##NPOINTS= 116
##XYDATA=(XY..XY) 1 
    15          4
    26          4
    27         41
    28          6
    29         49
    30         17
    31         10
    37          3
    38          6
    39         33
    40          2
    41          7
    42          3
    43          4
    44          4
    45          2
    49          2
    50         53
    51        192
    52         13
    53          2
    56          2
    59          7
    60          1
    61          2
    62          9
    63         25
    64          6
    65         56
    66          3
    69          5
    70          1
    73          2
    74         20
    75         17
    76         32
    77        384
    78         28
    79          3
    81          3
    82          9
    83          4
    84          1
    85          1
    86          4
    87          7
    88          4
    89         23
    90         16
    91        999
    92         75
    93          3
    95          3
    96          6
    97          4
    98          3
    99          2
   100          1
   101          4
   102          7
   103          4
   104         20
   105        496
   106         40
   107          3
   110          1
   111          1
   113          4
   114          2
   115         11
   116         12
   117         18
   118          9
   119          1
   126          6
   127          4
   128          3
   130          3
   134          2
   137          1
   138          1
   139         12
   140          2
   141          1
   150          2
   151          6
   152         21
   153         10
   154         11
   155          1
   162          2
   163         11
   164         13
   165         83
   166         17
   167          5
   168          1
   178          1
   179          2
   180         15
   181         28
   182        191
   183         28
   184          2
   190          4
   191          3
   192         10
   193         20
   194        431
   195         88
   196          8
   238          2
   266          1
   267         49
   268         11
   269          2