##TITLE=Library Entry 59524
##JCAMP-DX=Revision 4.10 
##DATA TYPE=MASS SPECTRUM
##SAMPLE DESCRIPTION=Chemical Concepts
##NAMES=HP
##CAS NAME=Propanedinitrile, (1-methyl-3-phenylpropylidene)-
##MOLFORM=C13H12N2
##CAS REGISTRY NO=69564-94-9
##MP= -300
##BP= -300
##MW= 196
##$RETENTION INDEX=0
##$CONDENSED SPECTRUM=NO
##NPOINTS= 119
##XYDATA=(XY..XY) 1 
    25          0
    26          6
    27         30
    28         12
    29          2
    32          1
    34          0
    35          0
    36          0
    37          7
    38         15
    39         93
    40         10
    41         28
    42          1
    43          0
    44          0
    46          1
    47          0
    48          0
    49          1
    50         28
    51         75
    52         25
    53          6
    54          1
    55          0
    56          0
    57          0
    58          0
    60          0
    61          3
    62         13
    63         46
    64         19
    65        164
    66         12
    67          0
    68          0
    69          0
    70          0
    71          0
    73          1
    74          8
    75         10
    76         11
    77         34
    78         37
    79          7
    80          0
    83          0
    84          0
    85          0
    86          2
    87          3
    88          2
    89         22
    90          9
    91        999
    92         76
    93          2
    96          0
    97          0
    98          1
    99          1
   100          1
   101          2
   102          6
   103         10
   104          4
   105          4
   106          0
   109          0
   111          0
   112          0
   113          1
   114          1
   115         10
   116          2
   117          1
   118          0
   119          0
   125          1
   126          2
   127          4
   128          5
   129          2
   130          1
   131          3
   132          0
   137          0
   138          0
   139          2
   140          3
   141          1
   142          0
   151          1
   152          2
   153          4
   154          2
   155          1
   164          0
   165          0
   166          1
   167          1
   168          1
   169          0
   178          0
   179          1
   180          0
   181          2
   182          0
   192          0
   193          0
   194          0
   195          0
   196         32
   197          5
   198          0