##TITLE=Library Entry 77764
##JCAMP-DX=Revision 4.10 
##DATA TYPE=MASS SPECTRUM
##SAMPLE DESCRIPTION=A.A.Kutin, Moscow, Russia
##NAMES=HP
##CAS NAME=Furan-2(3H)-one, 4,5-dihydro-4,5-diphenyl-, cis-
##MOLFORM=C16H14O2
##CAS REGISTRY NO=69573-46-2
##MP= -300
##BP= -300
##MW= 238
##$RETENTION INDEX=0
##$CONDENSED SPECTRUM=NO
##NPOINTS= 137
##XYDATA=(XY..XY) 1 
    33          0
    34          0
    37          6
    38         35
    39        157
    40         22
    41         34
    42         18
    43         50
    44         29
    45          0
    48          0
    50        131
    51        268
    52         75
    53         17
    54          4
    55         19
    56         10
    57         41
    58          1
    59          0
    61          6
    62         33
    63         98
    64         18
    65         47
    66          3
    67          2
    68          1
    69         10
    70          6
    71         19
    72          1
    74         44
    75         43
    76         86
    77        324
    78        209
    79         45
    80          2
    81          2
    82         10
    83         13
    84          4
    85         13
    86         10
    87         16
    88         15
    89         91
    90         20
    91         40
    92          3
    93          0
    94          2
    95          1
    96          0
    97          4
    98          8
    99          7
   101         13
   102         78
   103        211
   104        999
   105        166
   106         15
   107         10
   108          0
   109          0
   110          2
   111          4
   112          2
   113          8
   115         66
   116         11
   117          3
   118          0
   119          0
   122          1
   123          1
   125          2
   126         12
   127         12
   128         10
   129          1
   131         22
   132         27
   133          2
   137          1
   138          2
   139         22
   140          3
   141          3
   150         15
   151         31
   152         75
   153         20
   154          3
   155          0
   162          0
   163          9
   165        236
   166         32
   167          5
   169          0
   174          1
   176         64
   177         54
   178        374
   179        634
   180        710
   181        102
   182          7
   183          0
   188          0
   189          6
   190          2
   191          6
   192          2
   193          5
   194          2
   195          0
   198          0
   208          0
   210         87
   211         15
   212          1
   214          0
   219          0
   224          1
   225          1
   227          0
   235          1
   238        616
   239         79
   240          5
   241          0