##TITLE=Library Entry 70727
##JCAMP-DX=Revision 4.10 
##DATA TYPE=MASS SPECTRUM
##SAMPLE DESCRIPTION=Chemical Concepts
##NAMES=HP
##CAS NAME=3-(Piperidinomethyl)-2-benzothiazolinethione
##MOLFORM=C13H16N2S2
##CAS REGISTRY NO=6957-11-5
##MP= -300
##BP= -300
##MW= 264
##$RETENTION INDEX=0
##$CONDENSED SPECTRUM=NO
##NPOINTS= 109
##XYDATA=(XY..XY) 1 
    34         19
    35          8
    36         26
    38         63
    39        202
    40        114
    41        397
    42        301
    43        128
    44        188
    45         80
    46          8
    47          7
    48          3
    49          8
    50         43
    51         64
    52         34
    53         26
    54         43
    55        191
    56        131
    57         80
    58         38
    59         22
    60          9
    61         14
    62         22
    63         76
    64         52
    65         33
    67         39
    69        198
    70        108
    71         22
    72         11
    73          9
    74         20
    76         33
    77         27
    78         14
    79          9
    80         12
    81         22
    82         54
    84        147
    85         37
    86          5
    87          3
    88          4
    89          4
    90          9
    91         35
    92          9
    94         14
    95         20
    96         67
    98        999
    99         69
   100         10
   101          8
   103         23
   104          8
   106          4
   108         72
   109         45
   110         10
   111          5
   112          6
   113          5
   114          2
   115          2
   116          3
   118          3
   121          6
   122         21
   123         27
   124          5
   125          3
   126         15
   127          4
   128          4
   129          3
   132          3
   133          6
   134          7
   135         35
   136         12
   137          3
   138          2
   139          5
   140         14
   141          6
   142          3
   143          3
   147          2
   148          2
   149          2
   155          2
   167        232
   168         25
   169         18
   170          4
   171          4
   180          5
   181          2
   197          2
   211          2
   264          7