##TITLE=Library Entry 28143
##JCAMP-DX=Revision 4.10 
##DATA TYPE=MASS SPECTRUM
##SAMPLE DESCRIPTION=F.GAYMARD FACULTY OF SCIENCE, NICE UNIV., NICE, FRANCE
##NAMES=HP
##CAS NAME=Cycloheptanol, 2-chloro-, trans-
##MOLFORM=C7H13ClO
##CAS REGISTRY NO=69578-07-0
##MP= -300
##BP= -300
##MW= 148
##$RETENTION INDEX=0
##$CONDENSED SPECTRUM=NO
##NPOINTS= 51
##XYDATA=(XY..XY) 1 
    39        580
    40        190
    41        740
    42        510
    43        320
    44        550
    45        250
    49         20
    50         60
    51        110
    52         60
    53        190
    54        520
    55        920
    56        760
    57        260
    58        999
    59         80
    62         75
    63         30
    64         30
    65         70
    66         90
    67        260
    68        610
    69        390
    70        290
    71        250
    72         90
    77        150
    78         70
    79        530
    80        440
    81        240
    82         70
    83        190
    84        460
    85         90
    86         40
    93         60
    94        320
    95        420
    96         70
    97         50
    98         80
   112         70
   113         90
   114         40
   115         20
   116         20
   130         15