##TITLE=Library Entry 36703
##JCAMP-DX=Revision 4.10 
##DATA TYPE=MASS SPECTRUM
##SAMPLE DESCRIPTION=NIST Mass Spectrometry Data Center, 1998.
##NAMES=HP
##CAS NAME=Cyprofuram
##MOLFORM=C14H14ClNO3
##CAS REGISTRY NO=69581-33-5
##MP= -300
##BP= -300
##MW= 279
##$RETENTION INDEX=2241
##$CONDENSED SPECTRUM=NO
##NPOINTS= 150
##XYDATA=(XY..XY) 1 
    14          1
    15          3
    26          5
    27         31
    28         11
    29         23
    30          2
    31          2
    36          1
    37          3
    38         12
    39        162
    40         20
    41        471
    42         22
    43          3
    44          2
    45          1
    49          2
    50         26
    51         25
    52          6
    53          4
    54          4
    55         27
    56          4
    57          3
    61          4
    62          7
    63         24
    64         13
    65          9
    66          2
    67          2
    68          2
    69        999
    70         43
    71          3
    72          1
    73          7
    74         14
    75        115
    76         24
    77         20
    78          3
    79          1
    84          2
    85         14
    86          3
    87          5
    88          3
    89         20
    90         21
    91         13
    92          2
    93          1
    97          1
    98          2
    99          9
   100          3
   101          5
   102         10
   103         11
   104          4
   105          3
   109          1
   111        155
   112         15
   113         50
   114          6
   115          7
   116          9
   117         37
   118         10
   119          2
   123          1
   124          2
   125         12
   126          3
   127         13
   128          5
   129          5
   130         60
   131         29
   132         36
   133          4
   137          4
   138         50
   139          6
   140         21
   141          3
   142          2
   143          2
   144          1
   145          1
   146          1
   149          1
   150          3
   151         11
   152         20
   153         40
   154         12
   155         12
   156          3
   157          1
   158          1
   159          1
   164         19
   165          8
   166         41
   167         57
   168         17
   169         18
   170          2
   172          1
   176          1
   177          1
   178          4
   179          1
   180          2
   181          2
   182          3
   183          1
   184          1
   192          2
   193          4
   194          2
   195          5
   196          1
   197          1
   204          1
   206          1
   208          1
   211        493
   212         59
   213        161
   214         17
   215          2
   221          6
   222          1
   223          2
   224          2
   226          1
   249          1
   251          1
   279         93
   280         15
   281         31
   282          5
   283          1