##TITLE=Library Entry 66159
##JCAMP-DX=Revision 4.10 
##DATA TYPE=MASS SPECTRUM
##SAMPLE DESCRIPTION=Chemical Concepts
##NAMES=HP
##CAS NAME=Bicyclo[2.2.1]heptan-2-ol, 1,2-dimethyl-, acetate, exo-
##MOLFORM=C11H18O2
##CAS REGISTRY NO=69586-78-3
##MP= -300
##BP= -300
##MW= 182
##$RETENTION INDEX=0
##$CONDENSED SPECTRUM=NO
##NPOINTS= 59
##XYDATA=(XY..XY) 1 
    26         35
    27        209
    28        122
    29        205
    31         24
    38         40
    39        357
    40         83
    41        411
    42        148
    43        764
    44        156
    45        161
    50         44
    51        130
    52         57
    53        169
    54         42
    55        161
    56         45
    57        100
    58         65
    59         51
    60        112
    63         36
    65        118
    66         65
    67        193
    68         51
    69         58
    71         38
    72         31
    77          4
    78        116
    79        772
    80        747
    81        876
    82        101
    83         41
    85         46
    91          8
    92         88
    93        999
    94        727
    95         93
    97         70
   105         11
   106         74
   107        545
   108         67
   120         34
   121         30
   122        793
   123        125
   124         67
   125        128
   138         27
   139         59
   140         37