##TITLE=Library Entry 52955
##JCAMP-DX=Revision 4.10 
##DATA TYPE=MASS SPECTRUM
##SAMPLE DESCRIPTION=Exported from NIST MS Search
##NAMES=HP
##CAS NAME=2H-Quinolizin-1-ol, 1-ethenyloctahydro-
##MOLFORM=C11H19NO
##CAS REGISTRY NO=69597-57-5
##MP= -300
##BP= -300
##MW= 181
##$RETENTION INDEX=0
##$CONDENSED SPECTRUM=NO
##NPOINTS= 30
##XYDATA=(XY..XY) 1 
    27         89
    28        158
    29         59
    39         48
    41        179
    42        134
    43         43
    54         51
    55        499
    56        105
    68         29
    69        100
    70         45
    82        132
    83        999
    84        275
    96        482
    97        226
    98        694
    99         38
   109        132
   110        236
   111        291
   124        145
   152         34
   162         34
   163         27
   164         17
   181        226
   182         24