##TITLE=Library Entry 40114
##JCAMP-DX=Revision 4.10 
##DATA TYPE=MASS SPECTRUM
##SAMPLE DESCRIPTION=Japan AIST/NIMC Database- Spectrum MS-NW-1043
##NAMES=HP
##CAS NAME=Furan, tetrahydro-2,5-dimethoxy-
##MOLFORM=C6H12O3
##CAS REGISTRY NO=696-59-3
##MP= -300
##BP= -300
##MW= 132
##$RETENTION INDEX=892
##$CONDENSED SPECTRUM=NO
##NPOINTS= 69
##XYDATA=(XY..XY) 1 
    12          1
    13          2
    14          9
    15        130
    16          3
    17          2
    18          9
    25          2
    26         19
    27        114
    28         56
    29        233
    30         14
    31        127
    32         41
    33         34
    37          6
    38         12
    39        124
    40         21
    41        618
    42        173
    43         55
    44         17
    45        296
    46          6
    47         30
    50          1
    51          2
    53         10
    54          1
    55         26
    56         23
    57        230
    58         66
    59        157
    60          5
    61         23
    67          1
    68         20
    69        625
    70         38
    71        559
    72        999
    73         63
    74          5
    75        155
    76          5
    77          1
    83          3
    84          1
    85         17
    86          2
    87          2
    88          8
    89          1
    91          4
    92          3
    98          2
    99         27
   100         50
   101        741
   102         43
   103          4
   114          2
   115         16
   116          1
   131         44
   132          3