##TITLE=Library Entry 52338
##JCAMP-DX=Revision 4.10 
##DATA TYPE=MASS SPECTRUM
##SAMPLE DESCRIPTION=Japan AIST/NIMC Database- Spectrum MS-NW-3641
##NAMES=HP
##CAS NAME=Cyclohexane, (1-methylethyl)-
##MOLFORM=C9H18
##CAS REGISTRY NO=696-29-7
##MP= -300
##BP= -300
##MW= 126
##$RETENTION INDEX=924
##$CONDENSED SPECTRUM=NO
##NPOINTS= 55
##XYDATA=(XY..XY) 1 
    15          7
    26          5
    27        116
    28          7
    29         89
    30          2
    36          2
    37          1
    38          5
    39        117
    40         17
    41        409
    42         68
    43        128
    44          5
    50          6
    51         13
    52          8
    53         45
    54         85
    55        898
    56        100
    57         34
    58          2
    62          1
    63          3
    64          1
    65          9
    66          6
    67        276
    68         26
    69        174
    70         18
    71          2
    77          9
    78          3
    79         12
    80          4
    81         34
    82        791
    83        999
    84         73
    85          3
    91          3
    93          1
    95          2
    96          2
    97          5
    98          2
   109          1
   111         19
   112          2
   125          2
   126        100
   127         10