##TITLE=Library Entry 5209
##JCAMP-DX=Revision 4.10 
##DATA TYPE=MASS SPECTRUM
##SAMPLE DESCRIPTION=NIST Mass Spectrometry Data Center
##NAMES=HP
##CAS NAME=5,6-Dihydro-5-methyluracil
##MOLFORM=C5H8N2O2
##CAS REGISTRY NO=696-04-8
##MP= -300
##BP= -300
##MW= 128
##$RETENTION INDEX=1524
##$CONDENSED SPECTRUM=NO
##NPOINTS= 65
##XYDATA=(XY..XY) 1 
    14          1
    15          5
    17          2
    25          4
    26         36
    27        103
    28        319
    29         87
    30        254
    31          2
    37          9
    38         18
    39        133
    40         66
    41        330
    42        999
    43         85
    44        100
    45          3
    46          1
    50          1
    51          8
    52         26
    53         25
    54         37
    55         95
    56        556
    57        127
    58          7
    59          3
    60          1
    62          1
    63          2
    67          2
    68          7
    69         14
    70         82
    71          4
    72         27
    73         14
    74          2
    77          1
    80          1
    81          1
    82          4
    83          2
    84         66
    85         37
    87          4
    95          1
    97          1
    98          1
    99         12
   100         22
   101          2
   110          4
   111          2
   112          1
   113         43
   114          2
   125          1
   127        161
   128        936
   129         53
   130          3