##TITLE=Library Entry 23607
##JCAMP-DX=Revision 4.10 
##DATA TYPE=MASS SPECTRUM
##SAMPLE DESCRIPTION=Japan AIST/NIMC Database- Spectrum MS-NW-1321
##NAMES=HP
##CAS NAME=Cyclooctyl alcohol
##MOLFORM=C8H16O
##CAS REGISTRY NO=696-71-9
##MP= -300
##BP= -300
##MW= 128
##$RETENTION INDEX=1155
##$CONDENSED SPECTRUM=NO
##NPOINTS= 75
##XYDATA=(XY..XY) 1 
    14          1
    15         14
    16          1
    17          3
    18         10
    26         10
    27        164
    28         33
    29        173
    30         11
    31         77
    32          3
    37          2
    38          6
    39        147
    40         31
    41        435
    42        174
    43        240
    44        242
    45         68
    46          2
    48          1
    49          1
    50          5
    51         12
    52          5
    53         54
    54        212
    55        291
    56        214
    57        999
    58         97
    59         11
    60          1
    62          1
    63          2
    65          9
    66         73
    67        415
    68        435
    69        159
    70         29
    71         98
    72         49
    73          8
    77          7
    78          2
    79         15
    80         15
    81        332
    82        400
    83         36
    84         86
    85         89
    86         25
    87          3
    91          2
    93          3
    94          1
    95        126
    96         11
    97         15
    98         14
    99         49
   100         18
   101          1
   108          1
   109          9
   110        112
   111         11
   113          2
   126          3
   127          7
   128          1