##TITLE=Library Entry 2279
##JCAMP-DX=Revision 4.10 
##DATA TYPE=MASS SPECTRUM
##SAMPLE DESCRIPTION=NIST Mass Spectrometry Data Center, 1990.
##NAMES=HP
##CAS NAME=N-Allyl morpholine
##MOLFORM=C7H13NO
##CAS REGISTRY NO=696-57-1
##MP= -300
##BP= -300
##MW= 127
##$RETENTION INDEX=0
##$CONDENSED SPECTRUM=NO
##NPOINTS= 58
##XYDATA=(XY..XY) 1 
    13          6
    14         18
    15        106
    16          5
    25          8
    26         52
    27        204
    28        408
    29        161
    30        100
    31         27
    32          7
    37         14
    38         39
    39        279
    40         98
    41        999
    42        565
    43        183
    44         35
    45         15
    51          7
    52         14
    53         17
    54        124
    55        192
    56        214
    57         31
    58         15
    59          6
    65          6
    66          9
    67         39
    68        377
    69        277
    70         63
    71         11
    72         14
    80         12
    82        220
    83         34
    84         52
    85         48
    86        114
    87         11
    94          9
    96        137
    97         50
    98         46
    99         10
   100        182
   101         11
   112         82
   113          5
   125         10
   126         74
   127        234
   128         23