##TITLE=Library Entry 57717
##JCAMP-DX=Revision 4.10 
##DATA TYPE=MASS SPECTRUM
##SAMPLE DESCRIPTION=TNO Volatile Compounds in Food - Chemical Concepts
##NAMES=HP
##CAS NAME=Thiazolidine, 2-isobutyl-
##MOLFORM=C7H15NS
##CAS REGISTRY NO=696-70-8
##MP= -300
##BP= -300
##MW= 145
##$RETENTION INDEX=1146
##$CONDENSED SPECTRUM=NO
##NPOINTS= 75
##XYDATA=(XY..XY) 1 
    26          8
    27        100
    28          1
    29         21
    30        118
    31          1
    32          1
    33          4
    34          8
    35         15
    37          1
    38          2
    39         44
    40          1
    41        104
    42        134
    43        130
    44        125
    45         41
    46          8
    47          9
    48          1
    50          2
    51          3
    52          2
    53          9
    54         15
    55         16
    56        235
    57         36
    58         14
    59         40
    60         47
    61         91
    62          5
    63          3
    64          1
    65          1
    67          6
    68         19
    69         30
    70         68
    71          4
    73          4
    74         11
    75          3
    80          1
    81          1
    82          5
    83          1
    84         56
    85          8
    86         15
    87          6
    88        999
    89         46
    90         45
    91          1
    96          2
    98         99
    99         16
   100          1
   101          9
   102         16
   103         10
   112         10
   128          2
   130         66
   131          3
   132          2
   143          2
   144         21
   145        184
   146         17
   147          7