##TITLE=Library Entry 82908
##JCAMP-DX=Revision 4.10 
##DATA TYPE=MASS SPECTRUM
##SAMPLE DESCRIPTION=NIST Mass Spectrometry Data Center, 2009
##NAMES=HP
##CAS NAME=4-Isopropylpyridine
##MOLFORM=C8H11N
##CAS REGISTRY NO=696-30-0
##MP= -300
##BP= -300
##MW= 121
##$RETENTION INDEX=1054
##$CONDENSED SPECTRUM=NO
##NPOINTS= 61
##XYDATA=(XY..XY) 1 
    15          3
    26          7
    27         26
    28         17
    29          2
    37          4
    38         12
    39         64
    40         10
    41         31
    42          4
    43          7
    45          1
    46          1
    49          5
    50         66
    51        156
    52         75
    53         51
    54         24
    55          2
    58          3
    59          3
    61          4
    62         11
    63         29
    64          9
    65         38
    66          9
    67          9
    68          2
    73          1
    74          8
    75          9
    76         14
    77        154
    78        139
    79        122
    80         51
    81          3
    86          1
    87          1
    88          1
    89          5
    90          4
    91         22
    92         29
    93         23
    94          5
   102          2
   103          3
   104         43
   105         26
   106        999
   107         84
   108          3
   119         22
   120        154
   121        612
   122         57
   123          2