##TITLE=Library Entry 54027
##JCAMP-DX=Revision 4.10 
##DATA TYPE=MASS SPECTRUM
##SAMPLE DESCRIPTION=Japan AIST/NIMC Database- Spectrum MS-IW-6021
##NAMES=HP
##CAS NAME=trans-1,2-Cyclopropanedicarboxylic acid
##MOLFORM=C5H6O4
##CAS REGISTRY NO=696-75-3
##MP= -300
##BP= -300
##MW= 130
##$RETENTION INDEX=0
##$CONDENSED SPECTRUM=NO
##NPOINTS= 79
##XYDATA=(XY..XY) 1 
    12          1
    13          2
    14          5
    15          9
    16          1
    17         11
    18         58
    19          3
    20          1
    24          1
    25          5
    26         24
    27         68
    28         64
    29        171
    30          6
    31         34
    32          1
    33          2
    34          8
    36          4
    37         33
    38         67
    39        394
    40        138
    41        139
    42         70
    43         61
    44         55
    45        277
    46          7
    47          4
    48          3
    49          2
    50          2
    51          1
    52          2
    53         18
    54          5
    55        186
    56         27
    57         72
    58          5
    60         11
    63          1
    65          1
    66         24
    67         29
    68        154
    69         43
    70         14
    71         32
    72          5
    73         18
    74          1
    81          1
    82          1
    83          7
    84        999
    85        568
    86         41
    87          5
    88          7
    89          1
    94          5
    95         17
    96          2
    99          9
   100          3
   101          1
   102          1
   111          1
   112        186
   113        121
   114          8
   115          1
   129         17
   130         38
   131          8