##TITLE=Library Entry 18162
##JCAMP-DX=Revision 4.10 
##DATA TYPE=MASS SPECTRUM
##SAMPLE DESCRIPTION=A.A.Kutin, Moscow, Russia
##NAMES=HP
##CAS NAME=Quinoline, 4-phenoxy-, 1-oxide
##MOLFORM=C15H11NO2
##CAS REGISTRY NO=69619-12-1
##MP= -300
##BP= -300
##MW= 237
##$RETENTION INDEX=0
##$CONDENSED SPECTRUM=NO
##NPOINTS= 151
##XYDATA=(XY..XY) 1 
    36          0
    37         35
    38         93
    39        292
    40         18
    41          3
    42          2
    43          7
    44          1
    45          0
    49         23
    50        506
    51        999
    52         93
    53         69
    54         16
    55          9
    56          0
    57          1
    60          0
    61         36
    62        117
    63        246
    64         61
    65        113
    66         20
    67          1
    68          3
    69          6
    70          2
    71          6
    73         22
    74        141
    75        187
    76        261
    77        720
    78        116
    79          9
    80          0
    81          1
    82          9
    83          5
    84          2
    85         11
    86         31
    87         37
    88         55
    89        112
    90         36
    91          9
    92         11
    93          9
    94         62
    95          7
    96          6
    97          3
    98          9
    99          9
   100         14
   101         54
   102         40
   103         34
   104        198
   105         76
   106          9
   109          0
   110         12
   111          2
   113         26
   114         44
   115         53
   116        252
   117         26
   118          6
   119         18
   120          4
   121          6
   125          2
   126         16
   127         21
   128         31
   129          9
   130          4
   131         11
   132        284
   133         38
   134         29
   135          1
   137          1
   138          4
   139         19
   140         10
   141          6
   142          2
   143         12
   144         23
   145          5
   146          1
   147          4
   150          8
   151         27
   152        118
   153         73
   154         21
   155          3
   156          0
   159         10
   160        257
   161         37
   162          5
   163         18
   164         19
   165         60
   166         35
   167         21
   168          4
   169          0
   175          0
   176          9
   177          8
   178         16
   179         19
   180        178
   181         44
   182          7
   183          0
   190         18
   191         33
   192         44
   193         11
   194          0
   196          0
   197          2
   204          0
   205          3
   206          7
   207          6
   208         12
   209         12
   210          1
   218          4
   219         16
   220         62
   222          6
   234          6
   235         28
   236         99
   237        599
   238        267
   239         31
   240          1