##TITLE=Library Entry 88194
##JCAMP-DX=Revision 4.10 
##DATA TYPE=MASS SPECTRUM
##SAMPLE DESCRIPTION=NIST Mass Spectrometry Data Center, 1994
##NAMES=HP
##CAS NAME=2-Chlorobenzenesulfonamide
##MOLFORM=C6H6ClNO2S
##CAS REGISTRY NO=6961-82-6
##MP= -300
##BP= -300
##MW= 191
##$RETENTION INDEX=0
##$CONDENSED SPECTRUM=NO
##NPOINTS= 95
##XYDATA=(XY..XY) 1 
    15          2
    17         11
    18          5
    25          4
    26          6
    27         10
    28         13
    30         10
    32         46
    35          8
    36          9
    37         50
    38         64
    39         75
    40          6
    41          1
    44          4
    45         13
    46         49
    47         21
    48         87
    49         62
    50        455
    51        165
    52         25
    53         11
    57          6
    58          5
    60          8
    61         54
    62         32
    63         99
    64        281
    65         93
    66         19
    69         34
    70          7
    71          5
    72         19
    73        114
    74        275
    75        877
    76        151
    77         31
    79         11
    80         68
    81         15
    82         12
    83          5
    84         59
    85        109
    86         22
    87         43
    89          4
    90         11
    91         22
    92        149
    93         14
    95         13
    96          9
    97          5
    98          4
    99         82
   100         24
   101         30
   102          9
   107          7
   108         47
   109         14
   110          4
   111        999
   112         89
   113        336
   114         26
   121          6
   127        429
   128        542
   129        170
   130        150
   131         30
   133          8
   156         68
   157          5
   158          4
   159          6
   175        268
   176         18
   177        103
   178          6
   179          5
   191        503
   192         45
   193        178
   194         14
   195          8