##TITLE=Library Entry 23724
##JCAMP-DX=Revision 4.10 
##DATA TYPE=MASS SPECTRUM
##SAMPLE DESCRIPTION=TNO Volatile Compounds in Food - Chemical Concepts
##NAMES=HP
##CAS NAME=1,4-Dithiin, 5-(1,1-dimethylethyl)-2,3-dihydro-, 1,1-dioxide
##MOLFORM=C8H14O2S2
##CAS REGISTRY NO=69626-04-6
##MP= -300
##BP= -300
##MW= 206
##$RETENTION INDEX=0
##$CONDENSED SPECTRUM=NO
##NPOINTS= 124
##XYDATA=(XY..XY) 1 
    22          5
    23          5
    24          3
    25          9
    26         60
    27        236
    29        307
    30         12
    33          1
    35         10
    36         11
    37         25
    38         24
    39        279
    40         22
    41        543
    42         32
    43        212
    44         40
    45        234
    46         21
    47         39
    48         16
    49         12
    50         37
    51         40
    52         18
    53         90
    54         10
    55         60
    56         29
    57        999
    58        165
    59        210
    60        109
    61         60
    62          7
    63         22
    64         28
    65         64
    66         16
    67        109
    68         15
    69         95
    70          2
    71         52
    72         16
    73         15
    74         11
    75          6
    76          7
    77        151
    78          9
    79        115
    80         13
    81         72
    82         13
    83         24
    84         13
    85         97
    86         11
    87         25
    88          2
    89         14
    91         36
    92          3
    93         30
    95         17
    97         29
    98         25
    99        323
   100         19
   101         38
   102         13
   103          4
   104          0
   105         64
   106         13
   107         92
   108         31
   109         12
   110          3
   111         32
   112         17
   113        205
   114        100
   115         53
   116          4
   117          1
   121         18
   123          4
   125          7
   126          2
   127          4
   129         13
   130          5
   131          7
   132         12
   133          4
   135          3
   141          5
   143          4
   145          4
   146          2
   147          2
   148          0
   151          5
   157          2
   158         11
   159          4
   161          1
   162         41
   163        190
   164         17
   165         23
   166          4
   174          1
   180          1
   191          4
   206        161
   207         11
   208         17
   209          3
   210          1