##TITLE=Library Entry 62196
##JCAMP-DX=Revision 4.10 
##DATA TYPE=MASS SPECTRUM
##SAMPLE DESCRIPTION=Chemical Concepts
##NAMES=HP
##CAS NAME=Toluene-4-sulfonic acid, 2-(2-nitrophenyl)ethyl ester
##MOLFORM=C15H15NO5S
##CAS REGISTRY NO=69628-96-2
##MP= -300
##BP= -300
##MW= 321
##$RETENTION INDEX=0
##$CONDENSED SPECTRUM=NO
##NPOINTS= 146
##XYDATA=(XY..XY) 1 
    26          3
    27         24
    28          6
    29         21
    30         37
    31          3
    32          0
    36          0
    37          2
    38         14
    39        158
    40         17
    41         44
    42          2
    43         46
    44          2
    45          7
    46          3
    47          3
    48          3
    49          1
    50         38
    51        110
    52         45
    53         27
    54          3
    55          4
    56          0
    57          0
    58          2
    59          1
    60          1
    61          3
    62         24
    63        122
    64         58
    65        441
    66         54
    67         12
    68          2
    69          2
    70          1
    71          2
    72          0
    73          1
    74          8
    75         18
    76         28
    77        189
    78        251
    79         43
    80         10
    81          3
    82          1
    83          0
    84          0
    85          1
    86          3
    87          5
    88          9
    89        159
    90         96
    91        999
    92        208
    93         89
    94         13
    95          2
    96          0
    97          0
    98          0
    99          1
   101          5
   102         18
   103         51
   104         48
   105         40
   106         10
   107         31
   108         31
   109          3
   110          0
   111          3
   115          2
   116          2
   117          5
   118          8
   119        143
   120        165
   121         93
   122          8
   123          1
   124          0
   127          0
   128          1
   129          0
   130          1
   131          1
   132        211
   133         25
   134          6
   135         11
   136        519
   137         42
   138          4
   139         17
   140          3
   141          1
   147          0
   148          3
   149        192
   150        150
   151         14
   152          4
   153          1
   154          1
   155        431
   156         37
   157         22
   158          1
   164          0
   165          7
   166          6
   167          3
   168          1
   171          0
   172         10
   173          1
   177          0
   178          2
   179          1
   180          2
   181          2
   182          1
   185          3
   193          0
   194          1
   195          1
   197          1
   209          0
   210          1
   211          1
   275         27
   276          4
   277          1
   291          1
   321          1