##TITLE=Library Entry 24047
##JCAMP-DX=Revision 4.10 
##DATA TYPE=MASS SPECTRUM
##SAMPLE DESCRIPTION=NIST Mass Spectrometry Data Center, 1994
##NAMES=HP
##CAS NAME=2-Octane isothiocyanate
##MOLFORM=C9H17NS
##CAS REGISTRY NO=69626-80-8
##MP= -300
##BP= -300
##MW= 171
##$RETENTION INDEX=0
##$CONDENSED SPECTRUM=NO
##NPOINTS= 76
##XYDATA=(XY..XY) 1 
     4          1
    14          5
    15         19
    26         26
    27        319
    28        116
    29        375
    30          9
    32         12
    37          3
    39        254
    40         64
    41        829
    42        178
    43        989
    44         60
    45         18
    50          5
    51         17
    52         11
    53         51
    54         38
    55        364
    56        156
    57        999
    58         81
    59         77
    60         99
    61          6
    62          6
    65         10
    66          5
    67         26
    68         18
    69        111
    70        155
    71        693
    72        107
    73          5
    74          5
    77          4
    79          5
    80          4
    81          6
    82         24
    83         66
    84         57
    85          4
    86        342
    87         32
    88         37
    95          5
    96         24
    97         14
    98          6
    99          4
   100         22
   101          6
   110         13
   111          5
   112         24
   113          5
   114         36
   115         23
   116          3
   129        537
   130         46
   131         29
   138        105
   139         12
   142         13
   143         17
   144          3
   156          7
   170          7
   171          8