##TITLE=Library Entry 36314
##JCAMP-DX=Revision 4.10 
##DATA TYPE=MASS SPECTRUM
##SAMPLE DESCRIPTION=NIST Mass Spectrometry Data Center
##NAMES=HP
##CAS NAME=(2E,6E)-3,7,11-Trimethyldodeca-2,6,10-trien-1-yl stearate
##MOLFORM=C33H60O2
##CAS REGISTRY NO=69624-82-4
##MP= -300
##BP= -300
##MW= 488
##$RETENTION INDEX=3447
##$CONDENSED SPECTRUM=NO
##NPOINTS= 102
##XYDATA=(XY..XY) 1 
    27          5
    29         14
    39         19
    40          7
    41        194
    42         23
    43        163
    44          5
    51          3
    52          3
    53         39
    54         10
    55        138
    56         30
    57        184
    58         10
    60          8
    61          3
    65         15
    66          8
    67        158
    68        367
    69        999
    70         76
    71        116
    72          8
    73         11
    77         29
    78          7
    79         74
    80        281
    81        412
    82         71
    83         59
    84         22
    85         59
    86          4
    91         44
    92        114
    93        401
    94         98
    95        125
    96         21
    97         37
    98         15
    99         10
   103          4
   105         59
   106         25
   107        191
   108         63
   109        110
   110         17
   111         27
   112          6
   113          5
   115          6
   119        145
   120         60
   121        210
   122        130
   123        237
   124         39
   125          9
   133         73
   134         74
   135        218
   136        414
   137        106
   138         12
   139          7
   146          3
   147         76
   148         64
   149         40
   150          6
   151          4
   153          3
   160          2
   161        147
   162         38
   163          9
   175         20
   176         18
   177          5
   189        139
   190         21
   191          8
   203          3
   204         59
   205         13
   221          5
   222          5
   267         17
   268          3
   285          2
   351          4
   352          1
   364          2
   419          2
   488          4
   489          1