##TITLE=Library Entry 36241
##JCAMP-DX=Revision 4.10 
##DATA TYPE=MASS SPECTRUM
##SAMPLE DESCRIPTION=Japan AIST/NIMC Database- Spectrum MS-IW-5370
##NAMES=HP
##CAS NAME=N-(O-Chlorophenyl)crotonamide
##MOLFORM=C10H10ClNO
##CAS REGISTRY NO=69633-47-2
##MP= -300
##BP= -300
##MW= 195
##$RETENTION INDEX=0
##$CONDENSED SPECTRUM=NO
##NPOINTS= 95
##XYDATA=(XY..XY) 1 
    15          1
    26          2
    27          4
    28          1
    36          1
    37          5
    38         12
    39        105
    40         16
    41        293
    42         11
    43          1
    44          1
    49          2
    50          7
    51          8
    52          9
    53          3
    54          1
    55          2
    57          1
    61          3
    62          8
    63         29
    64         21
    65         24
    66          4
    67          3
    68         16
    69        999
    70         49
    71          3
    72          1
    73         15
    74          6
    75         20
    76          4
    77          5
    78          1
    79          1
    85          2
    86          1
    87          1
    88          2
    89          3
    90         19
    91         16
    92         25
    93          5
    97          1
    98          2
    99         37
   100         10
   101         14
   102          5
   103          2
   104          1
   111          8
   112          1
   113          3
   115          1
   116          1
   117          3
   118          1
   119          1
   125          4
   126         11
   127        790
   128         59
   129        252
   130         24
   131          4
   132          2
   138          3
   140          2
   151          1
   152          1
   153          2
   154          6
   155          1
   156          2
   158          1
   159          2
   160        595
   161         68
   162          5
   164          1
   166          2
   180          3
   182          1
   194          3
   195        286
   196         35
   197         93
   198         10