##TITLE=Library Entry 33333
##JCAMP-DX=Revision 4.10 
##DATA TYPE=MASS SPECTRUM
##SAMPLE DESCRIPTION=Japan AIST/NIMC Database- Spectrum MS-IW-7549
##NAMES=HP
##CAS NAME=1,5-Diacetoxypentane
##MOLFORM=C9H16O4
##CAS REGISTRY NO=6963-44-6
##MP= -300
##BP= -300
##MW= 188
##$RETENTION INDEX=0
##$CONDENSED SPECTRUM=NO
##NPOINTS= 70
##XYDATA=(XY..XY) 1 
    13          1
    14         16
    15         40
    16          1
    18          2
    26          3
    27         26
    28         21
    29         36
    30          2
    31         11
    37          1
    38          3
    39         41
    40         24
    41        155
    42         87
    43        996
    44         52
    45         33
    50          2
    51          3
    52          2
    53         47
    54         11
    55         55
    56        198
    57         40
    58         45
    59          9
    60         32
    61        143
    62          4
    63          2
    65          7
    66          9
    67        305
    68        999
    69        150
    70         30
    71         30
    72          8
    73         71
    74          3
    79          1
    80          5
    81          2
    82          5
    83         15
    84         12
    85        133
    86        130
    87         21
    88         15
    95          1
    97          4
    98         50
    99          9
   100         20
   101         47
   102          3
   103         26
   104          1
   110          1
   113          5
   115          4
   116          4
   128         22
   129          9
   189          5