##TITLE=Library Entry 82885
##JCAMP-DX=Revision 4.10 
##DATA TYPE=MASS SPECTRUM
##SAMPLE DESCRIPTION=V.A.Korolev, Moscow, Russia
##NAMES=HP
##CAS NAME=4-Bromo-5-nitro-1H-imidazole
##MOLFORM=C3H2BrN3O2
##CAS REGISTRY NO=6963-65-1
##MP= -300
##BP= -300
##MW= 191
##$RETENTION INDEX=0
##$CONDENSED SPECTRUM=NO
##NPOINTS= 79
##XYDATA=(XY..XY) 1 
    28         24
    29         13
    30        431
    36          3
    38        241
    39        378
    40        104
    41         77
    42         19
    43         32
    44         52
    46        167
    50          7
    51         16
    52         36
    53        177
    54         39
    55         44
    56          2
    57         12
    59          4
    60          4
    64         25
    65        130
    66        195
    67         11
    68         21
    69        178
    70          7
    71          3
    73          2
    77          8
    79        202
    80         22
    81        200
    82         12
    83          2
    91        279
    92          9
    93        273
    94         16
    95          6
    96         30
    97          5
   103          2
   105         28
   106        999
   107         39
   108        981
   109         24
   117        122
   118        951
   119        145
   120        938
   121         25
   122          2
   133         66
   134         45
   135         63
   136         39
   144          4
   145        217
   146         15
   147        207
   148          7
   149          1
   158          2
   160          2
   161        200
   162          4
   163        191
   164          4
   175         57
   177         52
   191        920
   192         43
   193        896
   194         41
   195          3