##TITLE=Library Entry 230
##JCAMP-DX=Revision 4.10 
##DATA TYPE=MASS SPECTRUM
##SAMPLE DESCRIPTION=D.HENNEBERG, MAX-PLANCK INSTITUTE, MULHEIM, WEST GERMAN
Y
##NAMES=HP
##CAS NAME=Iron, carbonyl[(2,3,4,5-.eta.)-diethyl 2,4-hexadienedioate][(2,3,
4,5-.eta.)-methyl 2,4-hexadienoate]-
##MOLFORM=C18H24FeO7
##CAS REGISTRY NO=69632-92-4
##MP= -300
##BP= -300
##MW= 408
##$RETENTION INDEX=0
##$CONDENSED SPECTRUM=NO
##NPOINTS= 200
##XYDATA=(XY..XY) 1 
    26        106
    27        283
    28        999
    29        386
    30         20
    31        155
    32          4
    33          4
    36          1
    37         19
    38         55
    39        371
    40         65
    41        479
    42         55
    43         73
    44         22
    45         85
    46         19
    48          1
    49          9
    50         58
    51        141
    52        163
    53         97
    54         46
    55         88
    56         48
    57         20
    58          2
    59         39
    60          3
    61          9
    62         17
    63         26
    64          9
    65        167
    66        173
    67        764
    68         65
    69         82
    72         18
    73         27
    74          3
    75          1
    76          3
    77          9
    78          4
    79        119
    80        112
    81        114
    84          9
    85          9
    86          4
    87         11
    88          1
    91          5
    92          5
    93         15
    94         14
    95        568
    96         69
    97        668
    98         62
    99          9
   100         12
   101         21
   103          3
   105          2
   106          7
   107         40
   108        124
   109         43
   110         82
   111        427
   112         26
   113          2
   114          2
   115          2
   117          4
   119          7
   120          2
   121         15
   122         13
   123        107
   124         90
   125        393
   126        293
   127         25
   128          3
   130          1
   131          3
   132          1
   134         12
   135         12
   136         15
   137         21
   138         62
   139         15
   140          0
   141         31
   142         17
   143          1
   144          1
   146          2
   147          1
   148          2
   149         10
   150          6
   151         14
   152        106
   153        272
   154        125
   155         19
   156          1
   158          1
   163          2
   164         48
   165         31
   166          7
   167          4
   168          1
   169         22
   170         12
   171          3
   178          4
   179          4
   180         61
   181         37
   182        321
   183         59
   184         10
   185          1
   196          6
   197          3
   198         43
   199          6
   200          2
   201          2
   202          2
   206         11
   207          7
   208        202
   209         78
   210         33
   211          5
   212          2
   213          1
   223          2
   224         10
   225         13
   226         92
   227         32
   228          3
   229          2
   230          0
   237          5
   238          1
   239         11
   240          5
   241          2
   251          1
   252         22
   253         18
   254        341
   255         52
   256         10
   257          1
   258          2
   262          3
   274          8
   275          2
   280          1
   281          1
   282          5
   285          6
   290          3
   291          2
   293          4
   294          1
   302         18
   303          8
   304          1
   308          1
   310          4
   321          7
   332          4
   333          1
   334         41
   335         30
   336          4
   338          2
   349          3
   351          2
   378          5
   380        111
   381         21
   382          3
   408          2
   409          0