##TITLE=Library Entry 9758
##JCAMP-DX=Revision 4.10 
##DATA TYPE=MASS SPECTRUM
##SAMPLE DESCRIPTION=Chemical Concepts
##NAMES=HP
##CAS NAME=5,6-Dihydropyran-2-one, 5-acetoxy-6-(1,2-epoxypropyl)-
##MOLFORM=C10H12O5
##CAS REGISTRY NO=69651-04-3
##MP= -300
##BP= -300
##MW= 212
##$RETENTION INDEX=0
##$CONDENSED SPECTRUM=NO
##NPOINTS= 166
##XYDATA=(XY..XY) 1 
    25          1
    26         28
    27        143
    28         51
    29         77
    30          2
    31         11
    33          7
    35          0
    36          3
    37          3
    38         15
    39        140
    40         17
    41         72
    42         24
    43        999
    44         39
    45         20
    46          0
    47          0
    49          0
    50          5
    51         15
    52         15
    53         26
    54         17
    55        115
    56         53
    57         27
    58          4
    59          2
    60          3
    61          1
    62          1
    63          5
    64          2
    65          3
    66          2
    67          4
    68         44
    69         38
    70          5
    71         62
    72          2
    73          1
    74          1
    75          0
    76          0
    77          4
    78          5
    79          8
    80         23
    81         48
    82         17
    83         65
    84        726
    85         44
    86         68
    87         14
    88          0
    89          0
    90          0
    91          3
    92          0
    93          1
    94          0
    95         20
    96         34
    97        409
    98         27
    99          5
   100          2
   101          0
   102          0
   103          0
   104          0
   105          2
   106          0
   107          2
   108         11
   109         11
   110          5
   111          3
   112          3
   113         17
   114          2
   115          3
   116          1
   117          0
   118          0
   119          0
   120          0
   121          0
   122          0
   123          0
   124          3
   125          6
   126          5
   127        409
   128         18
   129          3
   130          2
   131          0
   132          0
   133          0
   134          0
   135          1
   136          1
   137          1
   138          0
   139         13
   140          1
   141          7
   142          2
   143          0
   144          0
   145          0
   146          0
   147          0
   148          0
   149          2
   150          0
   151          3
   152          3
   153          3
   154          1
   155          3
   156          0
   157          0
   165          0
   166          0
   167          0
   168          0
   169          1
   170          3
   171          1
   172          0
   176          0
   177          0
   178          0
   179          0
   180          0
   181          0
   182          0
   183          0
   184          0
   189          0
   190          0
   191          0
   192          0
   193          2
   194          0
   195          0
   196          0
   197          0
   200          0
   205          0
   206          0
   207          0
   208          2
   209          0
   210          1
   211          0
   212          0
   213          0