##TITLE=Library Entry 6252
##JCAMP-DX=Revision 4.10 
##DATA TYPE=MASS SPECTRUM
##SAMPLE DESCRIPTION=FOOD RESEARCH REPORT 119, K.E. MURRAY & COLLEAGUES, DIV
. OF FOOD RESEARCH, CSIRO, AUSTRALIA
##NAMES=HP
##CAS NAME=3-Decyn-2-ol
##MOLFORM=C10H18O
##CAS REGISTRY NO=69668-93-5
##MP= -300
##BP= -300
##MW= 154
##$RETENTION INDEX=1101
##$CONDENSED SPECTRUM=NO
##NPOINTS= 69
##XYDATA=(XY..XY) 1 
    25         10
    26         50
    27        400
    29        550
    30         10
    31         50
    37         10
    38         30
    39        370
    40        100
    41        800
    42        260
    43        999
    44        400
    45         80
    50         30
    51         70
    52         40
    53        170
    54        190
    55        520
    56        210
    57        130
    58         20
    59         10
    62         10
    63         20
    64         10
    65         60
    66         80
    67        410
    68        220
    69        420
    70        200
    71         90
    72         10
    77         70
    78         20
    79        170
    80         40
    81        580
    82        140
    83        110
    84        160
    85         20
    91         40
    92         10
    93         60
    94         20
    95        230
    96         50
    97        170
    98         30
   105         10
   107         40
   108         10
   109         30
   110         10
   111         30
   112         30
   121         10
   123         10
   125         10
   137         20
   139         20
   140         10
   152          3
   153          2
   154          1