##TITLE=Library Entry 33605
##JCAMP-DX=Revision 4.10 
##DATA TYPE=MASS SPECTRUM
##SAMPLE DESCRIPTION=FOOD RESEARCH REPORT 119, K.E. MURRAY & COLLEAGUES, DIV
. OF FOOD RESEARCH, CSIRO, AUSTRALIA
##NAMES=HP
##CAS NAME=3-Decen-2-ol, (Z)-
##MOLFORM=C10H20O
##CAS REGISTRY NO=69668-91-3
##MP= -300
##BP= -300
##MW= 156
##$RETENTION INDEX=0
##$CONDENSED SPECTRUM=NO
##NPOINTS= 56
##XYDATA=(XY..XY) 1 
    26         20
    27        320
    29        320
    30         10
    38         10
    39        360
    40         80
    41        610
    42        110
    43        350
    45         80
    50         20
    51         60
    52         40
    53        250
    54        720
    55        410
    56         90
    57         50
    58         30
    63         20
    65        110
    66        120
    67        700
    68        999
    69        170
    70         30
    71         80
    72         10
    77        100
    78         30
    79        230
    80         60
    81        900
    82        240
    83         70
    84         20
    85         10
    91         20
    92         10
    93         20
    94         10
    95        250
    96        120
    97         70
   109         90
   110         40
   111         10
   112         10
   113         10
   123         10
   138        370
   139         70
   152         10
   154          5
   156          2