##TITLE=Library Entry 2075
##JCAMP-DX=Revision 4.10 
##DATA TYPE=MASS SPECTRUM
##SAMPLE DESCRIPTION=FOOD RESEARCH REPORT 118, K.E. MURRAY & COLLEAGUES, DIV
. OF FOOD RESEARCH, CSIRO, AUSTRALIA
##NAMES=HP
##CAS NAME=3-Hexenoic acid, butyl ester, (Z)-
##MOLFORM=C10H18O2
##CAS REGISTRY NO=69668-84-4
##MP= -300
##BP= -300
##MW= 170
##$RETENTION INDEX=1421
##$CONDENSED SPECTRUM=NO
##NPOINTS= 85
##XYDATA=(XY..XY) 1 
    26         21
    27        206
    28        175
    29        536
    30         13
    31         28
    32          9
    33          2
    36          1
    37          5
    38         13
    39        217
    40         38
    41        999
    42         85
    43         84
    44         38
    45         17
    46          2
    49          2
    50          9
    51         16
    52          9
    53         65
    54         47
    55        206
    56         96
    57        433
    58         20
    59          4
    60         63
    61          3
    62          1
    63          3
    64          1
    65          8
    66          9
    67         45
    68        242
    69        278
    70         37
    71         45
    72         12
    73         59
    74          3
    77          1
    78          1
    79          2
    80          1
    81         18
    82          5
    83          6
    84          3
    85          4
    86          3
    87          1
    89          1
    91          1
    94          2
    95         12
    96         55
    97         86
    98          7
    99         23
   100          3
   101          3
   110          2
   111          1
   112          4
   113          9
   114         18
   115         23
   116          2
   117          5
   119          1
   124          1
   127          2
   134          6
   135          1
   136          2
   141          1
   155          1
   168          1
   170         36
   171          3