##TITLE=Library Entry 33625
##JCAMP-DX=Revision 4.10 
##DATA TYPE=MASS SPECTRUM
##SAMPLE DESCRIPTION=FOOD RESEARCH REPORT 119, K.E. MURRAY & COLLEAGUES, DIV
. OF FOOD RESEARCH, CSIRO, AUSTRALIA
##NAMES=HP
##CAS NAME=3-Decen-2-ol, (E)-
##MOLFORM=C10H20O
##CAS REGISTRY NO=69668-92-4
##MP= -300
##BP= -300
##MW= 156
##$RETENTION INDEX=0
##$CONDENSED SPECTRUM=NO
##NPOINTS= 46
##XYDATA=(XY..XY) 1 
    26         30
    27        350
    29        320
    38         20
    39        420
    40         60
    41        780
    42        130
    43        410
    45         50
    50         30
    51         60
    52         50
    53        250
    54        820
    55        450
    56        100
    57         40
    58         20
    63         20
    65        110
    66        130
    67        870
    68        999
    69        150
    70         20
    71         50
    77        100
    78         30
    79        240
    80        140
    81        940
    82        240
    83         60
    84         20
    85         10
    91         30
    93         30
    94         10
    95        230
    96        120
    97         30
   109         90
   110         50
   138        400
   139         50