##TITLE=Library Entry 18912
##JCAMP-DX=Revision 4.10 
##DATA TYPE=MASS SPECTRUM
##SAMPLE DESCRIPTION=FOOD RESEARCH REPORT 118, K.E. MURRAY & COLLEAGUES, DIV
. OF FOOD RESEARCH, CSIRO, AUSTRALIA
##NAMES=HP
##CAS NAME=3-Octenoic acid, ethyl ester, (Z)-
##MOLFORM=C10H18O2
##CAS REGISTRY NO=69668-87-7
##MP= -300
##BP= -300
##MW= 170
##$RETENTION INDEX=1178
##$CONDENSED SPECTRUM=NO
##NPOINTS= 97
##XYDATA=(XY..XY) 1 
    25          1
    26         21
    27        265
    28         93
    29        711
    30         16
    31         24
    32          1
    37          1
    38          6
    39        181
    40         27
    41        356
    42         57
    43        193
    44        169
    45         40
    46          4
    47          1
    49          1
    50          6
    51         16
    52         12
    53         82
    54        193
    55        999
    56         86
    57         71
    58         10
    59          6
    60         52
    61         55
    62          2
    63          4
    64          1
    65         16
    66         11
    67        106
    68         33
    69         66
    70         62
    71         51
    72          4
    73         33
    74         10
    75          1
    77         11
    78          4
    79         16
    80          7
    81        157
    82        265
    83         84
    84          8
    85         22
    86          7
    87         16
    88        265
    89         16
    90          1
    91          4
    92          1
    93          5
    94          4
    95         63
    96        217
    97        175
    98         15
    99         58
   100         12
   101         36
   102          7
   103          1
   105          1
   106          4
   107          1
   109          5
   110          1
   111          2
   112          1
   113         13
   114          2
   115          8
   122          1
   123         19
   124        145
   125         55
   126          5
   127         13
   128         16
   129          2
   141         17
   142          4
   155          1
   169          2
   170         24
   171          1