##TITLE=Library Entry 20440
##JCAMP-DX=Revision 4.10 
##DATA TYPE=MASS SPECTRUM
##SAMPLE DESCRIPTION=FOOD RESEARCH REPORT 118, K.E. MURRAY & COLLEAGUES, DIV
. OF FOOD RESEARCH, CSIRO, AUSTRALIA
##NAMES=HP
##CAS NAME=3-Octenoic acid, methyl ester, (Z)-
##MOLFORM=C9H16O2
##CAS REGISTRY NO=69668-85-5
##MP= -300
##BP= -300
##MW= 156
##$RETENTION INDEX=1099
##$CONDENSED SPECTRUM=NO
##NPOINTS= 93
##XYDATA=(XY..XY) 1 
    26         18
    27        319
    28        166
    29        189
    30         23
    31         38
    32         19
    33          4
    37          4
    38         14
    39        319
    40         47
    41        663
    42         83
    43        290
    44        302
    45         25
    46          2
    49          1
    50         13
    51         32
    52         21
    53        154
    54        325
    55        999
    56         98
    57         44
    58         12
    59        538
    60         13
    61          4
    62          2
    63          8
    64          2
    65         27
    66         21
    67        266
    68         63
    69         60
    70         13
    71        160
    72         45
    73         13
    74        775
    75         49
    76          4
    77         20
    78          7
    79         26
    80         13
    81        172
    82        544
    83        201
    84         15
    85        177
    86         11
    87         99
    88         19
    89          2
    91          8
    92          2
    93          7
    94          5
    95         51
    96        302
    97        172
    98         14
    99         14
   100         11
   101         32
   102          2
   105          2
   106          6
   107          8
   108          1
   109          8
   110          1
   111         15
   112          4
   113         62
   114         44
   115          7
   122          1
   123          7
   124        278
   125         63
   126          5
   127         30
   128          4
   141          2
   154          4
   156         21
   157          1