##TITLE=Library Entry 61299
##JCAMP-DX=Revision 4.10 
##DATA TYPE=MASS SPECTRUM
##SAMPLE DESCRIPTION=Japan AIST/NIMC Database- Spectrum MS-NW-2149
##NAMES=HP
##CAS NAME=N,N'-Dicarbobenzyloxy-L-cystine
##MOLFORM=C22H24N2O8S2
##CAS REGISTRY NO=6968-11-2
##MP= -300
##BP= -300
##MW= 508
##$RETENTION INDEX=0
##$CONDENSED SPECTRUM=NO
##NPOINTS= 181
##XYDATA=(XY..XY) 1 
    12          7
    13          2
    14          9
    15         21
    16          9
    17          2
    18          7
    24          1
    25          4
    26         26
    27         61
    28         74
    29         29
    30         16
    31         18
    32         24
    33         17
    34         49
    35          1
    36          4
    37         10
    38         25
    39         91
    40         43
    41        119
    42         70
    43         54
    44        357
    45         55
    46         33
    47         22
    48          5
    49          7
    50         55
    51        123
    52         38
    53         31
    54         10
    55         16
    56          4
    57          6
    58         25
    59         36
    60         14
    61         10
    62         17
    63         44
    64         47
    65        126
    66         10
    67          3
    68          8
    69         20
    70          4
    71          4
    72         11
    73         22
    74         80
    75         20
    76         20
    77        277
    78         64
    79        556
    80         56
    81          4
    82          2
    83          3
    84          2
    85          6
    86         28
    87          8
    88          3
    89         56
    90         76
    91        999
    92         99
    93          5
    94          1
    95          1
    96          3
    97          3
    98          2
    99          3
   100          5
   101         47
   102        121
   103          9
   104         20
   105         31
   106         16
   107        365
   108        563
   109         42
   110          5
   111          2
   112          6
   113         30
   114          3
   115          3
   116          2
   117          6
   118          3
   119          1
   120          1
   121          8
   122          9
   123         11
   124         22
   125          4
   126          4
   127          4
   128          4
   129          3
   130          3
   131          4
   132          8
   133          9
   134          2
   135          1
   136          1
   137         46
   138         15
   139          4
   140          3
   141          1
   143          1
   145          3
   146          2
   147         19
   148          4
   149          3
   150          1
   151         32
   152          9
   153          1
   154          1
   156          1
   157          1
   158          1
   159          6
   160          6
   161          4
   162          2
   163          8
   164          4
   165          4
   166          5
   167          2
   168          1
   170          1
   172          1
   175          1
   176          9
   177          4
   178          2
   179          4
   180          3
   181          3
   182          1
   189          1
   192          5
   193          2
   194          8
   195          1
   196          1
   198          2
   204          1
   209          3
   210          7
   211          1
   214          2
   220          1
   221          1
   222          2
   235          1
   236          3
   237         11
   238          2
   239          1
   254          5
   256          1