##TITLE=Library Entry 67954
##JCAMP-DX=Revision 4.10 
##DATA TYPE=MASS SPECTRUM
##SAMPLE DESCRIPTION=DR. C. C. VAN DE SANDE, STATE UNIVERSITY OF GENT, BELGI
UM
##NAMES=HP
##CAS NAME=2,4-Hexadienoic acid, 4-methylphenyl ester
##MOLFORM=C13H14O2
##CAS REGISTRY NO=69687-90-7
##MP= -300
##BP= -300
##MW= 202
##$RETENTION INDEX=0
##$CONDENSED SPECTRUM=NO
##NPOINTS= 27
##XYDATA=(XY..XY) 1 
    38         14
    39        178
    40         38
    41        320
    42         16
    50         15
    51         50
    52         34
    53         32
    55         20
    63         21
    65        100
    66         62
    67        440
    68         30
    77         92
    78         30
    79         41
    91         20
    94         22
    95        999
    96        120
    97         10
   107         82
   108         50
   202        240
   203         33