##TITLE=Library Entry 109144
##JCAMP-DX=Revision 4.10 
##DATA TYPE=MASS SPECTRUM
##SAMPLE DESCRIPTION=LOREN L. DUNHAM, ZOECON CORP., PALO ALTO, CA, USA
##NAMES=HP
##CAS NAME=2,4-Dodecadienoic acid, 11-hydroxy-3,7,11-trimethyl-, methyl este
r, (E,E)-
##MOLFORM=C16H28O3
##CAS REGISTRY NO=69687-75-8
##MP= -300
##BP= -300
##MW= 268
##$RETENTION INDEX=0
##$CONDENSED SPECTRUM=NO
##NPOINTS= 116
##XYDATA=(XY..XY) 1 
    39         58
    40         28
    41        141
    42         42
    43        188
    45         31
    46         35
    50         10
    52          3
    53         75
    55        265
    56         32
    57         58
    58          5
    59        407
    60         24
    61          3
    63          8
    65         43
    66          6
    67        117
    69        413
    71         67
    73        205
    77         90
    78         23
    79        215
    80        217
    81        334
    82        148
    83         71
    84         25
    85         72
    86          6
    87         13
    88         34
    89          1
    91        139
    92         19
    93        210
    94         31
    95        185
    97         80
    98          7
    99         24
   100         34
   101         12
   105        101
   106         35
   107        273
   108        106
   109        325
   110         51
   111         60
   112         49
   113         20
   114        126
   117          7
   118         49
   119         57
   120         25
   121        190
   122         49
   123        161
   125        999
   127         69
   129          4
   130          4
   133         75
   134         20
   135        137
   136         51
   137         95
   138         67
   139         34
   140         12
   141          4
   143          4
   145         45
   146         55
   147        150
   150          2
   151         63
   152          3
   153         11
   155          4
   157         60
   159         19
   161         76
   162         67
   163         31
   164         42
   165        110
   166         45
   167          3
   168         21
   172         33
   175        139
   176         78
   178         12
   179         19
   182          6
   185          4
   186         37
   190         76
   191        189
   192         10
   193         29
   195         41
   199          4
   209         61
   219          6
   220         40
   222         44
   231         40
   250         65