##TITLE=Library Entry 31180
##JCAMP-DX=Revision 4.10 
##DATA TYPE=MASS SPECTRUM
##SAMPLE DESCRIPTION=Japan AIST/NIMC Database- Spectrum MS-NW-9619
##NAMES=HP
##CAS NAME=dl-Threitol
##MOLFORM=C4H10O4
##CAS REGISTRY NO=6968-16-7
##MP= -300
##BP= -300
##MW= 122
##$RETENTION INDEX=0
##$CONDENSED SPECTRUM=NO
##NPOINTS= 53
##XYDATA=(XY..XY) 1 
    14          5
    15         86
    16          1
    17          2
    18         10
    26          5
    27         51
    28         52
    29         66
    30          9
    31        184
    32         11
    33          5
    39          5
    40          1
    41          8
    42         51
    43        499
    44        778
    45        220
    46          8
    47         10
    49          1
    53          1
    54          1
    55         37
    56         80
    57         21
    58          4
    59          4
    60        139
    61        999
    62         73
    63          6
    69          5
    71          6
    72          9
    73        122
    74         99
    75          6
    76          5
    79          3
    86          6
    87         17
    90          2
    91        327
    92         10
    93          2
   104         16
   105         30
   106          1
   122         22
   123          4