##TITLE=Library Entry 16734
##JCAMP-DX=Revision 4.10 
##DATA TYPE=MASS SPECTRUM
##SAMPLE DESCRIPTION=DR. C. C. VAN DE SANDE, STATE UNIVERSITY OF GENT, BELGI
UM
##NAMES=HP
##CAS NAME=Pentanoic acid, 5-methoxy-, phenyl ester
##MOLFORM=C12H16O3
##CAS REGISTRY NO=69687-94-1
##MP= -300
##BP= -300
##MW= 208
##$RETENTION INDEX=0
##$CONDENSED SPECTRUM=NO
##NPOINTS= 58
##XYDATA=(XY..XY) 1 
    37         43
    38        105
    39        650
    40         61
    41        215
    42        160
    43        100
    44         13
    45        999
    46         26
    47          4
    49         20
    50         68
    51        140
    52         20
    53         53
    54         32
    55        390
    56         28
    57         15
    58         93
    59         45
    60          5
    61         22
    62         40
    63         98
    64         43
    65        335
    66         90
    67          9
    68         10
    69         10
    70         11
    71        470
    72         23
    73        105
    74         23
    75         15
    76         10
    77        140
    78         17
    79         10
    81          7
    82         13
    83         69
    84         16
    85          9
    86          9
    87         49
    91         19
    92          5
    93         31
    94        240
    95         31
    99         11
   115        360
   116         27
   208          1