##TITLE=Library Entry 85233
##JCAMP-DX=Revision 4.10 
##DATA TYPE=MASS SPECTRUM
##SAMPLE DESCRIPTION=D. GAMES, M. HEWLINS, A. JACKSON, CHEM DEPT, UNIV COLL,
 CARDIFF, U.K.
##NAMES=HP
##CAS NAME=1H-Pyrrole, 3-ethyl-2,5-dimethyl-
##MOLFORM=C8H13N
##CAS REGISTRY NO=69687-78-1
##MP= -300
##BP= -300
##MW= 123
##$RETENTION INDEX=1119
##$CONDENSED SPECTRUM=NO
##NPOINTS= 21
##XYDATA=(XY..XY) 1 
    41         23
    42        104
    51         28
    53         22
    65         35
    66         21
    67         65
    77         35
    79         30
    81         20
    92         22
    93         85
    94         52
   106         37
   107        125
   108        999
   109         78
   120         44
   122         98
   123        407
   124         19