##TITLE=Library Entry 41166
##JCAMP-DX=Revision 4.10 
##DATA TYPE=MASS SPECTRUM
##SAMPLE DESCRIPTION=Japan AIST/NIMC Database- Spectrum MS-IW- 782
##NAMES=HP
##CAS NAME=.alpha.,.beta.-Gluco-octonic acid lactone
##MOLFORM=C8H14O8
##CAS REGISTRY NO=6968-62-3
##MP= -300
##BP= -300
##MW= 238
##$RETENTION INDEX=0
##$CONDENSED SPECTRUM=NO
##NPOINTS= 141
##XYDATA=(XY..XY) 1 
    14          1
    15         25
    17          1
    18          8
    19          8
    26          3
    27         19
    28         25
    29         50
    30         11
    31         63
    32          3
    38          1
    39         10
    40          2
    41         21
    42         28
    43        128
    44         81
    45         66
    46          3
    47          6
    49          1
    51          1
    53          5
    54          5
    55         29
    56         66
    57         73
    58         16
    59         12
    60         95
    61        239
    62         11
    63          2
    65          1
    66          1
    67          2
    68          9
    69         42
    70         11
    71        107
    72         24
    73        999
    74        211
    75         17
    76         67
    77          5
    78          1
    79          1
    80          2
    81          6
    82          3
    83         16
    84          9
    85        151
    86         36
    87          9
    88         10
    89         22
    90          2
    91         19
    92          1
    93          1
    94          1
    95          3
    96          9
    97         55
    98         13
    99          9
   100         20
   101         26
   102          7
   103        109
   104          7
   105          3
   107          1
   109          4
   110          2
   111          5
   112          6
   113         24
   114         17
   115         12
   116          2
   117          5
   118          2
   119         10
   120          1
   121          3
   122          1
   123          1
   124          3
   125         12
   126          2
   127          8
   128          2
   129          7
   130          4
   131         78
   132          8
   133          4
   135          7
   136          1
   139          1
   141          3
   142         16
   143         40
   144          5
   145          5
   146          1
   147         16
   148          4
   149          6
   153          1
   154          1
   155          1
   156          1
   157          2
   159         68
   160         45
   161         15
   162          1
   163          4
   171          3
   172          3
   173          1
   174          1
   175          2
   177         56
   178          5
   179          1
   185          1
   186          1
   189         10
   190          4
   193          5
   207          2
   220          1
   238          5
   239          3