##TITLE=Library Entry 45421
##JCAMP-DX=Revision 4.10 
##DATA TYPE=MASS SPECTRUM
##SAMPLE DESCRIPTION=NIST Mass Spectrometry Data Center, 1994
##NAMES=HP
##CAS NAME=1,2-Benzenedicarboxylic acid, 4-bromo-
##MOLFORM=C8H5BrO4
##CAS REGISTRY NO=6968-28-1
##MP= -300
##BP= -300
##MW= 244
##$RETENTION INDEX=0
##$CONDENSED SPECTRUM=NO
##NPOINTS= 74
##XYDATA=(XY..XY) 1 
    12         11
    13          3
    16          6
    17          0
    18          3
    24          6
    25         20
    26         19
    27          0
    28         42
    32          1
    36         46
    37        311
    38        124
    39         10
    40          3
    44         26
    45          3
    48         30
    49        130
    50        158
    51         43
    52          3
    53         39
    60         29
    61         70
    62         33
    63         17
    64          3
    65          6
    72         31
    73        257
    74        869
    75        999
    76         68
    77        117
    78         82
    79         67
    80         18
    81         71
    82         18
    83          5
    84          5
    85          6
    86          2
    91         51
    92         41
    93         10
   101         17
   103         53
   104         20
   105          4
   106         17
   115          2
   116          4
   117          6
   118          5
   119          3
   127          3
   128         18
   129          4
   130         15
   152          4
   154        498
   156        476
   157         29
   182        843
   184        813
   185         63
   186          3
   226        225
   228        218
   229         18
   230          2