##TITLE=Library Entry 67352
##JCAMP-DX=Revision 4.10 
##DATA TYPE=MASS SPECTRUM
##SAMPLE DESCRIPTION=D. GAMES, M. HEWLINS, A. JACKSON, CHEM DEPT, UNIV COLL,
 CARDIFF, U.K.
##NAMES=HP
##CAS NAME=1H-Pyrrole, 2-ethyl-4-methyl-
##MOLFORM=C7H11N
##CAS REGISTRY NO=69687-77-0
##MP= -300
##BP= -300
##MW= 109
##$RETENTION INDEX=938
##$CONDENSED SPECTRUM=NO
##NPOINTS= 25
##XYDATA=(XY..XY) 1 
    41         32
    42         22
    47         31
    50         17
    51         39
    52         35
    53         63
    54         26
    65         35
    66         27
    67         90
    68         16
    77         65
    78         45
    79         28
    80         40
    92         27
    93        168
    94        999
    95         70
   106         45
   107         21
   108         71
   109        461
   110         41