##TITLE=Library Entry 40663
##JCAMP-DX=Revision 4.10 
##DATA TYPE=MASS SPECTRUM
##SAMPLE DESCRIPTION=LOREN L. DUNHAM, ZOECON CORP., PALO ALTO, CA, USA
##NAMES=HP
##CAS NAME=Octanoic acid, 7-methoxy-3,7-dimethyl-, methyl ester
##MOLFORM=C12H24O3
##CAS REGISTRY NO=69687-76-9
##MP= -300
##BP= -300
##MW= 216
##$RETENTION INDEX=0
##$CONDENSED SPECTRUM=NO
##NPOINTS= 40
##XYDATA=(XY..XY) 1 
    39         11
    40          2
    41         66
    42         22
    43         93
    44          2
    45         14
    53          6
    55         63
    56         13
    57          6
    59         62
    67         19
    68          8
    69         78
    71          8
    72         16
    73        999
    74         54
    75          3
    81         15
    83         12
    85         15
    87         10
    94          6
    95         43
    96          8
    97          8
   101         41
   109         91
   110         19
   111         18
   115          1
   127          7
   129          6
   137          9
   152          6
   153         38
   169         11
   201         28