##TITLE=Library Entry 43876
##JCAMP-DX=Revision 4.10 
##DATA TYPE=MASS SPECTRUM
##SAMPLE DESCRIPTION=BAY 0330
##NAMES=HP
##CAS NAME=D-Galactofuranose, 1,2,3,5-tetrakis-O-(trimethylsilyl)-, bis(trim
ethylsilyl) phosphate
##MOLFORM=C24H61O9PSi6
##CAS REGISTRY NO=69688-48-8
##MP= -300
##BP= -300
##MW= 692
##$RETENTION INDEX=0
##$CONDENSED SPECTRUM=NO
##NPOINTS= 302
##XYDATA=(XY..XY) 1 
    41         22
    42          6
    43         19
    44         15
    45         65
    46          4
    47         10
    53          4
    54          4
    55         12
    56          3
    57          6
    58          6
    59         29
    60          4
    61          7
    63          3
    65          3
    66          1
    67          4
    68          3
    69         10
    70          3
    71          4
    72         21
    73        999
    74         85
    75        112
    76          7
    77         13
    78          3
    79          4
    80          1
    81         12
    82          1
    83          3
    85          6
    87          3
    88          1
    89          7
    91          3
    93          6
    94          1
    95          4
    97          3
    98          1
    99          6
   100          1
   101         44
   102          7
   103         62
   104          6
   105          6
   107          1
   108          1
   109          4
   111          4
   112          1
   113         12
   114          3
   115          7
   116         40
   117         26
   118          4
   119          9
   120          3
   121          3
   123          1
   124          1
   125          3
   126          1
   127         10
   128          3
   129         79
   130         12
   131         24
   132          4
   133         65
   134         10
   135         13
   136          3
   137          3
   139          3
   140          1
   141          6
   142         10
   143         25
   144          3
   145          7
   147        212
   148         38
   149         35
   150          6
   151          7
   152          3
   153          6
   154          3
   155         16
   156          6
   157         12
   158          3
   159          4
   161          3
   163          3
   167          4
   168          3
   169         16
   170         19
   171          7
   172          1
   173          4
   175          4
   177          6
   179          3
   181          6
   183          6
   185          3
   187          3
   189         12
   190          7
   191         94
   192         18
   193         18
   194          3
   195          9
   196          4
   197          4
   198          1
   199          3
   200          1
   201          4
   202          3
   203          6
   204         31
   205         15
   206          6
   207         35
   208          7
   209          7
   210          3
   211         59
   212          9
   213          6
   214          1
   215         12
   216          7
   217        285
   218         68
   219         29
   220          6
   221          9
   222          3
   223          1
   225         22
   226          4
   227         25
   228          4
   229          7
   230         12
   231         12
   232          3
   233          3
   240          3
   241          6
   242         19
   243         53
   244         16
   245         12
   246          4
   247          4
   249          1
   253          4
   255          6
   256          1
   257          9
   258          3
   259          3
   260          3
   267          3
   269          7
   270         18
   271         15
   272          4
   273          3
   281          4
   283         13
   284          6
   285         24
   286          6
   287          4
   291          3
   298         18
   299        294
   300         74
   301         47
   302          7
   303          4
   305          9
   306          4
   307          1
   313         12
   314         22
   315        206
   316         57
   317         41
   318         10
   319         12
   320          4
   321          3
   328         21
   329          9
   330          6
   331         12
   332         44
   333         16
   334          6
   335          3
   341         10
   342          4
   343         44
   344         12
   345         15
   346          4
   347          4
   355          4
   356          7
   357         38
   358         13
   359          9
   360          4
   361          6
   362          1
   369          9
   370          6
   371          4
   372          3
   373         15
   374          4
   375          3
   383          9
   387        291
   388        109
   389         79
   390         19
   391          7
   409          4
   410          1
   411          1
   415          4
   416          3
   417          4
   418          2
   419          1
   429          6
   430          2
   431          3
   432          1
   435          2
   436          1
   437          1
   438          1
   442          7
   443         10
   444          4
   445          2
   446          1
   447          2
   449          1
   450          1
   457          3
   459          5
   460          1
   461          3
   462          1
   463          1
   468          1
   469          2
   470          1
   471          4
   472          2
   473          4
   474          1
   475          1
   483          1
   484          2
   485          1
   486          1
   497          3
   498          1
   499          1
   503          1
   587          3
   588          1
   589          3
   590          1
   591          1
   677         15
   678          9
   679          5
   680          2
   681          1
   682          1