##TITLE=Library Entry 24004
##JCAMP-DX=Revision 4.10 
##DATA TYPE=MASS SPECTRUM
##SAMPLE DESCRIPTION=ASES Database, Dalian Institute, P.R. China
##NAMES=HP
##CAS NAME=6,8-Dioxa-3-thiabicyclo(3,2,1)octane 3,3-dioxide
##MOLFORM=C5H8O4S
##CAS REGISTRY NO=69697-60-5
##MP= -300
##BP= -300
##MW= 164
##$RETENTION INDEX=0
##$CONDENSED SPECTRUM=NO
##NPOINTS= 40
##XYDATA=(XY..XY) 1 
    41        176
    42         70
    43        233
    44        124
    45         58
    48         53
    54         52
    57        999
    58        176
    63         40
    64          6
    65         12
    77         11
    80         58
    84         18
    85         47
    86        174
    87         46
    88         29
    97         18
    99         17
   100          5
   101          5
   102         18
   103         17
   105         12
   107         18
   111         18
   114         17
   115          5
   116          5
   117          5
   121          6
   129          6
   130         18
   149         24
   151         11
   164         64
   165          6
   166          6