##TITLE=Library Entry 10645
##JCAMP-DX=Revision 4.10 
##DATA TYPE=MASS SPECTRUM
##SAMPLE DESCRIPTION=ASES Database, Dalian Institute, P.R. China
##NAMES=HP
##CAS NAME=5-Methyl-6,8-dioxa-3-thiabicyclo[3.2.1]octane 3,3-dioxide
##MOLFORM=C6H10O4S
##CAS REGISTRY NO=69697-61-6
##MP= -300
##BP= -300
##MW= 178
##$RETENTION INDEX=0
##$CONDENSED SPECTRUM=NO
##NPOINTS= 21
##XYDATA=(XY..XY) 1 
    41        108
    42         12
    43        999
    44         54
    55         12
    57         60
    58        120
    61         11
    63          6
    71          5
    72          6
    85          6
    86          6
    99        162
   100        136
   101         17
   107         18
   122         29
   139         11
   149         11
   178         30