##TITLE=Library Entry 100453
##JCAMP-DX=Revision 4.10 
##DATA TYPE=MASS SPECTRUM
##SAMPLE DESCRIPTION=J.CASSAN FACULTY OF SCIENCE, UNIV. OF NICE, NICE, FRANC
E
##NAMES=HP
##CAS NAME=Acetonitrile, (3,5,5-trimethyl-2-cyclohexen-1-ylidene)-, (Z)-
##MOLFORM=C11H15N
##CAS REGISTRY NO=69697-22-9
##MP= -300
##BP= -300
##MW= 161
##$RETENTION INDEX=0
##$CONDENSED SPECTRUM=NO
##NPOINTS= 55
##XYDATA=(XY..XY) 1 
    39        276
    40         35
    41        207
    43         96
    50         38
    51        100
    52         55
    53         72
    55         41
    56         24
    57         38
    63         55
    64         31
    65         83
    66         31
    67         22
    77        155
    78         72
    79        110
    80         28
    89         35
    90         22
    91        241
    92        121
    93         62
    94         17
   102         31
   103         90
   104        172
   105        241
   106        107
   107         21
   115         48
   116        103
   117        138
   118        448
   119        999
   120        138
   121        121
   128         24
   129         45
   130        121
   131        172
   132        517
   133        121
   134         34
   135         17
   144         48
   145         41
   146        914
   147        121
   160         48
   161        759
   162        121
   163          9