##TITLE=Library Entry 65742
##JCAMP-DX=Revision 4.10 
##DATA TYPE=MASS SPECTRUM
##SAMPLE DESCRIPTION=MC-110
##NAMES=HP
##CAS NAME=Cyclobutene, hexafluoro-
##MOLFORM=C4F6
##CAS REGISTRY NO=697-11-0
##MP= -300
##BP= -300
##MW= 162
##$RETENTION INDEX=0
##$CONDENSED SPECTRUM=NO
##NPOINTS= 44
##XYDATA=(XY..XY) 1 
    19         13
    24         10
    25         29
    31        513
    32          5
    36         11
    37          0
    43         16
    44          0
    48          0
    49          0
    50         40
    51          0
    55         46
    56          1
    62         58
    63          1
    67          0
    69         74
    70          0
    74         76
    75          2
    81          6
    82          0
    86          2
    87          0
    90          1
    93        999
    94         33
    95          0
   100         37
   101          0
   105          1
   112        191
   113          6
   124         13
   125          0
   131         23
   132          0
   143        187
   144          7
   162        293
   163         12
   164          0