##TITLE=Library Entry 4500
##JCAMP-DX=Revision 4.10 
##DATA TYPE=MASS SPECTRUM
##SAMPLE DESCRIPTION=Exported from NIST MS Search
##NAMES=HP
##CAS NAME=1-Azabicyclo[2.2.2]octane, 3,5-dimethyl-
##MOLFORM=C9H17N
##CAS REGISTRY NO=697-75-6
##MP= -300
##BP= -300
##MW= 139
##$RETENTION INDEX=0
##$CONDENSED SPECTRUM=NO
##NPOINTS= 20
##XYDATA=(XY..XY) 1 
    41        238
    42        999
    43        125
    55        100
    56         75
    57         38
    68         75
    69        125
    70         38
    71         63
    82        213
    83         38
    84         38
    96        138
    97         50
   110        138
   111         38
   124        214
   138         63
   139        225