##TITLE=Library Entry 68227
##JCAMP-DX=Revision 4.10 
##DATA TYPE=MASS SPECTRUM
##SAMPLE DESCRIPTION=NIST Mass Spectrometry Data Center
##NAMES=HP
##CAS NAME=1-(1-Propynyl)cyclohexanol
##MOLFORM=C9H14O
##CAS REGISTRY NO=697-37-0
##MP= -300
##BP= -300
##MW= 138
##$RETENTION INDEX=0
##$CONDENSED SPECTRUM=NO
##NPOINTS= 82
##XYDATA=(XY..XY) 1 
    15          4
    26          9
    27         86
    29         43
    30          1
    31          6
    37          8
    38         25
    39        238
    40         38
    41        137
    42         59
    43         64
    44          2
    45          3
    49          1
    50         20
    51         52
    52         24
    53         93
    54         65
    55        255
    56         15
    57          9
    58          2
    61          2
    62          9
    63         29
    64         18
    65         59
    66         29
    67        258
    68         54
    69         45
    70         11
    71          2
    74          4
    75          2
    76          2
    77         53
    78         16
    79         54
    80         19
    81        206
    82        349
    83         47
    84          5
    85          1
    86          1
    87          1
    89          3
    90          1
    91         46
    92         22
    93         13
    94         23
    95        999
    96         93
    97         13
    98          9
    99          1
   102          1
   103          5
   104          2
   105         27
   106          3
   107         14
   108          4
   109        138
   110        135
   111         13
   115          3
   117          2
   119          2
   120          8
   121          5
   123        219
   124         18
   125          1
   137         11
   138         18
   139          1