##TITLE=Library Entry 53605
##JCAMP-DX=Revision 4.10 
##DATA TYPE=MASS SPECTRUM
##SAMPLE DESCRIPTION=Exported from NIST MS Search
##NAMES=HP
##CAS NAME=Cyclohexanone, 2-(dimethylamino)-
##MOLFORM=C8H15NO
##CAS REGISTRY NO=6970-60-1
##MP= -300
##BP= -300
##MW= 141
##$RETENTION INDEX=0
##$CONDENSED SPECTRUM=NO
##NPOINTS= 36
##XYDATA=(XY..XY) 1 
    38          6
    39         70
    40         15
    41         97
    42        256
    43         54
    44         97
    45         40
    46          9
    50          9
    51         18
    53         10
    54         12
    55         36
    56         50
    57         24
    58        121
    67          6
    68         24
    69         10
    70        236
    71         66
    77         46
    82         36
    83         26
    84        999
    85        109
    86          8
    97          6
    98         46
   110         14
   112         24
   113        111
   114          9
   141         82
   142          9