##TITLE=Library Entry 51106
##JCAMP-DX=Revision 4.10 
##DATA TYPE=MASS SPECTRUM
##SAMPLE DESCRIPTION=Exported from NIST MS Search
##NAMES=HP
##CAS NAME=2H-Pyran-2-one, 5,6-dihydro-4,6,6-trimethyl-
##MOLFORM=C8H12O2
##CAS REGISTRY NO=6970-56-5
##MP= -300
##BP= -300
##MW= 140
##$RETENTION INDEX=1905
##$CONDENSED SPECTRUM=NO
##NPOINTS= 23
##XYDATA=(XY..XY) 1 
    27        105
    28        157
    29         15
    39        193
    40         20
    41         71
    43        719
    44         70
    51         17
    52         10
    53         53
    54        123
    55         88
    56         35
    67         17
    81         10
    82        999
    83        105
    84         10
    97         44
   125        246
   126         25
   140         17