##TITLE=Library Entry 20367
##JCAMP-DX=Revision 4.10 
##DATA TYPE=MASS SPECTRUM
##SAMPLE DESCRIPTION=NIST Mass Spectrometry Data Center, 1994
##NAMES=HP
##CAS NAME=3-Ethyl-3-methylglutaric anhydride
##MOLFORM=C8H12O3
##CAS REGISTRY NO=6970-57-6
##MP= -300
##BP= -300
##MW= 156
##$RETENTION INDEX=0
##$CONDENSED SPECTRUM=NO
##NPOINTS= 39
##XYDATA=(XY..XY) 1 
    14          7
    15         23
    26         21
    27        177
    28         42
    29        168
    37          8
    38         28
    39        287
    40         62
    41        212
    42        330
    43         63
    50         25
    51         31
    52         15
    53         85
    54          8
    55        999
    56         89
    57          6
    63          4
    65          6
    66          5
    67         28
    68          4
    69        219
    70        849
    71         49
    79         13
    81          5
    82         34
    84        386
    85         26
    94        198
    95         21
    96         10
    97         43
   112          9