##TITLE=Library Entry 4543
##JCAMP-DX=Revision 4.10 
##DATA TYPE=MASS SPECTRUM
##SAMPLE DESCRIPTION=Exported from NIST MS Search
##NAMES=HP
##CAS NAME=2(3H)-Furanone, dihydro-4,5-dimethyl-
##MOLFORM=C6H10O2
##CAS REGISTRY NO=6971-63-7
##MP= -300
##BP= -300
##MW= 114
##$RETENTION INDEX=962
##$CONDENSED SPECTRUM=NO
##NPOINTS= 25
##XYDATA=(XY..XY) 1 
    37         37
    38         64
    39        308
    41        382
    42        999
    43        431
    45        391
    46         17
    50         24
    51         24
    52         15
    53         40
    54         13
    55        248
    56         93
    57          6
    67         11
    69         20
    70        153
    71         57
    85         26
    99         28
   113          2
   114          9
   115          1