##TITLE=Library Entry 24490
##JCAMP-DX=Revision 4.10 
##DATA TYPE=MASS SPECTRUM
##SAMPLE DESCRIPTION=Japan AIST/NIMC Database- Spectrum MS-NW-5943
##NAMES=HP
##CAS NAME=17-Pentatriacontene
##MOLFORM=C35H70
##CAS REGISTRY NO=6971-40-0
##MP= -300
##BP= -300
##MW= 490
##$RETENTION INDEX=0
##$CONDENSED SPECTRUM=NO
##NPOINTS= 366
##XYDATA=(XY..XY) 1 
    15          2
    26          7
    27         74
    28         20
    29        189
    30          5
    36          1
    37          2
    38          3
    39         71
    40         14
    41        487
    42        103
    43        904
    44         29
    45          2
    48          1
    49          1
    50          3
    51          7
    52          5
    53         40
    54        150
    55        666
    56        283
    57        999
    58         47
    59          9
    60          4
    61          2
    62          1
    63          3
    64          1
    65         12
    66         24
    67        260
    68        207
    69        569
    70        272
    71        560
    72         34
    73          5
    74          2
    75          1
    76          1
    77         17
    78         10
    79         61
    80         51
    81        223
    82        355
    83        727
    84        206
    85        391
    86         28
    87          2
    88          1
    89          2
    90          1
    91         39
    92         31
    93         31
    94         33
    95        173
    96        307
    97        751
    98        155
    99        130
   100         12
   101          2
   102          2
   103          3
   104         10
   105         66
   106         20
   107         17
   108         13
   109         98
   110        112
   111        414
   112        112
   113         95
   114          9
   115          6
   116          3
   117         14
   118          9
   119         16
   120          7
   121         17
   122         13
   123         60
   124         76
   125        231
   126         84
   127         70
   128          8
   129          9
   130          5
   131         13
   132          6
   133         10
   134          5
   135         13
   136          9
   137         41
   138         56
   139        130
   140         66
   141         51
   142          7
   143          6
   144          3
   145          9
   146          3
   147          6
   148          3
   149          7
   150          3
   151         18
   152         41
   153         89
   154         49
   155         40
   156          6
   157          3
   158          1
   159          3
   160          2
   161          4
   162          2
   163          4
   164          2
   165          9
   166         32
   167         66
   168         40
   169         35
   170          5
   171          3
   172          1
   173          2
   174          2
   175          3
   176          1
   177          2
   178          2
   179          7
   180         30
   181         54
   182         36
   183         27
   184          5
   185          3
   186          1
   187          2
   188          1
   189          2
   190          1
   191          2
   192          2
   193          6
   194         26
   195         42
   196         32
   197         25
   198          4
   199          2
   200          1
   201          2
   202          1
   203          2
   204          1
   205          2
   206          2
   207          5
   208         26
   209         34
   210         28
   211         19
   212          5
   213          2
   215          1
   216          1
   217          1
   218          2
   219          2
   220          2
   221          6
   222         25
   223         30
   224         27
   225         19
   226          5
   227          2
   228          1
   229          1
   230          1
   231          2
   232          2
   233          2
   234          3
   235          5
   236         27
   237         27
   238         24
   239         19
   240          4
   241          3
   242          1
   243          1
   244          1
   245          2
   246          2
   247          2
   248          2
   249          5
   250         26
   251         22
   252         20
   253         17
   254          5
   255          3
   256          1
   257          2
   258          1
   259          1
   260          2
   261          2
   262          2
   263          5
   264         21
   265         18
   266         19
   267         23
   268          7
   269          4
   270          2
   271          2
   272          1
   273          2
   274          2
   275          2
   276          2
   277          4
   278         18
   279         18
   280         15
   281         13
   282          6
   283          6
   284          2
   285          2
   286          1
   287          1
   288          2
   289          2
   290          2
   291          4
   292         17
   293         14
   294         13
   295         11
   296          4
   297          3
   299          1
   300          1
   301          1
   302          2
   303          2
   304          2
   305          4
   306         14
   307         14
   308         11
   309          8
   310          3
   311          2
   312          1
   313          1
   314          1
   315          1
   316          2
   317          2
   318          2
   319          4
   320         12
   321         10
   322          9
   323          7
   324          2
   325          2
   327          1
   328          1
   330          1
   331          2
   332          1
   333          2
   334          9
   335          8
   336          8
   337          6
   338          2
   341          1
   344          1
   345          1
   347          2
   348          7
   349          6
   350          6
   351          5
   352          2
   356          1
   358          1
   359          1
   360          1
   361          1
   362          5
   363          5
   364          5
   365          4
   366          1
   372          1
   375          1
   376          4
   377          3
   378          4
   379          3
   380          1
   389          1
   390          4
   391          3
   392          3
   393          2
   404          2
   405          2
   406          3
   407          2
   408          1
   418          2
   419          1
   420          2
   421          2
   422          1
   432          1
   433          1
   434          2
   435          1
   447          1
   456          1
   460          1
   461          1
   462          6
   463          3
   474          1
   475          2
   476          1
   482          1
   484          4
   485          2
   486          1
   488          5
   489          2
   490         13
   491          5
   492          1