##TITLE=Library Entry 67001
##JCAMP-DX=Revision 4.10 
##DATA TYPE=MASS SPECTRUM
##SAMPLE DESCRIPTION=K. JACOB, INST. KLIN. CHEM., UNIV. MUNICH, MUNICH, W. G
ERMAN
##NAMES=HP
##CAS NAME=N-(Dimethylthiophosphinyl)allylamine
##MOLFORM=C5H12NPS
##CAS REGISTRY NO=69722-84-5
##MP= -300
##BP= -300
##MW= 149
##$RETENTION INDEX=0
##$CONDENSED SPECTRUM=NO
##NPOINTS= 10
##XYDATA=(XY..XY) 1 
    56        970
    61         60
    63         70
    65        120
    78         60
    79        190
    93        210
    94        999
   116         60
   149        170