##TITLE=Library Entry 76783
##JCAMP-DX=Revision 4.10 
##DATA TYPE=MASS SPECTRUM
##SAMPLE DESCRIPTION=A G. LOUDON.
##NAMES=HP
##CAS NAME=Thiourea, N,N-dimethyl-
##MOLFORM=C3H8N2S
##CAS REGISTRY NO=6972-05-0
##MP= -300
##BP= -300
##MW= 104
##$RETENTION INDEX=0
##$CONDENSED SPECTRUM=NO
##NPOINTS= 35
##XYDATA=(XY..XY) 1 
    30        190
    33         10
    34         10
    36         10
    40         10
    41         20
    42        120
    43         50
    44        570
    45         60
    46         10
    47         10
    52         10
    53         10
    55         20
    56         10
    57         10
    58         10
    59         40
    60        170
    61         30
    62         10
    63         20
    70         10
    71         40
    72         20
    73         10
    75         10
    76         10
    84         10
    88         30
    89         10
   104        999
   105         50
   106         50