##TITLE=Library Entry 43865
##JCAMP-DX=Revision 4.10 
##DATA TYPE=MASS SPECTRUM
##SAMPLE DESCRIPTION=BAY 0351
##NAMES=HP
##CAS NAME=D-Glucopyranuronic acid, 2,3,4-tris-O-(trimethylsilyl)-, trimethy
lsilyl ester, bis(trimethylsilyl) phosphate
##MOLFORM=C24H59O10PSi6
##CAS REGISTRY NO=69727-23-7
##MP= -300
##BP= -300
##MW= 706
##$RETENTION INDEX=0
##$CONDENSED SPECTRUM=NO
##NPOINTS= 283
##XYDATA=(XY..XY) 1 
    41         21
    42          4
    43         21
    44         29
    45        125
    46          8
    47         17
    53          4
    55         25
    56          4
    57         13
    58          8
    59         46
    60          4
    61         13
    65          4
    66          4
    67          8
    68         25
    69         13
    70          4
    71         17
    72         33
    73        999
    74        167
    75        192
    76          8
    77         25
    78          4
    79          4
    81          8
    83         13
    85          8
    87          8
    89          4
    95          4
    97          4
    98          4
    99         13
   101         25
   102          4
   103         38
   104          4
   105          4
   111          8
   113         17
   114          4
   115          8
   116         33
   117         29
   118          8
   119         13
   120          4
   121          4
   123          4
   125          8
   127         13
   128          4
   129         83
   130         13
   131         38
   132          8
   133        125
   134         21
   135         29
   136          4
   137          4
   139          4
   140          4
   141         13
   142         13
   143        100
   144         17
   145         21
   147        458
   148         83
   149         63
   150          8
   151         13
   153          4
   155          8
   156          8
   157         17
   158          4
   159          8
   161          8
   163          4
   167          8
   169         67
   170         13
   171         13
   173          8
   175          4
   177          8
   179          4
   181          4
   182          8
   183         13
   185         13
   187          4
   189         33
   190          8
   191         67
   192         13
   193         25
   194          4
   195         13
   197          8
   199          4
   201          4
   203          8
   204        325
   205         67
   206         33
   207         50
   208          8
   209          8
   210          4
   211         71
   212         17
   213         13
   215         25
   216         13
   217        508
   218        108
   219         50
   220          8
   221         25
   222          4
   223          4
   225         33
   226          8
   227         33
   228         13
   229          8
   230          4
   231         21
   232         17
   233         13
   234          4
   241          8
   242          8
   243         38
   244         13
   245         33
   246          8
   247          4
   248         17
   255          8
   256          8
   257        108
   258         29
   259         21
   260          8
   261          4
   269         13
   270          4
   271          8
   283         25
   284         17
   285         83
   286         25
   287         25
   288          8
   289          8
   291         13
   292         25
   293         13
   294          4
   298         17
   299        833
   300        217
   301        125
   302         25
   303         13
   304          4
   305         67
   306         29
   307         17
   308          4
   313         29
   314        133
   315        533
   316        167
   317         92
   318         83
   319         33
   320         17
   321          4
   328         21
   329          8
   330          4
   331         29
   332         13
   333         63
   334         21
   335         17
   336          4
   341         13
   342          4
   343         46
   344         17
   345         17
   346         25
   347         17
   348          8
   349          4
   356         25
   357         25
   358         13
   359         38
   360         13
   361          8
   369          8
   373         21
   374         25
   375        142
   376         42
   377         21
   378          8
   379          4
   384         25
   385         17
   386         33
   387        200
   388         75
   389         63
   390         17
   391          8
   392         17
   393          4
   407          8
   408          4
   409         38
   410          8
   411          4
   429         13
   430          4
   431          8
   432          4
   443          4
   449         33
   450         13
   451          8
   457         17
   458          4
   459          4
   461          4
   464         25
   465         13
   466          4
   470          4
   483          3
   484          1
   499          4
   500          2
   501          2
   502          6
   503          3
   504          2
   505          1
   511         13
   512          6
   513          3
   514          1
   517          4
   518          2
   519          1
   526          2
   527          4
   528          1
   532          2
   533          1
   589          1
   601         15
   602          9
   603          4
   604          3
   605          1
   691          7
   692          4
   693          3
   694          1