##TITLE=Library Entry 32931
##JCAMP-DX=Revision 4.10 
##DATA TYPE=MASS SPECTRUM
##SAMPLE DESCRIPTION=FOOD RESEARCH REPORT 120, K.E. MURRAY & COLLEAGUES, DIV
. OF FOOD RESEARCH, CSIRO, AUSTRALIA
##NAMES=HP
##CAS NAME=Butanoic acid, 4-hexenyl ester, (Z)-
##MOLFORM=C10H18O2
##CAS REGISTRY NO=69727-41-9
##MP= -300
##BP= -300
##MW= 170
##$RETENTION INDEX=1203
##$CONDENSED SPECTRUM=NO
##NPOINTS= 33
##XYDATA=(XY..XY) 1 
    26         20
    27        250
    29        150
    31         20
    38         10
    39        180
    40         40
    41        350
    42         80
    43        510
    45         20
    51         10
    52         10
    53         70
    54        160
    55        280
    56        300
    57         20
    65         10
    66         10
    67        999
    68         80
    69         40
    71        280
    72         20
    79         20
    80         10
    81         80
    82        570
    83         60
    84         20
    85         40
    89         20