##TITLE=Library Entry 37656
##JCAMP-DX=Revision 4.10 
##DATA TYPE=MASS SPECTRUM
##SAMPLE DESCRIPTION=K. JACOB, INST. KLIN. CHEM., UNIV. MUNICH, MUNICH, W. G
ERMAN
##NAMES=HP
##CAS NAME=N,N'-Bis(dimethylthiophosphinyl)-1,4-diaminobutane
##MOLFORM=C8H22N2P2S2
##CAS REGISTRY NO=69722-88-9
##MP= -300
##BP= -300
##MW= 272
##$RETENTION INDEX=0
##$CONDENSED SPECTRUM=NO
##NPOINTS= 10
##XYDATA=(XY..XY) 1 
    30        160
    56         60
    58         90
    65        140
    70        999
    93        570
    94        150
   162        260
   179        170
   272        110