##TITLE=Library Entry 38323
##JCAMP-DX=Revision 4.10 
##DATA TYPE=MASS SPECTRUM
##SAMPLE DESCRIPTION=FOOD RESEARCH REPORT 122, K.E. MURRAY & COLLEAGUES, DIV
 OF FOOD RESEARCH, CSIRO, AUSTRALIA
##NAMES=HP
##CAS NAME=Butanoic acid, 1-methyloctyl ester
##MOLFORM=C13H26O2
##CAS REGISTRY NO=69727-42-0
##MP= -300
##BP= -300
##MW= 214
##$RETENTION INDEX=1600
##$CONDENSED SPECTRUM=NO
##NPOINTS= 36
##XYDATA=(XY..XY) 1 
    27         90
    29        100
    39         60
    40         20
    41        230
    42        100
    43        430
    45         30
    53         20
    54         20
    55        210
    56        180
    57        130
    58         10
    60         20
    67         20
    68         20
    69        110
    70        150
    71        999
    72         50
    73         20
    82         20
    83         70
    84         90
    85         70
    86         30
    87         10
    88         50
    89        110
    97         80
    98         30
   115        140
   116         10
   126        100
   127         40