##TITLE=Library Entry 51806
##JCAMP-DX=Revision 4.10 
##DATA TYPE=MASS SPECTRUM
##SAMPLE DESCRIPTION=NIST Mass Spectrometry Data Center
##NAMES=HP
##CAS NAME=6-Chloro-2,4-dihydroxy-1,3-dimethylpyrimidine
##MOLFORM=C6H7ClN2O2
##CAS REGISTRY NO=6972-27-6
##MP= -300
##BP= -300
##MW= 174
##$RETENTION INDEX=0
##$CONDENSED SPECTRUM=NO
##NPOINTS= 85
##XYDATA=(XY..XY) 1 
    12          1
    13          1
    14          4
    15         60
    16          1
    18          2
    24          1
    25          8
    26         21
    27         74
    28        156
    29         21
    30          6
    31          2
    35          3
    36          2
    37          2
    38         10
    39         21
    40         12
    41         10
    42         18
    43          2
    47          6
    48          3
    49         23
    50          3
    51         27
    52         74
    53         49
    54         54
    55         47
    56         40
    57          5
    58         11
    59          2
    60         23
    61         11
    62         12
    63         14
    64          2
    65          4
    66          2
    67         16
    68          7
    69          2
    70          9
    73          6
    74         13
    75          2
    76         18
    77          1
    78          6
    79          1
    80         10
    82        999
    83         48
    84          3
    86          2
    87          9
    88          7
    89          9
    90          5
    91          3
    92          1
    94          1
    96          2
   111          1
   115          1
   117        100
   118         14
   119         33
   120          4
   130          3
   131          3
   132          1
   133          1
   139          2
   145          3
   146          1
   147          1
   174        259
   175         20
   176         86
   177          6