##TITLE=Library Entry 54131
##JCAMP-DX=Revision 4.10 
##DATA TYPE=MASS SPECTRUM
##SAMPLE DESCRIPTION=HCACAV,61(7)2646(1978); P. DATWYLER ET AL
##NAMES=HP
##CAS NAME=4H-1,16-Etheno-5,15-(propaniminoethano)furo[3,4-l][1,5,10]triazac
yclohexadecine-4,21-dione, 3,3a,6,7,8,9,10,11,12,13,14,15-dodecahydro-3-(4-m
ethoxyphenyl)-
##MOLFORM=C29H38N4O4
##CAS REGISTRY NO=69721-60-4
##MP= -300
##BP= -300
##MW= 506
##$RETENTION INDEX=0
##$CONDENSED SPECTRUM=NO
##NPOINTS= 31
##XYDATA=(XY..XY) 1 
    70        650
    84        999
    98        720
   100        320
   110        280
   113        200
   121        340
   127        140
   129        220
   135        110
   141        110
   155        320
   165        120
   169        230
   223        110
   237        320
   238        170
   250        140
   251        130
   252        200
   264        140
   265        220
   266        160
   278        110
   279         90
   280         90
   292        160
   391         50
   463         20
   506        140
   507         20