##TITLE=Library Entry 109391
##JCAMP-DX=Revision 4.10 
##DATA TYPE=MASS SPECTRUM
##SAMPLE DESCRIPTION=Japan AIST/NIMC Database- Spectrum MS-NW-8921
##NAMES=HP
##CAS NAME=N-Methylpyrrole-2-carboxylic acid
##MOLFORM=C6H7NO2
##CAS REGISTRY NO=6973-60-0
##MP= -300
##BP= -300
##MW= 125
##$RETENTION INDEX=0
##$CONDENSED SPECTRUM=NO
##NPOINTS= 70
##XYDATA=(XY..XY) 1 
    14          1
    15         19
    16          1
    17          1
    18          3
    25          1
    26         10
    27         46
    28         40
    29          5
    30          1
    31          2
    37         14
    38         36
    39        168
    40         16
    41         19
    42         56
    43          4
    44         48
    45         12
    48         12
    49          7
    50         24
    51         40
    52         70
    53        228
    54         39
    55         28
    56          3
    57          2
    58          1
    61          1
    62          1
    63          3
    64         14
    65          9
    66         22
    67          8
    68          7
    69          3
    70          1
    71          1
    75          2
    76          3
    77          3
    78        155
    79        113
    80        290
    81        102
    82         10
    83          5
    84          2
    86          1
    93          4
    94         37
    95          3
    96          7
    97          8
   105          1
   106        183
   107         44
   108        441
   109         30
   110          2
   123          2
   124         77
   125        999
   126         72
   127          6