##TITLE=Library Entry 47667
##JCAMP-DX=Revision 4.10 
##DATA TYPE=MASS SPECTRUM
##SAMPLE DESCRIPTION=NIST Mass Spectrometry Data Center, 2008
##NAMES=HP
##CAS NAME=tert-Butyldimethylsilyl trifluoromethanesulfonate
##MOLFORM=C7H15F3O3SSi
##CAS REGISTRY NO=69739-34-0
##MP= -300
##BP= -300
##MW= 264
##$RETENTION INDEX=0
##$CONDENSED SPECTRUM=NO
##NPOINTS= 78
##XYDATA=(XY..XY) 1 
    15          2
    27         10
    28          2
    29         33
    30          1
    31          2
    39         30
    41         92
    42          8
    43         22
    45         54
    46          3
    47         41
    48          6
    49         31
    50          4
    51          3
    53          6
    54          1
    55         14
    56         94
    57        184
    58         18
    59         47
    60         13
    61         19
    62          7
    63         12
    64          4
    65          2
    66          1
    67          2
    69        121
    70          2
    71          2
    73        113
    74         26
    75         68
    77        999
    78         84
    79         43
    80          1
    81          2
    83          2
    85          3
    86          1
    87          2
    89          2
    91          1
    92          2
    97          2
    99         29
   100          3
   101          4
   103          1
   111          1
   113          1
   115         60
   116          7
   117          3
   119         19
   120          2
   122          7
   123         18
   124          3
   125          1
   126          2
   138          4
   139          2
   141        133
   142         12
   143         13
   144          1
   157          2
   207        257
   208         22
   209         21
   210          1