##TITLE=Library Entry 59851
##JCAMP-DX=Revision 4.10 
##DATA TYPE=MASS SPECTRUM
##SAMPLE DESCRIPTION=Div. of Experiment Therapeutics WRAIR, WRAMC, Washingto
n DC 20307
##NAMES=HP
##CAS NAME=2-Benzylthio-4-chloronitrobenzene
##MOLFORM=C13H10ClNO2S
##CAS REGISTRY NO=69741-45-3
##MP= -300
##BP= -300
##MW= 279
##$RETENTION INDEX=0
##$CONDENSED SPECTRUM=NO
##NPOINTS= 109
##XYDATA=(XY..XY) 1 
    41         12
    45         16
    47          1
    49          3
    50          8
    51         22
    52          4
    53          0
    57          1
    58          2
    61          2
    62         11
    63         45
    64         10
    65        132
    66          6
    69         21
    70          2
    71          1
    73          5
    74          6
    75         10
    76          6
    77         12
    78          3
    79          6
    81          5
    82          4
    83          0
    84          3
    85          1
    86          2
    87          1
    88          1
    89         20
    91        999
    92         71
    93          4
    94          1
    95         30
    96          2
    97          4
    98          1
    99          1
   103          0
   105          7
   106          3
   107         17
   108          3
   109          3
   110          2
   111          0
   112          4
   113          0
   114          1
   115          0
   116          0
   120          1
   121         10
   122          2
   123          1
   124          3
   126          2
   129          1
   130          5
   132          3
   134          1
   138          0
   139          1
   140         10
   142          6
   144          1
   145          3
   147          1
   151          1
   152          4
   153          0
   156          3
   157          1
   158          1
   163          1
   164          1
   165          5
   166          1
   172          8
   173         76
   174          7
   175         27
   176          1
   180          4
   181          2
   184          0
   195          2
   196          0
   197          2
   199          1
   212          3
   214          6
   216          2
   231          2
   232          0
   244          2
   260          0
   263         11
   264          2
   265          0
   279          9
   280          1
   281          3