##TITLE=Library Entry 13984
##JCAMP-DX=Revision 4.10 
##DATA TYPE=MASS SPECTRUM
##SAMPLE DESCRIPTION=YU. SHURUKHIN,LENSOVET LENINGRAD TECHNOL. INST.,LENINGR
AD,USSR
##NAMES=HP
##CAS NAME=1-Methyl-5-(4'-bromophenyl)tetrazole
##MOLFORM=C8H7BrN4
##CAS REGISTRY NO=69746-31-2
##MP= -300
##BP= -300
##MW= 238
##$RETENTION INDEX=0
##$CONDENSED SPECTRUM=NO
##NPOINTS= 32
##XYDATA=(XY..XY) 1 
    43        999
    50        235
    51        121
    62        185
    63        131
    75        209
    76        179
    77        105
    88        182
    89        137
    90        185
   102        263
   103        139
   116         73
   117         30
   155         83
   157         75
   168        133
   169         70
   170        140
   181         65
   182         54
   183         70
   184         50
   196        263
   198        259
   209        105
   210        104
   211        110
   212        102
   238        374
   240        357