##TITLE=Library Entry 43857
##JCAMP-DX=Revision 4.10 
##DATA TYPE=MASS SPECTRUM
##SAMPLE DESCRIPTION=BAY 0352
##NAMES=HP
##CAS NAME=D-Galactopyranuronic acid, 2,3,4-tris-O-(trimethylsilyl)-, trimet
hylsilyl ester, bis(trimethylsilyl) phosphate
##MOLFORM=C24H59O10PSi6
##CAS REGISTRY NO=69745-86-4
##MP= -300
##BP= -300
##MW= 706
##$RETENTION INDEX=0
##$CONDENSED SPECTRUM=NO
##NPOINTS= 320
##XYDATA=(XY..XY) 1 
    41         27
    42          3
    43         23
    44         47
    45        113
    46          7
    47         17
    49          3
    50          3
    51          7
    52         10
    53         10
    54          3
    55         23
    56          7
    57          7
    58          7
    59         40
    60          3
    61         13
    65          3
    66          3
    67         10
    68         33
    69         17
    70          7
    71         20
    72         33
    73        999
    74        187
    75        180
    76         13
    77         20
    78         10
    79         17
    80          3
    81         13
    82          7
    83         13
    84          3
    85         10
    87          7
    89          7
    91          3
    93          7
    95          7
    96          3
    97          7
    98          7
    99         13
   100          3
   101         20
   102          7
   103         37
   104          7
   105          7
   111          7
   113         13
   114          7
   115         13
   116         27
   117         27
   118          7
   119         13
   120          3
   121          7
   123          3
   125          7
   126          3
   127         13
   128          3
   129         80
   130         10
   131         37
   132         10
   133        133
   134         17
   135         37
   136          7
   137          7
   139          7
   140         10
   141         33
   142         13
   143        113
   144         13
   145         17
   146          7
   147        540
   148        107
   149         60
   150         13
   151         10
   153          7
   155          3
   156          7
   157         17
   158          3
   159          7
   160          3
   161          7
   163          3
   167          7
   169        107
   170         13
   171         17
   172          3
   173          7
   175          7
   177          7
   178          3
   179          3
   181          7
   182          7
   183         13
   184          3
   185          7
   187          7
   189         27
   190         10
   191         87
   192         17
   193         23
   194          3
   195         13
   196          3
   197         20
   198          7
   199          3
   201          7
   202          3
   203         13
   204        493
   205        107
   206         47
   207         60
   208         13
   209         13
   210          7
   211         70
   212         13
   213         10
   214          3
   215         33
   216         13
   217        460
   218         93
   219         47
   220         10
   221         27
   222         10
   223          7
   225         33
   226          7
   227         30
   228          7
   229         10
   230          7
   231         20
   232         20
   233         23
   234          7
   241          7
   242          7
   243         30
   244         13
   245         47
   246         10
   247          7
   248         17
   249          3
   253          3
   255         10
   256         10
   257        133
   258         33
   259         27
   260          7
   261          3
   269         10
   270          3
   271          7
   273          3
   279          3
   281          7
   282          3
   283         20
   284         17
   285         53
   286         17
   287         13
   288          3
   291         13
   292         27
   293         10
   294          7
   298         40
   299        666
   300        173
   301        100
   302         23
   303         10
   304          7
   305         80
   306         23
   307         13
   308          7
   309          3
   313         33
   314        113
   315        513
   316        153
   317         87
   318         53
   319         20
   320         10
   321          3
   328         10
   329          7
   330          3
   331         27
   332         10
   333         43
   334         13
   335          7
   336          3
   341         10
   342          3
   343         57
   344         17
   345         20
   346         27
   347         30
   348         10
   349          7
   356         20
   357         13
   358         10
   359         40
   360         13
   361          7
   362          3
   369         13
   370          3
   373         17
   374         27
   375         53
   376         17
   377         13
   378          3
   379          3
   384         10
   385         13
   386         20
   387        153
   388         60
   389         40
   390         13
   391          7
   392          3
   395          3
   405          3
   406          3
   407         10
   408          5
   409         11
   410          3
   411          3
   412          1
   415          1
   416          1
   417          1
   419          3
   420          1
   421         19
   422          6
   423          3
   429          7
   430          3
   431          6
   432          2
   433          3
   434          1
   435          1
   449         41
   450         17
   451          9
   452          2
   457          7
   458          2
   464         17
   465         11
   466          5
   467          2
   468          1
   469          2
   470          3
   471          1
   483          1
   484          1
   499          2
   500          1
   501          1
   511         15
   512          6
   513          4
   514          1
   532          2
   533          1
   573          1
   601         10
   602          4
   603          3
   604          1
   605          1
   691         11
   692          7
   693          5
   694          2
   695          1