##TITLE=Library Entry 37591
##JCAMP-DX=Revision 4.10 
##DATA TYPE=MASS SPECTRUM
##SAMPLE DESCRIPTION=V.G.Zaikin,TIPS,Russian Acad.Sci.Moscow
##NAMES=HP
##CAS NAME=Acetic acid, chloro-, decyl ester
##MOLFORM=C12H23ClO2
##CAS REGISTRY NO=6974-05-6
##MP= -300
##BP= -300
##MW= 234
##$RETENTION INDEX=1607
##$CONDENSED SPECTRUM=NO
##NPOINTS= 77
##XYDATA=(XY..XY) 1 
    26          3
    27          6
    36          8
    37          3
    39         39
    40         12
    41        307
    42        206
    43        515
    44         54
    45          9
    47          5
    49        109
    50          9
    51         53
    52          8
    53         45
    54         84
    55        829
    56        775
    57        625
    58         19
    59          6
    61          9
    65          9
    66          9
    67        112
    68        321
    69        802
    70        999
    71        328
    72         16
    73         16
    75          3
    76          8
    77        361
    78         19
    79        118
    81         52
    82        332
    83        855
    84        635
    85        242
    86         19
    93          6
    94         18
    95        189
    96        105
    97        519
    98        322
    99         61
   100          7
   101          3
   102          3
   103          7
   105          9
   107         16
   108          5
   109         18
   110         49
   111        255
   112        455
   113         42
   122          8
   123          8
   125         11
   133         11
   135         17
   137          6
   138          9
   139          8
   140        153
   141         32
   184          2
   185         25
   186          9
   187          2