##TITLE=Library Entry 5568
##JCAMP-DX=Revision 4.10 
##DATA TYPE=MASS SPECTRUM
##SAMPLE DESCRIPTION=A.Pleshkova, Nesmeyanov Inst.Org.Elem.Cpds, Moscow
##NAMES=HP
##CAS NAME=Diacetyl(methoxyimino)methane
##MOLFORM=C6H9NO3
##CAS REGISTRY NO=69740-33-6
##MP= -300
##BP= -300
##MW= 143
##$RETENTION INDEX=0
##$CONDENSED SPECTRUM=NO
##NPOINTS= 22
##XYDATA=(XY..XY) 1 
    27         53
    28         50
    29        121
    30         17
    31         25
    39          8
    40          8
    41         30
    42         71
    43        999
    44         66
    45         53
    54         46
    55         17
    56         13
    57         17
    58         66
    59         17
   100         41
   128         25
   143         13
   144          4