##TITLE=Library Entry 43262
##JCAMP-DX=Revision 4.10 
##DATA TYPE=MASS SPECTRUM
##SAMPLE DESCRIPTION=BAY 0332
##NAMES=HP
##CAS NAME=D-Galactopyranose, 1,2,3,4-tetrakis-O-(trimethylsilyl)-, bis(trim
ethylsilyl) phosphate
##MOLFORM=C24H61O9PSi6
##CAS REGISTRY NO=69744-66-7
##MP= -300
##BP= -300
##MW= 692
##$RETENTION INDEX=0
##$CONDENSED SPECTRUM=NO
##NPOINTS= 170
##XYDATA=(XY..XY) 1 
    73        999
    74         90
    75        108
    76          6
    77          8
    81         18
    83          4
    89          4
    99          7
   101         19
   103         44
   104          4
   109          4
   113         23
   114          4
   115          8
   116         15
   117         20
   118          3
   119          4
   127          6
   128          4
   129        257
   130         35
   131         27
   132          5
   133         53
   134          6
   135          8
   141          4
   142         13
   143         16
   145          9
   147        233
   148         34
   149         29
   151          5
   155         14
   157         14
   161         18
   169         14
   170          8
   171          7
   175          4
   183          4
   189         21
   190          8
   191        126
   192         22
   193         13
   195          6
   203          5
   204        418
   205         92
   206         40
   207         21
   208          5
   211         37
   212          8
   215          5
   217        182
   218         41
   219         19
   221         10
   226          4
   227         16
   228          4
   229          5
   230         10
   231         10
   241          5
   242         29
   243         54
   244         13
   245          9
   246          5
   247          5
   265          5
   269          9
   270         18
   271         19
   272          7
   273          7
   283         10
   284          5
   285         12
   286          4
   291          5
   298         11
   299        339
   300         91
   301         51
   302          9
   303          5
   305         15
   306          6
   313          9
   314         35
   315        137
   316         44
   317         38
   318         11
   319         10
   331          4
   332          9
   333          5
   345         13
   346          5
   347          5
   356          5
   357        195
   358         57
   359         30
   360         12
   361         10
   362          4
   369         21
   370         36
   371         15
   372          6
   373         11
   374          4
   383         10
   384          6
   385          9
   386         18
   387        392
   388        144
   389         92
   390         23
   391          8
   394          5
   422          3
   423          3
   424          1
   425          1
   431          1
   433          1
   435          2
   436          1
   451          2
   459          1
   461          2
   462          1
   463          1
   471          2
   472          1
   473          1
   484          4
   485          3
   486          2
   497          1
   498          1
   512          2
   513         10
   514          5
   515          2
   559          1
   587          8
   588          4
   589          2
   590          1
   591          1
   602          1
   603          1
   677         15
   678          8
   679          6
   680          2
   681          1