##TITLE=Library Entry 78375
##JCAMP-DX=Revision 4.10 
##DATA TYPE=MASS SPECTRUM
##SAMPLE DESCRIPTION=Japan AIST/NIMC Database- Spectrum MS-NW-7067
##NAMES=HP
##CAS NAME=.beta.-D-Ribofuranose, 1-acetate 2,3,5-tribenzoate
##MOLFORM=C28H24O9
##CAS REGISTRY NO=6974-32-9
##MP= -300
##BP= -300
##MW= 504
##$RETENTION INDEX=0
##$CONDENSED SPECTRUM=NO
##NPOINTS= 79
##XYDATA=(XY..XY) 1 
    15          2
    17          1
    18          6
    27          2
    28          3
    29          1
    38          1
    39          4
    41          1
    42          1
    43         82
    44          2
    45          5
    50          8
    51         26
    52          3
    53          1
    60          3
    67          1
    68          2
    69          1
    74          2
    75          2
    76          7
    77        141
    78         10
    79          1
    81          5
    96          2
    97          5
   104          3
   105        999
   106         79
   107          5
   122         18
   123          2
   147          1
   156          1
   165          1
   177          1
   181          1
   188          2
   189          1
   190          1
   200          2
   201         14
   202          3
   205         12
   206          1
   207          1
   217          1
   218         55
   219          9
   220          2
   227          7
   228          1
   232          2
   235          2
   260          6
   261          1
   269          9
   270          2
   281          1
   294          2
   311          2
   322         39
   323          8
   324          1
   331          1
   339          4
   340          3
   341          1
   369          8
   370          2
   382          3
   383          1
   445         12
   446          4
   461          1