##TITLE=Library Entry 3831
##JCAMP-DX=Revision 4.10 
##DATA TYPE=MASS SPECTRUM
##SAMPLE DESCRIPTION=DR. C. C. VAN DE SANDE, STATE UNIVERSITY OF GENT, BELGI
UM
##NAMES=HP
##CAS NAME=Cyclopentanecarbonitrile, 5-hydroxy-1-methyl-3-oxo-2-(2-propenyl)
-
##MOLFORM=C10H13NO2
##CAS REGISTRY NO=69745-72-8
##MP= -300
##BP= -300
##MW= 179
##$RETENTION INDEX=0
##$CONDENSED SPECTRUM=NO
##NPOINTS= 57
##XYDATA=(XY..XY) 1 
    39        720
    40        140
    41        999
    42        195
    43        500
    44        440
    45        150
    50         80
    51        160
    52        140
    53        260
    54        140
    55        330
    56        540
    57        120
    65        150
    66        160
    67        200
    68        160
    71        150
    72         10
    77        120
    78         60
    79        300
    80        400
    81        420
    82         60
    83         60
    84         80
    85        300
    86         40
    91        160
    92        150
    93        150
    94        500
    95        250
    96        900
    97        220
    98         30
   101         95
   102         40
   106        650
   107        420
   108        740
   109        130
   110         50
   111         50
   118         60
   119         40
   120        120
   121         10
   138        160
   139         15
   152         40
   161         70
   179         90
   180         10