##TITLE=Library Entry 84952
##JCAMP-DX=Revision 4.10 
##DATA TYPE=MASS SPECTRUM
##SAMPLE DESCRIPTION=R. C. DOUGHERTY, FLORIDA STATE UNIVERSITY, USA
##NAMES=HP
##CAS NAME=Cyclodeca[b]furan-2(3H)-one, 9-(acetyloxy)-3a,4,5,8,9,11a-hexahyd
ro-4-hydroxy-6,10-dimethyl-3-methylene-
##MOLFORM=C17H22O5
##CAS REGISTRY NO=69745-81-9
##MP= -300
##BP= -300
##MW= 306
##$RETENTION INDEX=0
##$CONDENSED SPECTRUM=NO
##NPOINTS= 128
##XYDATA=(XY..XY) 1 
    86          8
    87         27
    89         32
    90         10
    91        828
    92        201
    93        769
    94        205
    95        414
    96        233
    97        681
    98        184
    99        135
   100        218
   101         92
   102         19
   103         92
   104        114
   105        458
   106        390
   107        648
   108        999
   109        316
   110         42
   111         54
   112         18
   113         11
   114         19
   115        209
   116         71
   117        233
   118         58
   119         58
   120        303
   121        800
   122        492
   123        220
   124         80
   125         43
   126         36
   127         38
   128        152
   129        166
   130        111
   131        201
   132        309
   133        394
   134        114
   135        307
   136         91
   137        115
   138         50
   139         38
   141        106
   142        108
   143        268
   144         63
   145        157
   146         52
   147        117
   148        151
   149        508
   150        494
   151         96
   152         63
   153         42
   154         26
   155         67
   156        233
   157        225
   158        100
   159        137
   160         51
   161        109
   162         33
   163         35
   164         21
   165        142
   166        182
   167        289
   168         77
   169        112
   170         16
   171         61
   172         43
   173         90
   174         77
   175        150
   176         59
   177         52
   178         54
   179         13
   181         26
   182         68
   183        124
   184         75
   185         64
   186         33
   187         57
   188          8
   189         28
   191         16
   192         29
   195         18
   196         12
   199         45
   200         54
   201         38
   202        149
   203         42
   204         30
   209          7
   210         39
   211          8
   213        100
   214         16
   215         26
   217         50
   218         39
   228        283
   229         58
   231         23
   246        201
   247         34
   260         19
   264         33
   278         23
   306         56