##TITLE=Library Entry 59286
##JCAMP-DX=Revision 4.10 
##DATA TYPE=MASS SPECTRUM
##SAMPLE DESCRIPTION=Chuck Anderson, Aldrich Chemical Co.
##NAMES=HP
##CAS NAME=Propane, 1-bromo-3-chloro-2-methyl-
##MOLFORM=C4H8BrCl
##CAS REGISTRY NO=6974-77-2
##MP= -300
##BP= -300
##MW= 170
##$RETENTION INDEX=0
##$CONDENSED SPECTRUM=NO
##NPOINTS= 110
##XYDATA=(XY..XY) 1 
    13          0
    14          1
    15          8
    16          0
    24          0
    25          1
    26         22
    27        144
    28         25
    29        182
    30          4
    32          0
    35          2
    36          6
    37         26
    38         57
    39        403
    40         40
    41        721
    42        113
    43          4
    44          0
    47          4
    48          6
    49         92
    50         25
    51         57
    52          8
    53         91
    54         48
    55        897
    56         43
    57          1
    59          0
    60          1
    61          9
    62         21
    63         65
    64          8
    65         20
    66          0
    67          0
    71          0
    72          0
    73          6
    74          1
    75         66
    76         10
    77         45
    78          4
    79         14
    80          3
    81          6
    82          3
    83          0
    84          0
    85          0
    86          0
    87          0
    88          0
    89         11
    90         60
    91        999
    92         58
    93        323
    94         16
    95         36
    96          1
    97          0
   104          0
   105          5
   106          3
   107         13
   108          3
   109          8
   110          0
   114          0
   115          0
   116          0
   117          1
   118          0
   119         14
   120          3
   121        224
   122          9
   123        201
   124          6
   127          2
   128          0
   129          3
   130          0
   131          1
   133          2
   134          3
   135          3
   136          3
   137          0
   141          0
   143          0
   145          0
   153          0
   155          1
   157          1
   159          0
   170        125
   171          5
   172        165
   173          7
   174         39
   175          1