##TITLE=Library Entry 56526
##JCAMP-DX=Revision 4.10 
##DATA TYPE=MASS SPECTRUM
##SAMPLE DESCRIPTION=A.Mazepa, Phys.-Chem.Institute, Odessa, Ukraine
##NAMES=HP
##CAS NAME=9-Amidinohydrazono-2,7-bis-[2-(diethylamino)ethoxy]fluorene
##MOLFORM=C26H38N6O2
##CAS REGISTRY NO=69741-99-7
##MP= -300
##BP= -300
##MW= 466
##$RETENTION INDEX=0
##$CONDENSED SPECTRUM=NO
##NPOINTS= 27
##XYDATA=(XY..XY) 1 
    30         47
    31          6
    32          3
    42         18
    43         11
    44         80
    56         26
    57         13
    58         51
    70         11
    71         11
    72         40
    84         12
    86        999
    87         58
    98          2
    99          3
   100        618
   101         70
   102         40
   407          2
   408         19
   409          4
   410          1
   466         55
   467         13
   468          1