##TITLE=Library Entry 11226
##JCAMP-DX=Revision 4.10 
##DATA TYPE=MASS SPECTRUM
##SAMPLE DESCRIPTION=R. C. DOUGHERTY, FLORIDA STATE UNIVERSITY, USA
##NAMES=HP
##CAS NAME=Bicyclo[2.2.1]heptan-2-one, 3-hydroxy-4,7,7-trimethyl-3-(1-methyl
ethyl)-
##MOLFORM=C13H22O2
##CAS REGISTRY NO=69745-82-0
##MP= -300
##BP= -300
##MW= 210
##$RETENTION INDEX=0
##$CONDENSED SPECTRUM=NO
##NPOINTS= 81
##XYDATA=(XY..XY) 1 
    37         10
    38         25
    39        240
    40         60
    41        560
    42        110
    43        999
    44        110
    45         30
    50         10
    51         35
    52         25
    53        155
    54         45
    55        470
    56         45
    57        150
    58         10
    59         25
    65         50
    66         15
    67        150
    68         30
    69        480
    70        290
    71        240
    72         60
    77         85
    78         20
    79         85
    80         45
    81         80
    82         40
    83        190
    84         30
    85         50
    91         70
    92         10
    93         55
    94         15
    95        450
    96         85
    97         75
    98         15
    99         15
   100         45
   105         25
   107         50
   108         15
   109         75
   110        470
   111        530
   112         90
   113        650
   114        170
   115         10
   121         60
   122         50
   123         55
   124         30
   125         40
   126         10
   127         10
   128         45
   137         15
   138         30
   139        185
   140         50
   149         30
   151         10
   153         20
   154         15
   167         85
   168         10
   177         10
   182        120
   183         15
   192         10
   195         15
   210         90
   211         15