##TITLE=Library Entry 43965
##JCAMP-DX=Revision 4.10 
##DATA TYPE=MASS SPECTRUM
##SAMPLE DESCRIPTION=BAY 0313
##NAMES=HP
##CAS NAME=D-Ribofuranose, 1,2,3-tris-O-(trimethylsilyl)-, bis(trimethylsily
l) phosphate
##MOLFORM=C20H51O8PSi5
##CAS REGISTRY NO=69744-64-5
##MP= -300
##BP= -300
##MW= 590
##$RETENTION INDEX=0
##$CONDENSED SPECTRUM=NO
##NPOINTS= 321
##XYDATA=(XY..XY) 1 
    73        999
    74         93
    75         95
    76          7
    77          5
    78          2
    79          2
    80          1
    81         12
    82          3
    83          1
    85          5
    86          1
    87          2
    88          1
    89          4
    93          4
    94          1
    95          2
    97         10
    98          2
    99          8
   100          1
   101         18
   102          4
   103         29
   104          3
   105          3
   108          1
   111          4
   112          1
   113         13
   114          2
   115          9
   116         11
   117         25
   118          3
   119          5
   120          2
   121          2
   125          6
   126          2
   127         11
   128          3
   129         92
   130         14
   131         22
   132          7
   133         69
   134         10
   135         13
   136          2
   137          3
   138          1
   139          2
   140         32
   141         17
   142         21
   143         51
   144          6
   145         42
   146          7
   147        209
   148         45
   149         50
   150          6
   151          7
   152          1
   153          4
   154          1
   155          5
   156         12
   157         15
   158          8
   159          5
   160          1
   161          4
   162          1
   163          1
   165          1
   166          1
   167          2
   168          3
   169        152
   170         25
   171         19
   172          3
   173          4
   174          1
   175          4
   176          2
   177         19
   178          3
   179          3
   181          4
   182          2
   183          3
   184         21
   185          4
   186          2
   187          5
   188          1
   189          9
   190          9
   191         46
   192          9
   193          9
   194          2
   195         11
   196          2
   197          2
   199          2
   200          1
   201          4
   202          3
   203          4
   204         23
   205          9
   206          4
   207         21
   208          5
   209          4
   210          4
   211         91
   212         15
   213          9
   214          2
   215        200
   216         44
   217        143
   218         30
   219         14
   220          3
   221          6
   222          2
   223          2
   225         22
   226          5
   227         57
   228         11
   229         28
   230        285
   231         70
   232         29
   233          5
   234          1
   240          5
   241          5
   242          3
   243         88
   244         18
   245         14
   246          3
   247          2
   249          2
   253          5
   254          2
   255          3
   256          2
   257          8
   258         28
   259         36
   260         10
   261          4
   262          1
   265          1
   267          2
   268          2
   269         10
   270          2
   271          2
   272          1
   277          2
   278          2
   281          2
   282          1
   283          9
   284          4
   285         20
   286          6
   287          4
   288          1
   289          2
   290          1
   291          3
   292          4
   293          3
   294          2
   295          3
   296          1
   297          4
   298          9
   299        276
   300         72
   301         43
   302          8
   303          4
   304          2
   305         12
   306          7
   307          4
   308          2
   309          1
   310          1
   311          2
   312          1
   313          9
   314         15
   315        534
   316        141
   317         81
   318         15
   319          7
   320          4
   321          1
   322          1
   323          1
   325          1
   326          1
   327          2
   328         54
   329         14
   330          9
   331          5
   332          2
   333          5
   334          2
   335          2
   341          6
   342          3
   343         22
   344          7
   345          4
   346          2
   347          2
   348          2
   353          1
   354          2
   355          1
   356         11
   357         12
   358          5
   359          2
   360          2
   361          1
   367          2
   368          1
   369         11
   370          6
   371         28
   372          9
   373         12
   374          4
   375          3
   376          1
   382          3
   383          4
   384          2
   385          3
   386          2
   387         15
   388          6
   389         14
   390          4
   391          3
   392          1
   395          3
   396          2
   397          1
   398          1
   399          1
   400          1
   401          1
   409          1
   410          1
   411          1
   412          1
   413          1
   415          1
   417          1
   419          1
   428          1
   429          1
   430          1
   431          1
   432          1
   433          1
   434          1
   441          1
   442          1
   443          2
   444          1
   445          1
   446          1
   447          1
   457          2
   458          1
   459          2
   460          1
   461          1
   462          1
   471          1
   472          1
   473          1
   485          7
   486          3
   487          3
   488          1
   489          1
   500          1
   501          1
   502          1
   503          1
   504          1
   575         26
   576         13
   577          8
   578          3
   579          2
   580          1
   581          1