##TITLE=Library Entry 18724
##JCAMP-DX=Revision 4.10 
##DATA TYPE=MASS SPECTRUM
##SAMPLE DESCRIPTION=S.A. Rang et al., IR & MS of Unsatd. Hydrocarbons, 1977
##NAMES=HP
##CAS NAME=6-Dodecyne
##MOLFORM=C12H22
##CAS REGISTRY NO=6975-99-1
##MP= -300
##BP= -300
##MW= 166
##$RETENTION INDEX=1200
##$CONDENSED SPECTRUM=NO
##NPOINTS= 99
##XYDATA=(XY..XY) 1 
    15          1
    24          1
    25          0
    26         17
    27        268
    28         53
    29        440
    30         10
    31          1
    37          1
    38          6
    39        198
    40         45
    41        655
    42         76
    43        181
    44          1
    45          0
    49          0
    50         10
    51         43
    52         82
    53        192
    54        999
    55        623
    56         93
    57        104
    58          5
    59          0
    60          1
    61          0
    62          1
    63         10
    64          5
    65         65
    66         52
    67        967
    68        354
    69        311
    70         32
    71          6
    72          0
    73          0
    74          0
    75          2
    76          1
    77         72
    78         20
    79        110
    80         46
    81        795
    82        376
    83         70
    84          5
    85          1
    87          0
    89          0
    91         34
    92          5
    93         35
    94         24
    95        709
    96        172
    97         28
    98          2
    99          0
   102          0
   103          1
   104          0
   105          4
   106          0
   107          8
   108          6
   109        212
   110         86
   111         15
   112          1
   115          0
   117          0
   119          0
   120          1
   121          1
   122          1
   123         32
   124         15
   125          2
   126          0
   128          0
   135          0
   136          0
   137         49
   138          7
   139          0
   151         11
   152          1
   164          0
   165          0
   166          8
   167          1