##TITLE=Library Entry 33086
##JCAMP-DX=Revision 4.10 
##DATA TYPE=MASS SPECTRUM
##SAMPLE DESCRIPTION=V.G.Zaikin, TIPS, Russian Acad. Sci.
##NAMES=HP
##CAS NAME=3,5-Dimethylcyclohex-1-ene-4-carboxaldehyde
##MOLFORM=C9H14O
##CAS REGISTRY NO=6975-94-6
##MP= -300
##BP= -300
##MW= 138
##$RETENTION INDEX=0
##$CONDENSED SPECTRUM=NO
##NPOINTS= 55
##XYDATA=(XY..XY) 1 
    41        510
    42         50
    43        300
    44         20
    45         60
    46         20
    51         20
    52         15
    53        240
    54         50
    55        490
    56         55
    57         50
    58         40
    59         50
    65         90
    66         75
    67        999
    68        830
    69        310
    70         30
    71         70
    72         20
    77        230
    78         60
    79        380
    80        140
    81        520
    82        190
    83        170
    84         70
    91        305
    92         85
    93        900
    94        290
    95        490
    96        190
    97         70
    98         30
   106        290
   107        220
   108        999
   109        997
   110        160
   119         20
   120        215
   121         60
   122         30
   123        230
   124         60
   136         40
   137         20
   138        225
   139         22
   140          1