##TITLE=Library Entry 24382
##JCAMP-DX=Revision 4.10 
##DATA TYPE=MASS SPECTRUM
##SAMPLE DESCRIPTION=NIST Mass Spectrometry Data Center, 1990.
##NAMES=HP
##CAS NAME=Decane, 2-methyl-
##MOLFORM=C11H24
##CAS REGISTRY NO=6975-98-0
##MP= -300
##BP= -300
##MW= 156
##$RETENTION INDEX=1064
##$CONDENSED SPECTRUM=NO
##NPOINTS= 45
##XYDATA=(XY..XY) 1 
    14         11
    15          4
    16          6
    27        179
    28         17
    29        231
    30          5
    39        164
    40         50
    41        634
    42        268
    43        975
    44         38
    51          7
    52          4
    53         40
    54         24
    55        202
    56        221
    57        999
    58         46
    65          5
    67         17
    68         15
    69         72
    70        118
    71        712
    72         40
    77          4
    79          3
    82         21
    83         62
    84         57
    85        293
    86         20
    97         11
    98          8
    99         86
   100          7
   112        156
   113        101
   114          8
   140          9
   141         19
   156          9