##TITLE=Library Entry 6897
##JCAMP-DX=Revision 4.10 
##DATA TYPE=MASS SPECTRUM
##SAMPLE DESCRIPTION=Japan AIST/NIMC Database- Spectrum MS-IW-3561
##NAMES=HP
##CAS NAME=2-Butanone, 4-methoxy-
##MOLFORM=C5H10O2
##CAS REGISTRY NO=6975-85-5
##MP= -300
##BP= -300
##MW= 102
##$RETENTION INDEX=0
##$CONDENSED SPECTRUM=NO
##NPOINTS= 62
##XYDATA=(XY..XY) 1 
    13          3
    14         22
    15        205
    16          4
    17          4
    18         17
    19          1
    25          3
    26         35
    27        130
    28        127
    29        181
    30         11
    31        226
    32         26
    33         87
    34          1
    37          6
    38         10
    39         42
    40          7
    41         62
    42        223
    43        999
    44         66
    45        944
    46         38
    47          4
    49          2
    50          8
    51          6
    52          2
    53         11
    54          4
    55        321
    56         13
    57         57
    58         29
    59        101
    60         36
    61         11
    68          1
    69         11
    70        304
    71        296
    72        131
    73         11
    74         48
    75        250
    76          9
    77          2
    83          9
    84          7
    85         18
    86          1
    87        592
    88         29
    89          3
   101         38
   102        360
   103         22
   104          2