##TITLE=Library Entry 22048
##JCAMP-DX=Revision 4.10 
##DATA TYPE=MASS SPECTRUM
##SAMPLE DESCRIPTION=Japan AIST/NIMC Database- Spectrum MS-NW-3499
##NAMES=HP
##CAS NAME=1-Hexene, 2,5-dimethyl-
##MOLFORM=C8H16
##CAS REGISTRY NO=6975-92-4
##MP= -300
##BP= -300
##MW= 112
##$RETENTION INDEX=744
##$CONDENSED SPECTRUM=NO
##NPOINTS= 59
##XYDATA=(XY..XY) 1 
    14          1
    15         10
    26          7
    27        117
    28         16
    29        153
    30          4
    37          4
    38         11
    39        158
    40         29
    41        463
    42         52
    43        112
    44          4
    45          1
    50          9
    51         17
    52          8
    53         55
    54         19
    55        310
    56        999
    57        403
    58         18
    59          2
    61          1
    62          2
    63          4
    65          7
    66          3
    67         26
    68         20
    69        154
    70         36
    71          9
    72          4
    74          1
    75          1
    77          7
    78          2
    79          7
    80          2
    81          9
    82          1
    83          9
    84          7
    85          8
    86          1
    91          2
    93          1
    95          7
    96          1
    97         13
    98          1
   110          1
   111          2
   112        104
   113         10