##TITLE=Library Entry 95351
##JCAMP-DX=Revision 4.10 
##DATA TYPE=MASS SPECTRUM
##SAMPLE DESCRIPTION=DR. C. C. VAN DE SANDE, STATE UNIVERSITY OF GENT, BELGI
UM
##NAMES=HP
##CAS NAME=2-Cyclopenten-1-one, 4-hydroxy-3-methyl-2-phenyl-
##MOLFORM=C12H12O2
##CAS REGISTRY NO=69766-87-6
##MP= -300
##BP= -300
##MW= 188
##$RETENTION INDEX=0
##$CONDENSED SPECTRUM=NO
##NPOINTS= 84
##XYDATA=(XY..XY) 1 
    37         20
    38         40
    39        150
    40         30
    41        100
    42         80
    43        300
    44         50
    45         20
    50        100
    51        220
    52         50
    53         60
    55         60
    56         25
    57         40
    58         20
    60         20
    61         30
    62         90
    63        235
    64         70
    65        130
    66         20
    67         30
    69         60
    70         20
    71         70
    72         20
    73         20
    74         40
    75         60
    76         50
    77        210
    78         80
    79         25
    81         20
    85        150
    86         45
    87         60
    88         40
    89        135
    90         50
    91        240
    92         20
   101         20
   102         90
   103        110
   104         30
   105        100
   111         20
   113         40
   114         70
   115        999
   116        510
   117        545
   118        605
   119         60
   127        130
   128        250
   129        250
   130         60
   131        185
   132         40
   139         15
   141        150
   142        110
   143        240
   144         90
   145        630
   146         90
   155         80
   159        230
   160        240
   161         30
   169         30
   170         20
   171         70
   173        920
   174        140
   186         20
   187         40
   188        965
   189        145