##TITLE=Library Entry 548
##JCAMP-DX=Revision 4.10 
##DATA TYPE=MASS SPECTRUM
##SAMPLE DESCRIPTION=Chemical Concepts
##NAMES=HP
##CAS NAME=Morpholine-4-carboxylic acid, ethyl ester
##MOLFORM=C7H13NO3
##CAS REGISTRY NO=6976-49-4
##MP= -300
##BP= -300
##MW= 159
##$RETENTION INDEX=0
##$CONDENSED SPECTRUM=NO
##NPOINTS= 112
##XYDATA=(XY..XY) 1 
    26         34
    27        264
    28        334
    29        999
    30        181
    31         72
    35          2
    37          1
    38          2
    39         35
    40         20
    41        118
    42        634
    43        202
    44         66
    45         60
    46          8
    47          9
    48          3
    49          2
    50          2
    51          4
    52          2
    53          7
    54         39
    55        160
    56        751
    57        229
    58         67
    59         13
    60          3
    61          1
    62          0
    63          0
    64          0
    65          2
    66          1
    67         10
    68         38
    69         32
    70        335
    71         25
    72         41
    73         11
    74         22
    75          2
    77          3
    79          5
    80          4
    81          4
    82          4
    83         40
    84         33
    85         55
    86        381
    87         51
    88         16
    89          1
    90          0
    91          5
    92          3
    93          1
    94          2
    95          3
    96          9
    97         12
    98        102
    99         13
   100        300
   101         90
   102         67
   104          9
   105          0
   106          1
   107          2
   108          2
   109          2
   110          0
   111          2
   112         21
   113          4
   114        418
   115         83
   116        159
   117          9
   118          0
   120          2
   121          1
   122          2
   123          4
   124         25
   125         10
   126          1
   127          1
   128         21
   129         17
   130        624
   131         67
   132          4
   139          0
   140          0
   141          6
   142         31
   143         74
   144        416
   145         27
   146          2
   157          4
   158         24
   159        448
   160         37
   161          4