##TITLE=Library Entry 3476
##JCAMP-DX=Revision 4.10 
##DATA TYPE=MASS SPECTRUM
##SAMPLE DESCRIPTION=Japan AIST/NIMC Database- Spectrum MS-NW-3119
##NAMES=HP
##CAS NAME=2-Propenamide, N,N,2-trimethyl-
##MOLFORM=C6H11NO
##CAS REGISTRY NO=6976-91-6
##MP= -300
##BP= -300
##MW= 113
##$RETENTION INDEX=0
##$CONDENSED SPECTRUM=NO
##NPOINTS= 60
##XYDATA=(XY..XY) 1 
    14          4
    15         89
    16          1
    17          1
    18          3
    25          1
    26          7
    27         18
    28         33
    29          5
    30          9
    31          1
    37          9
    38         22
    39        174
    40         53
    41        999
    42        195
    43         37
    44        143
    45         24
    46          4
    50          2
    51          2
    52          2
    53          9
    54          3
    55         22
    56         24
    57          2
    58        245
    59          9
    66          2
    67          2
    68         18
    69        539
    70         37
    71          4
    72        326
    73         14
    74          1
    77          2
    81          2
    82          2
    83          2
    84          8
    85          3
    86          1
    94          2
    96          2
    97          4
    98         98
    99          7
   100          1
   110          2
   111          7
   112        488
   113        514
   114         43
   115          3