##TITLE=Library Entry 100366
##JCAMP-DX=Revision 4.10 
##DATA TYPE=MASS SPECTRUM
##SAMPLE DESCRIPTION=Chemical Concepts
##NAMES=HP
##CAS NAME=Benzoic acid, 4-methyl-, propyl ester
##MOLFORM=C11H14O2
##CAS REGISTRY NO=6976-69-8
##MP= -300
##BP= -300
##MW= 178
##$RETENTION INDEX=0
##$CONDENSED SPECTRUM=NO
##NPOINTS= 66
##XYDATA=(XY..XY) 1 
    26         15
    27        154
    28         24
    29         79
    30          6
    31         17
    37          3
    38         19
    39        159
    40         14
    41        114
    42         18
    43         32
    44          4
    45          2
    50         29
    51         45
    52         15
    53          9
    55          2
    57          4
    58          2
    59          8
    61          3
    62         23
    63         72
    64         22
    65        291
    66         18
    67          2
    74          4
    75          5
    76          7
    77         18
    78          2
    79          4
    85          2
    86          4
    87          6
    88          3
    89         76
    90         33
    91        483
    92         81
    93         27
    94          2
   105          6
   107          9
   108          3
   117          2
   119        999
   120         77
   121          7
   133          1
   134          3
   136        498
   137         78
   138          4
   147          1
   149         12
   150          2
   161          1
   163          1
   177          2
   178         18
   179          4