##TITLE=Library Entry 22062
##JCAMP-DX=Revision 4.10 
##DATA TYPE=MASS SPECTRUM
##SAMPLE DESCRIPTION=NIST Mass Spectrometry Data Center, 1990.
##NAMES=HP
##CAS NAME=1-Methylpentyl cyclopropane
##MOLFORM=C9H18
##CAS REGISTRY NO=6976-28-9
##MP= -300
##BP= -300
##MW= 126
##$RETENTION INDEX=0
##$CONDENSED SPECTRUM=NO
##NPOINTS= 36
##XYDATA=(XY..XY) 1 
    15         10
    27        206
    28         75
    29        193
    39        394
    40         87
    41        892
    42        143
    43        350
    44         16
    50         15
    51         43
    52         20
    53        135
    54        115
    55        572
    56        999
    57        209
    65         32
    66         14
    67        117
    68         72
    69        613
    70        473
    71         39
    77         19
    79         16
    81         16
    82         21
    83        121
    84        198
    85         86
    97         74
    98        178
    99         12
   126          8