##TITLE=Library Entry 10584
##JCAMP-DX=Revision 4.10 
##DATA TYPE=MASS SPECTRUM
##SAMPLE DESCRIPTION=V.G.Zaikin, TIPS RAS, Moscow, Russia
##NAMES=HP
##CAS NAME=n-Heptyl hexanoate
##MOLFORM=C13H26O2
##CAS REGISTRY NO=6976-72-3
##MP= -300
##BP= -300
##MW= 214
##$RETENTION INDEX=1482
##$CONDENSED SPECTRUM=NO
##NPOINTS= 72
##XYDATA=(XY..XY) 1 
    25          7
    26         76
    27        471
    28        140
    29        488
    30         19
    31         25
    36          8
    37         17
    38         29
    39        297
    40         68
    41        741
    42        403
    43        999
    44         91
    45         76
    46          3
    47          3
    50         18
    51         29
    52         13
    53         51
    54         59
    55        721
    56        531
    57        538
    58         39
    59         13
    60        345
    61        196
    62          8
    63          6
    65          8
    67         27
    68         71
    69        266
    70        405
    71        288
    72         19
    73        196
    74         32
    75         15
    77          9
    79          9
    80         11
    81         18
    82          4
    83         65
    84         11
    85          6
    86          3
    87         75
    88          6
    89         19
    96          8
    97         39
    98        471
    99        985
   100         71
   101         19
   115         15
   116         49
   117        635
   118         48
   119          3
   129          6
   143         15
   157          3
   171          3
   172          3
   214          1