##TITLE=Library Entry 100378
##JCAMP-DX=Revision 4.10 
##DATA TYPE=MASS SPECTRUM
##SAMPLE DESCRIPTION=Zaikin V.G., TIPS RAS, Moscow, Russia
##NAMES=HP
##CAS NAME=p-Toluic acid, pentyl ester
##MOLFORM=C13H18O2
##CAS REGISTRY NO=6976-74-5
##MP= -300
##BP= -300
##MW= 206
##$RETENTION INDEX=1597
##$CONDENSED SPECTRUM=NO
##NPOINTS= 33
##XYDATA=(XY..XY) 1 
    28          1
    36          7
    41          3
    44          5
    55          8
    63          7
    65         36
    69          5
    70         24
    77          6
    89         24
    90         20
    91        254
    92         39
    93         26
   105          5
   107          6
   118          8
   119        999
   120         98
   121          9
   135         10
   136        856
   137        684
   138         64
   139          5
   149         15
   150          3
   177          6
   189         10
   205          4
   206         48
   207          8