##TITLE=Library Entry 29964
##JCAMP-DX=Revision 4.10 
##DATA TYPE=MASS SPECTRUM
##SAMPLE DESCRIPTION=Chemical Concepts
##NAMES=HP
##CAS NAME=Ether, hexyl t-butyl
##MOLFORM=C10H22O
##CAS REGISTRY NO=69775-79-7
##MP= -300
##BP= -300
##MW= 158
##$RETENTION INDEX=998
##$CONDENSED SPECTRUM=NO
##NPOINTS= 49
##XYDATA=(XY..XY) 1 
    26          2
    27         69
    28         30
    29         33
    30          2
    31         28
    33          0
    37          0
    38          0
    39         51
    40         13
    41        222
    42         30
    43        391
    44         19
    45          2
    51          2
    53          8
    54          1
    55         61
    56        123
    57        667
    58         30
    59        999
    60         25
    61          0
    67          3
    68          0
    69          8
    70          1
    71          1
    72          1
    73          4
    77          0
    79          0
    81          1
    82          6
    83         10
    84          5
    85         43
    86          2
    87         18
    88          0
    95          0
    99          1
   100         10
   101          7
   143        103
   144          7