##TITLE=Library Entry 90083
##JCAMP-DX=Revision 4.10 
##DATA TYPE=MASS SPECTRUM
##SAMPLE DESCRIPTION=Chemical Concepts
##NAMES=HP
##CAS NAME=2H-Pyrrol-2-one, 1,5-dihydro-4-methoxy-
##MOLFORM=C5H7NO2
##CAS REGISTRY NO=69778-83-2
##MP= -300
##BP= -300
##MW= 113
##$RETENTION INDEX=0
##$CONDENSED SPECTRUM=NO
##NPOINTS= 73
##XYDATA=(XY..XY) 1 
    25          6
    26         31
    27         75
    28        163
    29         43
    30        218
    31         20
    33          1
    36          1
    37          9
    38         18
    39         98
    40         18
    41         83
    42         75
    43         32
    44         11
    45          4
    46          0
    50          1
    51          9
    52         35
    53         37
    54         56
    55        176
    56         41
    57         21
    58          5
    59         13
    60          3
    63          0
    64          1
    65          0
    66          3
    67          2
    68          8
    69        509
    70         64
    71          8
    72          1
    73          0
    74          0
    78          0
    79          0
    80         18
    81          2
    82        184
    83         14
    84         18
    85        300
    86         16
    87          1
    91          0
    92          0
    93          0
    94          0
    95          0
    96          0
    97          1
    98         80
    99          4
   100          0
   101          0
   107          0
   108          0
   109          0
   110          0
   111          0
   112         47
   113        999
   114         61
   115          5
   116          0