##TITLE=Library Entry 4012
##JCAMP-DX=Revision 4.10 
##DATA TYPE=MASS SPECTRUM
##SAMPLE DESCRIPTION=Exported from NIST MS Search
##NAMES=HP
##CAS NAME=1-Naphthalenepropanol, .alpha.-ethenyldecahydro-3-hydroxy-.alpha.
,5,5,8a-tetramethyl-2-methylene-
##MOLFORM=C20H34O2
##CAS REGISTRY NO=69782-87-2
##MP= -300
##BP= -300
##MW= 306
##$RETENTION INDEX=0
##$CONDENSED SPECTRUM=NO
##NPOINTS= 175
##XYDATA=(XY..XY) 1 
    27        214
    28        143
    29        302
    30         14
    31         45
    32         24
    38         13
    39        166
    40         53
    41        999
    42        112
    43        701
    44         36
    45         56
    50         14
    51         29
    52         24
    53        252
    54         64
    55        775
    56         91
    57        228
    58         53
    59         33
    63         13
    65         84
    66         51
    67        449
    68        455
    69        799
    70        127
    71        461
    72         40
    73         13
    77        147
    78         49
    79        304
    80        114
    81        722
    82        405
    83        281
    84         61
    85         44
    86         16
    87         44
    91        234
    92         83
    93        349
    94        310
    95        489
   103         24
   104         24
   105        229
   106         96
   107        292
   108        112
   109        510
   110        217
   111        174
   112         24
   113         16
   115         24
   116         13
   117         69
   118         55
   119        174
   120         75
   121        190
   122        190
   123        888
   124        400
   125         69
   126         13
   128         12
   129         22
   130         14
   131         91
   132         56
   133        187
   134         57
   135        145
   136         95
   137        261
   138        232
   139         44
   140         13
   141         14
   143         24
   144         16
   145         67
   146         53
   147        107
   148         44
   149        106
   150        106
   151        306
   152         44
   153         16
   157         24
   158         13
   159         63
   160         24
   161         64
   162         44
   163        130
   164        154
   165         73
   166         24
   167         14
   171         12
   173         42
   174         22
   175         60
   176         44
   177        120
   178         38
   179         24
   181         42
   182         13
   184         32
   185         13
   186         83
   187         42
   188        134
   189         38
   190         32
   191         13
   192         18
   193         22
   199         29
   200         13
   201         32
   202         48
   203         64
   204         24
   205        104
   206         33
   207         85
   208         24
   213         13
   214         14
   215         22
   216         13
   217         32
   218         32
   219         37
   220        106
   221         28
   227         13
   229         13
   230         53
   231         33
   232         14
   233         17
   241         13
   242         13
   243         13
   244         14
   245         53
   246         17
   247         13
   254         98
   255         24
   259         13
   260         73
   261         40
   262         13
   269         44
   270         13
   272         64
   273         13
   288        401
   289        103
   290         13
   306         22