##TITLE=Library Entry 64049
##JCAMP-DX=Revision 4.10 
##DATA TYPE=MASS SPECTRUM
##SAMPLE DESCRIPTION=Exported from NIST MS Search
##NAMES=HP
##CAS NAME=L-Glutamic acid, N-[N-[N-[S-(2-methoxy-2-oxoethyl)-N-(trifluoroac
etyl)-L-cysteinyl]-O-methyl-L-tyrosyl]-L-phenylalanyl]-, dimethyl ester
##MOLFORM=C34H41F3N4O11S
##CAS REGISTRY NO=69782-86-1
##MP= -300
##BP= -300
##MW= 770
##$RETENTION INDEX=0
##$CONDENSED SPECTRUM=NO
##NPOINTS= 70
##XYDATA=(XY..XY) 1 
    67        255
    68        288
    69        627
    70        211
    90        488
    91        999
    92        388
   120        255
   121        788
   122        488
   123        144
   158        599
   159        350
   160         33
   161         77
   162        105
   199         55
   201        166
   202        100
   203         66
   240         38
   242        388
   244        988
   246        827
   248        155
   271        150
   272        461
   273        233
   274         66
   286        144
   287        733
   288        922
   301        150
   304         66
   305        688
   306        344
   307        100
   464         66
   465        188
   466        166
   467         44
   481        300
   482        527
   483        322
   566          5
   567         12
   568         43
   569         27
   570          6
   596         16
   597          9
   598          5
   611         13
   612          6
   649          3
   650          8
   651         34
   658         51
   665         14
   682          8
   683         30
   684         18
   697         44
   711          9
   712          5
   738          3
   739          8
   740          3
   769          3
   770          5