##TITLE=Library Entry 42947
##JCAMP-DX=Revision 4.10 
##DATA TYPE=MASS SPECTRUM
##SAMPLE DESCRIPTION=Hans-Ulrich Melchert, Robert Koch-Institute, Berlin, Ge
rmany
##NAMES=HP
##CAS NAME=Patulin, TMS derivative
##MOLFORM=C10H14O4Si
##CAS REGISTRY NO=69782-89-4
##MP= -300
##BP= -300
##MW= 226
##$RETENTION INDEX=0
##$CONDENSED SPECTRUM=NO
##NPOINTS= 87
##XYDATA=(XY..XY) 1 
    51         47
    52         36
    53        179
    54         15
    55         84
    56         12
    59         59
    61         71
    62         18
    63         28
    64         10
    65         11
    66         20
    67         12
    69         32
    73        999
    74        105
    75        375
    76         36
    77         65
    78         12
    79         16
    80         22
    81         70
    82         33
    83         76
    84         10
    85         31
    95         25
    97         16
    98          8
    99         19
   100         11
   101         42
   103         10
   107         13
   108         32
   109         33
   110         51
   111        244
   112         44
   113         52
   114         13
   116         21
   125         19
   126         18
   127         73
   129         32
   135          3
   136        221
   137         58
   138          7
   139         68
   140          7
   141          3
   142         12
   143         13
   145          6
   148          4
   152         17
   153         68
   154        102
   155        206
   156         35
   165         41
   166         31
   167         89
   168         14
   169         52
   170        532
   171         86
   172         15
   179         21
   181         12
   182         47
   183        502
   184        104
   185         85
   197         37
   198        185
   199         35
   207         10
   208         15
   209         26
   211         78
   226        226
   227         39