##TITLE=Library Entry 109366
##JCAMP-DX=Revision 4.10 
##DATA TYPE=MASS SPECTRUM
##SAMPLE DESCRIPTION=JCPRB4, (12)1511(1978); B. C. L. WEEDON ET AL.
##NAMES=HP
##CAS NAME=Methyl all-trans-5,6-erythro-5,6-dihydroxy-5,6-dihydroretinoate
##MOLFORM=C21H32O4
##CAS REGISTRY NO=69780-52-5
##MP= -300
##BP= -300
##MW= 348
##$RETENTION INDEX=0
##$CONDENSED SPECTRUM=NO
##NPOINTS= 13
##XYDATA=(XY..XY) 1 
   106        800
   125        999
   159        430
   165        430
   183        380
   191        250
   205        180
   255         90
   273        180
   316        160
   317        110
   330         50
   348        620