##TITLE=Library Entry 10844
##JCAMP-DX=Revision 4.10 
##DATA TYPE=MASS SPECTRUM
##SAMPLE DESCRIPTION=A. SELVA, C.N.R., IST. CHIM. POLITEC., MILAN, IT
##NAMES=HP
##CAS NAME=1-Acetoxy-1-phenyl-3-phenylthio-2-propanone
##MOLFORM=C17H16O3S
##CAS REGISTRY NO=69798-69-2
##MP= -300
##BP= -300
##MW= 300
##$RETENTION INDEX=0
##$CONDENSED SPECTRUM=NO
##NPOINTS= 89
##XYDATA=(XY..XY) 1 
    27         30
    28         40
    29         40
    31         10
    35         20
    36         10
    37         10
    38         20
    39        140
    40         10
    41         10
    42         50
    43        999
    44         30
    45        380
    47         30
    49         10
    50         70
    51        210
    52         30
    53         10
    55         10
    58         10
    60        190
    61         10
    62         20
    63         60
    64         10
    65        120
    66         70
    69         60
    74         20
    75         30
    76         50
    77        390
    78         50
    79         80
    82         30
    84         40
    89         40
    90         20
    91         90
    92         10
   101         10
   102         70
   103        470
   104         70
   105        130
   106         10
   107        340
   108         40
   109        150
   110        210
   111         20
   115         20
   117         80
   118         80
   121         30
   123        140
   124         20
   131        130
   132         20
   133         20
   134        100
   135        470
   136         50
   137         30
   148         20
   149        110
   150         10
   152         20
   163         30
   164         10
   165         15
   166         10
   178         30
   179         80
   180         20
   210         20
   211         20
   212        160
   213         30
   214         10
   240        210
   241         40
   242         20
   243          5
   300         15
   301          0