##TITLE=Library Entry 49877
##JCAMP-DX=Revision 4.10 
##DATA TYPE=MASS SPECTRUM
##SAMPLE DESCRIPTION=Japan AIST/NIMC Database- Spectrum MS-IW- 88
##NAMES=HP
##CAS NAME=3',5'-Diacetylthymidine
##MOLFORM=C14H18N2O7
##CAS REGISTRY NO=6979-97-1
##MP= -300
##BP= -300
##MW= 326
##$RETENTION INDEX=2439
##$CONDENSED SPECTRUM=NO
##NPOINTS= 89
##XYDATA=(XY..XY) 1 
    15          8
    26          1
    27         10
    28         18
    29          6
    30          1
    31          1
    38          1
    39         11
    40          6
    41         15
    42         11
    43        423
    44         13
    45          7
    51          1
    52          5
    53         11
    54         18
    55         31
    56          4
    57          4
    60          4
    61          6
    65          1
    66          1
    67          5
    68         14
    69         16
    70          7
    71          9
    73         15
    80         12
    81        999
    82         68
    83         15
    84          3
    85          2
    86          2
    93          1
    94          3
    95          1
    96          2
    97          9
    98         29
    99         14
   100          1
   103          1
   108          1
   109          4
   110         17
   111          3
   113          1
   115          4
   122          6
   123          1
   126         40
   127         28
   128          2
   136          1
   138          3
   140         18
   141         20
   142          1
   150         14
   151          2
   152          1
   153         11
   154          3
   162          1
   164          2
   165          1
   168          2
   169          1
   181          7
   182          6
   183          1
   193         12
   194          1
   200          1
   201         79
   202          8
   203          1
   206          3
   207          1
   224          1
   253          2
   326          7
   327          1