##TITLE=Library Entry 12105
##JCAMP-DX=Revision 4.10 
##DATA TYPE=MASS SPECTRUM
##SAMPLE DESCRIPTION=A. SELVA, C.N.R., IST. CHIM. POLITEC., MILAN, IT+
##NAMES=HP
##CAS NAME=1-Phenylthio-1-acetoxy-3-phenyl-2-propanone
##MOLFORM=C17H16O3S
##CAS REGISTRY NO=69798-72-7
##MP= -300
##BP= -300
##MW= 300
##$RETENTION INDEX=0
##$CONDENSED SPECTRUM=NO
##NPOINTS= 77
##XYDATA=(XY..XY) 1 
    27         10
    28         30
    29         10
    39         60
    41         10
    42         20
    43        999
    44         20
    45        140
    50         30
    51         80
    52         10
    60         70
    63         30
    65         90
    66         40
    69         20
    75         10
    76         20
    77        150
    78         20
    89         20
    90         10
    91        130
    92         15
   102         30
   103        210
   104         30
   105         30
   107         30
   108         10
   109         80
   110        150
   111         20
   117         10
   118         10
   119         20
   121         10
   123         40
   124          5
   131         60
   132         10
   133         10
   134         40
   135        220
   136         20
   137         10
   139         40
   148         10
   149         10
   152         10
   153         10
   162         10
   163         50
   164         10
   178         10
   179         40
   180          5
   181         30
   182          5
   189         10
   191         60
   192          5
   210          5
   211         10
   212         60
   213         10
   214          5
   240        110
   241         20
   242         15
   243          5
   256          5
   257          5
   258          5
   300         15
   301          5