##TITLE=Library Entry 70000
##JCAMP-DX=Revision 4.10 
##DATA TYPE=MASS SPECTRUM
##SAMPLE DESCRIPTION=Philip Morris R&D
##NAMES=HP
##CAS NAME=2(5H)-Furanone, 5-ethyl-3-hydroxy-4-methyl-
##MOLFORM=C7H10O3
##CAS REGISTRY NO=698-10-2
##MP= -300
##BP= -300
##MW= 142
##$RETENTION INDEX=1196
##$CONDENSED SPECTRUM=NO
##NPOINTS= 50
##XYDATA=(XY..XY) 1 
    36          6
    37          8
    38         14
    39        116
    40         57
    41        283
    42         57
    43        126
    44          2
    45         39
    49          5
    50         11
    53         45
    54          8
    55         88
    56         52
    57        592
    58         42
    60          7
    61          1
    63          1
    67         31
    68         23
    69        327
    70         37
    71         29
    72          2
    73         29
    75          7
    76          3
    81          1
    83         12
    84          8
    85        153
    86        132
    87         26
    89         12
    90          3
    95          3
    96         11
    97        999
    98         70
   103          9
   112          3
   113        360
   114         48
   117          3
   133         18
   142        406
   143         26