##TITLE=Library Entry 65143
##JCAMP-DX=Revision 4.10 
##DATA TYPE=MASS SPECTRUM
##SAMPLE DESCRIPTION=Japan AIST/NIMC Database- Spectrum MS-NW-7841
##NAMES=HP
##CAS NAME=Benzeneethanol, .alpha.-methyl-
##MOLFORM=C9H12O
##CAS REGISTRY NO=698-87-3
##MP= -300
##BP= -300
##MW= 136
##$RETENTION INDEX=1212
##$CONDENSED SPECTRUM=NO
##NPOINTS= 70
##XYDATA=(XY..XY) 1 
    14          1
    15          7
    18          2
    26          2
    27         20
    28          5
    29          8
    31          3
    32          1
    37          2
    38          7
    39         53
    40          6
    41         16
    42          2
    43         46
    44          6
    45        282
    46          8
    49          1
    50         15
    51         38
    52         10
    53          5
    55          2
    57          5
    58          6
    59          2
    60          9
    61          3
    62          9
    63         26
    64          7
    65         85
    66          9
    72         18
    73          1
    74          5
    75          4
    76          4
    77         26
    78         10
    79          9
    85          1
    86          2
    87          2
    89         19
    90         10
    91        531
    92        999
    93         77
    94          4
   102          4
   103         31
   104          4
   105          2
   107          2
   108          2
   115         15
   116          4
   117         29
   118         20
   119          4
   120          2
   121         25
   122          3
   134          1
   135          4
   136         10
   137          1