##TITLE=Library Entry 41147
##JCAMP-DX=Revision 4.10 
##DATA TYPE=MASS SPECTRUM
##SAMPLE DESCRIPTION=LDDRD, NCI, NIH-FCRDC, Frederick, MD 21702
##NAMES=HP
##CAS NAME=D-chiro-Inositol, 3-O-(2-amino-4-((carboxyiminomethyl)amino)-2,3,
4,6-tetradeoxy-.alpha.-D-arabino-hexopyranosyl)-
##MOLFORM=C14H25N3O9
##CAS REGISTRY NO=6980-18-3
##MP= -300
##BP= -300
##MW= 379
##$RETENTION INDEX=0
##$CONDENSED SPECTRUM=NO
##NPOINTS= 69
##XYDATA=(XY..XY) 1 
    41         43
    42         90
    43        114
    44         46
    45         55
    47         10
    50          2
    51          7
    52         10
    53         17
    54         29
    55         52
    56         35
    57         56
    58         12
    59          8
    60        198
    61         36
    65          6
    66          7
    67         16
    68         17
    69         27
    70         12
    71        110
    72         61
    73        999
    74         43
    75          3
    80         16
    81         23
    82         28
    83         21
    84         10
    85         14
    86         10
    88          2
    89         31
    90          7
    91         34
    92          7
    93         24
    94         11
    95         10
    96          8
    97         18
    98         10
    99          2
   101          2
   102        174
   103          7
   107          2
   108          5
   109          6
   110          6
   111         32
   112          2
   115         21
   119         22
   120         39
   121          6
   126         11
   137          9
   144         35
   145          3
   165          8
   171          2
   186          3
   205          2