##TITLE=Library Entry 57134
##JCAMP-DX=Revision 4.10 
##DATA TYPE=MASS SPECTRUM
##SAMPLE DESCRIPTION=J. FONT, DEP. QUIM. ORG., UNIV. AUTONOMA BARCELONA, SPA
IN
##NAMES=HP
##CAS NAME=2-[(E)-3-Bromo-1-propenyl]-2-methyl-1,3-dioxolane
##MOLFORM=C7H11BrO2
##CAS REGISTRY NO=69803-53-8
##MP= -300
##BP= -300
##MW= 206
##$RETENTION INDEX=0
##$CONDENSED SPECTRUM=NO
##NPOINTS= 15
##XYDATA=(XY..XY) 1 
    39        200
    43        390
    55        160
    67        110
    68        140
    83        150
    87        999
   112        310
   119         30
   121         30
   127        130
   147         30
   149         30
   191         50
   193         50