##TITLE=Library Entry 83365
##JCAMP-DX=Revision 4.10 
##DATA TYPE=MASS SPECTRUM
##SAMPLE DESCRIPTION=Chemical Concepts
##NAMES=HP
##CAS NAME=1,4-Pentanediol, 4-methyl-1-phenyl-, (.+-.)-
##MOLFORM=C12H18O2
##CAS REGISTRY NO=69815-01-6
##MP= -300
##BP= -300
##MW= 194
##$RETENTION INDEX=0
##$CONDENSED SPECTRUM=NO
##NPOINTS= 76
##XYDATA=(XY..XY) 1 
    27         51
    28         15
    29         73
    31         97
    39         63
    40          7
    41        102
    42        126
    43        955
    44         24
    45         19
    50         21
    51         90
    52         28
    53         30
    54         10
    55        375
    56         44
    57         49
    58         14
    59        468
    60         17
    63         15
    65         27
    69         23
    70        951
    71         61
    72          8
    74          6
    75          7
    76         11
    77        322
    78        130
    79        505
    80         35
    81         16
    83          8
    89         10
    90          5
    91        106
    92         15
   102          5
   103         29
   104         21
   105        206
   106         29
   107        999
   108         79
   109          5
   115         39
   116         16
   117        314
   118        288
   119         28
   120        767
   121         69
   122          4
   125          9
   128         18
   129          9
   131         14
   133          8
   141          4
   142          3
   143         33
   144          5
   145          4
   146         17
   159         23
   160          7
   161        248
   162         29
   175         22
   176        197
   177         25
   194          4