##TITLE=Library Entry 34044
##JCAMP-DX=Revision 4.10 
##DATA TYPE=MASS SPECTRUM
##SAMPLE DESCRIPTION=Japan AIST/NIMC Database- Spectrum MS-IW-5386
##NAMES=HP
##CAS NAME=2,4-Dinitrophenyl crotonate
##MOLFORM=C10H8N2O6
##CAS REGISTRY NO=69817-88-5
##MP= -300
##BP= -300
##MW= 252
##$RETENTION INDEX=0
##$CONDENSED SPECTRUM=NO
##NPOINTS= 45
##XYDATA=(XY..XY) 1 
    15          1
    26          1
    27          2
    28          1
    30          9
    37          4
    38          9
    39         68
    40         14
    41        202
    42          8
    43          1
    44          1
    46          1
    50          3
    51          6
    52          1
    53          7
    55          1
    61          2
    62         10
    63         20
    64          4
    65          1
    66          1
    67          2
    68         19
    69        999
    70         51
    71          4
    74          2
    75          1
    77          1
    79          5
    86          2
    91          4
    92          3
    93          3
   103          1
   105          1
   107          2
   154          2
   167          1
   184          9
   252          1