##TITLE=Library Entry 16834
##JCAMP-DX=Revision 4.10 
##DATA TYPE=MASS SPECTRUM
##SAMPLE DESCRIPTION=R.ERRA BALSELLS,DEP. QUIM. ORG.,CITY UNIV. BUENOS AIRES
,ARGENT
##NAMES=HP
##CAS NAME=DL-2,3-Butanediol
##MOLFORM=C4H10O2
##CAS REGISTRY NO=6982-25-8
##MP= -300
##BP= -300
##MW= 90
##$RETENTION INDEX=773
##$CONDENSED SPECTRUM=NO
##NPOINTS= 10
##XYDATA=(XY..XY) 1 
    26         50
    27        100
    29        100
    30         60
    41        100
    43        210
    44        130
    45        999
    55        100
    57        130