##TITLE=Library Entry 73263
##JCAMP-DX=Revision 4.10 
##DATA TYPE=MASS SPECTRUM
##SAMPLE DESCRIPTION=A.Mandelbaum ET AL, J.Mass Spectrom., 32, 750(1997)
##NAMES=HP
##CAS NAME=3-Dimethylaminocyclohexanol (cis)
##MOLFORM=C8H17NO
##CAS REGISTRY NO=6982-36-1
##MP= -300
##BP= -300
##MW= 143
##$RETENTION INDEX=0
##$CONDENSED SPECTRUM=NO
##NPOINTS= 29
##XYDATA=(XY..XY) 1 
    41         89
    42        200
    43         71
    44        123
    46          7
    55         33
    56        114
    57         24
    58        262
    68         14
    69          9
    70        157
    71        611
    72        125
    77          5
    79          7
    81          7
    82         16
    83          7
    84        624
    85         58
    98         43
   100        999
   101         35
   124         11
   126         11
   128          7
   143        586
   144         31