##TITLE=Library Entry 22173
##JCAMP-DX=Revision 4.10 
##DATA TYPE=MASS SPECTRUM
##SAMPLE DESCRIPTION=LAC, NIDDK, NIH, Bethesda, MD 20892
##NAMES=HP
##CAS NAME=trans-2-Aminocyclohexanol
##MOLFORM=C6H13NO
##CAS REGISTRY NO=6982-39-4
##MP= -300
##BP= -300
##MW= 115
##$RETENTION INDEX=0
##$CONDENSED SPECTRUM=NO
##NPOINTS= 57
##XYDATA=(XY..XY) 1 
    41        148
    42        100
    43        391
    44        144
    45         38
    46         16
    48          1
    49          0
    50          5
    51         10
    52          7
    53         25
    54         45
    55         50
    56        999
    57         83
    58         13
    59         67
    60         10
    61          6
    62          0
    63          3
    64          2
    65          8
    66          5
    67         40
    68         21
    69         49
    70         69
    71         12
    72        124
    73         18
    74          3
    77         13
    78         10
    79         28
    80         13
    81         36
    82         25
    83         17
    84         22
    85         11
    86         37
    87          8
    88          0
    93          2
    94          5
    95          6
    96         16
    97         23
    98         59
    99          7
   100          0
   113          1
   114          2
   115         94
   116          6