##TITLE=Library Entry 44338
##JCAMP-DX=Revision 4.10 
##DATA TYPE=MASS SPECTRUM
##SAMPLE DESCRIPTION=NIST Mass Spectrometry Data Center, 2012
##NAMES=HP
##CAS NAME=Pregn-4-ene-3,20-dione, 17-hydroxy-6-methyl-, bis(O-methyloxime),
 (6.alpha.)-, TMS derivative
##MOLFORM=C27H46N2O3Si
##CAS REGISTRY NO=69833-56-3
##MP= -300
##BP= -300
##MW= 474
##$RETENTION INDEX=2970
##$CONDENSED SPECTRUM=NO
##NPOINTS= 379
##XYDATA=(XY..XY) 1 
    15          4
    16          1
    25          1
    26          3
    27          7
    28          6
    29         40
    30         17
    31         11
    32          6
    33          2
    38          5
    39         19
    40         20
    41        105
    42         91
    43        101
    44         39
    45         87
    46          5
    47         15
    48          4
    49          1
    50          1
    51          4
    52          4
    53         36
    54         17
    55        152
    56         22
    57         13
    58         21
    59         78
    60         11
    61         14
    62          1
    63          2
    64          1
    65         20
    66         12
    67         75
    68         25
    69         31
    70         25
    71         11
    72         46
    73        999
    74         96
    75        135
    76         11
    77         73
    78         21
    79        130
    80         37
    81         84
    82         26
    83         17
    84         28
    85         12
    86         15
    87          4
    88          3
    89         88
    90         10
    91        189
    92         46
    93        137
    94         56
    95         54
    96         22
    97         13
    98         12
    99         19
   100         25
   101         12
   102          5
   103         31
   104         28
   105        157
   106         59
   107        127
   108         55
   109         48
   110         25
   111         10
   112         24
   113         40
   114         50
   115         57
   116         42
   117         93
   118         81
   119        121
   120         71
   121         50
   122         32
   123         20
   124         22
   125         54
   126         24
   127         20
   128         35
   129         59
   130         54
   131         92
   132         91
   133         73
   134        119
   135         51
   136         75
   137         38
   138         30
   139         17
   140         14
   141         24
   142         66
   143         88
   144         83
   145        134
   146         64
   147         43
   148         32
   149         15
   150         29
   151        104
   152         33
   153         16
   154         34
   155         36
   156        172
   157         75
   158        203
   159         70
   160         49
   161         25
   162         29
   163         11
   164         30
   165         89
   166         88
   167         69
   168         34
   169         71
   170        154
   171         75
   172        134
   173         42
   174         29
   175         34
   176         14
   177          6
   178         15
   179         10
   180         13
   181         19
   182         28
   183         35
   184         57
   185         32
   186         52
   187         30
   188        145
   189         22
   190         19
   191         23
   192         27
   193         11
   194          9
   195         18
   196         18
   197         27
   198         34
   199         23
   200        102
   201         29
   202         15
   203          4
   204         12
   205          6
   206          8
   208          9
   209         11
   210         18
   211         16
   212         15
   213         13
   214         17
   215         11
   216          8
   217          8
   218         10
   219          7
   220          6
   221         10
   222         12
   223         12
   224         17
   225         15
   226         15
   227          9
   228          9
   229          5
   230          4
   231          2
   232          6
   233          4
   234          6
   235          8
   236          8
   237         10
   238         21
   239         21
   240         24
   241         24
   242         14
   243          6
   244          4
   245          3
   246          5
   247          5
   248          5
   249          6
   250          8
   251          9
   252         16
   253         12
   254         17
   255         13
   256         73
   257         18
   258          6
   259          5
   260          7
   261          4
   262          5
   263          7
   264          8
   265         12
   266         15
   267          7
   268          5
   269          3
   270          9
   271          2
   272         20
   273          8
   274          7
   275          3
   276          6
   277          4
   278          9
   279          7
   280         23
   281         25
   282         16
   283          3
   284          8
   285          6
   286         30
   287        258
   288         57
   289          9
   290          5
   291          3
   292          4
   293          6
   294          7
   295          4
   296          6
   297          2
   298         13
   299          4
   300         13
   301          4
   302          2
   303          1
   304          5
   305          7
   306          6
   307         11
   308          3
   309          2
   310          4
   311          3
   312         48
   313         10
   314          4
   315          2
   316          3
   317          1
   318          2
   319          1
   320          1
   321         20
   322         12
   323          6
   324          2
   325         22
   326          6
   327          4
   328          4
   329          9
   330          3
   331        123
   332         29
   333          4
   334          1
   336          7
   337          4
   338          5
   339         32
   340          8
   341          2
   342          2
   343          1
   344          2
   345          1
   346          1
   351          1
   352          3
   353        145
   354         40
   355          7
   356          3
   357          2
   359          2
   360          1
   367          1
   368          1
   369          8
   370          9
   371          3
   372          5
   373          2
   374          1
   380          1
   383          4
   384         28
   385         11
   386         10
   387          5
   388          2
   389          1
   395          1
   396          1
   397          8
   398          2
   399          1
   400          2
   401         10
   402          9
   403          4
   404          1
   411          5
   412          6
   413          4
   414          4
   415          2
   416          1
   425          1
   426          1
   427          2
   428          2
   429          1
   441          1
   442          2
   443        772
   444        264
   445         72
   446         12
   447          2
   459         42
   460         13
   461          4
   462          1
   474        115
   475         40
   476         11
   477          2