##TITLE=Library Entry 59853
##JCAMP-DX=Revision 4.10 
##DATA TYPE=MASS SPECTRUM
##SAMPLE DESCRIPTION=A.A.Kutin, Moscow, Russia
##NAMES=HP
##CAS NAME=4-Methylcoumarine-6-tosyloxy
##MOLFORM=C17H14O5S
##CAS REGISTRY NO=69830-32-6
##MP= -300
##BP= -300
##MW= 330
##$RETENTION INDEX=0
##$CONDENSED SPECTRUM=NO
##NPOINTS= 172
##XYDATA=(XY..XY) 1 
    33          0
    34          0
    35          2
    36          4
    37         14
    38         46
    39        340
    40         31
    41         53
    42          8
    43         24
    44          5
    45         15
    46          1
    48         18
    49         11
    50         96
    51        122
    52         60
    53         53
    54         66
    55         16
    56          1
    57          3
    58          2
    59          1
    60          2
    61          9
    62         55
    63        195
    64         80
    65        706
    66         45
    67         16
    68          2
    69          9
    70          2
    71          4
    72          0
    73          2
    74         19
    75         20
    76         22
    77         56
    78         20
    79         41
    80          4
    81          3
    82         18
    83          3
    84          2
    85          3
    86          5
    87          9
    88          6
    89        168
    90         83
    91        999
    92        104
    93         53
    94          4
    95          3
    96          1
    97          2
    98          1
    99          1
   101          2
   102          5
   103          9
   104          1
   105          4
   106          1
   107          4
   108          3
   109          3
   110          0
   111          3
   112          0
   113          0
   115          4
   116          1
   117          4
   118         15
   119        112
   120         12
   121          6
   122          4
   123          3
   124          1
   125          1
   126          0
   127          1
   128          1
   129          1
   130          1
   131          4
   132          0
   133          1
   134          0
   135          0
   138          0
   139         16
   140          3
   141          4
   142          0
   143          0
   144          0
   145          4
   146         13
   147        518
   148         64
   149          7
   150          1
   151          4
   152          5
   153          2
   155        273
   156         26
   157         14
   158          0
   159          0
   161          0
   162          0
   164          0
   165          7
   166          3
   167          6
   168          2
   169          0
   172          1
   173          2
   174          5
   175        665
   176         91
   177          9
   178          2
   179          0
   180          0
   181          3
   182          1
   183          0
   189          0
   190          1
   191          0
   192          0
   193          0
   194          1
   195          8
   196          2
   198          0
   205          0
   207          0
   209          3
   210          2
   217          0
   218          0
   219          0
   221          0
   223          1
   224          0
   235          1
   236          0
   237          4
   238          3
   264          1
   265          2
   266          0
   330        288
   331         56
   332         21
   333          2
   334          0