##TITLE=Library Entry 5021
##JCAMP-DX=Revision 4.10 
##DATA TYPE=MASS SPECTRUM
##SAMPLE DESCRIPTION=V.A.Korolev, Moscow, Russia
##NAMES=HP
##CAS NAME=1-Methylpyrazol-4-amine
##MOLFORM=C4H7N3
##CAS REGISTRY NO=69843-13-6
##MP= -300
##BP= -300
##MW= 97
##$RETENTION INDEX=0
##$CONDENSED SPECTRUM=NO
##NPOINTS= 40
##XYDATA=(XY..XY) 1 
    15         28
    26         13
    27         29
    28          9
    29         17
    36          1
    37          6
    38         55
    39         69
    40        203
    41        243
    42        999
    43        557
    44         39
    45          7
    49         11
    50          2
    51         23
    52         31
    53         79
    54         28
    55        161
    56         26
    57          6
    65          2
    66         10
    67         11
    68         15
    69        271
    70        637
    71         24
    77          1
    80          3
    81          4
    82         23
    83          2
    96         17
    97        923
    98         52
    99          4