##TITLE=Library Entry 51117
##JCAMP-DX=Revision 4.10 
##DATA TYPE=MASS SPECTRUM
##SAMPLE DESCRIPTION=Exported from NIST MS Search
##NAMES=HP
##CAS NAME=1H-Imidazole-4-ethanamine, .alpha.-methyl-
##MOLFORM=C6H11N3
##CAS REGISTRY NO=6986-90-9
##MP= -300
##BP= -300
##MW= 125
##$RETENTION INDEX=0
##$CONDENSED SPECTRUM=NO
##NPOINTS= 21
##XYDATA=(XY..XY) 1 
    28         70
    29         20
    30         20
    39         30
    41         50
    42         60
    43         30
    44        579
    52         20
    53         20
    54         90
    55         90
    56         20
    69         20
    80         20
    81        230
    82        999
    83         90
   110         20
   124         10
   125         20