##TITLE=Library Entry 63146
##JCAMP-DX=Revision 4.10 
##DATA TYPE=MASS SPECTRUM
##SAMPLE DESCRIPTION=Chemical Concepts
##NAMES=HP
##CAS NAME=Galactopyranoside, methyl 2,3-di-O-benzyl-6-deoxy-4-O-methyl-, .b
eta.-d-
##MOLFORM=C22H28O5
##CAS REGISTRY NO=6988-43-8
##MP= -300
##BP= -300
##MW= 372
##$RETENTION INDEX=0
##$CONDENSED SPECTRUM=NO
##NPOINTS= 225
##XYDATA=(XY..XY) 1 
    26          0
    27          8
    28          2
    29         21
    30          1
    31          4
    33         10
    37          0
    38          1
    39         22
    40          3
    41         26
    42          7
    43         19
    44          2
    45         25
    47          1
    48          1
    49          1
    50          2
    51         13
    52          3
    53          6
    54          2
    55         21
    56          5
    57         26
    58          2
    59         19
    60          2
    61          7
    62          1
    63          9
    64          3
    65         51
    66          4
    67          5
    68          2
    69         13
    70          3
    71         23
    72         44
    73         14
    74          2
    75          5
    76          1
    77         14
    78          3
    79          6
    80          1
    81          8
    82          4
    83         10
    84          5
    85          9
    86          3
    87          6
    88          6
    89         24
    90         12
    91        999
    92         80
    93          6
    94          1
    95          6
    96          5
    97          7
    98          2
    99         13
   100          2
   101          7
   102          0
   103          5
   104          7
   105         10
   106          1
   107          5
   108          1
   109          3
   110          1
   111          6
   112          1
   113          7
   114          5
   115         17
   116          1
   117         21
   118          3
   119          8
   120          2
   121          8
   122          1
   123          2
   124          1
   125          3
   126          1
   127          4
   128          1
   129          3
   130          0
   131          6
   132          2
   133         18
   134          8
   135         27
   136          4
   137          2
   138          1
   139          2
   141         12
   143          1
   145          7
   147          3
   149          4
   151         34
   153          2
   155          2
   157         15
   159          6
   161          1
   162          1
   163         27
   164          3
   165          1
   166          1
   167          1
   168          1
   169          2
   171          0
   172          0
   173          2
   174          1
   175          0
   176          1
   177        247
   178         29
   179          1
   180          1
   181         16
   182          2
   183          1
   184          0
   185          1
   186          1
   187          1
   188          0
   189          1
   190          1
   191          1
   192          1
   193         29
   194          2
   195          1
   196          0
   197          2
   198          1
   199          0
   200          1
   201          0
   202          1
   203          1
   204          1
   205          1
   206          1
   207          1
   208          0
   209          0
   210          0
   211          9
   212          1
   213          0
   216          0
   217          1
   218          0
   219          0
   220          0
   221          0
   222          0
   223          1
   224          0
   225          0
   231          0
   232          0
   233          1
   234          1
   235          1
   236          1
   237          0
   238          0
   240         38
   241          2
   242          1
   245          0
   246          0
   247          0
   249          8
   250          1
   251          0
   252          0
   253          3
   254          1
   263          0
   267          0
   269          0
   271          0
   277          0
   278          0
   279          0
   281          7
   282          1
   283          0
   299          0
   305          0
   308          0
   309          0
   313          0
   327          0
   340          1
   341          4
   342          1
   343          0
   355          0
   371          1
   372          0
   373          0