##TITLE=Library Entry 55870
##JCAMP-DX=Revision 4.10 
##DATA TYPE=MASS SPECTRUM
##SAMPLE DESCRIPTION=NIST Mass Spectrometry Data Center, 2013
##NAMES=HP
##CAS NAME=Pentylone
##MOLFORM=C13H17NO3
##CAS REGISTRY NO=698963-77-8
##MP= -300
##BP= -300
##MW= 235
##$RETENTION INDEX=1888
##$CONDENSED SPECTRUM=NO
##NPOINTS= 99
##XYDATA=(XY..XY) 1 
    15          4
    18          1
    26          1
    27         14
    28         25
    29         18
    30         17
    31          1
    32          5
    37          2
    38          3
    39         22
    40          2
    41         18
    42         64
    43         19
    44        220
    45          6
    50          4
    51          8
    52          2
    53         10
    54          4
    55         24
    56         33
    57         41
    58         27
    59          1
    61          2
    62         15
    63         48
    64          8
    65         65
    66          5
    67          1
    68          4
    69          1
    70         18
    71          4
    74          2
    75          1
    76          2
    77          4
    78          2
    79          3
    80          1
    82          1
    83          1
    84         25
    85          5
    86        999
    87         59
    88          2
    89          2
    90          1
    91         22
    92          4
    93          2
    94          1
    95          4
   102          1
   103          1
   104          1
   105          1
   106          1
   115          1
   116          1
   117          1
   118          1
   119          6
   120          5
   121         58
   122          7
   123          1
   131          1
   132          1
   133          1
   134          3
   135          6
   136          1
   145          1
   146          1
   147          2
   148          1
   149         59
   150          6
   151          1
   161          1
   162          8
   163          1
   164          3
   174          1
   175          1
   176          1
   177          1
   190          1
   191          1
   192          6
   193          1