##TITLE=Library Entry 84138
##JCAMP-DX=Revision 4.10 
##DATA TYPE=MASS SPECTRUM
##SAMPLE DESCRIPTION=Div. of Experiment Therapeutics WRAIR, WRAMC, Washingto
n DC 20307
##NAMES=HP
##CAS NAME=4-Trichloromethyl-1-oxa-2-thiacyclobutane-2,2-dioxide
##MOLFORM=C3H3Cl3O3S
##CAS REGISTRY NO=6989-70-4
##MP= -300
##BP= -300
##MW= 224
##$RETENTION INDEX=0
##$CONDENSED SPECTRUM=NO
##NPOINTS= 84
##XYDATA=(XY..XY) 1 
    41          4
    42         27
    43        332
    44         43
    45         13
    46          1
    47         33
    48         31
    49         27
    50          6
    51          6
    53          4
    55         11
    59          5
    60          7
    61         68
    62         11
    63         43
    64         11
    65         58
    66          1
    67          5
    71          0
    72          4
    73         12
    74          1
    75          4
    76          6
    77          4
    78         21
    79         39
    80          2
    81         22
    82         21
    83         39
    84         14
    85         23
    86          2
    87          4
    89          5
    91         16
    93          5
    95          4
    96         64
    97         32
    98          8
    99         19
   101          4
   105          4
   107        999
   108         27
   109         99
   110          3
   111         41
   112          9
   113         11
   114          5
   117         48
   119         48
   121         15
   123          4
   125        928
   126         31
   127        105
   128          4
   129         11
   135          3
   139          1
   143         22
   144          9
   145         14
   146          8
   147          5
   148          1
   160          1
   162          1
   171          6
   173          2
   189         34
   191         23
   193          3
   224          8
   226          8
   228          0