##TITLE=Library Entry 1782
##JCAMP-DX=Revision 4.10 
##DATA TYPE=MASS SPECTRUM
##SAMPLE DESCRIPTION=NIST Mass Spectrometry Data Center, 1994
##NAMES=HP
##CAS NAME=2-(2-Nitrovinyl)furan
##MOLFORM=C6H5NO3
##CAS REGISTRY NO=699-18-3
##MP= -300
##BP= -300
##MW= 139
##$RETENTION INDEX=0
##$CONDENSED SPECTRUM=NO
##NPOINTS= 74
##XYDATA=(XY..XY) 1 
    15          1
    17          2
    18          4
    24          3
    25         18
    26         87
    27        216
    28         47
    29        171
    30        254
    31          2
    36         10
    37        126
    38        286
    39        999
    40         64
    41         50
    42         36
    43          9
    44          3
    45          2
    46         55
    48          5
    49         34
    50        111
    51        117
    52         72
    53        268
    54         51
    55        352
    56         19
    57         10
    60          9
    61         65
    62        136
    63        353
    64        201
    65        416
    66         45
    67         18
    68        144
    69         41
    70          8
    71         16
    73          2
    74          1
    75          8
    76          5
    77          3
    78         17
    79         12
    80         13
    81         79
    82          1
    83        400
    84         23
    85          7
    86          1
    92        161
    93         17
    94         18
    95         24
    96        192
    97         11
   106          1
   107          2
   108          1
   109          4
   110          2
   122         46
   123          8
   139        333
   140         24
   141          2