##TITLE=Library Entry 12520
##JCAMP-DX=Revision 4.10 
##DATA TYPE=MASS SPECTRUM
##SAMPLE DESCRIPTION=Chemical Concepts
##NAMES=HP
##CAS NAME=Ethanone, 1-[5-(1-hydroxyethylidene)-1,3-cyclopentadien-1-yl]-
##MOLFORM=C9H10O2
##CAS REGISTRY NO=699-85-4
##MP= -300
##BP= -300
##MW= 150
##$RETENTION INDEX=0
##$CONDENSED SPECTRUM=NO
##NPOINTS= 57
##XYDATA=(XY..XY) 1 
    26          9
    27         61
    28         10
    29         26
    31          3
    37         14
    38         31
    39         87
    40          6
    41         11
    42         15
    43        999
    44         21
    45          5
    46          0
    49          4
    50         37
    51         68
    52         20
    53         41
    54          2
    55          7
    57          3
    60          2
    61         16
    62         29
    63         61
    64         23
    65         38
    66          4
    67          4
    73          0
    74          8
    75          3
    76          2
    77         81
    78         17
    79         32
    80          0
    86          1
    89         17
    90          2
    91         11
    92         13
    93         20
   103          3
   105          3
   116          2
   117         26
   118          0
   119          6
   121          0
   132          7
   135         83
   136          6
   150        101
   151         10