##TITLE=Library Entry 81134
##JCAMP-DX=Revision 4.10 
##DATA TYPE=MASS SPECTRUM
##SAMPLE DESCRIPTION=Japan AIST/NIMC Database- Spectrum MS-NW-6093
##NAMES=HP
##CAS NAME=Benzeneethanol, 4-methyl-
##MOLFORM=C9H12O
##CAS REGISTRY NO=699-02-5
##MP= -300
##BP= -300
##MW= 136
##$RETENTION INDEX=0
##$CONDENSED SPECTRUM=NO
##NPOINTS= 72
##XYDATA=(XY..XY) 1 
    14          1
    15          1
    18          1
    26          2
    27         30
    28         28
    29          6
    31         18
    32          6
    37          2
    38          5
    39         44
    40          5
    41         11
    42          4
    43          4
    44          1
    45          1
    49          1
    50         15
    51         38
    52         12
    53         17
    54          1
    55          2
    57          3
    58          1
    61          2
    62          8
    63         22
    64          5
    65         31
    66          5
    67          2
    71          2
    72          2
    74          5
    75          4
    76          5
    77        105
    78         32
    79         97
    80          6
    85          1
    86          2
    87          2
    89         10
    90          4
    91        106
    92         18
    93          3
    98          1
   101          1
   102          7
   103         64
   104         30
   105        999
   106        228
   107         18
   108          1
   115         13
   116          3
   117         24
   118         18
   119          6
   120          1
   133          1
   134          4
   135          3
   136        273
   137         28
   138          2