##TITLE=Library Entry 50346
##JCAMP-DX=Revision 4.10 
##DATA TYPE=MASS SPECTRUM
##SAMPLE DESCRIPTION=Exported from NIST MS Search
##NAMES=HP
##CAS NAME=1H-Pyrrole, 1-pentyl-
##MOLFORM=C9H15N
##CAS REGISTRY NO=699-22-9
##MP= -300
##BP= -300
##MW= 137
##$RETENTION INDEX=1074
##$CONDENSED SPECTRUM=NO
##NPOINTS= 72
##XYDATA=(XY..XY) 1 
    41        281
    42         52
    43        196
    44         52
    45         22
    50         20
    51         42
    52         32
    53        148
    54         52
    55        160
    56         64
    57        180
    58         16
    59         12
    60         16
    63         14
    65         24
    66         24
    67        152
    68         74
    69         40
    70         22
    71         32
    76         14
    77         32
    78         44
    79         46
    80        618
    81        999
    82        102
    83         32
    84         12
    85         24
    91         24
    92         12
    93         34
    94        134
    95        134
    96         24
    97         32
    98         12
    99         12
   106         20
   107         12
   108         72
   109         34
   110         14
   111         24
   112         16
   113         16
   115         16
   116         14
   117         14
   119         12
   120         12
   121         12
   122         54
   123         24
   125         14
   126         14
   127         14
   128         14
   129         14
   131         12
   132         12
   133         12
   135         24
   136         72
   137        481
   138         52
   139         12