##TITLE=Library Entry 59767
##JCAMP-DX=Revision 4.10 
##DATA TYPE=MASS SPECTRUM
##SAMPLE DESCRIPTION=Chuck Anderson, Aldrich Chemical Co.
##NAMES=HP
##CAS NAME=Benzyl methyl disulfide
##MOLFORM=C8H10S2
##CAS REGISTRY NO=699-10-5
##MP= -300
##BP= -300
##MW= 170
##$RETENTION INDEX=1417
##$CONDENSED SPECTRUM=NO
##NPOINTS= 43
##XYDATA=(XY..XY) 1 
    27          2
    37          0
    38          5
    39         34
    40          2
    41          6
    45         48
    46          5
    47          5
    50          7
    51         19
    52          4
    53          0
    61          1
    62          6
    63         22
    64         11
    65         78
    66          5
    69          4
    71          0
    74          2
    75          2
    76          2
    77         29
    78          7
    79         24
    80          0
    81          2
    86          1
    87          0
    89         24
    90         10
    91        999
    92         77
    93          4
   121         11
   122          2
   123          3
   153          2
   170         72
   171          7
   172          6