##TITLE=Library Entry 64343
##JCAMP-DX=Revision 4.10 
##DATA TYPE=MASS SPECTRUM
##SAMPLE DESCRIPTION=A.A.Kutin, Moscow, Russia
##NAMES=HP
##CAS NAME=Pyrrole-2,4-dicarboxylic acid, 3,5-dimethyl-, 2-benzyl ester
##MOLFORM=C15H15NO4
##CAS REGISTRY NO=69912-09-0
##MP= -300
##BP= -300
##MW= 273
##$RETENTION INDEX=0
##$CONDENSED SPECTRUM=NO
##NPOINTS= 115
##XYDATA=(XY..XY) 1 
    33          6
    38          5
    39         27
    40         12
    41         15
    42          9
    43          7
    44          2
    45          2
    50          2
    51         14
    52          4
    53          5
    54          2
    55          4
    57          5
    59          2
    60          1
    63          8
    64         10
    65         69
    66         18
    67          9
    68          1
    69          3
    71          1
    73          1
    74          0
    75          1
    77          5
    78         10
    79         11
    80          4
    81          2
    82          6
    83          3
    85          1
    86          0
    87          0
    89         19
    91        999
    92         74
    93          9
    94          3
    95          0
    96          1
    97          1
   101          0
   105          2
   106          0
   107          4
   108          1
   109          1
   110          2
   111          1
   113          0
   115          0
   117          0
   118          0
   119          4
   120         11
   121          6
   122          2
   123          0
   124          0
   128          1
   129          0
   133          0
   134          2
   135          1
   136          4
   137          5
   138          9
   139         39
   140          3
   141          0
   146          0
   147          2
   148          9
   149          1
   151          1
   152          2
   153          1
   162          0
   164         14
   166         92
   167         10
   168          2
   169          1
   170          0
   180          1
   182         51
   183          6
   184          2
   190          0
   194          0
   195          0
   208          0
   211          1
   213          0
   214          0
   219          0
   228          3
   229          1
   236          0
   237          2
   242          0
   254          0
   255          7
   256          7
   257          1
   273        229
   274         33
   275          4
   278          0