##TITLE=Library Entry 99099
##JCAMP-DX=Revision 4.10 
##DATA TYPE=MASS SPECTRUM
##SAMPLE DESCRIPTION=V.Zaikin,Inst.Petrochem.Synth.,RAS,Moscow
##NAMES=HP
##CAS NAME=m-Toluic acid, 2,2-dimethylpropyl ester
##MOLFORM=C13H18O2
##CAS REGISTRY NO=69912-00-1
##MP= -300
##BP= -300
##MW= 206
##$RETENTION INDEX=0
##$CONDENSED SPECTRUM=NO
##NPOINTS= 87
##XYDATA=(XY..XY) 1 
    25          4
    26          8
    27         45
    28         13
    29         75
    30          8
    39        108
    40         23
    41        116
    42         16
    43         65
    44          9
    50         25
    51         46
    52         25
    53         16
    54          3
    55         43
    56         37
    57        124
    58          7
    59          7
    60          2
    61          9
    62         12
    63         43
    64         17
    65        112
    66          7
    69         13
    70        116
    71         13
    74          7
    75          8
    76          6
    77         20
    78          7
    79         29
    80          3
    81          3
    82          2
    83          2
    85          2
    86          5
    87          8
    89         31
    90         27
    91        331
    92         41
    93         12
    95          4
    97          2
    99          3
   102          7
   103          6
   104          4
   105         29
   106         10
   107          8
   108          3
   113          3
   117          3
   118         16
   119        999
   120        103
   121         13
   122          3
   126          4
   130          8
   132          3
   133          2
   134          4
   135         30
   136        116
   137        111
   138         12
   139          3
   145          2
   147          5
   149         20
   150         40
   151         13
   152          2
   154          5
   191          7
   206         17
   207          5