##TITLE=Library Entry 99077
##JCAMP-DX=Revision 4.10 
##DATA TYPE=MASS SPECTRUM
##SAMPLE DESCRIPTION=V.Zaikin,Inst.Petrochem.Synth.,RAS,Moscow
##NAMES=HP
##CAS NAME=o-Toluic acid, 2,2-dimethylpropyl ester
##MOLFORM=C13H18O2
##CAS REGISTRY NO=69911-99-5
##MP= -300
##BP= -300
##MW= 206
##$RETENTION INDEX=0
##$CONDENSED SPECTRUM=NO
##NPOINTS= 97
##XYDATA=(XY..XY) 1 
    25          4
    26         28
    27         99
    28         22
    29        129
    30          6
    39        191
    40         34
    41        236
    42         58
    43        636
    44         12
    50         53
    51         90
    52         48
    53         30
    54          4
    55        185
    56         19
    57         32
    58          5
    59          9
    60          2
    61          7
    62         37
    63         90
    64         25
    65        207
    66         21
    67          8
    68          8
    69         38
    70        420
    71        374
    72         28
    73          3
    74          9
    75         15
    76         12
    77         68
    78         19
    79         65
    80          5
    81          7
    82          5
    83          5
    84          9
    85         13
    86          2
    87          5
    88          6
    89         94
    90        179
    91        692
    92         80
    93         28
    94          3
    95          5
    96          5
    97          5
   101          4
   102         39
   103         12
   104         12
   105         56
   106          8
   107          6
   109          3
   111          2
   113          3
   115          3
   116          3
   117          8
   118        513
   119        999
   120         98
   121         12
   126          2
   127          3
   128          4
   130         29
   131          9
   133          8
   134          9
   135         47
   136        560
   137        190
   138         20
   139          3
   144          3
   145          6
   147         16
   149          4
   191          4
   206         70
   207         16
   208          2