##TITLE=Library Entry 99058
##JCAMP-DX=Revision 4.10 
##DATA TYPE=MASS SPECTRUM
##SAMPLE DESCRIPTION=V.Zaikin,Inst.Petrochem.Synth.,RAS,Moscow
##NAMES=HP
##CAS NAME=p-Toluic acid, 2,2-dimethylpropyl ester
##MOLFORM=C13H18O2
##CAS REGISTRY NO=69912-01-2
##MP= -300
##BP= -300
##MW= 206
##$RETENTION INDEX=0
##$CONDENSED SPECTRUM=NO
##NPOINTS= 73
##XYDATA=(XY..XY) 1 
    26          5
    27         40
    28          8
    29         49
    30          6
    38          5
    39         93
    40         21
    41        107
    42         15
    43         51
    44          2
    50         20
    51         34
    52         17
    53         15
    55         41
    56         24
    57         80
    58          3
    59          7
    61          6
    62         14
    63         42
    64         14
    65         99
    66          5
    69          5
    70        106
    71         11
    73          3
    74          5
    75          6
    76          4
    77         14
    78          7
    79         20
    83          3
    84          6
    85          3
    86          2
    87          7
    89         31
    90         26
    91        277
    92         32
    93          7
    95          2
    99          2
   105         21
   106         10
   107          8
   108          3
   117          3
   118          8
   119        999
   120        103
   121          9
   133          2
   135         14
   136         97
   137        102
   138         12
   139          5
   141          2
   149         16
   150         36
   151         11
   152          3
   156          2
   191          6
   206         11
   207          3