##TITLE=Library Entry 42276
##JCAMP-DX=Revision 4.10 
##DATA TYPE=MASS SPECTRUM
##SAMPLE DESCRIPTION=K. SEFERIADIS, DEP. BIOLOG. CHEM., IOANNINA UNIV.
##NAMES=HP
##CAS NAME=1,8-cis-Undecadien-5-yne 3,7-bis-trimethylsilyl ether
##MOLFORM=C17H32O2Si2
##CAS REGISTRY NO=69948-49-8
##MP= -300
##BP= -300
##MW= 324
##$RETENTION INDEX=0
##$CONDENSED SPECTRUM=NO
##NPOINTS= 24
##XYDATA=(XY..XY) 1 
    45        170
    47         47
    55         27
    59         50
    73        999
    74         83
    75        200
    77         28
    91         41
   105         20
   129        950
   130        120
   131         46
   133         32
   146          2
   147         76
   149          9
   191         17
   195          3
   203         18
   295          3
   296          2
   309          1
   324          1