##TITLE=Library Entry 71908
##JCAMP-DX=Revision 4.10 
##DATA TYPE=MASS SPECTRUM
##SAMPLE DESCRIPTION=V.G.Zaikin, TIPS RAS, Moscow, Russia
##NAMES=HP
##CAS NAME=Hexanoic acid, 3-phenyl-2-propenyl ester
##MOLFORM=C15H20O2
##CAS REGISTRY NO=6994-20-3
##MP= -300
##BP= -300
##MW= 232
##$RETENTION INDEX=1805
##$CONDENSED SPECTRUM=NO
##NPOINTS= 87
##XYDATA=(XY..XY) 1 
    25          7
    26         35
    27        171
    28         54
    29        158
    30          6
    31          8
    35          2
    36          8
    37          8
    38         19
    39        169
    40         29
    41        188
    42         86
    43        562
    44         56
    45         16
    50         45
    51         97
    52         27
    53         18
    54          8
    55        131
    56         29
    57         21
    59          3
    60         48
    61         12
    62         17
    63         58
    64          9
    65         51
    66          4
    69         28
    70         12
    71        432
    72         29
    73         21
    74         17
    75         17
    76         18
    77         97
    78         68
    79         22
    81          9
    83          3
    85          3
    86          3
    87         12
    88          4
    89         38
    90         12
    91        175
    92         49
    93          3
    95          3
    96          3
    97          6
    98         11
    99        999
   100         69
   101          8
   102         39
   103         62
   104         51
   105         62
   106          9
   107          3
   113         21
   114         47
   115        456
   116        271
   117        549
   118         71
   119          6
   128          4
   129          4
   131         19
   132          7
   133        108
   134         88
   135          8
   190          4
   203          4
   232         91
   233         17