##TITLE=Library Entry 9610
##JCAMP-DX=Revision 4.10 
##DATA TYPE=MASS SPECTRUM
##SAMPLE DESCRIPTION=Exported from NIST MS Search
##NAMES=HP
##CAS NAME=Hexanoic acid, 4,4-dimethyl-3-methylene-5-oxo-
##MOLFORM=C9H14O3
##CAS REGISTRY NO=6994-96-3
##MP= -300
##BP= -300
##MW= 170
##$RETENTION INDEX=0
##$CONDENSED SPECTRUM=NO
##NPOINTS= 69
##XYDATA=(XY..XY) 1 
    37          4
    38          7
    39        114
    40         24
    41        193
    42         26
    43        999
    44         24
    45         26
    50          4
    51         15
    52          8
    53         65
    54         22
    55        109
    56         17
    57         43
    58          4
    59         13
    60          8
    61          4
    63          4
    65         19
    66         10
    67        114
    68         19
    69         54
    70          7
    71         19
    73          1
    77         17
    78          2
    79         48
    80          8
    81        300
    82        332
    83        197
    84         22
    85        314
    86         26
    87          1
    92          4
    93          1
    95         15
    96          4
    97          4
    98          4
    99         17
   107          4
   108          1
   109        138
   110        158
   111         35
   112          1
   113          7
   123          1
   124         33
   125          8
   126          7
   127         52
   128         33
   129          1
   135         24
   152        263
   153         35
   154          1
   155         13
   170         61
   171          8