##TITLE=Library Entry 42277
##JCAMP-DX=Revision 4.10 
##DATA TYPE=MASS SPECTRUM
##SAMPLE DESCRIPTION=K. SEFERIADIS, DEP. BIOLOG. CHEM., IOANNINA UNIV., GREE
C
##NAMES=HP
##CAS NAME=1,5-cis,8-cis-Undecatriene-3,7-diol bis(trimethylsilyl)ether
##MOLFORM=C17H34O2Si2
##CAS REGISTRY NO=69948-50-1
##MP= -300
##BP= -300
##MW= 326
##$RETENTION INDEX=0
##$CONDENSED SPECTRUM=NO
##NPOINTS= 18
##XYDATA=(XY..XY) 1 
    29         20
    41         37
    45        136
    47         42
    59         40
    67         24
    73        999
    74         80
    75        212
    79         55
    91         33
    93         27
   129        673
   130         84
   131        183
   132         22
   147         52
   157         76