##TITLE=Library Entry 40062
##JCAMP-DX=Revision 4.10 
##DATA TYPE=MASS SPECTRUM
##SAMPLE DESCRIPTION=CHBEAM,112( )577(1979); H.-D. SCHARF ET AL
##NAMES=HP
##CAS NAME=Cyclopropa[3,4]pentaleno[1,2-d][1,3]dioxole, 2a,2b,2c,5a,5b,5c-he
xahydro-, (2a.alpha.,2b.alpha.,2c.alpha.,5a.alpha.,5b.alpha.,5c.alpha.)-
##MOLFORM=C9H10O2
##CAS REGISTRY NO=69956-56-5
##MP= -300
##BP= -300
##MW= 150
##$RETENTION INDEX=0
##$CONDENSED SPECTRUM=NO
##NPOINTS= 14
##XYDATA=(XY..XY) 1 
    39        190
    51        110
    52         50
    65        250
    71        250
    72        999
    78        200
    91        920
    92        150
   104        510
   119         80
   120         40
   150         30
   151          4