##TITLE=Library Entry 39917
##JCAMP-DX=Revision 4.10 
##DATA TYPE=MASS SPECTRUM
##SAMPLE DESCRIPTION=CHBEAM,112( )577(1979); H.-D. SCHARF ET AL
##NAMES=HP
##CAS NAME=Cyclobuta[1,2-d:3,4-d']bis[1,3]dioxole, tetrahydro-, (3a.alpha.,3
b.alpha.,6a.alpha.,6b.alpha.)-
##MOLFORM=C6H8O4
##CAS REGISTRY NO=69956-59-8
##MP= -300
##BP= -300
##MW= 144
##$RETENTION INDEX=0
##$CONDENSED SPECTRUM=NO
##NPOINTS= 12
##XYDATA=(XY..XY) 1 
    29        143
    30         28
    31         70
    39         18
    55         74
    71        225
    72        999
    84         16
    85         55
   114          6
   115          1
   143          3