##TITLE=Library Entry 89868
##JCAMP-DX=Revision 4.10 
##DATA TYPE=MASS SPECTRUM
##SAMPLE DESCRIPTION=N.W. Davies, Centr. Sci. Lab., Univ. Tasmania, Hobart,
 Australia
##NAMES=HP
##CAS NAME=2-Piperidinone, 3-amino-3-(difluoromethyl)-
##MOLFORM=C6H10F2N2O
##CAS REGISTRY NO=69955-40-4
##MP= -300
##BP= -300
##MW= 164
##$RETENTION INDEX=0
##$CONDENSED SPECTRUM=NO
##NPOINTS= 97
##XYDATA=(XY..XY) 1 
    26         11
    27         63
    28          1
    29          1
    30        363
    31         13
    32          1
    33         17
    36          1
    37          3
    38          4
    39         58
    40          1
    41        154
    42        401
    43        331
    44         19
    45         20
    46         13
    47          9
    48         16
    50          6
    51         70
    52         14
    53         21
    54         48
    55         24
    56        149
    57         36
    58         20
    59         72
    60         22
    61          8
    63          3
    64          5
    65          5
    66         16
    67          9
    68         86
    69         19
    70         45
    71         16
    72         12
    73         13
    74         24
    75        187
    76         10
    77          6
    78         21
    79         22
    80         29
    81          3
    82         11
    83         14
    84         11
    85        241
    86         27
    87         22
    88         15
    89         10
    90          5
    91          4
    92          5
    93        184
    94         18
    95          8
    96          6
    97         10
    98         12
    99          6
   100         10
   101          4
   102         13
   103          3
   105          7
   106        171
   107         43
   108         11
   109          3
   111          3
   113        999
   114         63
   115          8
   116          3
   117          6
   118         15
   119        195
   120         25
   123          3
   125          8
   126          3
   128          4
   129          3
   144          3
   145          3
   147          6
   149         12