##TITLE=Library Entry 16505
##JCAMP-DX=Revision 4.10 
##DATA TYPE=MASS SPECTRUM
##SAMPLE DESCRIPTION=K. Kirk, LC, NIDDK, NIH, Bethesda, MD 20892
##NAMES=HP
##CAS NAME=2-Iodohiistidine
##MOLFORM=C6H8IN3O2
##CAS REGISTRY NO=6996-15-2
##MP= -300
##BP= -300
##MW= 281
##$RETENTION INDEX=0
##$CONDENSED SPECTRUM=NO
##NPOINTS= 99
##XYDATA=(XY..XY) 1 
    41        103
    42         89
    43        143
    44        999
    45        171
    46         51
    47         15
    48         19
    49          6
    50         23
    51         48
    52         69
    53         47
    54        113
    55         72
    56         65
    57         54
    58         23
    59         27
    60         30
    61         18
    62         14
    63         20
    64         32
    65         20
    66         23
    67         30
    68         24
    69         30
    70         15
    71         21
    72         13
    73         32
    74         55
    75         16
    76         12
    77         62
    78        143
    79         49
    80         71
    81        197
    82        104
    83         29
    84         13
    85         13
    86         33
    87          6
    88          8
    89         20
    90          6
    91         15
    92          6
    93         13
    94          5
    95         17
    96          5
    97         17
    98         11
    99         15
   100         22
   101         15
   103          7
   105         12
   106         68
   107         28
   108         27
   109         24
   110         17
   111          6
   115        126
   116        265
   117         53
   118         93
   119          6
   121         11
   124         51
   125          5
   127         92
   128         15
   129         12
   139          5
   143          6
   144         14
   149         13
   154         19
   162         11
   180         14
   189         23
   191          6
   207        102
   208        304
   209         20
   221          5
   235         12
   236         47
   237          8
   254          6
   281         18
   282          7