##TITLE=Library Entry 29028
##JCAMP-DX=Revision 4.10 
##DATA TYPE=MASS SPECTRUM
##SAMPLE DESCRIPTION=Chemical Concepts
##NAMES=HP
##CAS NAME=1,4-Oxazepine-5,7(2H,6H)-dione, dihydro-3,4-dimethyl-2-phenyl-6-(
phenylmethylene)-, [2R-(2.alpha.,3.alpha.,6E)]-
##MOLFORM=C20H19NO3
##CAS REGISTRY NO=69979-56-2
##MP= -300
##BP= -300
##MW= 321
##$RETENTION INDEX=0
##$CONDENSED SPECTRUM=NO
##NPOINTS= 164
##XYDATA=(XY..XY) 1 
    26          2
    27         19
    29         15
    30         17
    31          1
    38          2
    39         28
    40         13
    41          9
    42        191
    43          8
    44          9
    49          0
    50         23
    51         58
    52         24
    53         12
    54          5
    55          7
    56        181
    57         83
    58        999
    59         34
    61          0
    62          5
    63         24
    64          5
    65         23
    66          2
    67          0
    68          1
    69          2
    70          3
    71          1
    72          1
    73          1
    74         11
    75         26
    76         61
    77         97
    78         18
    79         20
    80          1
    81          3
    82         17
    83          1
    84          1
    85          0
    86          1
    87          3
    88          1
    89         20
    90         11
    91         63
    92          5
    93          0
    94          1
    95          0
    96          4
    97          0
    98          1
    99          1
   100          1
   101         21
   102        372
   103         97
   104         16
   105         48
   106          5
   107          3
   108          1
   109          0
   110          6
   111          0
   113          0
   114          1
   115         28
   116         18
   117         92
   118        235
   119         24
   120          2
   126          2
   127          2
   128          5
   129         42
   130        525
   131        291
   132         42
   133          4
   134          0
   141          1
   142          1
   143          4
   144        100
   145         14
   146         20
   147          3
   148          0
   151          0
   152          1
   156          1
   157          4
   158        182
   159         52
   160          6
   161          0
   162          0
   165          3
   166          0
   170          0
   172          5
   173          4
   174          0
   175          0
   176          0
   178          2
   179          1
   180          1
   184          0
   186         14
   187         23
   188         71
   189         12
   190          3
   191          9
   192         10
   193          1
   196          1
   198          1
   199          1
   200        148
   201         19
   202          3
   203          1
   204          1
   208          0
   214         51
   215        461
   216         71
   217          7
   218          2
   219          1
   220         87
   221         16
   222          1
   236          0
   246         12
   247          4
   248          1
   262          1
   263          0
   264         36
   265          7
   266          1
   275          0
   276          1
   277          3
   278          0
   293          4
   294          2
   321         33
   322          8
   323          0