##TITLE=Library Entry 46948
##JCAMP-DX=Revision 4.10 
##DATA TYPE=MASS SPECTRUM
##SAMPLE DESCRIPTION=JLACBF, 1979 ( )200(1979); D. BRAUN AND J. WEINERT
##NAMES=HP
##CAS NAME=2-Oxazolidinone, 5-ethenyl-3-phenyl-
##MOLFORM=C11H11NO2
##CAS REGISTRY NO=69974-30-7
##MP= -300
##BP= -300
##MW= 189
##$RETENTION INDEX=0
##$CONDENSED SPECTRUM=NO
##NPOINTS= 18
##XYDATA=(XY..XY) 1 
    31        180
    39        190
    43        110
    51        450
    77        999
    78        150
    91        240
   104        990
   105        310
   117        130
   118        190
   119         90
   130        410
   144        510
   145        150
   161         90
   189        900
   190        110