##TITLE=Library Entry 78780
##JCAMP-DX=Revision 4.10 
##DATA TYPE=MASS SPECTRUM
##SAMPLE DESCRIPTION=Japan AIST/NIMC Database- Spectrum MS-NW-1802
##NAMES=HP
##CAS NAME=Ethanone, 2-bromo-1-phenyl-
##MOLFORM=C8H7BrO
##CAS REGISTRY NO=70-11-1
##MP= -300
##BP= -300
##MW= 198
##$RETENTION INDEX=1313
##$CONDENSED SPECTRUM=NO
##NPOINTS= 64
##XYDATA=(XY..XY) 1 
    14          4
    15          1
    17          1
    18          5
    26          4
    27         15
    28          4
    29          1
    32          1
    37         10
    38         22
    39         52
    40          3
    41          7
    42         23
    43          6
    44          2
    45          4
    49          9
    50        122
    51        257
    52         16
    53          2
    60          1
    61          8
    62         18
    63         32
    64          7
    65         45
    66          2
    73          8
    74         39
    75         24
    76         36
    77        491
    78         35
    79          6
    80          2
    81          5
    82          2
    85          2
    86          3
    87          2
    89         14
    90          9
    91        145
    92         10
    93          8
    94          1
    95          7
    98          1
   102          4
   103          1
   104          3
   105        999
   106         76
   107          4
   118          1
   120          3
   171          1
   198         14
   199          1
   200         14
   201          1