##TITLE=Library Entry 492
##JCAMP-DX=Revision 4.10 
##DATA TYPE=MASS SPECTRUM
##SAMPLE DESCRIPTION=Japan AIST/NIMC Database- Spectrum MS-IW-1593
##NAMES=HP
##CAS NAME=Propanoic acid, 3-bromo-2-oxo-, ethyl ester
##MOLFORM=C5H7BrO3
##CAS REGISTRY NO=70-23-5
##MP= -300
##BP= -300
##MW= 194
##$RETENTION INDEX=0
##$CONDENSED SPECTRUM=NO
##NPOINTS= 83
##XYDATA=(XY..XY) 1 
    13          4
    14         24
    15         27
    16          1
    25          3
    26         26
    27        241
    28         62
    29        999
    30         37
    31         30
    39          2
    40          2
    41         34
    42        860
    43        356
    44         31
    45         49
    46          6
    47          1
    49          2
    51          1
    53          5
    54          2
    55          2
    56          3
    57        197
    58          7
    59          2
    60          3
    61          3
    69          2
    70          3
    71          6
    73         18
    74          2
    76          1
    77          7
    79         17
    80         13
    81         15
    82         13
    86          6
    87          4
    88          2
    91          7
    92         18
    93        204
    94         25
    95        193
    96          9
    99          1
   105          1
   107          4
   108          5
   109          3
   110          5
   116          8
   117          1
   120        105
   121        565
   122        142
   123        558
   124         41
   125          2
   127          3
   128          1
   138          4
   139          5
   140          5
   141         11
   149          3
   151          6
   153          3
   165          1
   166          2
   167          3
   168          3
   169          3
   194         16
   195          4
   196         16
   197          4