##TITLE=Library Entry 983
##JCAMP-DX=Revision 4.10 
##DATA TYPE=MASS SPECTRUM
##SAMPLE DESCRIPTION=MASS SPECTROMETRY CENTER, UNIV. OF UTAH ALDRICH 12994-1
##NAMES=HP
##CAS NAME=Guanidine, N-methyl-N'-nitro-N-nitroso-
##MOLFORM=C2H5N5O3
##CAS REGISTRY NO=70-25-7
##MP= -300
##BP= -300
##MW= 147
##$RETENTION INDEX=0
##$CONDENSED SPECTRUM=NO
##NPOINTS= 46
##XYDATA=(XY..XY) 1 
    12         21
    13         42
    14        116
    15        259
    16         62
    17         11
    25          2
    26         39
    27        172
    28        160
    29        179
    30        999
    31         49
    36          2
    38          6
    39         12
    40         34
    41         66
    42        608
    43        695
    44        327
    45         28
    46        146
    47         12
    52          8
    53        124
    54         77
    55        347
    56        224
    57        340
    58         47
    59         23
    60         16
    64          8
    70          8
    71        105
    72        635
    73         36
    74          2
    75         42
    88         20
   101        134
   102          6
   117         64
   118         21
   147         15