##TITLE=Library Entry 35091
##JCAMP-DX=Revision 4.10 
##DATA TYPE=MASS SPECTRUM
##SAMPLE DESCRIPTION=Chemical Concepts
##NAMES=HP
##CAS NAME=Ornithine
##MOLFORM=C5H12N2O2
##CAS REGISTRY NO=70-26-8
##MP= -300
##BP= -300
##MW= 132
##$RETENTION INDEX=0
##$CONDENSED SPECTRUM=NO
##NPOINTS= 47
##XYDATA=(XY..XY) 1 
    26         17
    27         78
    28        420
    29        107
    30        453
    31         23
    33          3
    39         69
    40         21
    41        132
    42        158
    43        576
    44         85
    45         12
    46          4
    50          3
    51          7
    52         12
    53         12
    54         33
    55         24
    56        659
    57        157
    58        339
    59         17
    65          3
    66          3
    67          6
    68         64
    69        999
    70        225
    71         17
    73          3
    74          3
    75          5
    81          3
    82          3
    83          7
    84          6
    85         58
    86         44
    87          6
    97         25
    98          3
   113          4
   114         34
   115          8