##TITLE=Library Entry 37674
##JCAMP-DX=Revision 4.10 
##DATA TYPE=MASS SPECTRUM
##SAMPLE DESCRIPTION=Japan AIST/NIMC Database- Spectrum MS-IW-1520
##NAMES=HP
##CAS NAME=2-Pyrrolidinone, 1-[4-(1-pyrrolidinyl)-2-butynyl]-
##MOLFORM=C12H18N2O
##CAS REGISTRY NO=70-22-4
##MP= -300
##BP= -300
##MW= 206
##$RETENTION INDEX=0
##$CONDENSED SPECTRUM=NO
##NPOINTS= 105
##XYDATA=(XY..XY) 1 
    14          2
    15         11
    26         10
    27         78
    28         34
    29         23
    30         45
    32          1
    37          6
    38         15
    39        105
    40         33
    41        332
    42        271
    43         79
    44         22
    45          1
    49          1
    50         12
    51         47
    52         61
    53        118
    54         73
    55         77
    56         28
    57         10
    58          3
    59          1
    60          1
    63          2
    64          4
    65         18
    66         30
    67         48
    68        136
    69        194
    70        999
    71         58
    72          4
    74          3
    75         10
    76          1
    77         17
    78         10
    79         26
    80        111
    81         44
    82         79
    83         42
    84         87
    85         36
    86         23
    87          1
    88          2
    89          1
    91         20
    92         20
    93         84
    94         47
    95         57
    96         12
    97          4
    98        495
    99         38
   100          2
   102          5
   103          3
   104          2
   105          4
   106         44
   107         23
   108        453
   109         70
   110          9
   111          1
   112          2
   115          1
   117          8
   118         11
   119          9
   120        259
   121        131
   122         90
   123        197
   124         23
   125          1
   133          2
   134         11
   135         26
   136        116
   137        192
   138         23
   139          2
   147          1
   148          2
   149          6
   150         13
   151          5
   163          6
   177          3
   178          1
   204          2
   205          9
   206         20
   207          4