##TITLE=Library Entry 1248
##JCAMP-DX=Revision 4.10 
##DATA TYPE=MASS SPECTRUM
##SAMPLE DESCRIPTION=Japan AIST/NIMC Database- Spectrum MS-NW-1314
##NAMES=HP
##CAS NAME=Benzene, 1-fluoro-2,4-dinitro-
##MOLFORM=C6H3FN2O4
##CAS REGISTRY NO=70-34-8
##MP= -300
##BP= -300
##MW= 186
##$RETENTION INDEX=1369
##$CONDENSED SPECTRUM=NO
##NPOINTS= 94
##XYDATA=(XY..XY) 1 
    14          1
    16          4
    17          1
    18          3
    20          2
    25          1
    26          6
    27          8
    28         10
    29          9
    30        999
    31         57
    32          6
    33          9
    36          4
    37         28
    38         25
    39         10
    40          1
    41          3
    43          1
    44         19
    45         10
    46         43
    47          1
    48          2
    49         10
    50        217
    51         36
    52          9
    53         15
    54          5
    55          5
    56         37
    57         56
    58          7
    60          4
    61         40
    62         43
    63        102
    64         13
    65          2
    66          2
    67          2
    68        192
    69         38
    70         21
    71          4
    72          3
    73         28
    74        133
    75         79
    76         58
    77          5
    78          1
    79         23
    80          9
    81         99
    82        223
    83         15
    84          2
    86          2
    87          4
    88          2
    90          2
    91          2
    92         40
    93        379
    94        883
    95         86
    96         13
    97          5
    98          4
   106          3
   107         77
   108         13
   109          9
   110        117
   111          9
   112          1
   123          4
   124         13
   125          7
   126          2
   139          5
   140         77
   141          6
   156         34
   157          2
   170         39
   171          3
   186        810
   187         59
   188          9