##TITLE=Library Entry 100283
##JCAMP-DX=Revision 4.10 
##DATA TYPE=MASS SPECTRUM
##SAMPLE DESCRIPTION=H. Fales, LC, NHLBI, NIH, Bethesda, MD 20892
##NAMES=HP
##CAS NAME=Chrysanthemumic acid 2,4-dimethylbenzyl ester
##MOLFORM=C19H26O2
##CAS REGISTRY NO=70-38-2
##MP= -300
##BP= -300
##MW= 286
##$RETENTION INDEX=0
##$CONDENSED SPECTRUM=NO
##NPOINTS= 150
##XYDATA=(XY..XY) 1 
    41         85
    42          6
    43         55
    44          3
    45          2
    50          3
    51         11
    52          5
    53         28
    54          3
    55         30
    56          3
    57          8
    58          1
    59         11
    60          0
    62          1
    63          5
    64          1
    65         23
    66          5
    67         27
    68          3
    69         21
    70          2
    71          3
    72          1
    73          0
    74          0
    75          1
    76          1
    77         56
    78         18
    79         49
    80          6
    81         87
    82          7
    83         16
    84          3
    85          4
    86          1
    87          1
    89          4
    90          2
    91        118
    92         12
    93         34
    94          4
    95         20
    96          4
    97          5
    98          1
    99          1
   101          1
   102          4
   103         30
   104         30
   105         29
   106          4
   107         25
   108          8
   109         14
   110          4
   111          7
   112          1
   113          1
   114          0
   115         24
   116          5
   117         48
   118         48
   119        999
   120        155
   121         24
   122          8
   123        455
   124         46
   125          6
   126          5
   127          1
   128          0
   129          0
   130          0
   131          0
   132          2
   133         12
   134          3
   135          4
   136          2
   137          2
   138          0
   139          4
   140          0
   141          1
   143          1
   145          1
   147          0
   149          4
   150          1
   151          3
   152          2
   153          3
   154          0
   155          0
   157          1
   158          0
   159          1
   160          2
   161          1
   165          0
   166          2
   167          8
   168          2
   169          0
   171          1
   172          0
   173          1
   176          0
   180          1
   181          0
   183          0
   185          1
   186         12
   187          7
   188          1
   191          0
   197          0
   199          0
   205          0
   215          0
   218          0
   223          0
   225          0
   227          0
   230          2
   231          1
   236          0
   237          1
   238          0
   241          0
   243          1
   244          1
   251          0
   253          0
   262          0
   267          0
   271          0
   285          1
   286         13
   287          2