##TITLE=Library Entry 16661
##JCAMP-DX=Revision 4.10 
##DATA TYPE=MASS SPECTRUM
##SAMPLE DESCRIPTION=MASS SPECTROMETRY CENTER, UNIV. OF UTAH ALDRICH M00618-
2
##NAMES=HP
##CAS NAME=Butanedioic acid, mercapto-
##MOLFORM=C4H6O4S
##CAS REGISTRY NO=70-49-5
##MP= -300
##BP= -300
##MW= 150
##$RETENTION INDEX=0
##$CONDENSED SPECTRUM=NO
##NPOINTS= 68
##XYDATA=(XY..XY) 1 
    12         12
    13         12
    15         45
    24          2
    25         39
    26        196
    27        689
    28         97
    29        134
    31         20
    32         28
    33        122
    34        176
    35        185
    36         38
    37         16
    38         14
    39          4
    41         16
    42        101
    43        210
    44        323
    45        999
    46         80
    47         82
    48          8
    52          9
    53         68
    54         46
    55        282
    56         43
    57         69
    58        446
    59        549
    60        411
    61        129
    62         29
    63         98
    64          4
    69         11
    71         62
    72        131
    73         71
    74         38
    75         20
    76         58
    77          1
    81          9
    85         15
    86        254
    87        432
    88        118
    89         31
    90         17
    91         10
    98         20
    99        104
   100         26
   101          2
   103         11
   104        600
   105         87
   106         46
   114         24
   117          2
   132        592
   133         33
   134         31