##TITLE=Library Entry 57184
##JCAMP-DX=Revision 4.10 
##DATA TYPE=MASS SPECTRUM
##SAMPLE DESCRIPTION=Japan AIST/NIMC Database- Spectrum MS-NW-5052
##NAMES=HP
##CAS NAME=L-Asparagine
##MOLFORM=C4H8N2O3
##CAS REGISTRY NO=70-47-3
##MP= -300
##BP= -300
##MW= 132
##$RETENTION INDEX=0
##$CONDENSED SPECTRUM=NO
##NPOINTS= 105
##XYDATA=(XY..XY) 1 
    12         17
    13         10
    14         52
    15         87
    16         83
    17        118
    18        357
    19          7
    24          8
    25         23
    26        130
    27        329
    28        513
    29         53
    30         89
    31          9
    32          9
    33          8
    34         20
    35          1
    36          8
    37          5
    38         39
    39         69
    40        171
    41        361
    42        387
    43        406
    44        727
    45         80
    46         40
    47          3
    48          1
    49          2
    50         13
    51         64
    52         27
    53         25
    54         21
    55         33
    56         10
    57          7
    58          4
    59        166
    60         27
    61          2
    62          1
    63          2
    64          2
    65          2
    66          7
    67         14
    68         20
    69         28
    70        283
    71         21
    72         12
    73         13
    74         57
    75          2
    76          3
    77          8
    78         25
    79          9
    80         27
    81          9
    82         24
    83          3
    84          4
    85          3
    86        128
    87        999
    88         58
    89          7
    90          1
    91          1
    92          1
    93          1
    94          1
    95          4
    96          5
    97         15
    98          7
    99          9
   100          2
   101          4
   102          2
   103          1
   105          1
   106          1
   109          1
   110          2
   111          1
   112          4
   113          2
   114         64
   115         22
   116          3
   127          1
   128          2
   129          1
   130          2
   131          1
   132          1
   133          2