##TITLE=Library Entry 1199
##JCAMP-DX=Revision 4.10 
##DATA TYPE=MASS SPECTRUM
##SAMPLE DESCRIPTION=Japan AIST/NIMC Database- Spectrum MS-NW- 299
##NAMES=HP
##CAS NAME=dl-Lysine
##MOLFORM=C6H14N2O2
##CAS REGISTRY NO=70-54-2
##MP= -300
##BP= -300
##MW= 146
##$RETENTION INDEX=0
##$CONDENSED SPECTRUM=NO
##NPOINTS= 98
##XYDATA=(XY..XY) 1 
    14          2
    15         21
    16         20
    17         27
    18         53
    25          1
    26         23
    27         98
    28        296
    29         80
    30        999
    31         21
    32          1
    39         90
    40         25
    41        192
    42        184
    43        339
    44        138
    45         32
    46         19
    47          1
    49          2
    50         11
    51         18
    52         26
    53         34
    54        139
    55        250
    56        716
    57        133
    58         33
    59         41
    60          2
    62          2
    63          3
    64          3
    65         13
    66         17
    67         74
    68         38
    69         46
    70        102
    71         85
    72        576
    73         44
    74        124
    75         32
    76          3
    77          3
    78          7
    79         16
    80         28
    81         31
    82        192
    83        330
    84        759
    85         59
    86          5
    87         13
    88         14
    89         20
    91          3
    92          7
    93         24
    94          7
    95          9
    96          4
    97          5
    98          7
    99         41
   100         53
   101         38
   102          4
   103          5
   104          2
   105          2
   106          1
   107          5
   108          8
   109         24
   110         59
   111         71
   112         10
   113          3
   116          5
   117         17
   118          1
   123          1
   125          1
   126          2
   127          3
   128         39
   129         70
   130         29
   131          3
   146          7
   147          2