##TITLE=Library Entry 62948
##JCAMP-DX=Revision 4.10 
##DATA TYPE=MASS SPECTRUM
##SAMPLE DESCRIPTION=Japan AIST/NIMC Database- Spectrum MS-NW-1770
##NAMES=HP
##CAS NAME=Benzenesulfonamide, 4-methyl-
##MOLFORM=C7H9NO2S
##CAS REGISTRY NO=70-55-3
##MP= -300
##BP= -300
##MW= 171
##$RETENTION INDEX=1692
##$CONDENSED SPECTRUM=NO
##NPOINTS= 82
##XYDATA=(XY..XY) 1 
    16          4
    17          1
    18          3
    26          3
    27         18
    28          6
    29          1
    30          1
    32          5
    37          6
    38         19
    39        142
    40         11
    41         35
    42          2
    43          2
    44          2
    45          7
    46          4
    47          2
    48          5
    49          3
    50         45
    51         69
    52         19
    53         17
    54          3
    55          1
    56          1
    57          1
    61          9
    62         36
    63        108
    64         32
    65        295
    66         18
    67          4
    69          7
    70          1
    71          2
    73          2
    74         11
    75          9
    76          6
    77         56
    78         14
    79         30
    80          8
    81          1
    82          1
    84          1
    85          4
    86          9
    87          8
    88          2
    89         85
    90         47
    91        999
    92         78
    93          3
    95          1
   104          2
   105          2
   106         59
   107        195
   108        139
   109          9
   111          2
   121          3
   122          1
   123          1
   124          1
   139         10
   154          2
   155        308
   156         26
   157         14
   158          1
   171        386
   172         35
   173         19
   174          1