##TITLE=Library Entry 9759
##JCAMP-DX=Revision 4.10 
##DATA TYPE=MASS SPECTRUM
##SAMPLE DESCRIPTION=Patti Price, Georgia Bureau of Investigation, Decatur,
 Georgia
##NAMES=HP
##CAS NAME=Deferoxamine
##MOLFORM=C25H48N6O8
##CAS REGISTRY NO=70-51-9
##MP= -300
##BP= -300
##MW= 560
##$RETENTION INDEX=0
##$CONDENSED SPECTRUM=NO
##NPOINTS= 143
##XYDATA=(XY..XY) 1 
    41        323
    42        239
    43        999
    44        276
    45        278
    46        304
    47          9
    48         38
    49          8
    50         13
    51         15
    52         14
    53         36
    54         84
    55        444
    56        479
    57         75
    58         44
    59         58
    60         85
    61          8
    63          4
    64         16
    65         45
    66         10
    67         58
    68         62
    69         55
    70         65
    71         28
    72        195
    73        140
    74         20
    75         17
    76          7
    77          3
    78         39
    79         97
    80         24
    81         69
    82        175
    83        177
    84        815
    85         96
    86        114
    87         73
    88         24
    89         19
    93          3
    94          5
    95          9
    96         99
    97         22
    98         47
    99         84
   100        486
   101        137
   102         19
   103          5
   107          5
   108          6
   109          6
   110         19
   111         15
   112        100
   113        142
   114         38
   115         38
   116         10
   117          6
   118          7
   120          4
   121          4
   122          9
   123          8
   124         10
   125         30
   126        155
   127         99
   128         27
   129         14
   130         16
   131         27
   135          6
   136          8
   137         12
   138         60
   139         13
   140         74
   141         19
   142          4
   143         18
   144         22
   145         17
   148          3
   149          5
   150          3
   152          5
   153         12
   154         22
   155         53
   156         12
   157          5
   158         24
   159         14
   160         13
   161          4
   165         97
   166         82
   167         15
   168         16
   169          7
   170          4
   171          6
   172          8
   173          7
   181         27
   182          6
   183        136
   184         52
   185         12
   186          5
   199          6
   200         37
   201         13
   207          4
   211          3
   214          5
   218          5
   224         11
   225         16
   226          7
   227          8
   242         28
   243         10
   244          6
   260          8
   265          3
   266          2
   267          6
   283          6
   284          5
   314          4