##TITLE=Library Entry 97292
##JCAMP-DX=Revision 4.10 
##DATA TYPE=MASS SPECTRUM
##SAMPLE DESCRIPTION=D.HENNEBERG, MAX-PLANCK INSTITUTE, MULHEIM, WEST GERMAN
Y
##NAMES=HP
##CAS NAME=Benzene, cyclopentyl-
##MOLFORM=C11H14
##CAS REGISTRY NO=700-88-9
##MP= -300
##BP= -300
##MW= 146
##$RETENTION INDEX=1212
##$CONDENSED SPECTRUM=NO
##NPOINTS= 92
##XYDATA=(XY..XY) 1 
    23          0
    25          0
    26          7
    27         43
    29         13
    37          3
    38          7
    39        150
    40          9
    41         68
    42         10
    43          9
    44          2
    45          0
    49          3
    50         32
    51         97
    52         35
    53         12
    54          2
    55         23
    56          3
    57          7
    58          9
    60          3
    61          0
    62         13
    63         58
    64         25
    65         86
    66         12
    67         13
    68        106
    69          0
    71          6
    72          5
    73          1
    74          7
    75         10
    76         12
    77        104
    78        136
    80          6
    84          7
    85          1
    86          3
    87          3
    88          5
    89         29
    90         10
    91        427
    92        137
    93          0
    95          2
    96          0
    97          1
    98          1
    99          1
   102         25
   103         96
   104        861
   105        213
   106         10
   110          0
   112          2
   113          5
   114          3
   115        157
   116         62
   117        999
   118        214
   119         18
   122          2
   125          0
   126          6
   127         10
   128         30
   129         15
   130          4
   131        120
   132          6
   136          0
   138          1
   139          3
   140          1
   141          7
   142          4
   143          4
   144          3
   145         41
   146        577
   147         75