##TITLE=Library Entry 35341
##JCAMP-DX=Revision 4.10 
##DATA TYPE=MASS SPECTRUM
##SAMPLE DESCRIPTION=V. KOVACIK, INST. CHEM., SLOVAK ACAD. SCI., BRATISLAVA,
 CZECH.
##NAMES=HP
##CAS NAME=Methyl 2,3-di-O-acetyl-.beta.-D-xylopyranoside
##MOLFORM=C10H16O7
##CAS REGISTRY NO=70003-50-8
##MP= -300
##BP= -300
##MW= 248
##$RETENTION INDEX=0
##$CONDENSED SPECTRUM=NO
##NPOINTS= 33
##XYDATA=(XY..XY) 1 
    57        200
    58         50
    60        220
    61        300
    68        350
    69        999
    71        100
    73        430
    74        500
    85        300
    86        370
    87        390
    97        110
    99        110
   100        220
   102        390
   103        200
   114        410
   115        370
   116         60
   126         40
   128        170
   129        150
   142        100
   143         40
   144         30
   145         40
   156         30
   157        140
   158         50
   170         60
   187         10
   217         20