##TITLE=Library Entry 62194
##JCAMP-DX=Revision 4.10 
##DATA TYPE=MASS SPECTRUM
##SAMPLE DESCRIPTION=V.Zaikin,Topchiev Inst.Petrochem.Synth.,Moscow
##NAMES=HP
##CAS NAME=Benzeneacetic acid, octadecyl ester
##MOLFORM=C26H44O2
##CAS REGISTRY NO=70008-90-1
##MP= -300
##BP= -300
##MW= 388
##$RETENTION INDEX=0
##$CONDENSED SPECTRUM=NO
##NPOINTS= 106
##XYDATA=(XY..XY) 1 
    27         36
    28         11
    29         40
    36          4
    37          3
    38          6
    39         61
    40          6
    41        316
    42         90
    43        554
    44         29
    45          4
    49          4
    50          7
    51         20
    52         10
    53         22
    54         32
    55        368
    56        119
    57        587
    58         25
    62          5
    63         24
    64          6
    65        102
    66          7
    67         52
    68         46
    69        207
    70         94
    71        358
    72         19
    77          9
    78          8
    79         13
    80          3
    81         30
    82         42
    83        149
    84         42
    85        217
    86          9
    89         34
    90         44
    91        999
    92        204
    93          8
    94          8
    95         10
    96         19
    97        120
    98         17
    99         34
   100          6
   103          3
   105          7
   106          3
   107          3
   109          6
   110         10
   111         58
   112         19
   113         23
   114          3
   118         23
   119         36
   120          3
   124          7
   125         11
   126          9
   127         12
   129          2
   131          3
   135          6
   136        760
   137        419
   138         37
   139          9
   140          5
   141          7
   147          2
   149          5
   152          3
   153          5
   154          4
   166          2
   167          4
   168          6
   182          2
   196          3
   208          3
   224         10
   249          2
   252         16
   253          4
   266          4
   268          3
   294          3
   295          3
   297        135
   298         35
   388        124
   389         34
   390          6