##TITLE=Library Entry 6855
##JCAMP-DX=Revision 4.10 
##DATA TYPE=MASS SPECTRUM
##SAMPLE DESCRIPTION=Institute of Organic Chemistry, Novosibirsk, USSR 1988
##NAMES=HP
##CAS NAME=Methyl 2-methoxypropenoate
##MOLFORM=C5H8O3
##CAS REGISTRY NO=7001-18-5
##MP= -300
##BP= -300
##MW= 116
##$RETENTION INDEX=0
##$CONDENSED SPECTRUM=NO
##NPOINTS= 43
##XYDATA=(XY..XY) 1 
    31         53
    33          6
    37          5
    38         10
    39         48
    40         15
    41         48
    42        113
    43        999
    44         36
    45        589
    46         13
    53         30
    54         19
    55        105
    56         48
    57        542
    58         72
    59        139
    60          6
    61          5
    68          2
    69         16
    70          0
    71          3
    72          2
    73         18
    74          2
    83          0
    84         19
    85        256
    86         45
    87          8
    88          6
    89          2
    98          2
    99          3
   100          7
   101         68
   102          8
   115          5
   116          9
   117          4