##TITLE=Library Entry 24968
##JCAMP-DX=Revision 4.10 
##DATA TYPE=MASS SPECTRUM
##SAMPLE DESCRIPTION=Asinex Ltd, Moscow, Russia
##NAMES=HP
##CAS NAME=2,2-Dimethyl-N-[2,2,2-trichloro-1-(2,4,6-trichloro-phenylamino)-e
thyl]-propionamide
##MOLFORM=C13H14Cl6N2O
##CAS REGISTRY NO=70023-83-5
##MP= -300
##BP= -300
##MW= 424
##$RETENTION INDEX=0
##$CONDENSED SPECTRUM=NO
##NPOINTS= 35
##XYDATA=(XY..XY) 1 
    39          3
    40          6
    41        199
    42         55
    43         18
    44          8
    45          1
    55          6
    56         12
    57        999
    58        342
    59          3
    69          9
    83         13
    84          0
    85         77
    86         27
    97          0
   111          3
   195        111
   196         29
   197         95
   198         22
   199         19
   200          0
   221          0
   223         12
   225          4
   226          0
   307         63
   308         20
   309         76
   310         18
   311         10
   312          0