##TITLE=Library Entry 57400
##JCAMP-DX=Revision 4.10 
##DATA TYPE=MASS SPECTRUM
##SAMPLE DESCRIPTION=L. HUIBREGTSE-MINDERHOUD, JAN VAN BEAUMONTSTRAAT, GOUDA
, NET
##NAMES=HP
##CAS NAME=Methyl 7-ethyl-10-(heptafluorobutyryloxy)-11-methoxy-3,11-dimethy
l-2,6-tridecadienoate
##MOLFORM=C23H33F7O5
##CAS REGISTRY NO=70028-64-7
##MP= -300
##BP= -300
##MW= 522
##$RETENTION INDEX=0
##$CONDENSED SPECTRUM=NO
##NPOINTS= 17
##XYDATA=(XY..XY) 1 
    85        600
    87        999
    99        350
   107        320
   114        230
   121        160
   135        170
   149        130
   163        250
   178         80
   217         60
   279        140
   308         10
   463          2
   490          2
   493          3
   522          2