##TITLE=Library Entry 9872
##JCAMP-DX=Revision 4.10 
##DATA TYPE=MASS SPECTRUM
##SAMPLE DESCRIPTION=Chemical Concepts
##NAMES=HP
##CAS NAME=1,2-Ethanediamine, N,N'-didodecanoyl-
##MOLFORM=C26H52N2O2
##CAS REGISTRY NO=7003-56-7
##MP= -300
##BP= -300
##MW= 424
##$RETENTION INDEX=0
##$CONDENSED SPECTRUM=NO
##NPOINTS= 226
##XYDATA=(XY..XY) 1 
    26         15
    27        133
    28         15
    29        256
    30        328
    31         10
    39         55
    40         17
    41        409
    42        133
    43        999
    44        390
    45         25
    46          4
    50          1
    51          3
    52          6
    53         29
    54         84
    55        444
    56        127
    57        458
    58         54
    59         83
    60         23
    61         45
    65          3
    66          3
    67         51
    68         33
    69        133
    70         87
    71        141
    72         47
    73        247
    74         11
    77          5
    79         12
    80          7
    81         42
    82         68
    83        174
    84        379
    85        495
    86        217
    87        140
    88          9
    91          2
    93          7
    94          7
    95         56
    96         63
    97        285
    98        306
    99         69
   100         76
   101         18
   102         18
   103         39
   104          1
   105          1
   106          1
   107          6
   108          6
   109         36
   110         58
   111         93
   112         77
   113         21
   114         17
   115         40
   116          4
   121          6
   122          5
   123         26
   124         41
   125         49
   126        254
   127         27
   128         43
   129         20
   130          1
   131          0
   135          2
   136          3
   137         17
   138         33
   139        249
   140         86
   141         20
   142         39
   143         10
   144        132
   145         10
   149         10
   150          2
   151          9
   152         18
   153         69
   154         48
   155         10
   156         24
   157        148
   158         18
   159          2
   163          2
   165          8
   166          8
   167         30
   168         41
   169          8
   170         27
   171         22
   172          3
   179          7
   180          9
   181         41
   182         60
   183        215
   184         51
   185         11
   186          8
   190          3
   193          5
   194          7
   195         35
   196         37
   197         29
   198         13
   199         32
   200        322
   201         43
   202          3
   208         11
   209         23
   210         21
   211          8
   212         33
   213        162
   214         35
   215          4
   220          3
   221          5
   222          5
   223        145
   224        135
   225        377
   226        239
   227         49
   228         10
   230          3
   237          9
   238          4
   240          3
   241         74
   242         17
   243         58
   244          8
   249          2
   251         64
   252         13
   253          3
   255         20
   256          2
   261          2
   262          2
   263          1
   264          2
   265          7
   266        217
   267         44
   268          5
   269         18
   270          3
   277          2
   279        172
   280         38
   284        344
   285         69
   286          6
   290          3
   293         15
   294          4
   297        111
   298         24
   300          3
   307          6
   308          8
   311         15
   312          2
   320          2
   321         24
   322          8
   325         12
   326          6
   335         12
   336          4
   339         20
   340          6
   349         10
   350          4
   353         13
   354          4
   363          9
   364          3
   367          7
   368          2
   377         10
   378          3
   380          4
   381         12
   382          4
   391          5
   395         11
   396          2
   400          3
   405         11
   406         64
   407         16
   409          5
   410          5
   420          3
   423         10
   424         86
   425         27
   426          4