##TITLE=Library Entry 813
##JCAMP-DX=Revision 4.10 
##DATA TYPE=MASS SPECTRUM
##SAMPLE DESCRIPTION=Humboldt-Universitat zu Berlin, Department of Chemistry
, Analytical Group
##NAMES=HP
##CAS NAME=Propanedioic acid, [[(3-chloro-4-fluorophenyl)amino]methylene]-,
 diethyl ester
##MOLFORM=C14H15ClFNO4
##CAS REGISTRY NO=70032-30-3
##MP= -300
##BP= -300
##MW= 315
##$RETENTION INDEX=0
##$CONDENSED SPECTRUM=NO
##NPOINTS= 211
##XYDATA=(XY..XY) 1 
    12          3
    14          9
    15         52
    16         12
    17         68
    18        229
    19         15
    20          3
    25          2
    26         40
    27        368
    28        131
    29        999
    30         34
    31         43
    32          5
    33          5
    35          3
    36          7
    37          4
    38          9
    39         15
    40         12
    41         30
    42         26
    43         57
    44         18
    45         52
    46          4
    47          9
    49          3
    50         17
    51         10
    52         13
    53        184
    54         15
    55         15
    56         12
    57         51
    58          5
    59          2
    60          3
    61          7
    62         17
    63         29
    64          7
    65          4
    67         17
    68         29
    69        112
    70         18
    71         32
    72          4
    73          9
    74         21
    75         30
    76          6
    77          2
    78          4
    79          3
    80          7
    81         42
    82         34
    83         30
    84          8
    85          8
    86         14
    87         18
    88          9
    89         11
    90          5
    91         16
    92          5
    93         45
    94         62
    95         36
    96          8
    97         17
    98          6
    99          9
   100          4
   101          4
   102          5
   103          7
   104          5
   105         11
   106         15
   107        170
   108         67
   109         87
   110         24
   111         34
   112          7
   113         11
   114         10
   115         26
   116          6
   117         49
   118         12
   119         18
   120         10
   121         13
   122         11
   123          9
   124          3
   125         19
   126          5
   127          5
   129        204
   130         29
   131         66
   132         42
   133         31
   134         87
   135         90
   136         11
   137          3
   138          4
   139          2
   141         44
   142         37
   143         44
   144         23
   145        239
   146         23
   147         77
   148         13
   149          8
   150         16
   151          7
   152          4
   153          2
   154          8
   155         15
   156        182
   157         33
   158         61
   159         12
   160         20
   161         25
   162         38
   163         18
   164          3
   166          1
   167          5
   168         72
   169        183
   170         51
   171         80
   172         18
   173          6
   174          5
   175          2
   176          2
   177          3
   178          9
   179          7
   180          7
   181          2
   182         15
   183          2
   184         23
   185         13
   186          7
   187          5
   188         34
   189          6
   190          3
   194          1
   195         38
   196        406
   197         95
   198        158
   199         32
   200         12
   201          2
   206         11
   207          2
   208          1
   210          1
   211          1
   213        367
   214         43
   215        118
   216         14
   217          1
   222          2
   223          5
   224         59
   225          9
   226         60
   227          7
   228         14
   229          2
   234          2
   240          6
   241         16
   242         13
   243          8
   244          3
   245          1
   269        236
   270         82
   271         84
   272         26
   273          3
   315         97
   316         16
   317         33
   318          5
   319          0