##TITLE=Library Entry 64809
##JCAMP-DX=Revision 4.10 
##DATA TYPE=MASS SPECTRUM
##SAMPLE DESCRIPTION=Japan AIST/NIMC Database- Spectrum MS-IW-3203
##NAMES=HP
##CAS NAME=2-(3-Benzyloxy-4-methoxyphenyl)-3-hydroxy-4H-chromen-4-one
##MOLFORM=C23H18O5
##CAS REGISTRY NO=70056-09-6
##MP= -300
##BP= -300
##MW= 374
##$RETENTION INDEX=0
##$CONDENSED SPECTRUM=NO
##NPOINTS= 176
##XYDATA=(XY..XY) 1 
    17          2
    18          8
    27          1
    28          3
    29          1
    38          2
    39         16
    40          1
    41          4
    43          1
    50          8
    51         15
    52          4
    53          5
    55          3
    62          4
    63         19
    64          9
    65         62
    66          5
    67          1
    69          1
    74          2
    75          6
    76         15
    77         18
    78          3
    79          7
    80          1
    87          1
    88          1
    89          9
    90          6
    91        999
    92         96
    93         11
    94          1
    95          1
   101          3
   102          8
   103          2
   104          8
   105         14
   106          4
   107          2
   112          3
   113          1
   114          1
   115          5
   119          3
   120         11
   121         35
   122          4
   123          1
   126          3
   127          7
   128         10
   129          3
   130          1
   131          1
   133          4
   134          1
   135          2
   137          1
   138          1
   139          7
   140          2
   141          5
   142          2
   149          2
   150          1
   151          5
   152          5
   153          3
   154          1
   155          5
   156          2
   157          4
   158          2
   161          1
   163          1
   165          3
   167          1
   168          5
   169          3
   170          1
   171          3
   179          1
   181          5
   182          1
   183          3
   184         16
   185          6
   186          8
   187          2
   193          1
   195          3
   196          4
   197          8
   198          2
   199          3
   200          2
   207          1
   208          3
   209          3
   210          1
   211         23
   212         27
   213          9
   214          1
   223          6
   224          7
   225         17
   226          6
   227         19
   228          3
   235          1
   236          1
   237          6
   238          4
   239          4
   240          5
   241         10
   242          2
   251          3
   252         12
   253         18
   254          6
   255         33
   256         29
   257          5
   265          7
   266          5
   267          3
   268          5
   269         24
   270          5
   271          1
   279          3
   280          1
   281          5
   282         10
   283        121
   284         74
   285         12
   286          2
   295          1
   296          1
   297          1
   300          1
   313          1
   314          1
   315          3
   316          1
   327          1
   328          1
   331          1
   339          3
   340          1
   341          2
   342          1
   343          1
   344          2
   345          8
   346          3
   355          2
   356          4
   357         61
   358         14
   359          3
   372          1
   373          5
   374        309
   375         77
   376         12
   377          1