##TITLE=Library Entry 48766
##JCAMP-DX=Revision 4.10 
##DATA TYPE=MASS SPECTRUM
##SAMPLE DESCRIPTION=A.Pleshkova, Nesmeyanov Inst.Org.Elem.Cpds, Moscow
##NAMES=HP
##CAS NAME=2-Methyl-1-nonene-3-yne
##MOLFORM=C10H16
##CAS REGISTRY NO=70058-00-3
##MP= -300
##BP= -300
##MW= 136
##$RETENTION INDEX=0
##$CONDENSED SPECTRUM=NO
##NPOINTS= 44
##XYDATA=(XY..XY) 1 
    27        200
    28         40
    29        320
    30          7
    39        210
    40         50
    41        320
    42         40
    43        120
    44          4
    50         60
    51        120
    52         70
    53        150
    54         20
    55         15
    57         40
    63         70
    64         30
    65        120
    66        130
    67        140
    68         40
    77        450
    78         80
    79        999
    80        160
    81        200
    82         20
    91        320
    92         50
    93        450
    94        100
    95         50
   105         80
   107        230
   108         60
   109          3
   121        280
   122         50
   123          2
   136        220
   137         30
   138          1