##TITLE=Library Entry 55925
##JCAMP-DX=Revision 4.10 
##DATA TYPE=MASS SPECTRUM
##SAMPLE DESCRIPTION=RADIAN CORP
##NAMES=HP
##CAS NAME=1-Propanol, 2-(dimethylamino)-2-methyl-
##MOLFORM=C6H15NO
##CAS REGISTRY NO=7005-47-2
##MP= -300
##BP= -300
##MW= 117
##$RETENTION INDEX=0
##$CONDENSED SPECTRUM=NO
##NPOINTS= 28
##XYDATA=(XY..XY) 1 
    15         14
    27         19
    28         24
    29         33
    30         25
    31         43
    39         35
    40          4
    41         43
    42         98
    43         41
    44        189
    45         22
    46         31
    54         11
    55         45
    56        202
    57         21
    58         48
    70         69
    71         89
    72         99
    73          5
    84         42
    85         20
    86        999
    87         66
   102         21