##TITLE=Library Entry 100106
##JCAMP-DX=Revision 4.10 
##DATA TYPE=MASS SPECTRUM
##SAMPLE DESCRIPTION=Chemical Concepts
##NAMES=HP
##CAS NAME=6-(3-Oxo[1,4]dithiepan-2-yl)hexanal
##MOLFORM=C11H18O2S2
##CAS REGISTRY NO=70068-04-1
##MP= -300
##BP= -300
##MW= 246
##$RETENTION INDEX=0
##$CONDENSED SPECTRUM=NO
##NPOINTS= 131
##XYDATA=(XY..XY) 1 
    26          6
    27        124
    28          6
    29        112
    31         10
    35          3
    37          2
    38          4
    39        111
    40         14
    41        282
    42         38
    43         62
    44         16
    45        168
    46         80
    47         78
    48          5
    49          3
    50          2
    51          9
    52          4
    53         39
    54         18
    55        198
    56         19
    57         26
    58         22
    59         67
    60         76
    61         45
    62          4
    63          3
    64         39
    65         19
    66         14
    67        105
    68         27
    69         42
    70          9
    71         35
    72         25
    73        136
    74        166
    75         74
    76         13
    77         21
    78         25
    79         32
    80          6
    81         78
    82         38
    83         53
    84         27
    85         51
    86          9
    87         95
    88         11
    89          8
    90          2
    91         28
    92          5
    93         37
    94          8
    95         13
    96          6
    97         27
    98          9
    99         23
   100         19
   101         18
   102          3
   103          6
   104          2
   105         24
   106        923
   107        116
   108        101
   109         18
   110         16
   111         72
   112        130
   113         17
   114          3
   115         78
   116         18
   117         21
   118          4
   119        999
   120         62
   121        107
   122          6
   123          5
   125         15
   126          6
   127         15
   128          3
   129          5
   131          4
   132          7
   133         53
   134         23
   135          8
   136          3
   137          3
   139          5
   140          3
   141          7
   143         38
   144         13
   145         32
   146          4
   147         17
   148          6
   174          5
   175          3
   189          9
   190         16
   191          3
   192          2
   197          5
   198          2
   200          2
   218        240
   219         36
   220         26
   221          3
   245          7
   246        142
   247         23
   248         14