##TITLE=Library Entry 98988
##JCAMP-DX=Revision 4.10 
##DATA TYPE=MASS SPECTRUM
##SAMPLE DESCRIPTION=Chemical Concepts
##NAMES=HP
##CAS NAME=1,4-Dithiepan-2-one, 3-phenyl-
##MOLFORM=C11H12OS2
##CAS REGISTRY NO=70068-10-9
##MP= -300
##BP= -300
##MW= 224
##$RETENTION INDEX=0
##$CONDENSED SPECTRUM=NO
##NPOINTS= 158
##XYDATA=(XY..XY) 1 
    26          2
    27         10
    28         21
    29          6
    30          0
    31          1
    34          1
    35          1
    36          2
    37          1
    38          3
    39         28
    40          4
    41         57
    42          7
    43         15
    44          7
    45         85
    46         16
    47         17
    48          2
    49          1
    50         24
    51         90
    52          7
    53          2
    54          1
    55         13
    56          5
    57         12
    58          5
    59         20
    60          3
    61          7
    62          8
    63          9
    64          5
    65          6
    66          1
    67          3
    68          1
    69          7
    70          3
    71          9
    72          4
    73         30
    74         13
    75         67
    76         16
    77        238
    78         27
    79          6
    80          1
    81          6
    82          2
    83          5
    84          2
    85         41
    86          7
    87          6
    88          1
    89         11
    90         10
    91         42
    92          4
    93          5
    94          3
    95          4
    96          2
    97          4
    98          2
    99          2
   100          1
   101          3
   102          4
   103          3
   105        172
   106         25
   107          4
   108          3
   109          3
   110          3
   111          2
   112          1
   113          2
   114          1
   115          4
   116          1
   117          2
   118          5
   119        999
   120         89
   121        125
   122         10
   123          5
   124          1
   125          2
   126          1
   127          1
   128          2
   129          3
   130          1
   131          2
   132          1
   133          2
   134          4
   135          4
   136          1
   137          2
   138          1
   139          1
   140          1
   141          3
   142          1
   143          1
   144          1
   145          1
   146          1
   147          1
   148          1
   149         45
   150          9
   151          4
   152          2
   153          2
   154          1
   155          1
   157          1
   158          1
   159          2
   160          1
   161          1
   162          1
   163          2
   164          1
   165          1
   166          1
   167          2
   168          1
   169          1
   177          1
   178          1
   179          3
   180          1
   181          1
   182          1
   190          3
   203          2
   204          1
   205          3
   221          5
   222          2
   223          4
   224         82
   225         12
   226          8
   227          2
   228          1