##TITLE=Library Entry 69437
##JCAMP-DX=Revision 4.10 
##DATA TYPE=MASS SPECTRUM
##SAMPLE DESCRIPTION=Japan AIST/NIMC Database- Spectrum MS-IW- 948
##NAMES=HP
##CAS NAME=Pentapiperide
##MOLFORM=C18H27NO2
##CAS REGISTRY NO=7009-54-3
##MP= -300
##BP= -300
##MW= 289
##$RETENTION INDEX=0
##$CONDENSED SPECTRUM=NO
##NPOINTS= 108
##XYDATA=(XY..XY) 1 
    15          5
    25          3
    26         21
    27         50
    28         13
    29         31
    30          9
    39         12
    40          1
    41         30
    42         66
    43         50
    44         62
    45         53
    46          5
    50          1
    51          4
    52          2
    53         31
    54         17
    55        107
    56         12
    57         37
    58         12
    59          1
    60          2
    63          2
    65          8
    66          1
    67          6
    68         11
    69         14
    70         58
    71         31
    72         14
    73          1
    77          7
    78          3
    79          9
    80          3
    81         24
    82        158
    83         12
    84          3
    85          2
    86          8
    87          1
    88         53
    89          6
    90          9
    91        110
    92          9
    93          1
    94         13
    95          7
    96        999
    97        562
    98        412
    99         54
   100          3
   102          1
   103          3
   104          1
   105         44
   106          4
   107          1
   109          1
   111          1
   112          2
   113          1
   114        170
   115         26
   116         48
   117         13
   118         19
   119          2
   127          1
   128          1
   129          1
   131          3
   135          1
   136         42
   137          5
   145          4
   146          1
   147         10
   148          1
   149          2
   170          2
   174          9
   175          1
   184          2
   185          1
   192          2
   193          1
   205          1
   211          1
   232          1
   233         88
   234         13
   235          1
   260          8
   261          1
   274          1
   288          4
   289        307
   290         65
   291          8