##TITLE=Library Entry 67034
##JCAMP-DX=Revision 4.10 
##DATA TYPE=MASS SPECTRUM
##SAMPLE DESCRIPTION=Japan AIST/NIMC Database- Spectrum MS-NW-1890
##NAMES=HP
##CAS NAME=Phenylphosphoric acid
##MOLFORM=C6H7O4P
##CAS REGISTRY NO=701-64-4
##MP= -300
##BP= -300
##MW= 174
##$RETENTION INDEX=0
##$CONDENSED SPECTRUM=NO
##NPOINTS= 76
##XYDATA=(XY..XY) 1 
    14          1
    15          1
    16          1
    17          3
    18          9
    25          1
    26          9
    27         23
    28         10
    29          8
    31          8
    32          3
    36          2
    37         22
    38         48
    39        175
    40         80
    41          5
    42          5
    43          4
    44          1
    46          3
    47         20
    48          1
    49          7
    50         54
    51         63
    52          9
    53         18
    54          3
    55         52
    56          1
    60          2
    61         11
    62         20
    63         43
    64         18
    65        172
    66        210
    67         11
    68          7
    69          9
    73          4
    74         17
    75         10
    76         14
    77         33
    78          9
    79          5
    80          1
    81         25
    82          1
    90          1
    92          4
    93         16
    94        999
    95         66
    96          4
    98          4
    99          1
   100          2
   109          4
   119          2
   128          1
   131          2
   139          1
   140          1
   141          1
   155          1
   156          8
   157          1
   158         32
   159          2
   174        145
   175          9
   176          1