##TITLE=Library Entry 94653
##JCAMP-DX=Revision 4.10 
##DATA TYPE=MASS SPECTRUM
##SAMPLE DESCRIPTION=A.A.Kutin, Moscow, Russia
##NAMES=HP
##CAS NAME=9,9-Dichloro-bicyclo[6.1.0]nona-2,4,6-triene
##MOLFORM=C9H8Cl2
##CAS REGISTRY NO=701-25-7
##MP= -300
##BP= -300
##MW= 186
##$RETENTION INDEX=0
##$CONDENSED SPECTRUM=NO
##NPOINTS= 81
##XYDATA=(XY..XY) 1 
    33          1
    34          0
    35          9
    36         15
    37         23
    38         42
    39         94
    40         17
    41          5
    42          0
    43          6
    44         17
    45          0
    47          3
    48          2
    49         16
    50         62
    51         63
    52         18
    53          2
    55          7
    56         15
    57        147
    59          0
    60          8
    61         25
    62         54
    63        103
    64         18
    65         32
    66          2
    71          0
    73         54
    74         36
    75         60
    76         18
    77         18
    78         21
    79          1
    83          1
    84          3
    85         13
    86         19
    87         31
    88         18
    89         64
    90          8
    91         25
    92          1
    96          1
    97          5
    98          2
    99         10
   100          1
   101          4
   102          3
   103          0
   109          3
   110          6
   111          8
   112         14
   113         41
   115        999
   116        156
   117         12
   123          5
   125          8
   127          1
   136          1
   147          0
   149         62
   150         85
   151        202
   152         47
   153         57
   154          5
   184          2
   186         99
   188         70
   189          5
   190          8