##TITLE=Library Entry 69809
##JCAMP-DX=Revision 4.10 
##DATA TYPE=MASS SPECTRUM
##SAMPLE DESCRIPTION=Japan AIST/NIMC Database- Spectrum MS-NW-2809
##NAMES=HP
##CAS NAME=Cyclohexanepropanoic acid
##MOLFORM=C9H16O2
##CAS REGISTRY NO=701-97-3
##MP= -300
##BP= -300
##MW= 156
##$RETENTION INDEX=0
##$CONDENSED SPECTRUM=NO
##NPOINTS= 89
##XYDATA=(XY..XY) 1 
    14          2
    15          4
    17          1
    18          4
    26          4
    27         69
    28         31
    29         62
    30          5
    31          4
    32          1
    37          1
    38          3
    39         81
    40         12
    41        252
    42         34
    43         30
    44          2
    45         25
    46          1
    47          1
    50          5
    51          9
    52          5
    53         38
    54         59
    55        601
    56         40
    57         11
    58          4
    59          3
    60        160
    61         27
    62          2
    63          2
    65          8
    66          7
    67        109
    68         65
    69         57
    70          5
    71         13
    72          2
    73        240
    74        116
    75          7
    76          1
    77          9
    78          3
    79         19
    80          7
    81        110
    82         27
    83        200
    84         15
    85          2
    86          1
    87          7
    88          1
    91          6
    92          3
    93          8
    94         44
    95         35
    96         79
    97        999
    98         76
    99          4
   100          3
   101          1
   105          1
   107          1
   109         11
   110         11
   111          2
   113          2
   114          2
   119          3
   120         12
   121          5
   123          1
   127         43
   128          7
   137          5
   138         26
   139          6
   156          5
   157          1