##TITLE=Library Entry 65157
##JCAMP-DX=Revision 4.10 
##DATA TYPE=MASS SPECTRUM
##SAMPLE DESCRIPTION=Chemical Concepts
##NAMES=HP
##CAS NAME=Benzeneethanol, .alpha.-ethyl-
##MOLFORM=C10H14O
##CAS REGISTRY NO=701-70-2
##MP= -300
##BP= -300
##MW= 150
##$RETENTION INDEX=1232
##$CONDENSED SPECTRUM=NO
##NPOINTS= 97
##XYDATA=(XY..XY) 1 
    26          7
    27         28
    28         20
    29         44
    30          2
    31        162
    33          0
    34          0
    36          0
    37          1
    38          5
    39         41
    40         25
    41         69
    42          4
    43         70
    44          2
    45          4
    46          0
    48          0
    49          0
    50         12
    51         27
    52          7
    53          5
    54          0
    55          3
    56          0
    57         26
    58         28
    59        198
    60          7
    61          1
    62          4
    63         19
    64          5
    65         68
    66          6
    67          0
    69          1
    70          0
    71          0
    72          0
    73          3
    74          2
    75          3
    76          3
    77         39
    78         11
    79         18
    80          0
    81          0
    83          1
    84          0
    85          0
    86          0
    87          0
    88          0
    89         11
    90          6
    91        396
    92        999
    93         65
    94          2
    95          0
    97          0
    98          2
   101          0
   102          3
   103         52
   104          7
   105          2
   106          1
   107          1
   115          5
   116          1
   117          5
   118          1
   119          0
   120          2
   121         45
   122          4
   126          0
   127          0
   128          2
   129          1
   130          0
   131          2
   132          1
   133          1
   134          0
   135          0
   147          2
   148          0
   149          1
   150          9
   151          1