##TITLE=Library Entry 59463
##JCAMP-DX=Revision 4.10 
##DATA TYPE=MASS SPECTRUM
##SAMPLE DESCRIPTION=RADIAN CORP
##NAMES=HP
##CAS NAME=Silane, trichloro(4-methylphenyl)-
##MOLFORM=C7H7Cl3Si
##CAS REGISTRY NO=701-35-9
##MP= -300
##BP= -300
##MW= 224
##$RETENTION INDEX=0
##$CONDENSED SPECTRUM=NO
##NPOINTS= 38
##XYDATA=(XY..XY) 1 
    18          3
    27         14
    37          3
    38         28
    39        171
    40          6
    41         21
    50         64
    51         50
    52          9
    53         20
    61          8
    62         56
    63        283
    64         35
    65        216
    66          8
    74          8
    75          7
    77          3
    86          7
    87          3
    89        105
    90         33
    91        999
    92         62
    98         29
   100         19
   123          3
   125         11
   133        112
   135        120
   137         34
   189          5
   224         40
   225          3
   226         45
   228         13