##TITLE=Library Entry 85843
##JCAMP-DX=Revision 4.10 
##DATA TYPE=MASS SPECTRUM
##SAMPLE DESCRIPTION=Japan AIST/NIMC Database- Spectrum MS-NW-4727
##NAMES=HP
##CAS NAME=1-(3-Hydroxyphenyl)urea
##MOLFORM=C7H8N2O2
##CAS REGISTRY NO=701-82-6
##MP= -300
##BP= -300
##MW= 152
##$RETENTION INDEX=0
##$CONDENSED SPECTRUM=NO
##NPOINTS= 80
##XYDATA=(XY..XY) 1 
    12          1
    14          2
    15          9
    16         15
    17         21
    18         32
    26         12
    27         65
    28         44
    29         36
    30          6
    31          2
    37         11
    38         37
    39        105
    40         34
    41         48
    42         40
    43        166
    44         73
    45          2
    49          3
    50         23
    51         54
    52        103
    53        127
    54         46
    55         22
    56          3
    57          1
    60          1
    61          6
    62         16
    63         46
    64         44
    65         47
    66         20
    67         12
    68         56
    69         13
    70          9
    73          1
    74          3
    75          4
    76          6
    77          4
    78         20
    79         42
    80        344
    81        188
    82         64
    83          6
    88          2
    89          4
    90          5
    91         29
    92          9
    93          7
    94          9
    95          2
    96          2
   105          1
   106         11
   107         19
   108         51
   109        999
   110         72
   111          5
   123          7
   124          1
   125          4
   127          1
   134          5
   135        145
   136         13
   137          1
   151          2
   152        250
   153         23
   154          2