##TITLE=Library Entry 83535
##JCAMP-DX=Revision 4.10 
##DATA TYPE=MASS SPECTRUM
##SAMPLE DESCRIPTION=Japan AIST/NIMC Database- Spectrum MS-NW-2942
##NAMES=HP
##CAS NAME=Acetyl chloride, phenoxy-
##MOLFORM=C8H7ClO2
##CAS REGISTRY NO=701-99-5
##MP= -300
##BP= -300
##MW= 170
##$RETENTION INDEX=0
##$CONDENSED SPECTRUM=NO
##NPOINTS= 75
##XYDATA=(XY..XY) 1 
    13          3
    14         13
    18          1
    25          1
    26          8
    27         18
    28         23
    29         10
    30          3
    31          2
    35          3
    36         13
    37         11
    38         31
    39        115
    40          8
    41          3
    42         23
    43          1
    44          4
    48          1
    49         24
    50         59
    51        178
    52         13
    53         28
    54          2
    55          3
    60          1
    61          6
    62         10
    63         29
    64         15
    65        111
    66         17
    67          1
    73          3
    74         13
    75         11
    76         17
    77        702
    78         56
    79        165
    80         10
    89          1
    91          7
    92          4
    93         10
    94         96
    95          7
   100          2
   105         11
   106          4
   107        999
   108         75
   109          5
   111          2
   112          8
   113          1
   114          3
   119         12
   120          1
   128          1
   134          4
   136          1
   141          2
   142          8
   143          1
   144          3
   152          1
   154          1
   170        356
   171         29
   172        116
   173          9