##TITLE=Library Entry 37279
##JCAMP-DX=Revision 4.10 
##DATA TYPE=MASS SPECTRUM
##SAMPLE DESCRIPTION=NIST Mass Spectrometry Data Center, 2010
##NAMES=HP
##CAS NAME=N(2),N(6)-Bis(dimethylaminomethylene)lysine methyl ester
##MOLFORM=C13H26N4O2
##CAS REGISTRY NO=70102-41-9
##MP= -300
##BP= -300
##MW= 270
##$RETENTION INDEX=2003
##$CONDENSED SPECTRUM=NO
##NPOINTS= 175
##XYDATA=(XY..XY) 1 
    15         18
    18          9
    20          1
    26          3
    27         16
    28         60
    29         18
    30         30
    31          5
    32          3
    33          1
    37          1
    38          1
    39         19
    40         10
    41         92
    42        392
    43         67
    44        748
    45         70
    46        220
    47          6
    49          1
    50          1
    51          3
    52          3
    53         15
    54         42
    55         57
    56         87
    57        193
    58        100
    59         30
    60          1
    63          1
    64          1
    65          8
    66          4
    67         46
    68         61
    69         61
    70        999
    71        157
    72        121
    73        145
    74         12
    75          1
    77          3
    78          2
    79          5
    80         20
    81         13
    82         50
    83         88
    84        174
    85        459
    86        214
    87         17
    88          9
    91          1
    92          3
    93          4
    94         37
    95         17
    96         38
    97        122
    98         77
    99        279
   100         46
   101          4
   102          1
   104          2
   105         13
   107          3
   108          5
   109         12
   110         19
   111        197
   112        333
   113         78
   114         35
   115         15
   116          2
   119          2
   120          2
   121          9
   122         12
   123         15
   124         12
   125         69
   126         11
   127        112
   128        513
   129         43
   130          3
   132          1
   133          1
   134          1
   135          2
   136          9
   137         26
   138         25
   139        342
   140         70
   141         23
   142         27
   143        132
   144         66
   145          6
   146          1
   147          1
   148          1
   149          2
   150          5
   151          5
   152          7
   153          6
   154         50
   155         10
   156         28
   157        128
   158         11
   159          1
   162          1
   164         17
   165         45
   166        103
   167         15
   168          6
   169         20
   170          7
   171         11
   172          2
   178          1
   179          1
   180          1
   181         29
   182          5
   183         12
   184          2
   185         12
   186          2
   192          3
   193          1
   194          1
   195          5
   196          2
   197          9
   198         51
   199        202
   200         74
   201          9
   202          1
   207          1
   209          1
   210          3
   211         89
   212         17
   213          2
   222          1
   223          1
   224          5
   225          3
   226         68
   227         10
   228          2
   238          1
   239          1
   253          1
   255          3
   256          1
   268          4
   270        548
   271         86
   272          8