##TITLE=Library Entry 16334
##JCAMP-DX=Revision 4.10 
##DATA TYPE=MASS SPECTRUM
##SAMPLE DESCRIPTION=H. MOEHRLE, INST. PHARM. CHEM., UNIV. DUSSELDORF, W. GE
R.
##NAMES=HP
##CAS NAME=5-(Hydroxyiminomethyl)-6-[(2-methylamino)ethyl]-1,3-benzodioxole
##MOLFORM=C11H14N2O3
##CAS REGISTRY NO=7010-80-2
##MP= -300
##BP= -300
##MW= 222
##$RETENTION INDEX=0
##$CONDENSED SPECTRUM=NO
##NPOINTS= 20
##XYDATA=(XY..XY) 1 
    44        999
    51         60
    63         90
    76        100
    77         60
    89         80
   104        120
   105        100
   106         80
   116         80
   130         70
   131         60
   161         80
   162        190
   163         70
   178        100
   179         50
   205         30
   222          0
   223          1