##TITLE=Library Entry 95157
##JCAMP-DX=Revision 4.10 
##DATA TYPE=MASS SPECTRUM
##SAMPLE DESCRIPTION=Chemical Concepts
##NAMES=HP
##CAS NAME=1,4-Methanonaphthalene-6-carboxylic acid, 2-hydroxy-1,2,3,4-tetra
hydro-, methyl ester
##MOLFORM=C13H14O3
##CAS REGISTRY NO=70113-86-9
##MP= -300
##BP= -300
##MW= 218
##$RETENTION INDEX=0
##$CONDENSED SPECTRUM=NO
##NPOINTS= 163
##XYDATA=(XY..XY) 1 
    26          4
    27         40
    29         65
    30          6
    31         53
    33          7
    37          2
    38         10
    39        106
    40         11
    41         33
    42         12
    43         67
    44         60
    45         16
    47          3
    49         42
    50         43
    51        110
    52         29
    53         33
    54          5
    55         26
    56          5
    57         15
    58         11
    59        213
    60          9
    61          8
    62         46
    63        170
    64         44
    65        115
    66         13
    67          7
    68          5
    69         12
    70         16
    71         11
    72          5
    73         17
    74         36
    75         77
    76         52
    77        137
    78         43
    79         15
    80          3
    81          6
    82          4
    83          5
    84          9
    85          5
    86         20
    87         44
    88         61
    89        192
    90         29
    91         88
    92         14
    93          8
    94          4
    95          4
    96          5
    97          7
    98         13
    99         10
   100          8
   101         37
   102        109
   103         71
   104         14
   105         28
   106          6
   107          4
   108          4
   109          4
   110          5
   111          8
   112          7
   113         83
   114        226
   115        999
   116        243
   117         64
   118         13
   119          9
   120          4
   121          7
   122          5
   123          4
   124          4
   125         11
   126         46
   127        231
   128        302
   129        398
   130        273
   131        144
   132         17
   133          5
   135          4
   137          4
   138          6
   139         52
   140         22
   141        106
   142        244
   143        432
   144        107
   145         38
   146         67
   147         31
   148          6
   149         11
   150          3
   151          2
   152          3
   153          4
   154          3
   155         40
   156         17
   157         60
   158         36
   159        102
   160         18
   161          7
   162          3
   163          2
   166          2
   167          3
   168          8
   169         50
   170          9
   171          7
   172          5
   173         53
   174        875
   175        212
   176         36
   177          6
   178          2
   182          3
   183          3
   184          3
   185         19
   186         31
   187        161
   188         30
   189         72
   190         24
   191          5
   199          7
   200         61
   201         17
   202          4
   203         10
   204          2
   216          2
   217          5
   218        213
   219         56
   220          7