##TITLE=Library Entry 96700
##JCAMP-DX=Revision 4.10 
##DATA TYPE=MASS SPECTRUM
##SAMPLE DESCRIPTION=NIST Mass Spectrometry Data Center
##NAMES=HP
##CAS NAME=L-Serine, 2TMS derivative
##MOLFORM=C9H23NO3Si2
##CAS REGISTRY NO=70125-39-2
##MP= -300
##BP= -300
##MW= 249
##$RETENTION INDEX=1252
##$CONDENSED SPECTRUM=NO
##NPOINTS= 126
##XYDATA=(XY..XY) 1 
    15          2
    27          2
    28          8
    29         11
    30          4
    31          3
    39          1
    41          6
    42         32
    43         59
    44         26
    45        152
    46         13
    47         52
    48          3
    49          1
    50          1
    52          1
    53          2
    54          1
    55         13
    56          7
    57        170
    58         33
    59         71
    60         19
    61         44
    62          3
    63          2
    66         23
    69          7
    70         13
    71          7
    72         28
    73        915
    74        124
    75        301
    76         28
    77         12
    78          1
    80         92
    83          1
    84          2
    85          6
    86         17
    87         22
    88         34
    89         19
    90          5
    91         14
    92          1
    93          1
    95          8
    98          3
    99          4
   100         58
   101         25
   102         37
   103        188
   104         19
   105         10
   106          1
   109          2
   112          1
   113          2
   114          4
   116        999
   117        138
   118         52
   119          9
   120          1
   121          1
   128          3
   129          4
   130         68
   131         45
   132        918
   133        151
   134         45
   135          7
   136          1
   142          2
   143          4
   144        157
   145         19
   146        115
   147        199
   148         38
   149         26
   150          3
   151          1
   158          1
   159         74
   160         10
   161          3
   162          1
   163          1
   172          1
   174          4
   175          1
   176          1
   177          1
   188         24
   189         10
   190          5
   191          1
   203          1
   204          3
   205          1
   206          9
   207          2
   208          1
   216          5
   217          6
   218          4
   219         72
   220         14
   221          6
   222          1
   232          1
   234         49
   235         10
   236          5
   237          1
   249          1
   250          1