##TITLE=Library Entry 8961
##JCAMP-DX=Revision 4.10 
##DATA TYPE=MASS SPECTRUM
##SAMPLE DESCRIPTION=Chemical Concepts
##NAMES=HP
##CAS NAME=5-Hexenal, 4-(acetyloxy)-4-methyl-, (.+-.)-
##MOLFORM=C9H14O3
##CAS REGISTRY NO=70130-95-9
##MP= -300
##BP= -300
##MW= 170
##$RETENTION INDEX=0
##$CONDENSED SPECTRUM=NO
##NPOINTS= 60
##XYDATA=(XY..XY) 1 
    26         36
    27        323
    28         98
    29        258
    31         32
    38         22
    39        256
    40         53
    41        333
    42         86
    43        999
    44         78
    45        119
    50         38
    51         71
    52         38
    53        223
    54         62
    55        378
    56         44
    57         52
    59          3
    60         61
    65         69
    66         48
    67        402
    68        286
    69         84
    70          3
    71        550
    72         60
    77         82
    78          4
    79        134
    80         28
    81        403
    82        255
    83        118
    84        321
    85         76
    86         22
    91         53
    92          2
    93        139
    94         15
    95        215
    96         20
   100         29
   101         28
   102          3
   109         30
   110        292
   111        155
   112          9
   113        215
   114          7
   125          2
   126        146
   127         53
   128         29