##TITLE=Library Entry 86329
##JCAMP-DX=Revision 4.10 
##DATA TYPE=MASS SPECTRUM
##SAMPLE DESCRIPTION=CARL DJERASSI DEPT OF CHEM STANFORD UNIV STANFORD CALIF
 94305
##NAMES=HP
##CAS NAME=21-Isorefractine
##MOLFORM=C23H28N2O4
##CAS REGISTRY NO=7013-66-3
##MP= -300
##BP= -300
##MW= 396
##$RETENTION INDEX=0
##$CONDENSED SPECTRUM=NO
##NPOINTS= 111
##XYDATA=(XY..XY) 1 
   100         10
   101         20
   102         20
   103         10
   105         10
   106         10
   107         20
   108         70
   109        999
   110        100
   111         20
   112         20
   113         10
   114         20
   115         20
   116         20
   117         20
   118         10
   119         10
   120         20
   121         10
   122         20
   123         10
   124        290
   125         30
   126         10
   127         10
   128         10
   130         50
   131         10
   132         10
   133         20
   134         10
   135         10
   136        150
   137         30
   138         10
   139         30
   140         60
   141         30
   142         20
   143         30
   144         20
   145         20
   146         20
   147         20
   152         10
   153         20
   154        190
   155         20
   156         20
   157         10
   158         10
   159         10
   160         20
   166         10
   167         30
   168         30
   169         30
   170         20
   171         20
   172         20
   173         20
   174         20
   180         10
   181         10
   182         40
   183         10
   184         60
   185         20
   187         10
   194         10
   195         20
   196         10
   197         20
   198         20
   199         10
   200         10
   207         10
   208         10
   209         10
   210         50
   211         10
   212         10
   213         10
   222         10
   223         10
   224         20
   225         10
   226         10
   236         10
   237         10
   238         10
   239         10
   245         60
   246         50
   251         10
   252         10
   254         10
   267         10
   281         10
   295         10
   309         10
   340        210
   341         20
   365         20
   367         10
   368         60
   395         20
   396        170
   397         20