##TITLE=Library Entry 28063
##JCAMP-DX=Revision 4.10 
##DATA TYPE=MASS SPECTRUM
##SAMPLE DESCRIPTION=Div. of Experiment Therapeutics WRAIR, WRAMC, Washingto
n DC 20307
##NAMES=HP
##CAS NAME=Thiocarbamic acid, N,N-diethyl-S-(diethylamino)-
##MOLFORM=C9H20N2OS
##CAS REGISTRY NO=70151-21-2
##MP= -300
##BP= -300
##MW= 204
##$RETENTION INDEX=0
##$CONDENSED SPECTRUM=NO
##NPOINTS= 75
##XYDATA=(XY..XY) 1 
    41         57
    42        162
    43         51
    44        441
    45         65
    47         35
    48         70
    49          9
    51          4
    52          3
    53          1
    54         10
    56         77
    58        999
    60         17
    61          3
    64        110
    65          1
    66         10
    67          1
    68          3
    69          3
    70         11
    72        173
    73        145
    74         26
    76          3
    77          1
    78         28
    80          6
    82          2
    83          2
    84          5
    86         28
    88         25
    89          1
    90          1
    96          3
    97          0
    98          2
    99          0
   100         44
   101          3
   102          0
   110          8
   111          2
   112          1
   114          0
   115          1
   116         13
   117          3
   124          9
   125          1
   126          2
   128          3
   129          5
   131          1
   139          2
   142         12
   143          0
   144         15
   146          6
   156          1
   160          4
   161          0
   169          0
   172          8
   173          1
   174          3
   188          3
   190          0
   203          9
   204         13
   205          1
   206          0