##TITLE=Library Entry 21724
##JCAMP-DX=Revision 4.10 
##DATA TYPE=MASS SPECTRUM
##SAMPLE DESCRIPTION=V.Zaikin,Topchiev Inst.Petrochem.Synth.,Moscow
##NAMES=HP
##CAS NAME=3-Bromobenzoic acid, hexadecyl ester
##MOLFORM=C23H37BrO2
##CAS REGISTRY NO=70152-90-8
##MP= -300
##BP= -300
##MW= 424
##$RETENTION INDEX=0
##$CONDENSED SPECTRUM=NO
##NPOINTS= 185
##XYDATA=(XY..XY) 1 
    27         46
    28         18
    29        133
    30          6
    31          8
    35          8
    36         72
    37         31
    38         68
    39        172
    40         53
    41        756
    42        251
    43        895
    44        141
    45         17
    46          2
    48          3
    49         13
    50        164
    51        102
    52         29
    53         80
    54        228
    55        999
    56        475
    57        736
    58         31
    59          3
    60         10
    61         12
    62         15
    63         23
    64         11
    65         70
    66         33
    67        229
    68        290
    69        721
    70        455
    71        320
    72         23
    73         28
    74         79
    75        187
    76        324
    77        207
    78         83
    79         54
    80         51
    81        137
    82        315
    83        733
    84        303
    85        182
    86         17
    87         11
    88          5
    89          8
    90          4
    91         80
    92         27
    93         24
    94         10
    95         71
    96        142
    97        564
    98        206
    99         32
   100          7
   101          4
   102          4
   103         30
   104        141
   105        187
   106         19
   107         13
   108          5
   109         27
   110         60
   111        278
   112        145
   113         25
   114          5
   115         15
   116          5
   117          8
   118          9
   119          9
   120          8
   121         14
   122         36
   123        104
   124         43
   125        144
   126         83
   127         22
   128          8
   129          9
   130          7
   131         22
   132          8
   133          7
   135          8
   136          6
   137         17
   138         30
   139         61
   140         62
   141         19
   142          3
   143          3
   145         13
   146          4
   147          3
   148          3
   149         11
   150         30
   151          6
   152         16
   153         33
   154         56
   155        300
   156         60
   157        289
   158         43
   159         32
   160          2
   163          3
   164          2
   165          2
   166          8
   167         26
   168         50
   169         22
   171          8
   172          6
   173          8
   174          6
   177          2
   180          9
   181          9
   182         37
   183        783
   184         86
   185        724
   186         70
   187         12
   189          4
   191          5
   194          6
   195          7
   196        135
   197         27
   198         12
   199         17
   200        876
   201        805
   202        899
   203        772
   204         77
   205          9
   207          9
   208          2
   209          2
   211          6
   213          7
   215          3
   222         14
   223         12
   224        247
   225         47
   226          4
   228          3
   229          3
   230          3
   241          2
   248          8
   253          3
   256          9
   257          6
   270          2
   272          4
   424         26
   426         28