##TITLE=Library Entry 19758
##JCAMP-DX=Revision 4.10 
##DATA TYPE=MASS SPECTRUM
##SAMPLE DESCRIPTION=V.Zaikin,Topchiev Inst.Petrochem.Synth.,Moscow
##NAMES=HP
##CAS NAME=3-Bromobenzoic acid, octadecyl ester
##MOLFORM=C25H41BrO2
##CAS REGISTRY NO=70153-14-9
##MP= -300
##BP= -300
##MW= 452
##$RETENTION INDEX=0
##$CONDENSED SPECTRUM=NO
##NPOINTS= 200
##XYDATA=(XY..XY) 1 
    27         26
    28         15
    29        105
    30          4
    31          8
    33          2
    35          8
    36         70
    37         21
    38         67
    39        199
    40         48
    41        708
    42        220
    43        960
    44        208
    45         16
    46          5
    48          2
    49          9
    50        162
    51        112
    52         21
    53         94
    54        221
    55        999
    56        473
    57        877
    58         42
    59          8
    60          2
    61         10
    62         11
    63         23
    64          7
    65         60
    66         43
    67        258
    68        295
    69        785
    70        435
    71        340
    72         22
    73         31
    74         69
    75        182
    76        286
    77        228
    78        111
    79         53
    80         48
    81        169
    82        360
    83        773
    84        265
    85        211
    86         10
    87         10
    88          3
    89          6
    90          6
    91         89
    92         24
    93         17
    94         10
    95         95
    96        159
    97        619
    98        191
    99         38
   101          7
   102          8
   103         20
   104        161
   105        209
   106         27
   107         20
   108          8
   109         24
   110         77
   111        321
   112        122
   113         33
   114          8
   115         15
   116          6
   117         10
   118          7
   119         13
   120          9
   121         15
   122         52
   123        164
   124         51
   125        163
   126         81
   127         18
   128          9
   129         19
   130         11
   131         21
   132         11
   133         14
   134          6
   135         10
   136          7
   137         14
   138         31
   139         61
   140         65
   141         15
   142          3
   143          6
   144          2
   145          8
   146          3
   147          5
   148          7
   149          7
   150         29
   151         14
   152         25
   153         30
   154         42
   155        265
   156         54
   157        267
   158         37
   159         31
   160          4
   161          5
   162          4
   163          6
   165          4
   166         12
   167         23
   168         35
   169          7
   170          5
   171          6
   172          3
   173          7
   174          9
   175          3
   177          7
   178          6
   179          7
   180         11
   181         25
   182         34
   183        703
   184         84
   185        678
   186         75
   187          3
   189          3
   191          3
   192          4
   193          4
   194         13
   195         10
   196         19
   197          8
   198          7
   199         21
   200        842
   201        814
   202        888
   203        827
   204         90
   205          8
   207          9
   208          5
   209          9
   210         10
   211          5
   213          4
   214          4
   215          4
   218          3
   221          4
   222          2
   223          8
   224         92
   225         20
   226          5
   227          4
   228          2
   229          6
   232          2
   243          7
   248          4
   250         17
   251         11
   252        229
   253         41
   254          4
   373          3
   452          9
   454         10