##TITLE=Library Entry 88012
##JCAMP-DX=Revision 4.10 
##DATA TYPE=MASS SPECTRUM
##SAMPLE DESCRIPTION=LAC, NIDDK, NIH, Bethesda, MD 20892
##NAMES=HP
##CAS NAME=Benzoic acid, 3-fluoro-2-hydroxy-, methyl ester
##MOLFORM=C8H7FO3
##CAS REGISTRY NO=70163-98-3
##MP= -300
##BP= -300
##MW= 170
##$RETENTION INDEX=0
##$CONDENSED SPECTRUM=NO
##NPOINTS= 62
##XYDATA=(XY..XY) 1 
    41         62
    42         13
    43         15
    44          5
    45         14
    50        172
    51        249
    52        216
    53        100
    54         61
    55         66
    56          4
    57          8
    59        168
    60          3
    61          2
    62          2
    63          3
    65         21
    66          6
    68         95
    69         24
    70          5
    71          5
    75          1
    77         10
    79        189
    80         69
    81         16
    83         42
    84          4
    85          4
    86          1
    91          2
    95         32
    96         10
    97         11
    98          2
    99          5
   107         35
   108         18
   109          8
   111        999
   112         64
   113          7
   123        119
   124          8
   125          5
   127          1
   129          9
   137          2
   139        241
   140         17
   141          4
   146          2
   153          1
   155         54
   156          5
   157          3
   170        169
   171         16
   172          2