##TITLE=Library Entry 55418
##JCAMP-DX=Revision 4.10 
##DATA TYPE=MASS SPECTRUM
##SAMPLE DESCRIPTION=Chuck Anderson, Aldrich Chemical Co.
##NAMES=HP
##CAS NAME=4-Amino-1,2-diethylpyrazolidine
##MOLFORM=C7H17N3
##CAS REGISTRY NO=70180-92-6
##MP= -300
##BP= -300
##MW= 143
##$RETENTION INDEX=0
##$CONDENSED SPECTRUM=NO
##NPOINTS= 46
##XYDATA=(XY..XY) 1 
    15         35
    18         14
    26         14
    27        108
    28        205
    29        193
    30        327
    31          7
    39         11
    40          9
    41         46
    42        228
    43        253
    44        154
    45          4
    54         11
    55          7
    56        481
    57        110
    58        137
    59         10
    68         88
    69        146
    70         15
    71        109
    72         31
    73          7
    82          5
    83         10
    84          1
    85        999
    86         75
    87          8
    88         12
    96          0
    97        193
    98         12
    99         23
   100         19
   101          2
   114        624
   115         39
   125          2
   128         13
   143        430
   144         36