##TITLE=Library Entry 89248
##JCAMP-DX=Revision 4.10 
##DATA TYPE=MASS SPECTRUM
##SAMPLE DESCRIPTION=V.A.KOPTYUG, ATLAS OF MASS SPECTRA OF ORGANIC COMPOUNDS
##NAMES=HP
##CAS NAME=1-Hydroxy-4-hydroxyiminomethyl-2,2,5,5-tetramethyl-3-imidazoline
##MOLFORM=C8H15N3O2
##CAS REGISTRY NO=70183-25-4
##MP= -300
##BP= -300
##MW= 185
##$RETENTION INDEX=0
##$CONDENSED SPECTRUM=NO
##NPOINTS= 81
##XYDATA=(XY..XY) 1 
    37          9
    38         19
    39        217
    40         68
    41        463
    42        633
    43        171
    44         54
    45         19
    46          8
    50          6
    51         13
    52         33
    53         52
    54         73
    55         41
    56        115
    57         26
    58        324
    59         63
    60          6
    61          5
    62          3
    63          5
    73         18
    74         37
    95         88
    96         66
    97         31
    98         90
    99         19
   101         60
   105          3
   106          3
   107         17
   108         37
   109         39
   110         33
   111        241
   112        999
   113         80
   114          5
   118          3
   119          5
   120         21
   121         56
   122         99
   123         76
   124         11
   125          5
   126          7
   129        146
   130         10
   133          5
   134         15
   135         26
   136        115
   137         96
   138         88
   139         28
   140          4
   145          5
   149          5
   150         25
   151          9
   152         59
   153        132
   154        109
   155        402
   156         43
   157          3
   159          4
   167         15
   168        109
   169         13
   170        341
   171         33
   172          3
   184          4
   185        133
   186         17