##TITLE=Library Entry 85451
##JCAMP-DX=Revision 4.10 
##DATA TYPE=MASS SPECTRUM
##SAMPLE DESCRIPTION=V.A.KOPTYUG, ATLAS OF MASS SPECTRA OF ORGANIC COMPOUNDS
##NAMES=HP
##CAS NAME=4-Aminodiphenylsulfone
##MOLFORM=C12H11NO2S
##CAS REGISTRY NO=7019-01-4
##MP= -300
##BP= -300
##MW= 233
##$RETENTION INDEX=0
##$CONDENSED SPECTRUM=NO
##NPOINTS= 80
##XYDATA=(XY..XY) 1 
    28         64
    29         15
    30         11
    32         22
    34         11
    38         22
    39        164
    40         22
    41         65
    42         27
    43         21
    44         49
    45         15
    50         49
    51        185
    52         55
    53         60
    54         33
    55         22
    56         11
    57         15
    60         11
    62         15
    63         66
    64         60
    65        405
    66         71
    67         15
    68         11
    76         22
    77        190
    78         49
    79         15
    80        183
    81         27
    82         11
    90         15
    91         44
    92        317
    93         49
    94         11
    97         49
    98         11
   107         15
   108        999
   109         93
   110         15
   111         15
   112         15
   115         27
   116         27
   123         27
   124         21
   125         88
   126         21
   127         15
   128         11
   139         21
   140        257
   141         38
   142         27
   143         11
   151         15
   152         15
   156         93
   157         15
   158         11
   167         49
   168         49
   169        111
   170         21
   171         11
   183         15
   184         11
   215         11
   231         11
   232         33
   233        775
   234        113
   235         51