##TITLE=Library Entry 50721
##JCAMP-DX=Revision 4.10 
##DATA TYPE=MASS SPECTRUM
##SAMPLE DESCRIPTION=RH-12
##NAMES=HP
##CAS NAME=Bicyclo[2.2.2]octane-1-carboxylic acid, 4-methyl-
##MOLFORM=C10H16O2
##CAS REGISTRY NO=702-67-0
##MP= -300
##BP= -300
##MW= 168
##$RETENTION INDEX=0
##$CONDENSED SPECTRUM=NO
##NPOINTS= 94
##XYDATA=(XY..XY) 1 
    26          6
    27        505
    28        267
    29        331
    30          6
    31          1
    37         17
    38         54
    39        673
    40        104
    41        722
    42        104
    43        234
    44        119
    45        407
    46         27
    50         76
    51        179
    52         93
    53        393
    54        122
    55        503
    56         70
    57         91
    59         24
    60         22
    62         27
    63         71
    64         20
    65        165
    66        107
    67        707
    68        545
    69        192
    70         48
    71         48
    73         42
    74         27
    75         23
    77        328
    78         93
    79        499
    80        174
    81        999
    82        287
    83         96
    84         24
    85         24
    86         24
    87         62
    91        218
    92         84
    93        479
    94        283
    95        475
    96         92
    97         80
    98         29
    99         26
   100         30
   101         26
   105         50
   106         26
   107        148
   108         88
   109         79
   110         79
   111        105
   112         47
   113        128
   115         24
   121         96
   122        652
   123        976
   124        232
   125        312
   126         78
   127         25
   134         29
   135         52
   136         25
   137         14
   139        571
   140        245
   141         28
   149         28
   150        130
   151         28
   152         86
   165         22
   167         22
   168        660
   169         76
   170          7