##TITLE=Library Entry 38286
##JCAMP-DX=Revision 4.10 
##DATA TYPE=MASS SPECTRUM
##SAMPLE DESCRIPTION=V.Zaikin,Topchiev Inst.Petrochem.Synth.,Moscow
##NAMES=HP
##CAS NAME=Chloroacetic acid, 2-tetrahydrofurylmethyl ester
##MOLFORM=C7H11ClO3
##CAS REGISTRY NO=702-26-1
##MP= -300
##BP= -300
##MW= 178
##$RETENTION INDEX=0
##$CONDENSED SPECTRUM=NO
##NPOINTS= 47
##XYDATA=(XY..XY) 1 
    26          4
    27         36
    28          6
    29         19
    30          3
    31          7
    36          6
    38          2
    39         27
    40          7
    41         87
    42         43
    43        196
    44          6
    45          2
    48          2
    49         37
    50          3
    51         12
    53          6
    54         17
    55         19
    56          5
    57          9
    58          2
    59          2
    60          1
    67          6
    69          5
    70          5
    71        999
    72         39
    73          3
    76          4
    77         70
    78          3
    80          3
    81          1
    82          3
    83          7
    84         40
    85          5
   101          1
   107          4
   109          1
   120          2
   137          2