##TITLE=Library Entry 73458
##JCAMP-DX=Revision 4.10 
##DATA TYPE=MASS SPECTRUM
##SAMPLE DESCRIPTION=Japan AIST/NIMC Database- Spectrum MS-IW-6030
##NAMES=HP
##CAS NAME=(+-)-1-Isopropylcyclopropane-trnas-1,trans-2-dicarboxylic acid
##MOLFORM=C8H12O4
##CAS REGISTRY NO=702-88-5
##MP= -300
##BP= -300
##MW= 172
##$RETENTION INDEX=0
##$CONDENSED SPECTRUM=NO
##NPOINTS= 125
##XYDATA=(XY..XY) 1 
    14          3
    15         13
    16          2
    17         33
    18         68
    19          2
    25          1
    26         20
    27        206
    28         55
    29         75
    30          2
    31         14
    32          4
    33          3
    36          1
    37         16
    38         44
    39        351
    40         75
    41        365
    42         53
    43        181
    44         39
    45         81
    46          4
    47          3
    49          4
    50         28
    51         51
    52         25
    53        116
    54        125
    55        404
    56         77
    57         35
    58         13
    59         47
    60          9
    61          5
    62         10
    63         22
    64          6
    65         82
    66         45
    67        570
    68        106
    69         75
    70         10
    71         29
    72         17
    73        118
    74          9
    75          2
    76          1
    77         27
    78          8
    79         69
    80         43
    81        296
    82        564
    83        167
    84        103
    85        262
    86         26
    87         16
    88          1
    89          3
    90          3
    91         25
    92         13
    93         23
    94         13
    95        414
    96         29
    97         47
    98         34
    99         38
   100        999
   101         60
   102          7
   103          1
   105          1
   106          2
   107         14
   108         80
   109         69
   110         61
   111        199
   112         87
   113         83
   114          6
   115          2
   116          8
   117          2
   118          4
   119          1
   120          1
   121          6
   122          1
   123          1
   124          1
   125         75
   126        571
   127         72
   128         11
   129          6
   130          7
   131          1
   135          1
   136         27
   137          3
   138          1
   139         75
   140          6
   141          1
   144          3
   153          5
   154        133
   155         42
   156          4
   157         28
   158          2
   172          2
   173          2