##TITLE=Library Entry 53297
##JCAMP-DX=Revision 4.10 
##DATA TYPE=MASS SPECTRUM
##SAMPLE DESCRIPTION=Exported from NIST MS Search
##NAMES=HP
##CAS NAME=1,3-Cyclohexanedione, 2,2,5,5-tetramethyl-
##MOLFORM=C10H16O2
##CAS REGISTRY NO=702-50-1
##MP= -300
##BP= -300
##MW= 168
##$RETENTION INDEX=0
##$CONDENSED SPECTRUM=NO
##NPOINTS= 22
##XYDATA=(XY..XY) 1 
    39         55
    40         15
    41         92
    42         98
    43         15
    44         25
    54         15
    56        138
    57         31
    67          6
    69         25
    70        138
    71         15
    83        999
    84         68
    85          6
    97          6
    98         15
   125         25
   153          6
   168        154
   169         25