##TITLE=Library Entry 83034
##JCAMP-DX=Revision 4.10 
##DATA TYPE=MASS SPECTRUM
##SAMPLE DESCRIPTION=V.A.KOPTYUG, ATLAS OF MASS SPECTRA OF ORGANIC COMPOUNDS
##NAMES=HP
##CAS NAME=2-Methyl-5-butylpyridine
##MOLFORM=C10H15N
##CAS REGISTRY NO=702-16-9
##MP= -300
##BP= -300
##MW= 149
##$RETENTION INDEX=0
##$CONDENSED SPECTRUM=NO
##NPOINTS= 28
##XYDATA=(XY..XY) 1 
    39         39
    41         27
    43         14
    44         55
    51         27
    52         18
    53         29
    63         10
    65         37
    66         12
    77        134
    78         36
    79         95
    80         12
    91         23
    92         20
    93         23
   104         10
   105         14
   106        999
   107        157
   108         12
   118         16
   120         41
   121         25
   134         20
   149        348
   150         41