##TITLE=Library Entry 17320
##JCAMP-DX=Revision 4.10 
##DATA TYPE=MASS SPECTRUM
##SAMPLE DESCRIPTION=NIST Mass Spectrometry Data Center
##NAMES=HP
##CAS NAME=3-Hexene, 1-methoxy-, (Z)-
##MOLFORM=C7H14O
##CAS REGISTRY NO=70220-06-3
##MP= -300
##BP= -300
##MW= 114
##$RETENTION INDEX=826
##$CONDENSED SPECTRUM=NO
##NPOINTS= 56
##XYDATA=(XY..XY) 1 
    14          1
    15         12
    26          5
    27         53
    28         14
    29         66
    30          3
    31          7
    33          1
    37          3
    38         10
    39        123
    40         20
    41        217
    42         23
    43         23
    45        999
    46         26
    47          4
    49          1
    50         13
    51         24
    52         11
    53         64
    54         42
    55         67
    56         11
    57          4
    58         32
    59          4
    61          1
    62          3
    63          6
    64          1
    65         19
    66          9
    67        314
    68         68
    69         33
    70          2
    71         33
    72          3
    73          1
    74          1
    77          6
    78          1
    79         11
    80          2
    81         24
    82        420
    83         32
    84          1
    85          6
    86          5
    97          3
   114          2