##TITLE=Library Entry 49544
##JCAMP-DX=Revision 4.10 
##DATA TYPE=MASS SPECTRUM
##SAMPLE DESCRIPTION=Chemical Concepts
##NAMES=HP
##CAS NAME=9-Methyltricyclo[4.2.1.1(2,5)]dec-3-en-9-ol
##MOLFORM=C11H16O
##CAS REGISTRY NO=70220-94-9
##MP= -300
##BP= -300
##MW= 164
##$RETENTION INDEX=0
##$CONDENSED SPECTRUM=NO
##NPOINTS= 108
##XYDATA=(XY..XY) 1 
    26         13
    27        201
    28         24
    29        102
    30          4
    31         32
    37          5
    38         20
    39        305
    40         62
    41        346
    42         30
    43        843
    44         29
    45         55
    46          4
    50         28
    51        102
    52         43
    53        177
    54         32
    55        169
    56         23
    57         28
    58        103
    59         25
    60          6
    61          6
    62          9
    63         35
    64         13
    65        140
    66        262
    67        265
    68         38
    69         96
    70         26
    71        746
    72         41
    73          8
    74          7
    75          8
    76          9
    77        336
    78        169
    79        735
    80        999
    81        853
    82        111
    83        184
    84        106
    85         38
    86          7
    87          3
    89         16
    90          8
    91        480
    92        203
    93        271
    94        220
    95        147
    96        159
    97        217
    98         52
    99         11
   102          6
   103         38
   104        306
   105        183
   106        259
   107         96
   108         46
   109        474
   110        183
   111         15
   112          5
   115         46
   116         31
   117        163
   118         76
   119         43
   120         42
   121        214
   122         95
   123         82
   124          9
   127          6
   128         13
   129         29
   130         18
   131        466
   132         51
   133         11
   134          5
   135         53
   136         66
   137         10
   141          4
   143          5
   145         63
   146        118
   147         20
   149        187
   150         23
   163         15
   164        229
   165         29
   166          4