##TITLE=Library Entry 97155
##JCAMP-DX=Revision 4.10 
##DATA TYPE=MASS SPECTRUM
##SAMPLE DESCRIPTION=Chemical Concepts
##NAMES=HP
##CAS NAME=10-Methoxytricyclo[4.2.1.1(2,5)]deca-3,7-dien-9-ol
##MOLFORM=C11H14O2
##CAS REGISTRY NO=70220-91-6
##MP= -300
##BP= -300
##MW= 178
##$RETENTION INDEX=0
##$CONDENSED SPECTRUM=NO
##NPOINTS= 122
##XYDATA=(XY..XY) 1 
    26         16
    27        220
    28         34
    29        115
    30          5
    31         37
    33          9
    37          7
    38         34
    39        466
    40         66
    41        304
    42         34
    43         69
    44          7
    45        238
    46          5
    50         59
    51        188
    52         94
    53        562
    54         92
    55        195
    56         21
    57         64
    58         20
    59         10
    60          5
    61         38
    62         25
    63         95
    64         31
    65        260
    66        206
    67        165
    68         41
    69         59
    70         20
    71        147
    72         13
    73          6
    74         20
    75         20
    76         18
    77        306
    78        145
    79        266
    80         37
    81        703
    82        419
    83         50
    84         42
    85        114
    86         10
    87         26
    88          5
    89         42
    90         23
    91        449
    92         92
    93         29
    94         27
    95         77
    96        625
    97        102
    98         49
    99         13
   100         93
   101         13
   102         31
   103        123
   104         80
   105        185
   106         27
   107         51
   108         24
   109         46
   110         64
   111         22
   112         22
   113         29
   114          8
   115        431
   116        303
   117        999
   118        367
   119        140
   120         83
   121         56
   122         25
   123          4
   126          2
   127         66
   128        249
   129        213
   130         42
   131        146
   132         27
   133        127
   134         26
   135         17
   136          5
   137          7
   143          2
   144         30
   145        274
   146        213
   147        110
   148         14
   149         29
   150          8
   151          3
   159         87
   160         70
   161         18
   162          2
   163         12
   164          5
   177          6
   178         51
   179          7
   180          3