##TITLE=Library Entry 67304
##JCAMP-DX=Revision 4.10 
##DATA TYPE=MASS SPECTRUM
##SAMPLE DESCRIPTION=Chemical Concepts
##NAMES=HP
##CAS NAME=Tricyclo[4.3.1.1<2,5>]undec-3-en-10-ol, 10-methyl-, stereoisomer
##MOLFORM=C12H18O
##CAS REGISTRY NO=70220-96-1
##MP= -300
##BP= -300
##MW= 178
##$RETENTION INDEX=0
##$CONDENSED SPECTRUM=NO
##NPOINTS= 103
##XYDATA=(XY..XY) 1 
    26         11
    27        136
    28         43
    29        101
    31         18
    38         15
    39        273
    40         61
    41        316
    42         30
    43        510
    44         33
    45         34
    50         22
    51         84
    52         42
    53        140
    54         32
    55        183
    56         25
    57         52
    58         22
    62          7
    63         38
    64         18
    65        151
    66        260
    67        370
    68         79
    69        100
    70         45
    71        169
    72         11
    74         10
    75         17
    76         11
    77        302
    78        136
    79        571
    80        195
    81        231
    82        104
    83        130
    84         79
    85         23
    89         16
    90         10
    91        493
    92        187
    93        334
    94        999
    95        705
    96        299
    97        184
    98         21
    99          9
   102          7
   103         38
   104        109
   105        174
   106         67
   107         92
   108         74
   109        225
   110         67
   111         89
   112         33
   113         14
   115         57
   116         26
   117        276
   118        135
   119        157
   120         70
   121        140
   122         72
   123         53
   124         15
   127          8
   128         18
   129         22
   130         21
   131        262
   132        156
   133         37
   134         98
   135        160
   136         41
   137         27
   141          9
   143         10
   144          8
   145        372
   146         50
   147         16
   159         46
   160        702
   161         98
   162          7
   163         74
   164          9
   178        133
   179         17