##TITLE=Library Entry 2424
##JCAMP-DX=Revision 4.10 
##DATA TYPE=MASS SPECTRUM
##SAMPLE DESCRIPTION=P.A. Leclercq, Lab. Instrum. Anal., Eindhoven Univ. Tec
hnol., Netherlands
##NAMES=HP
##CAS NAME=Nickel(II) bis(N,N-diheptyldithiocarbamate)
##MOLFORM=C30H60N2NiS4
##CAS REGISTRY NO=70225-30-8
##MP= -300
##BP= -300
##MW= 634
##$RETENTION INDEX=0
##$CONDENSED SPECTRUM=NO
##NPOINTS= 172
##XYDATA=(XY..XY) 1 
    41        999
    42        525
    43        950
    44        575
    45        165
    46         16
    47         31
    48         36
    50         11
    51         18
    52         13
    53        102
    54         99
    55        750
    56        499
    57        550
    58        150
    59         32
    60         69
    61         24
    62         33
    64        103
    65         20
    67         89
    68         87
    69        194
    70        315
    71         92
    72         78
    73         56
    74         70
    75         50
    76        520
    77         45
    78         97
    79         21
    80         27
    81         43
    82         82
    83         72
    84        175
    85        165
    86         68
    87         17
    88         69
    89         54
    91         17
    93         11
    94         21
    95         33
    96         49
    97         71
    98        123
    99         43
   100         35
   101         23
   102         26
   108         13
   109         10
   110         37
   111         10
   112        106
   113         12
   114        237
   115        114
   116         42
   117         20
   118         21
   122         11
   123         11
   124         68
   125         34
   126        317
   127         47
   128        525
   129        370
   130         22
   132         11
   138         35
   139         17
   140        147
   141         31
   142         62
   143          8
   144         91
   146         10
   151         10
   152         23
   153         11
   154         98
   155         12
   156         29
   158        112
   159          9
   160         16
   164         12
   166         40
   167         16
   168         76
   169         23
   170         58
   172         41
   173          9
   180         37
   182         32
   184        134
   185         16
   186         23
   187         10
   194         32
   195          8
   196        164
   197         24
   198         33
   200         19
   201         12
   208         23
   210         40
   211          8
   212        141
   213         98
   214         24
   216          8
   221          7
   222         25
   224        381
   225         80
   226         20
   228         80
   229         16
   230          9
   236          8
   238         12
   239          8
   240         17
   242         11
   243          9
   250          8
   252         67
   253         11
   254         25
   256        137
   257         36
   258         15
   260         10
   261         13
   288         22
   289         15
   305         10
   308         75
   309         17
   313          9
   347         29
   348          8
   413          8
   574         15
   576          9
   578         45
   579         12
   580         25
   581          8
   604          8
   606        144
   607         51
   608         94
   609         26
   610         21
   634        118
   635         41
   636         72
   637         22
   638         13