##TITLE=Library Entry 78057
##JCAMP-DX=Revision 4.10 
##DATA TYPE=MASS SPECTRUM
##SAMPLE DESCRIPTION=Chemical Concepts
##NAMES=HP
##CAS NAME=Tricyclo[4.2.1.1(2,5)]deca-3,7-dien-9-one, 10-hydroxy-10-methyl-,
 stereoisomer
##MOLFORM=C11H12O2
##CAS REGISTRY NO=70220-88-1
##MP= -300
##BP= -300
##MW= 176
##$RETENTION INDEX=0
##$CONDENSED SPECTRUM=NO
##NPOINTS= 104
##XYDATA=(XY..XY) 1 
    26         15
    27         83
    28         19
    29         16
    31          6
    37          4
    38         18
    39        131
    40         19
    41         58
    42         14
    43        532
    44         15
    45         15
    49          3
    50         53
    51        134
    52         69
    53         69
    54         12
    55        118
    56          6
    57          7
    58          3
    59          3
    60          3
    61          4
    62         15
    63         49
    64         29
    65         68
    66         49
    67         47
    68         11
    69         22
    70          8
    71         13
    72          4
    73          5
    74         14
    75         13
    76         15
    77        205
    78        139
    79        189
    80         31
    81         55
    82         34
    83          6
    84          4
    87          4
    89         19
    90          9
    91        196
    92         37
    93         36
    94         16
    95        154
    96         67
    97         10
    98          7
   101          4
   102         18
   103        115
   104         69
   105        999
   106        101
   107         24
   108          6
   114          3
   115        196
   116         44
   117         23
   118          9
   119         34
   120          8
   121         11
   122          2
   127         21
   128         47
   129        141
   130         55
   131         84
   132         35
   133        282
   134         51
   135          5
   141          4
   143         15
   144          6
   145          5
   146          3
   147         69
   148        181
   149         47
   150          4
   157         11
   158         18
   159         11
   160          3
   161         14
   175          4
   176         21
   177          4