##TITLE=Library Entry 67487
##JCAMP-DX=Revision 4.10 
##DATA TYPE=MASS SPECTRUM
##SAMPLE DESCRIPTION=Chemical Concepts
##NAMES=HP
##CAS NAME=4,2,7-Ethanylylidenecyclopenta[b]pyran, octahydro-7a-methyl-
##MOLFORM=C11H16O
##CAS REGISTRY NO=70221-03-3
##MP= -300
##BP= -300
##MW= 164
##$RETENTION INDEX=0
##$CONDENSED SPECTRUM=NO
##NPOINTS= 78
##XYDATA=(XY..XY) 1 
    27         90
    28         31
    29         68
    31         11
    35         11
    39        205
    40         36
    41        255
    42         19
    43        554
    44         18
    45         30
    47         45
    48         23
    49         14
    50         19
    51         60
    52         35
    53        131
    54         45
    55        111
    57         18
    58         25
    63         21
    65         98
    66        108
    67        228
    68         37
    69         44
    71        532
    72         35
    77        226
    78         99
    79        624
    80        224
    81        406
    82         97
    83        249
    84         71
    85        145
    87         21
    91        296
    92        580
    93        368
    94        999
    95        219
    96        103
    97        303
    98        189
    99         31
   103         21
   104         85
   105        168
   106        392
   107        144
   108         52
   109         86
   110         46
   115         17
   117         39
   118         50
   119         45
   120        208
   121        295
   122        111
   123        136
   124         15
   131         60
   133         22
   135         59
   136         43
   146         33
   149         95
   150         12
   163         21
   164        835
   165        112
   166          9