##TITLE=Library Entry 57635
##JCAMP-DX=Revision 4.10 
##DATA TYPE=MASS SPECTRUM
##SAMPLE DESCRIPTION=M.POLLARD, DEP. BIOCHEM. BIOPHYS., UNIV CALIFORNIA, DAV
IS, U
##NAMES=HP
##CAS NAME=(E)-2-(Cyanomethylene)-4,5-dimethoxy-3-hydroxycyclohexyl acetate
##MOLFORM=C12H17NO5
##CAS REGISTRY NO=70239-66-6
##MP= -300
##BP= -300
##MW= 255
##$RETENTION INDEX=0
##$CONDENSED SPECTRUM=NO
##NPOINTS= 74
##XYDATA=(XY..XY) 1 
    39         55
    41        143
    43        968
    44         31
    45        238
    51         24
    52         31
    53         47
    54         24
    55         39
    56         24
    57         24
    58         47
    59         47
    61         31
    65         47
    66         24
    67         16
    71        190
    72         24
    73        135
    74        603
    75        175
    77         39
    78         31
    88        999
    89        103
    94         31
    95         63
   101         63
   103         47
   104         39
   105         31
   106         24
   107         24
   108         31
   109         47
   110         16
   111         39
   120         87
   121         31
   122         47
   132         24
   133         24
   134        238
   135         79
   136         39
   137         31
   147         16
   148         31
   149         47
   150        150
   151         24
   152         16
   162         16
   163        127
   164         31
   180         16
   181         47
   195         71
   222          0
   223          7
   224          1
   225          0
   226          0
   227          0
   237          0
   238          0
   239          0
   240          0
   242          0
   254          0
   255          1
   256          0