##TITLE=Library Entry 44256
##JCAMP-DX=Revision 4.10 
##DATA TYPE=MASS SPECTRUM
##SAMPLE DESCRIPTION=Tox21 Consortium/NIST Mass Spectrometry Data Center, 20
12
##NAMES=HP
##CAS NAME=Dienestrol, 2TMS derivative
##MOLFORM=C24H34O2Si2
##CAS REGISTRY NO=70244-14-3
##MP= -300
##BP= -300
##MW= 410
##$RETENTION INDEX=0
##$CONDENSED SPECTRUM=NO
##NPOINTS= 317
##XYDATA=(XY..XY) 1 
    27          1
    29          2
    31          1
    39          2
    41          2
    43          9
    44          5
    45         68
    46          4
    47          5
    51          2
    53          3
    55          4
    56          1
    57          3
    58          4
    59         19
    60          2
    61          5
    63          2
    64          1
    65          4
    66          1
    67          1
    68          1
    69          2
    70          1
    71          2
    73        999
    74         87
    75         83
    76          6
    77         21
    78          4
    79          9
    80          1
    81          1
    82          6
    83          4
    85          3
    86          1
    87          3
    88          1
    89          6
    90          2
    91         20
    92          2
    93          3
    94          4
    95          7
    96          1
    97          2
    99          2
   100          1
   101          5
   102          4
   103         14
   104          3
   105         11
   106          2
   107          7
   109          2
   111          1
   112          1
   113          2
   114          3
   115         69
   116         12
   117         11
   118          2
   119          7
   120          2
   121          8
   122          2
   123          4
   124          1
   125          1
   126          3
   127         15
   128         37
   129         22
   130          4
   131          9
   132          5
   133         16
   134          3
   135         23
   136          4
   137          4
   138          3
   139          7
   140          3
   141         17
   142          5
   143          9
   144          4
   145         20
   146          4
   147         15
   148          4
   149         17
   150          7
   151         32
   152         16
   153         14
   154          8
   155         13
   156          3
   157          3
   158          2
   159         10
   160          3
   161         23
   162          9
   163         16
   164          6
   165         11
   166          4
   167          6
   168          5
   169         12
   170          3
   171          8
   172          2
   173         11
   174          5
   175         24
   176          8
   177         22
   178          9
   179         61
   180         11
   181          6
   182         12
   183          5
   184          2
   185         15
   186          3
   187         12
   188          4
   189         32
   190         45
   191         20
   192          4
   193        197
   194         34
   195         13
   196          2
   198          9
   199         16
   200          7
   201         18
   202         20
   203         15
   204          6
   205         17
   206          5
   207          5
   208          1
   209          3
   210          1
   211          4
   212          1
   213         12
   214         11
   215         26
   216          9
   217         92
   218         21
   219          9
   220          6
   221          3
   222          1
   223          3
   224          1
   225          2
   226          2
   227          5
   228          8
   229         35
   230         13
   231         20
   232          5
   233          5
   234          2
   235          4
   236          1
   237          3
   238          1
   239          1
   241          1
   242          1
   243          9
   244         53
   245         84
   246         18
   247          7
   248          2
   249          5
   250          2
   251          3
   252          1
   253          2
   254          1
   255          1
   256          1
   257          2
   258          1
   259          4
   260          2
   261          4
   262          2
   263          5
   264          2
   265          4
   266          3
   267          4
   268          1
   269          1
   271          1
   272          1
   273          5
   274          3
   275          6
   276          3
   277          5
   278          2
   279          7
   280          5
   281          6
   282          1
   283          1
   285          1
   287          3
   288          2
   289         13
   290          6
   291          9
   292          5
   293          8
   294          5
   295          3
   296          1
   301          1
   303          4
   304          3
   305         13
   306          8
   307         28
   308          9
   309          5
   310          1
   311          1
   317          1
   318          1
   319          5
   320          7
   321         17
   322         11
   323          2
   331          1
   333          1
   334          1
   335          1
   336          1
   337         20
   339          6
   340          1
   341          1
   343          1
   347          1
   348          1
   349          3
   350          1
   351          2
   352          1
   353          1
   354         27
   355          9
   356          3
   357          1
   361          1
   362          1
   363          3
   364          3
   365         10
   366          4
   367          4
   368          2
   369          1
   370          1
   377          2
   378          2
   379         25
   380         31
   381        119
   382         43
   383         16
   384          3
   385          1
   391          1
   392          1
   393          5
   394         13
   395        410
   396        150
   397         53
   398         12
   399          2
   407          1
   408          1
   409         47
   410        618
   411        226
   412         82
   413         18
   414          4