##TITLE=Library Entry 24612
##JCAMP-DX=Revision 4.10 
##DATA TYPE=MASS SPECTRUM
##SAMPLE DESCRIPTION=Chemical Concepts
##NAMES=HP
##CAS NAME=n-Heptyl-2-(4-[(heptyl-methyl-carbamoyl)-methoxy]-butoxy)-N-methy
l-acetamide
##MOLFORM=C24H48N2O4
##CAS REGISTRY NO=70277-18-8
##MP= -300
##BP= -300
##MW= 428
##$RETENTION INDEX=0
##$CONDENSED SPECTRUM=NO
##NPOINTS= 275
##XYDATA=(XY..XY) 1 
    26         14
    27         86
    29        172
    30         49
    31         37
    37          4
    38         14
    39         90
    40         46
    41        359
    42        234
    43        678
    44        791
    45        136
    46          8
    47         13
    48          2
    49          5
    50         24
    51         48
    52         15
    53         29
    54         41
    55        335
    56        176
    57        999
    58        268
    59         53
    60         40
    61         11
    62          8
    63         33
    64         16
    65         26
    66         14
    67         51
    68         47
    69        116
    70        183
    71        382
    72        357
    73        266
    74        173
    75         98
    76         49
    77         99
    78         41
    79         30
    80         10
    81         48
    82         36
    83         72
    84        505
    85        142
    86        376
    87        252
    88         46
    89         56
    90         91
    91         96
    92         51
    93         23
    94         24
    95         36
    96         32
    97         58
    98         67
    99         62
   100         65
   101         54
   102         58
   103         31
   104         37
   105         79
   106         19
   107         16
   108          9
   109         26
   110         18
   111         31
   112         66
   113         42
   114         63
   115         74
   116         19
   117         40
   118          7
   119         82
   120        112
   121         22
   122         11
   123         18
   124         10
   125         19
   126         71
   127         49
   128        219
   129         50
   130         26
   131         16
   132         21
   133         20
   134          6
   135         15
   136          7
   137         12
   138          7
   139         25
   140         44
   141        300
   142        197
   143         29
   144         14
   145         26
   146          9
   147         34
   148         52
   149         36
   150         12
   151         17
   152         40
   153         48
   154         44
   155        143
   156        471
   157         76
   158         21
   159         16
   160          5
   161          7
   162          5
   163         10
   164          6
   165         32
   166         16
   167         50
   168         30
   169        136
   170        387
   171         80
   172         20
   173          7
   174         10
   175          6
   176         10
   177         11
   178         39
   179         25
   180          9
   181         27
   182         23
   183         18
   184         31
   185         16
   186        678
   187         95
   188        445
   189         59
   190          8
   191         10
   192          8
   193          5
   194          5
   195          7
   196         12
   197         10
   198         32
   199         13
   200         44
   201         13
   202          6
   203          4
   204          6
   205         40
   206          9
   207          5
   208          4
   209          4
   210          8
   211          9
   212         35
   213         11
   214          7
   215          5
   216          4
   217          9
   218          4
   219          4
   220         11
   221          5
   222          4
   223         11
   224          4
   225          3
   226          9
   227          4
   228         14
   229         30
   230          8
   231          5
   232          3
   233          3
   237          3
   238          3
   239          4
   240         12
   241          5
   242        288
   243        251
   244         39
   245          5
   246          3
   247          4
   255          4
   256          5
   257          8
   258        553
   259        101
   260        113
   261         19
   262          5
   269          4
   270          4
   271          5
   272         41
   273         52
   274         12
   275          4
   276          4
   277         33
   278         16
   279          7
   285          5
   286          4
   287         14
   288          4
   289          3
   299          3
   300          5
   301          3
   302          4
   303          2
   313          7
   314          4
   315          3
   316          3
   327          2
   328          2
   329          2
   330          2
   331          3
   332          2
   341          3
   342          2
   343          2
   344          4
   345          2
   355          2
   356          3
   357          6
   358          2
   371          2
   372          2
   373          1
   385          6
   386          3
   387          2
   398          2
   399          4
   400          2
   413          2
   427          4
   428         96
   429         28
   430          4