##TITLE=Library Entry 98304
##JCAMP-DX=Revision 4.10 
##DATA TYPE=MASS SPECTRUM
##SAMPLE DESCRIPTION=V.G.Zaikin, TIPS RAS, Moscow, Russia
##NAMES=HP
##CAS NAME=Cyclohexanecarboxylic acid, 3-phenylpropyl ester
##MOLFORM=C16H22O2
##CAS REGISTRY NO=70275-61-5
##MP= -300
##BP= -300
##MW= 246
##$RETENTION INDEX=0
##$CONDENSED SPECTRUM=NO
##NPOINTS= 61
##XYDATA=(XY..XY) 1 
    27         39
    28          6
    29         42
    38          6
    39         62
    40          8
    41        155
    42         18
    43         42
    44         48
    45          7
    50          8
    51         28
    52          8
    53         18
    54         25
    55        221
    56         31
    57         22
    58          6
    60          9
    63          7
    65         51
    66          6
    67         39
    68         18
    69         31
    70          8
    71          7
    73         35
    77         35
    78         21
    79         28
    80          5
    81         35
    82         18
    83        192
    84         31
    89          7
    90          6
    91        237
    92         35
    95          7
    96          9
    97         18
    98         49
    99          9
   103         21
   104         49
   105         29
   110         17
   111         41
   112          9
   115         19
   116         65
   117        341
   118        999
   119        111
   120          7
   128         13
   129         23