##TITLE=Library Entry 33096
##JCAMP-DX=Revision 4.10 
##DATA TYPE=MASS SPECTRUM
##SAMPLE DESCRIPTION=Japan AIST/NIMC Database- Spectrum MS-IW-4631
##NAMES=HP
##CAS NAME=2-(Hydroxyimino)cyclooctyl acetate
##MOLFORM=C10H17NO3
##CAS REGISTRY NO=7027-08-9
##MP= -300
##BP= -300
##MW= 199
##$RETENTION INDEX=0
##$CONDENSED SPECTRUM=NO
##NPOINTS= 106
##XYDATA=(XY..XY) 1 
    13          1
    14          4
    15         29
    16          3
    17          1
    18          5
    19          1
    26          4
    27         64
    28         29
    29         55
    30         11
    31          7
    37          1
    38          5
    39         94
    40         16
    41        237
    42         48
    43        612
    44         25
    45         92
    46          7
    50          6
    51         16
    52         14
    53         77
    54         60
    55        287
    56         29
    57         23
    58          9
    59          6
    60         96
    61         13
    62          2
    63          5
    64          2
    65         34
    66         23
    67        999
    68         90
    69         66
    70         12
    71          6
    72         16
    73          8
    74          1
    75          1
    76          1
    77         31
    78          9
    79        102
    80         49
    81        200
    82         40
    83         29
    84         21
    85         21
    86          5
    87          3
    89          1
    91         21
    92          7
    93         29
    94         39
    95         38
    96         45
    97         18
    98         25
    99          4
   100          7
   103          1
   104          1
   105         12
   106          9
   107         48
   108         10
   109        870
   110        114
   111         52
   112         17
   113         13
   114          2
   118          1
   120         29
   121          6
   122         39
   123          8
   124         20
   125          3
   126          3
   127          5
   128         48
   129          6
   137          1
   138         22
   139        498
   140        122
   141         12
   142          1
   156         33
   157          8
   182          3
   199          1
   200          4