##TITLE=Library Entry 99373
##JCAMP-DX=Revision 4.10 
##DATA TYPE=MASS SPECTRUM
##SAMPLE DESCRIPTION=F. YAMADA,DEP. APPL. CHEM.,FAC. ENG.,KANSAI UNIV.,OSAKA
,JAPAN
##NAMES=HP
##CAS NAME=4,8-Dimethyl-6-(p-tolyl)-5,6,7,8-tetrahydro-4H-1,3,2,6-dioxathiaz
ocine 2-oxide
##MOLFORM=C13H19NO3S
##CAS REGISTRY NO=70291-66-6
##MP= -300
##BP= -300
##MW= 269
##$RETENTION INDEX=0
##$CONDENSED SPECTRUM=NO
##NPOINTS= 22
##XYDATA=(XY..XY) 1 
    90         35
    91        199
    92         30
   105         49
   115         60
   117         34
   118        125
   119        999
   120        118
   132         35
   133         34
   134         38
   144         23
   146         38
   147         23
   160         43
   161         38
   162         22
   225         76
   226         22
   269        124
   270         32