##TITLE=Library Entry 46945
##JCAMP-DX=Revision 4.10 
##DATA TYPE=MASS SPECTRUM
##SAMPLE DESCRIPTION=NIST Mass Spectrometry Data Center, 1994
##NAMES=HP
##CAS NAME=3-Phenyl-2-oxazolidinone
##MOLFORM=C9H9NO2
##CAS REGISTRY NO=703-56-0
##MP= -300
##BP= -300
##MW= 163
##$RETENTION INDEX=0
##$CONDENSED SPECTRUM=NO
##NPOINTS= 55
##XYDATA=(XY..XY) 1 
    13          2
    14          6
    15         58
    18          2
    25          2
    26         37
    27         74
    28         79
    29          7
    30          8
    37         33
    38         73
    39        136
    40         24
    41         22
    42         26
    44          4
    49          9
    50        112
    51        310
    52        117
    54          3
    56          2
    59          4
    61         13
    62         34
    63         90
    64         98
    65         65
    66         12
    67          2
    73          3
    74         20
    75         23
    76          2
    77        999
    78         82
    79          8
    87          2
    88          4
    89          9
    90         23
    91        155
    92         17
   104        892
   105        102
   106          9
   117         21
   118        158
   119         45
   120          4
   161          1
   163        490
   164         48
   165          4