##TITLE=Library Entry 46516
##JCAMP-DX=Revision 4.10 
##DATA TYPE=MASS SPECTRUM
##SAMPLE DESCRIPTION=LAC, NIDDK, NIH, Bethesda, MD 20892
##NAMES=HP
##CAS NAME=Homophthalic anhydride
##MOLFORM=C9H6O3
##CAS REGISTRY NO=703-59-3
##MP= -300
##BP= -300
##MW= 162
##$RETENTION INDEX=0
##$CONDENSED SPECTRUM=NO
##NPOINTS= 78
##XYDATA=(XY..XY) 1 
    41         60
    42         32
    43         71
    45        842
    46         17
    47          8
    49         25
    50        208
    51        449
    52        106
    53        222
    54         15
    55         60
    56         12
    57         17
    59         42
    60          2
    61         60
    62        210
    63        561
    64        137
    65        203
    66         26
    67         23
    68          7
    69         12
    71          8
    73         23
    74         47
    75         36
    77        999
    78        186
    79        356
    80         22
    81         16
    83          2
    84          6
    85         15
    86         34
    87         32
    88         42
    89        455
    90        648
    91        593
    92         66
    93          8
    95          2
    99          1
   101          2
   102          3
   103         14
   104          5
   105        506
   106         43
   107         33
   108          1
   111          1
   115          7
   116          2
   117          4
   118        778
   119        118
   120          5
   121         12
   122         10
   131         10
   133         71
   134        755
   135        239
   136         35
   137         24
   144          2
   145          8
   146          4
   161          5
   162        387
   163         62
   164         11