##TITLE=Library Entry 33188
##JCAMP-DX=Revision 4.10 
##DATA TYPE=MASS SPECTRUM
##SAMPLE DESCRIPTION=J.VOTH UNIV. OF CALIF, DAVIS, CALIFORNIA, 95616, USA
##NAMES=HP
##CAS NAME=1,4-Ethanonaphthalene, decahydro-
##MOLFORM=C12H20
##CAS REGISTRY NO=703-34-4
##MP= -300
##BP= -300
##MW= 164
##$RETENTION INDEX=0
##$CONDENSED SPECTRUM=NO
##NPOINTS= 94
##XYDATA=(XY..XY) 1 
    14          3
    15         55
    17          5
    18         21
    26         27
    27        365
    28        215
    29        224
    30          5
    32          2
    37          4
    38         16
    39        385
    40         59
    41        637
    42         53
    43         35
    44          2
    50         56
    51        153
    52         86
    53        313
    54        435
    55        401
    56         26
    57         21
    58          6
    59          2
    61          3
    62         12
    63         45
    64         14
    65        125
    66         99
    67        999
    68        210
    69         73
    70          4
    74          4
    75          9
    76          6
    77        241
    78         89
    79        432
    80        298
    81        626
    82        831
    83        327
    84         20
    87          2
    89          8
    90          5
    91        163
    92         34
    93        217
    94        230
    95        193
    96        127
    97        103
    98          8
   102          4
   103         12
   104         11
   105         30
   106         12
   107        140
   108         94
   109        106
   110         16
   111          2
   115         10
   116          3
   117         10
   118          2
   119          7
   120          4
   121        160
   122        141
   123         52
   124          4
   128          3
   129          2
   133          3
   134          5
   135        233
   136        144
   137         14
   149         37
   150          4
   160          3
   163          4
   164        832
   165        111
   166         10