##TITLE=Library Entry 55901
##JCAMP-DX=Revision 4.10 
##DATA TYPE=MASS SPECTRUM
##SAMPLE DESCRIPTION=Div. of Experiment Therapeutics WRAIR, WRAMC, Washingto
n DC 20307
##NAMES=HP
##CAS NAME=5-Fluoroorotic acid
##MOLFORM=C5H3FN2O4
##CAS REGISTRY NO=703-95-7
##MP= -300
##BP= -300
##MW= 174
##$RETENTION INDEX=0
##$CONDENSED SPECTRUM=NO
##NPOINTS= 64
##XYDATA=(XY..XY) 1 
    41          4
    44        800
    45        245
    46         27
    47         58
    48          7
    49          7
    50          3
    51         12
    52         14
    53         39
    54         54
    55         16
    57        132
    58        558
    59        423
    60        158
    61          4
    64          1
    67         71
    68         19
    70        120
    71         66
    73         36
    74         21
    75          9
    76          1
    77          2
    79          9
    80         22
    81          2
    82         22
    83          1
    86        999
    87        419
    88         57
    89          3
    90          1
    94          1
    97          1
    98          4
    99          6
   103        215
   104          9
   105          1
   111          4
   113          5
   114          6
   126          2
   128         36
   130        279
   131        136
   132          9
   138          1
   139          8
   154          5
   156          8
   157         42
   158          4
   171          6
   173         50
   174        739
   175         51
   176          3