##TITLE=Library Entry 100641
##JCAMP-DX=Revision 4.10 
##DATA TYPE=MASS SPECTRUM
##SAMPLE DESCRIPTION=Div. of Experiment Therapeutics WRAIR, WRAMC, Washingto
n DC 20307
##NAMES=HP
##CAS NAME=1,2-Dihydro-2-thioxo-3,1-benzoxazine-4-one
##MOLFORM=C8H5NO2S
##CAS REGISTRY NO=703-64-0
##MP= -300
##BP= -300
##MW= 179
##$RETENTION INDEX=0
##$CONDENSED SPECTRUM=NO
##NPOINTS= 20
##XYDATA=(XY..XY) 1 
    45         47
    50         49
    52         49
    60        104
    62         59
    63        151
    64        200
    65         93
    90         50
    91         86
    92        485
    93         34
    96         78
   119        999
   120        351
   134         23
   146         36
   179        514
   180         41
   181         25