##TITLE=Library Entry 52651
##JCAMP-DX=Revision 4.10 
##DATA TYPE=MASS SPECTRUM
##SAMPLE DESCRIPTION=V.G.Zaikin,TIPS,Russian Acad.Sci.Moscow
##NAMES=HP
##CAS NAME=Chloroacetic acid, pentadecyl ester
##MOLFORM=C17H33ClO2
##CAS REGISTRY NO=70301-47-2
##MP= -300
##BP= -300
##MW= 304
##$RETENTION INDEX=0
##$CONDENSED SPECTRUM=NO
##NPOINTS= 108
##XYDATA=(XY..XY) 1 
    28          3
    29         17
    31          3
    36         13
    37          3
    38          9
    39         48
    40          9
    41        358
    42        146
    43        517
    44         89
    45          3
    50         47
    51         29
    52          6
    53         19
    54         95
    55        812
    56        503
    57        788
    58         25
    60          8
    61          9
    65          6
    66         12
    67        156
    68        265
    69        877
    70        591
    71        465
    72         35
    73         18
    75          3
    76         11
    77        195
    78          3
    79         96
    80          6
    81         85
    82        432
    83        999
    84        399
    85        285
    86         17
    89          3
    91         13
    93          7
    94         25
    95        135
    96        202
    97        755
    98        255
    99         85
   100          8
   104          6
   105          8
   107         18
   108          5
   109         18
   110         81
   111        369
   112        168
   113         49
   121         12
   123         15
   124         45
   125        186
   126        108
   127         35
   128          7
   129          3
   132          6
   133         15
   135          8
   137         16
   138         25
   139         53
   140         75
   141         25
   143          7
   151          6
   152         11
   153         26
   154         22
   155         31
   163          2
   165          9
   166         13
   167         11
   168         10
   169         14
   176          3
   177          2
   178          2
   179          1
   180         14
   181          8
   182         80
   185          1
   207          3
   208         14
   209          3
   210         62
   211         39
   212          5
   255         10
   256          2