##TITLE=Library Entry 23003
##JCAMP-DX=Revision 4.10 
##DATA TYPE=MASS SPECTRUM
##SAMPLE DESCRIPTION=A.A.Kutin, Moscow, Russia
##NAMES=HP
##CAS NAME=Pyrazol-3(2H)-one, 1,5-dimethyl-2-phenyl-4-(3-pyridylmethylenamin
o)-
##MOLFORM=C17H16N4O
##CAS REGISTRY NO=70318-35-3
##MP= -300
##BP= -300
##MW= 292
##$RETENTION INDEX=0
##$CONDENSED SPECTRUM=NO
##NPOINTS= 172
##XYDATA=(XY..XY) 1 
    33          0
    34          0
    37         12
    38         36
    39         70
    40         23
    41         24
    42         20
    43         41
    44         20
    45          1
    50         27
    51         74
    52         21
    53          8
    54         38
    56        999
    57         34
    58          3
    59          1
    61          4
    62         22
    63         98
    64         88
    65         40
    66          8
    67         17
    68          3
    69          3
    70          2
    71          2
    72          0
    73          1
    74          3
    75          6
    77        132
    78         32
    79          8
    80          2
    81          2
    82          8
    83          8
    84          2
    85          0
    86          0
    87          2
    88          4
    89         11
    90         28
    91         71
    92         15
    93         12
    94          1
    95          2
    96          3
    97          0
    99          0
   101          1
   102          2
   103          6
   104         16
   105         18
   106         14
   107          2
   109          0
   110          4
   111          0
   112          1
   113          0
   114          1
   115          7
   116          7
   117         18
   118         15
   119         49
   121        209
   122         17
   123          3
   124          0
   126          0
   127          1
   128          1
   129          4
   130          6
   131         13
   132          7
   133          3
   134          0
   139          0
   140          0
   141          1
   142          3
   143          8
   144          7
   145         12
   146         17
   147          5
   149          0
   152          0
   154          0
   155          1
   156          3
   158         34
   159         14
   160          8
   161          1
   163          0
   164          0
   165          2
   166          1
   167          0
   168          0
   170          6
   171         15
   172         44
   173         17
   174          1
   177          0
   178          0
   179          0
   181          9
   182          5
   183         40
   184          7
   185          4
   186          8
   187         26
   188        100
   189         14
   190          1
   194          0
   197          2
   198          5
   199         21
   200         69
   201          8
   202          0
   203          0
   205          0
   206          1
   207          0
   208          1
   209          0
   214          4
   215          2
   220          0
   222          2
   223          0
   225          0
   237          0
   238          0
   239          0
   241          0
   246          0
   248          0
   261          0
   262          1
   263          1
   264          0
   273          1
   274          2
   275         14
   276          4
   277         15
   278          2
   286          0
   287          0
   288          3
   289          7
   292        342
   293         57
   294          6