##TITLE=Library Entry 99892
##JCAMP-DX=Revision 4.10 
##DATA TYPE=MASS SPECTRUM
##SAMPLE DESCRIPTION=D.HENNEBERG, MAX-PLANCK INSTITUTE, MULHEIM, WEST GERMAN
Y
##NAMES=HP
##CAS NAME=1-Butanamine, N-(2-pyridinylmethylene)-
##MOLFORM=C10H14N2
##CAS REGISTRY NO=7032-24-8
##MP= -300
##BP= -300
##MW= 162
##$RETENTION INDEX=0
##$CONDENSED SPECTRUM=NO
##NPOINTS= 90
##XYDATA=(XY..XY) 1 
    27        109
    28         82
    29        129
    30         54
    31          1
    32          2
    37          4
    38         15
    39         88
    40         12
    41        105
    42         22
    43          7
    44          3
    46          0
    49          1
    50         20
    51         73
    52         76
    53         26
    54          9
    55         13
    56         12
    57         44
    58          2
    60          2
    61          1
    62          6
    63         24
    64         26
    65        139
    66         15
    67          3
    68          2
    69          0
    70         10
    71          3
    72          1
    73          3
    75          2
    76          7
    77          9
    78         90
    79         95
    80         25
    81          1
    82          1
    83          0
    84         44
    85          3
    87          0
    88          1
    89          1
    90          3
    91         15
    92        534
    93        113
    94          8
    98          1
    99          3
   103          1
   104          5
   105         58
   106         57
   107         25
   108          1
   112          2
   113          0
   116          2
   117          6
   118         19
   119        999
   120         96
   121          4
   126          0
   130          4
   131          8
   132         11
   133         53
   134          7
   138          0
   143          0
   144          2
   145          2
   146          2
   147          6
   148          0
   161         10
   162          2
   163          0