##TITLE=Library Entry 37469
##JCAMP-DX=Revision 4.10 
##DATA TYPE=MASS SPECTRUM
##SAMPLE DESCRIPTION=Zaikin V.G., TIPS RAS, Moscow, Russia
##NAMES=HP
##CAS NAME=4-Nitrobenzoic acid, cyclobutyl ester
##MOLFORM=C11H11NO4
##CAS REGISTRY NO=70335-00-1
##MP= -300
##BP= -300
##MW= 221
##$RETENTION INDEX=0
##$CONDENSED SPECTRUM=NO
##NPOINTS= 80
##XYDATA=(XY..XY) 1 
    26         13
    27         48
    28          2
    29        103
    30         18
    36          6
    37          4
    38          7
    39         49
    40         10
    41        229
    42         67
    43        181
    44         20
    50         48
    51         16
    52          6
    53         18
    54         19
    55        264
    56        192
    57        429
    58         17
    59          3
    63         10
    64         17
    65         48
    66          6
    67         17
    68         19
    69        111
    70        999
    71        102
    72          6
    73          3
    74         14
    75         45
    76        130
    77         22
    78          5
    79          8
    81          9
    82         33
    83        184
    84        108
    85          9
    91          6
    92         61
    93         12
    95          3
    97         20
    98          7
   103         11
   104        174
   105         19
   109          3
   110          3
   111         13
   112        190
   113         15
   119          2
   120         94
   121         32
   122          8
   123          3
   134         45
   135          9
   136          3
   137        131
   138         15
   150        269
   151         79
   152          8
   153          3
   164         16
   167         18
   168         15
   169          5
   180          4
   193          3