##TITLE=Library Entry 3112
##JCAMP-DX=Revision 4.10 
##DATA TYPE=MASS SPECTRUM
##SAMPLE DESCRIPTION=V.A.KOPTYUG, ATLAS OF MASS SPECTRA OF ORGANIC COMPOUNDS
##NAMES=HP
##CAS NAME=4-Methoxyiminomethyl-2,2,5,5-tetramethyl-3-imidazoline-3-oxide-1-
oxile
##MOLFORM=C9H16N3O3
##CAS REGISTRY NO=70345-91-4
##MP= -300
##BP= -300
##MW= 214
##$RETENTION INDEX=0
##$CONDENSED SPECTRUM=NO
##NPOINTS= 112
##XYDATA=(XY..XY) 1 
    37         19
    38         44
    39        529
    40        146
    41        999
    42        778
    43        120
    44         72
    45         48
    50         24
    51         56
    52         70
    53        389
    54        189
    55        303
    56        891
    57         95
    58        896
    59        100
    60          6
    63          6
    64         15
    65         50
    66        119
    67        146
    68        381
    69        373
    70        108
    71         66
    72         54
    73        135
    74        427
    75         13
    76         11
    77         19
    78         19
    79         32
    80        384
    81        497
    82         76
    83        141
    84        637
    85        157
    86         22
    88         21
    91         15
    92          7
    93         29
    94         74
    95        173
    96         86
    97        232
    98        114
    99         22
   100         10
   101          4
   103          4
   105         11
   106          9
   107         30
   108        135
   109         56
   110         48
   111        170
   112        476
   113         34
   114          4
   119         11
   120         30
   121        173
   122         71
   123         77
   124         38
   125         62
   126         74
   127         24
   128         14
   133          6
   134         14
   135         52
   136        227
   137        146
   138         52
   139         19
   140          6
   141         50
   142        389
   143         34
   149          9
   150          9
   151         38
   152         46
   153        583
   154         58
   155          8
   163          5
   166          8
   167        184
   168         66
   169         85
   170          9
   182         31
   183         30
   184        208
   185         24
   197          5
   198          4
   199         80
   200         15
   214        454
   215        168
   216         18