##TITLE=Library Entry 84752
##JCAMP-DX=Revision 4.10 
##DATA TYPE=MASS SPECTRUM
##SAMPLE DESCRIPTION=V.Zaikin,Inst.Petrochem.Synth.,RAS,Moscow
##NAMES=HP
##CAS NAME=Pentanoic acid, 2-methylphenyl ester
##MOLFORM=C12H16O2
##CAS REGISTRY NO=70340-00-0
##MP= -300
##BP= -300
##MW= 192
##$RETENTION INDEX=0
##$CONDENSED SPECTRUM=NO
##NPOINTS= 56
##XYDATA=(XY..XY) 1 
    26         39
    27        166
    28         36
    29        250
    30          8
    39        157
    40         52
    41        247
    42         40
    43         43
    54          9
    55        149
    56         19
    57        732
    58         34
    59          5
    60         39
    61          4
    62          7
    63         26
    64          8
    65         64
    66         19
    67          7
    68          3
    69         14
    73         16
    74          6
    75          8
    76         10
    77        121
    78         69
    81          5
    82         12
    83         11
    84         20
    85        431
    86         24
    89          6
    90         27
    91         53
    92          7
    99          2
   101          3
   103          2
   104          4
   105         18
   106          8
   107        110
   108        999
   109         93
   110          6
   135          4
   191          3
   192         59
   193          8