##TITLE=Library Entry 22272
##JCAMP-DX=Revision 4.10 
##DATA TYPE=MASS SPECTRUM
##SAMPLE DESCRIPTION=V.A.KOPTYUG, ATLAS OF MASS SPECTRA OF ORGANIC COMPOUNDS
##NAMES=HP
##CAS NAME=1-Hydroxy-4-dimethylhydrazonomethyl-2,2,5,5-tetramethyl-3-imidazo
line-3-oxide
##MOLFORM=C10H20N4O2
##CAS REGISTRY NO=70345-96-9
##MP= -300
##BP= -300
##MW= 228
##$RETENTION INDEX=0
##$CONDENSED SPECTRUM=NO
##NPOINTS= 116
##XYDATA=(XY..XY) 1 
    36         22
    37          8
    38         74
    39        144
    40         34
    41        283
    42        449
    43        249
    44        592
    45         46
    46         14
    50          7
    51         16
    52         15
    53         64
    54         54
    55        287
    56        999
    57         72
    58        122
    59         69
    60          5
    61          5
    64          3
    65         23
    66         31
    67        131
    68         83
    69         88
    70        123
    71         85
    72          8
    73         51
    74         75
    75          3
    93          7
    94         36
    95         39
    96         66
    97         75
    98        120
    99        127
   100          9
   103          3
   106          3
   107          9
   108         23
   109         31
   110         41
   111         64
   112         11
   113          8
   114          6
   118          4
   119          2
   120          7
   121         17
   122         19
   123         44
   124         29
   125        541
   126         49
   127          5
   128         86
   129         10
   134          3
   135          9
   136         19
   137         47
   138         41
   139         19
   140          9
   141         12
   142          3
   148          2
   149          6
   150          4
   151          4
   152          8
   153         11
   154         27
   155        164
   156         16
   164          4
   165          4
   166         12
   167          5
   168          3
   169          8
   170          5
   171          4
   178          1
   179          8
   180         27
   181         26
   182         20
   183          4
   184          3
   185         11
   186          3
   193          3
   195          7
   196          6
   197         12
   198          3
   200          4
   201         13
   210          4
   211          4
   212         12
   213          4
   214          7
   227         32
   228        186
   229         23
   230          2