##TITLE=Library Entry 87876
##JCAMP-DX=Revision 4.10 
##DATA TYPE=MASS SPECTRUM
##SAMPLE DESCRIPTION=V.A.KOPTYUG, ATLAS OF MASS SPECTRA OF ORGANIC COMPOUNDS
##NAMES=HP
##CAS NAME=1-Hydroxy-4-methylhydrazonomethyl-2,2,5,5-tetramethyl-3-imidazoli
ne-3-oxide
##MOLFORM=C9H18N4O2
##CAS REGISTRY NO=70345-95-8
##MP= -300
##BP= -300
##MW= 214
##$RETENTION INDEX=0
##$CONDENSED SPECTRUM=NO
##NPOINTS= 133
##XYDATA=(XY..XY) 1 
    38         29
    39        285
    40         70
    41        668
    42        580
    43        297
    44        166
    45         47
    50         16
    51         40
    52         41
    53        192
    54        179
    55        609
    56        569
    57        262
    58        580
    59         58
    60         19
    62          9
    64          8
    65         70
    66         76
    67        349
    68        215
    69        480
    70        331
    71         64
    72         64
    73        209
    74        569
    75        215
    77         40
    78         22
    79        157
    80        110
    81        326
    82        326
    83        372
    84        116
    85         87
    86         35
    87         10
    88         57
    92         12
    93         22
    94         78
    95        122
    96        145
    97        105
    98        163
    99         62
   103         10
   104         10
   105         10
   106         10
   107         24
   108         64
   109        145
   110        122
   111        999
   112         99
   113        188
   114         24
   115          7
   116          9
   117          6
   119          9
   120         16
   121         39
   122        101
   123        102
   124        192
   125         73
   126        169
   127         25
   128         10
   129         10
   131         11
   133         10
   134         10
   135         29
   136         52
   137         87
   138         47
   139        116
   140        122
   141        360
   142         47
   143         11
   146         20
   147          9
   149         35
   150         20
   151         47
   152         76
   153         58
   154         64
   155         70
   156         13
   157         12
   161          9
   163         11
   164         20
   165         19
   166         99
   167         93
   168         52
   169         24
   170         20
   171         81
   172         12
   179          7
   180         25
   181         27
   182         17
   183        102
   184         58
   185         40
   186         28
   187         22
   195         12
   196         12
   197          8
   198         57
   199         12
   200          7
   211         16
   212         35
   213         52
   214        308
   215         48
   216          7