##TITLE=Library Entry 56814
##JCAMP-DX=Revision 4.10 
##DATA TYPE=MASS SPECTRUM
##SAMPLE DESCRIPTION=A.A.Kutin, Moscow, Russia
##NAMES=HP
##CAS NAME=Diethyl(4-nonyn-1-yl)amine
##MOLFORM=C13H25N
##CAS REGISTRY NO=70351-81-4
##MP= -300
##BP= -300
##MW= 195
##$RETENTION INDEX=0
##$CONDENSED SPECTRUM=NO
##NPOINTS= 80
##XYDATA=(XY..XY) 1 
    36          0
    38          1
    39         36
    40         18
    41         85
    42         59
    43         63
    44         25
    45          1
    50          1
    51         12
    53         37
    54          8
    55         21
    56         57
    57         15
    58        106
    59          4
    63          3
    65         16
    66          5
    67         28
    68          4
    69          6
    70         15
    71         17
    72        147
    73          8
    74          7
    77         29
    78          6
    79         23
    80         11
    81         23
    82          4
    84         19
    86        999
    87         62
    91         11
    92          1
    93         10
    94          5
    95          6
    96          6
    98         22
    99         14
   100          1
   105          0
   106          2
   108         18
   109          3
   110          9
   111         33
   112          7
   120          2
   122         30
   123         21
   124        151
   125         24
   134          2
   135          3
   136         21
   137          9
   138         39
   139          4
   150         11
   152         27
   153          5
   164          4
   166        118
   167        148
   168         19
   169          0
   178          5
   179          2
   180        210
   181         30
   182          1
   194         26
   195          5