##TITLE=Library Entry 30113
##JCAMP-DX=Revision 4.10 
##DATA TYPE=MASS SPECTRUM
##SAMPLE DESCRIPTION=Chemical Concepts
##NAMES=HP
##CAS NAME=3-Hexenedioic acid, dimethyl ester, (Z)-
##MOLFORM=C8H12O4
##CAS REGISTRY NO=70354-00-6
##MP= -300
##BP= -300
##MW= 172
##$RETENTION INDEX=0
##$CONDENSED SPECTRUM=NO
##NPOINTS= 87
##XYDATA=(XY..XY) 1 
    26         31
    27        270
    28         41
    29         52
    30         11
    31         36
    33          4
    37          5
    38         18
    39        255
    40         23
    41        519
    42         49
    43         83
    44          9
    45         41
    47          2
    49          3
    50         25
    51         50
    52         42
    53        296
    54        349
    55        146
    56         16
    57         15
    58          9
    59        999
    60         23
    61          6
    63          2
    65          7
    66         15
    67        160
    68         69
    69         56
    70          9
    71        982
    72         47
    73          4
    74         57
    75          8
    77          4
    78          6
    79         19
    80         75
    81        441
    82        129
    83         26
    84         16
    85         32
    86          3
    87          6
    91         20
    92         19
    93          3
    94          5
    95         18
    96          6
    97         61
    98         35
    99         22
   100          3
   101         26
   102          2
   105          4
   107          2
   108        724
   109        198
   110         31
   111         46
   112        133
   113        237
   114         18
   115          3
   120         15
   125          3
   127         14
   128          3
   130         14
   138         59
   139          7
   140        735
   141        374
   142         28
   143          3
   172         10