##TITLE=Library Entry 87936
##JCAMP-DX=Revision 4.10 
##DATA TYPE=MASS SPECTRUM
##SAMPLE DESCRIPTION=D.D.FAULK CENTRAL MISSOURI STATE COLLEGE, WARRENSBURG,
 USA
##NAMES=HP
##CAS NAME=5-Nonen-4-one, 6-methyl-
##MOLFORM=C10H18O
##CAS REGISTRY NO=7036-98-8
##MP= -300
##BP= -300
##MW= 154
##$RETENTION INDEX=0
##$CONDENSED SPECTRUM=NO
##NPOINTS= 104
##XYDATA=(XY..XY) 1 
    12          1
    13          1
    14          9
    15         54
    16          3
    17          3
    18         10
    19          0
    20          0
    25          0
    26         23
    27        367
    28         71
    29        174
    30          4
    31          5
    32          4
    36          1
    37          5
    38         18
    39        262
    40         46
    41        426
    42         58
    43        643
    44         21
    45          4
    49          1
    50          9
    51         25
    52         13
    53         77
    54         30
    55        461
    56         28
    57         30
    58          5
    59          1
    61          1
    62          2
    63          6
    64          2
    65         17
    66          9
    67         48
    68         13
    69        227
    70         15
    71        386
    72         17
    73          1
    74          0
    75          1
    77         16
    78          4
    79         14
    81         16
    82         39
    83         60
    84         10
    85          8
    86          1
    87          0
    89          1
    91          9
    92          2
    93         10
    94          2
    95         21
    96          4
    97         17
    98          5
    99          1
   100          1
   103          1
   105          2
   106          1
   107          5
   108          2
   109          6
   110          3
   111        999
   112         77
   113          6
   114          1
   121          5
   122          1
   123          4
   124          1
   125         14
   126         10
   127          1
   135          1
   137          2
   138          0
   139         22
   140          2
   150          1
   151          1
   152          1
   153          3
   154        131
   155         15
   156          1