##TITLE=Library Entry 12260
##JCAMP-DX=Revision 4.10 
##DATA TYPE=MASS SPECTRUM
##SAMPLE DESCRIPTION=Chemical Concepts
##NAMES=HP
##CAS NAME=Cyclobutane, 1,3-bis[2-(2-isopropyl-3,3-dimethyloxiran-2-yl)ethen
yl]-2,4-diacetyl-
##MOLFORM=C26H40O4
##CAS REGISTRY NO=70373-02-3
##MP= -300
##BP= -300
##MW= 416
##$RETENTION INDEX=2674
##$CONDENSED SPECTRUM=NO
##NPOINTS= 302
##XYDATA=(XY..XY) 1 
    26          2
    27         36
    28          7
    29         36
    31          6
    39         29
    40          6
    41        193
    42         18
    43        999
    44         33
    45         14
    50          2
    51         11
    52          4
    53         38
    54          5
    55        120
    56         10
    57         45
    58          5
    59         50
    60          2
    63          5
    64          2
    65         34
    66         11
    67         64
    68          9
    69        121
    70         15
    71        280
    72         16
    73          5
    75          2
    76          3
    77         73
    78         19
    79         93
    80         30
    81         84
    82         41
    83         57
    84          9
    85         53
    86          5
    87          5
    88          2
    89          5
    90          6
    91        156
    92         35
    93        106
    94         21
    95        180
    96         32
    97        122
    98         23
    99         12
   100          2
   101          3
   102          5
   103         19
   104         11
   105        113
   106         26
   107        215
   108         38
   109        133
   110         18
   111         26
   112         19
   113         23
   114         11
   115         41
   116         22
   117         59
   118         12
   119         96
   120         36
   121        113
   122         49
   123        139
   124         32
   125         21
   126          6
   127         20
   128         37
   129         47
   130         28
   131         62
   132         20
   133         81
   134         18
   135        314
   136         42
   137        367
   138         96
   139        622
   140         71
   141         34
   142         22
   143         48
   144         16
   145         58
   146         16
   147         98
   148         27
   149         90
   150        187
   151        112
   152         61
   153         27
   154         10
   155         23
   156         14
   157         41
   158         13
   159         50
   160         13
   161         39
   162         12
   163         44
   164         17
   165        255
   166        363
   167         68
   168         15
   169         15
   170         10
   171         26
   172         10
   173         42
   174         13
   175         89
   176         20
   177         39
   178         17
   179         34
   180         13
   181         12
   182          7
   183         12
   184          8
   185         22
   186          9
   187         27
   188          9
   189         38
   190         88
   191         92
   192         25
   193        303
   194         40
   195         15
   196          5
   197         10
   198          5
   199         21
   200          8
   201         27
   202         10
   203         42
   204         10
   205         30
   206         14
   207        244
   208        484
   209        128
   210         22
   211          9
   212          4
   213         13
   214          8
   215         28
   216         10
   217         44
   218         15
   219         88
   220         20
   221         34
   222          8
   223          7
   224          3
   225          8
   226          3
   227         14
   228          7
   229         20
   230          8
   231         20
   232         18
   233        201
   234         50
   235         18
   236          6
   237          4
   238          2
   239          5
   240          2
   241         12
   242          7
   243         34
   244         10
   245         46
   246         12
   247         18
   248          5
   249          6
   250          2
   251         13
   252          4
   253          6
   254          2
   255         11
   256          4
   257         13
   258          5
   259         23
   260         22
   261         60
   262         19
   263          7
   264          3
   265          2
   267          5
   268          2
   269          8
   270          5
   271         25
   272          7
   273         15
   274          5
   275         37
   276         15
   277         37
   278          8
   279          5
   280          4
   283          4
   284          2
   285         24
   286         10
   287         18
   288          6
   289         23
   290          7
   291          2
   295          4
   296          2
   297          9
   298          3
   299          4
   300          2
   301          5
   302          4
   303        207
   304         70
   305         14
   306          2
   311          3
   313         35
   314         11
   315         19
   316          6
   317          3
   327          3
   328          2
   329          3
   330         11
   331         25
   332          7
   333          2
   337          5
   338          2
   339          2
   340          2
   341          4
   343          5
   344          2
   345          7
   346          2
   354          2
   355         22
   356         13
   357          7
   358          5
   359          9
   360          3
   370          2
   371          5
   372          2
   373        108
   374         31
   375          6
   380          5
   398          8
   399          3
   401          7
   414          2
   416         16
   417          4