##TITLE=Library Entry 84281
##JCAMP-DX=Revision 4.10 
##DATA TYPE=MASS SPECTRUM
##SAMPLE DESCRIPTION=Chemical Concepts
##NAMES=HP
##CAS NAME=3,5,7-Nonatrien-2-one, 8-methyl-7-(1-methylethyl)-, (E,E)-
##MOLFORM=C13H20O
##CAS REGISTRY NO=70372-94-0
##MP= -300
##BP= -300
##MW= 192
##$RETENTION INDEX=0
##$CONDENSED SPECTRUM=NO
##NPOINTS= 91
##XYDATA=(XY..XY) 1 
    29         97
    30         11
    31         63
    39        132
    40         17
    41        237
    42         17
    43        751
    44         25
    45         14
    50         11
    51         55
    52         26
    53         84
    54         11
    55        131
    56         11
    57         48
    58         12
    59         18
    63         26
    64         11
    65         92
    66         28
    67        149
    68         12
    69         67
    70          8
    71        124
    77        158
    78         35
    79        177
    80         31
    81        122
    82         35
    83         29
    85          9
    89         12
    91        410
    92         51
    93        225
    94         24
    95        275
    96         27
    97         30
   103         31
   104         13
   105        221
   106         41
   107        999
   108        122
   109         49
   110         10
   111         10
   115         41
   116         30
   117         61
   118         13
   119        244
   120         34
   121        135
   122         49
   123         31
   128          9
   129         26
   130          8
   131        139
   132         19
   133         62
   134         60
   135        198
   136         30
   137         33
   139         17
   144         37
   145         11
   147         18
   148          9
   149        833
   150        142
   151         25
   159         75
   160         10
   161         11
   163         14
   177        227
   178         35
   191          9
   192        446
   193         79
   194          8