##TITLE=Library Entry 11868
##JCAMP-DX=Revision 4.10 
##DATA TYPE=MASS SPECTRUM
##SAMPLE DESCRIPTION=Chemical Concepts
##NAMES=HP
##CAS NAME=4-Isopropyl-5-methylhex-2-yne-1,4-diol
##MOLFORM=C10H18O2
##CAS REGISTRY NO=70372-89-3
##MP= -300
##BP= -300
##MW= 170
##$RETENTION INDEX=0
##$CONDENSED SPECTRUM=NO
##NPOINTS= 84
##XYDATA=(XY..XY) 1 
    25          3
    26         14
    27        156
    28         29
    29         69
    30          3
    31         26
    37          7
    38         16
    39        151
    40         20
    41        331
    42         33
    43        999
    44         25
    45         17
    50          6
    51         25
    52          9
    53        112
    54         10
    55        148
    56         14
    57         30
    59         10
    61         24
    62          3
    63         10
    64          3
    65         62
    66         30
    67        201
    68         15
    69         28
    70         26
    71        136
    72          7
    73          2
    74          2
    75          2
    76          2
    77         45
    78          8
    79        202
    80         24
    81        444
    82         32
    83         25
    84          5
    85          7
    91         25
    92          5
    93         18
    94          6
    95         34
    96          4
    97         19
    98          2
    99          6
   104          2
   105          7
   107          8
   108          2
   109        142
   110         16
   111         16
   112          2
   113         18
   114         18
   115          3
   119          5
   121          4
   123          5
   125          3
   126         29
   127        861
   128         61
   129          6
   135          4
   137         15
   139          9
   141          2
   152          3
   169          2