##TITLE=Library Entry 97239
##JCAMP-DX=Revision 4.10 
##DATA TYPE=MASS SPECTRUM
##SAMPLE DESCRIPTION=D.HENNEBERG, MAX-PLANCK INSTITUTE, MULHEIM, WEST GERMAN
Y
##NAMES=HP
##CAS NAME=Benzene, 1,1'-(1-butene-1,4-diyl)bis-, (Z)-
##MOLFORM=C16H16
##CAS REGISTRY NO=70388-65-7
##MP= -300
##BP= -300
##MW= 208
##$RETENTION INDEX=0
##$CONDENSED SPECTRUM=NO
##NPOINTS= 101
##XYDATA=(XY..XY) 1 
    28          2
    29          0
    32          0
    40          4
    41          1
    43          1
    47          0
    49          0
    50          1
    51         10
    52          2
    53          1
    58          0
    59          0
    61          0
    62          2
    63         11
    64          2
    65         44
    66          5
    67          0
    68          0
    69          0
    70          0
    71          1
    72          0
    73          0
    74          1
    75          3
    76          4
    77         19
    78         10
    79          2
    80          0
    81          0
    82          0
    86          8
    87          1
    88          1
    89         13
    90          3
    91        226
    92         17
    93          0
    98          0
    99          0
   100          0
   101          1
   102          8
   103          7
   104         13
   105          1
   110          0
   111          0
   114          7
   115        187
   116         51
   117        999
   118        118
   119          5
   125          0
   126          1
   127          3
   128          7
   129          4
   130          3
   131          0
   139          0
   141          0
   150          0
   151          0
   152          1
   153          0
   163          0
   164          0
   165          1
   166          0
   167          0
   175          0
   176          0
   177          0
   178          1
   179          0
   180          0
   187          0
   188          0
   189          1
   190          1
   191          0
   192          0
   193          0
   198          0
   200          0
   201          0
   202          1
   203          0
   205          0
   207          0
   208         99
   209         17
   210          1