##TITLE=Library Entry 3749
##JCAMP-DX=Revision 4.10 
##DATA TYPE=MASS SPECTRUM
##SAMPLE DESCRIPTION=Chemical Concepts
##NAMES=HP
##CAS NAME=2-Heptyne, 7-chloro-
##MOLFORM=C7H11Cl
##CAS REGISTRY NO=70396-13-3
##MP= -300
##BP= -300
##MW= 130
##$RETENTION INDEX=0
##$CONDENSED SPECTRUM=NO
##NPOINTS= 59
##XYDATA=(XY..XY) 1 
    27        498
    28         20
    29         49
    31          3
    35          2
    36         14
    37         35
    38         87
    39        824
    40        314
    41        999
    42         51
    43          5
    44          6
    47          3
    48          2
    49        100
    50        117
    51        191
    52        249
    53        400
    54        538
    55         70
    56          3
    58          1
    60          2
    61         16
    62         24
    63         36
    64          7
    65        193
    66         35
    67        352
    68         19
    69          1
    73          8
    74         20
    75         87
    76         24
    77        150
    78         21
    79        546
    80         56
    81        628
    82         37
    83          1
    86          0
    87          6
    88        931
    89         38
    90        308
    91         14
    92          1
   101         32
   103         10
   106          2
   115         13
   116          1
   117          3