##TITLE=Library Entry 53608
##JCAMP-DX=Revision 4.10 
##DATA TYPE=MASS SPECTRUM
##SAMPLE DESCRIPTION=Humboldt-Universitat zu Berlin, Department of Chemistry
, Analytical Group
##NAMES=HP
##CAS NAME=2H-Azepin-2-one, 3-(dimethylamino)hexahydro-
##MOLFORM=C8H16N2O
##CAS REGISTRY NO=70394-23-9
##MP= -300
##BP= -300
##MW= 156
##$RETENTION INDEX=0
##$CONDENSED SPECTRUM=NO
##NPOINTS= 92
##XYDATA=(XY..XY) 1 
    12          1
    13          1
    14          6
    15        156
    16          4
    17         16
    18         93
    19          0
    26         19
    27        128
    28        186
    29         81
    30         88
    31          4
    32          2
    37          1
    38          6
    39         89
    40         23
    41        147
    42        406
    43        100
    44        130
    45         18
    46         14
    47          1
    48          0
    49          1
    50          3
    51          6
    52          6
    53         20
    54         35
    55         84
    56        198
    57         59
    58        127
    59          7
    60          1
    61          0
    62          0
    63          1
    64          0
    65          3
    66          3
    67         17
    68         31
    69         15
    70        108
    71        248
    72         40
    73          2
    74          1
    77          0
    78          1
    79          1
    80          5
    81          5
    82         62
    84        999
    85        108
    86          8
    87          0
    91          0
    92          0
    93          0
    94          4
    95          2
    96         17
    97          6
    98         71
    99         18
   100         10
   101          1
   107          0
   108          1
   110         39
   111        235
   112         35
   113         22
   114          2
   123          0
   125          2
   126          0
   127          6
   128          1
   129          0
   139          1
   141          1
   156        107
   157         12
   158          0