##TITLE=Library Entry 1138
##JCAMP-DX=Revision 4.10 
##DATA TYPE=MASS SPECTRUM
##SAMPLE DESCRIPTION=Japan AIST/NIMC Database- Spectrum MS-NW-4775
##NAMES=HP
##CAS NAME=Glycyl-L-proline
##MOLFORM=C7H12N2O3
##CAS REGISTRY NO=704-15-4
##MP= -300
##BP= -300
##MW= 172
##$RETENTION INDEX=0
##$CONDENSED SPECTRUM=NO
##NPOINTS= 95
##XYDATA=(XY..XY) 1 
    13          1
    14          7
    15         23
    16          2
    17         15
    18         59
    25          1
    26         14
    27         87
    28        158
    29         54
    30        999
    31         19
    32          2
    33          1
    37          6
    38         12
    39         99
    40         40
    41        310
    42        173
    43         69
    44         10
    45          9
    49          2
    50          3
    51          5
    52          7
    53         12
    54         24
    55        166
    56         58
    57         34
    58          4
    59          1
    63          1
    64          2
    65          2
    66          7
    67         15
    68        171
    69        274
    70        699
    71         40
    72          2
    73          3
    74          1
    78          2
    80          4
    81          8
    82         22
    83        571
    84         47
    85          6
    86          2
    87          3
    92          2
    93          1
    94          3
    95          2
    96         16
    97         31
    98        156
    99         10
   100          2
   107          1
   109          1
   110          1
   111        522
   112         50
   113          3
   114         51
   115         18
   116          9
   117          1
   120          1
   123          1
   124          2
   125         24
   126         49
   127         33
   128          4
   137          1
   138          1
   142          1
   143          1
   150          1
   151          1
   152          3
   153          3
   154        452
   155         90
   156          8
   172         19
   173          2