##TITLE=Library Entry 31044
##JCAMP-DX=Revision 4.10 
##DATA TYPE=MASS SPECTRUM
##SAMPLE DESCRIPTION=Chemical Concepts
##NAMES=HP
##CAS NAME=1,4-Dithiane-2,5-dione, 3,6-dimethyl-
##MOLFORM=C6H8O2S2
##CAS REGISTRY NO=70400-95-2
##MP= -300
##BP= -300
##MW= 176
##$RETENTION INDEX=0
##$CONDENSED SPECTRUM=NO
##NPOINTS= 87
##XYDATA=(XY..XY) 1 
    25         11
    26        132
    27        324
    28        232
    29         41
    30          4
    31          5
    33         18
    34         16
    35         18
    36          2
    37          5
    38          5
    39         14
    40          5
    41         18
    42          7
    43         36
    44         34
    45        309
    46         15
    47         22
    48          3
    53         16
    54         17
    55        339
    56        306
    57         69
    58        136
    59        467
    60        999
    61        182
    62         51
    63          8
    64        112
    65          6
    66         14
    67          3
    68          5
    69         18
    70          4
    71         17
    72         10
    73         15
    74          3
    75          2
    76         11
    77          5
    78          2
    79          2
    81          5
    82          3
    83         13
    84          5
    85          5
    86          2
    87         12
    88         87
    89          8
    90          5
    91          5
    92        345
    93         24
    94         35
    95          4
    96          2
    97          3
   105          4
   111         20
   112        212
   113         15
   114          2
   115          3
   116          8
   120        511
   121         31
   122         51
   123          3
   124          2
   148         55
   149          7
   150          6
   151          6
   176        363
   177         36
   178         40
   179          3