##TITLE=Library Entry 80834
##JCAMP-DX=Revision 4.10 
##DATA TYPE=MASS SPECTRUM
##SAMPLE DESCRIPTION=NIST Mass Spectrometry Data Center, 2010
##NAMES=HP
##CAS NAME=.beta.-Methylphenethylamine, N-trifluoroacetyl-
##MOLFORM=C11H12F3NO
##CAS REGISTRY NO=70414-02-7
##MP= -300
##BP= -300
##MW= 231
##$RETENTION INDEX=0
##$CONDENSED SPECTRUM=NO
##NPOINTS= 90
##XYDATA=(XY..XY) 1 
    27          8
    28          5
    29          2
    30          1
    33          1
    38          1
    39         14
    40          1
    41          7
    42          1
    43          1
    44          2
    46          1
    50         11
    51         31
    52          8
    53          5
    54          1
    55          1
    56          2
    58          4
    61          1
    62          3
    63         12
    64          3
    65         15
    66          2
    69         48
    70          1
    73          1
    74          5
    75          5
    76          7
    77        127
    78         59
    79        115
    80          7
    81          1
    84          1
    86          1
    87          1
    89         11
    90          5
    91         64
    92          6
    93          1
    96          1
    97          8
    98          2
   101          2
   102         15
   103        125
   104         42
   105        999
   106         93
   107          4
   109          1
   115         27
   116          8
   117         65
   118        608
   119         78
   120          5
   126         28
   127          7
   128          2
   129          1
   130          2
   131          1
   132          2
   133          2
   141          1
   144          2
   145          1
   146          1
   149          1
   151          1
   160          1
   162         17
   163          2
   164          7
   165          1
   167          1
   178          1
   192          1
   214          1
   229          1
   230          4
   231          6
   232          1