##TITLE=Library Entry 3523
##JCAMP-DX=Revision 4.10 
##DATA TYPE=MASS SPECTRUM
##SAMPLE DESCRIPTION=F. TURECEK,HEYROVSKY INST.PHYS.CHEM.ELECTROCHEM.,PRAGUE
,CZECH.
##NAMES=HP
##CAS NAME=(Z)-1,3-Butadien-1-ol
##MOLFORM=C4H6O
##CAS REGISTRY NO=70415-58-6
##MP= -300
##BP= -300
##MW= 70
##$RETENTION INDEX=0
##$CONDENSED SPECTRUM=NO
##NPOINTS= 28
##XYDATA=(XY..XY) 1 
    14         10
    15         30
    25         10
    26         50
    27        220
    28         70
    29        150
    30         20
    31         50
    36         10
    37         30
    38         60
    39        620
    40         40
    41        999
    42        210
    43        120
    49          5
    50         40
    51         40
    52         90
    53         20
    54         70
    55         20
    68         20
    69        350
    70        930
    71         50