##TITLE=Library Entry 11714
##JCAMP-DX=Revision 4.10 
##DATA TYPE=MASS SPECTRUM
##SAMPLE DESCRIPTION=Chemical Concepts
##NAMES=HP
##CAS NAME=Cyclopentanone, 2-acetyl-3,3-dimethyl-2-(3-oxo-1-butenyl)-, (E)-
##MOLFORM=C13H18O3
##CAS REGISTRY NO=70412-49-6
##MP= -300
##BP= -300
##MW= 222
##$RETENTION INDEX=0
##$CONDENSED SPECTRUM=NO
##NPOINTS= 129
##XYDATA=(XY..XY) 1 
    26          3
    27         66
    28         22
    29         38
    31          3
    38          8
    39         96
    40         14
    41        131
    42         20
    43        999
    44         26
    45         46
    50          8
    51         36
    52         18
    53         63
    54          8
    55         84
    56          8
    57          7
    58          2
    59          2
    60         36
    61          1
    62          4
    63         17
    64          7
    65         46
    66         14
    67         44
    68          6
    69         38
    70          6
    71          5
    72          2
    73          4
    74          2
    75          4
    76          2
    77         74
    78         19
    79         62
    80         15
    81         38
    82         12
    83         46
    84          4
    85          6
    89          5
    91         76
    92         12
    93         37
    94         15
    95         73
    96         20
    97         12
    98          3
    99          2
   102          3
   103         16
   104          9
   105         35
   106          6
   107         52
   108         15
   109        112
   110         14
   111         85
   112          5
   115         14
   116          4
   117         17
   118          4
   119         86
   120         13
   121         30
   122         89
   123        786
   124        138
   125        221
   126         20
   127          3
   128          7
   129          6
   131         11
   132         14
   133         27
   134         12
   135         25
   136          8
   137         69
   138         46
   139          7
   143          4
   144          2
   145         26
   146         16
   147        306
   148         38
   149         45
   150         30
   151         30
   152         16
   153         18
   159          5
   160          4
   161         83
   162        265
   163        391
   164         49
   165        606
   166         76
   167         53
   168          7
   177         18
   178         23
   179         94
   180        264
   181         35
   182          3
   189         11
   190          1
   204          3
   205          0
   207         36
   208          4
   222          7
   223          1