##TITLE=Library Entry 77059
##JCAMP-DX=Revision 4.10 
##DATA TYPE=MASS SPECTRUM
##SAMPLE DESCRIPTION=ASES Database, Dalian Institute, P.R. China
##NAMES=HP
##CAS NAME=N-(2-Phenylethyl)-undecafluorohexanamide
##MOLFORM=C14H10F11NO
##CAS REGISTRY NO=70414-01-6
##MP= -300
##BP= -300
##MW= 417
##$RETENTION INDEX=0
##$CONDENSED SPECTRUM=NO
##NPOINTS= 14
##XYDATA=(XY..XY) 1 
    39         29
    51         30
    65         69
    69        100
    77         40
    78         29
    91        449
    92         50
   103         40
   104        999
   105        249
   119         40
   326         20
   417          9