##TITLE=Library Entry 84231
##JCAMP-DX=Revision 4.10 
##DATA TYPE=MASS SPECTRUM
##SAMPLE DESCRIPTION=M.Smagula ET AL.JAOCS, 56, 516(1978)
##NAMES=HP
##CAS NAME=cis-2-(2-Pentenyl)furan
##MOLFORM=C9H12O
##CAS REGISTRY NO=70424-13-4
##MP= -300
##BP= -300
##MW= 136
##$RETENTION INDEX=1002
##$CONDENSED SPECTRUM=NO
##NPOINTS= 37
##XYDATA=(XY..XY) 1 
    36         66
    38         25
    39         47
    41         35
    45          7
    50         16
    51         35
    52         19
    53         78
    54         13
    55         32
    63         13
    65         53
    66         62
    67         78
    68        400
    70         35
    77        342
    78         53
    79        514
    80        100
    81        505
    82         56
    91        197
    92         38
    93         68
    94        674
    95         66
   103         37
   105         25
   107        999
   108         81
   121         74
   135         13
   136        826
   137         74
   138          9