##TITLE=Library Entry 65621
##JCAMP-DX=Revision 4.10 
##DATA TYPE=MASS SPECTRUM
##SAMPLE DESCRIPTION=NIST Mass Spectrometry Data Center
##NAMES=HP
##CAS NAME=2-Pyridinecarboxaldehyde 4-nitrophenylhydrazone
##MOLFORM=C12H10N4O2
##CAS REGISTRY NO=70421-66-8
##MP= -300
##BP= -300
##MW= 242
##$RETENTION INDEX=0
##$CONDENSED SPECTRUM=NO
##NPOINTS= 101
##XYDATA=(XY..XY) 1 
    26          7
    27         17
    29          1
    30         36
    37         10
    38         39
    39        141
    40          8
    41         17
    42          5
    44          4
    46          3
    49          5
    50        114
    51        180
    52        241
    53         64
    54         13
    55          3
    61         10
    62         42
    63        223
    64        178
    65        733
    66         60
    67          6
    74         22
    75         56
    76         77
    77         33
    78        215
    79        641
    80        102
    81          9
    87          3
    88          8
    89         12
    90         53
    91         73
    92        999
    93         83
    94          6
   103          5
   104         21
   105        125
   106         85
   107        152
   108         47
   109          3
   113          3
   114          6
   115         11
   116          5
   117         15
   118         29
   119          6
   120        252
   121         20
   122          8
   128          4
   129          4
   130         13
   131          4
   132          4
   133          3
   138          8
   139         16
   140         17
   141         15
   142          8
   143          4
   147         13
   152          3
   154         10
   155          8
   156          8
   157          3
   163          4
   164         29
   165          7
   166         48
   167        186
   168         58
   169         18
   179          4
   180          4
   181          3
   182          3
   183          7
   194         15
   195         58
   196         34
   197          5
   212         80
   213         55
   214         12
   226         20
   241        210
   242        818
   243        114
   244         10