##TITLE=Library Entry 7851
##JCAMP-DX=Revision 4.10 
##DATA TYPE=MASS SPECTRUM
##SAMPLE DESCRIPTION=Japan AIST/NIMC Database- Spectrum MS-NW-3862
##NAMES=HP
##CAS NAME=Undecane, 2-methyl-
##MOLFORM=C12H26
##CAS REGISTRY NO=7045-71-8
##MP= -300
##BP= -300
##MW= 170
##$RETENTION INDEX=1164
##$CONDENSED SPECTRUM=NO
##NPOINTS= 67
##XYDATA=(XY..XY) 1 
    15          4
    26          3
    27        105
    28         14
    29        169
    30          4
    38          2
    39         57
    40         12
    41        305
    42        206
    43        999
    44         34
    45          1
    50          1
    51          3
    52          2
    53         15
    54         11
    55        133
    56        165
    57        914
    58         41
    60          1
    65          2
    66          1
    67          9
    68         11
    69         61
    70         77
    71        554
    72         32
    73          3
    77          1
    79          1
    81          2
    82         10
    83         35
    84         49
    85        381
    86         25
    87          1
    96          5
    97         32
    98         24
    99         92
   100          7
   111          4
   112          5
   113         36
   114          4
   125          1
   126         81
   127        120
   128         14
   129          1
   135         10
   137          9
   140          1
   141          2
   149          1
   151          1
   154          9
   155         53
   156          7
   170          9
   171          1