##TITLE=Library Entry 34376
##JCAMP-DX=Revision 4.10 
##DATA TYPE=MASS SPECTRUM
##SAMPLE DESCRIPTION=NIST Mass Spectrometry Data Center, 1994
##NAMES=HP
##CAS NAME=1,3-Diisopropyl cyclohexane
##MOLFORM=C12H24
##CAS REGISTRY NO=7045-70-7
##MP= -300
##BP= -300
##MW= 168
##$RETENTION INDEX=0
##$CONDENSED SPECTRUM=NO
##NPOINTS= 72
##XYDATA=(XY..XY) 1 
    12          0
    14          7
    15         13
    16          3
    17          2
    18          6
    27        172
    28         89
    29        115
    30          2
    32         14
    36          0
    39        140
    41        497
    42         54
    43        269
    44         10
    50          3
    51         14
    52         12
    53         68
    54         85
    55        355
    56         47
    57        277
    58         12
    59          0
    62          0
    63          2
    65         21
    67        178
    69        999
    70         58
    71         16
    72          1
    77         23
    78          7
    79         38
    80         33
    81        123
    82        141
    83        436
    84         28
    85          2
    91          9
    92          1
    93          3
    95         16
    96         10
    97         27
    98          2
   103          0
   104          0
   105          1
   107          0
   109         33
   110          4
   111         10
   112          0
   115          0
   119          0
   124        196
   125        380
   126        112
   127          8
   128          0
   147          1
   153          0
   162          0
   168        123
   169         15
   170          1