##TITLE=Library Entry 107690
##JCAMP-DX=Revision 4.10 
##DATA TYPE=MASS SPECTRUM
##SAMPLE DESCRIPTION=A.A.Kutin, Moscow, Russia
##NAMES=HP
##CAS NAME=Hexyl(2-heptyn-1-yl)amine
##MOLFORM=C13H25N
##CAS REGISTRY NO=70490-75-4
##MP= -300
##BP= -300
##MW= 195
##$RETENTION INDEX=0
##$CONDENSED SPECTRUM=NO
##NPOINTS= 100
##XYDATA=(XY..XY) 1 
    36          1
    37          0
    38          3
    39         79
    40         22
    41        192
    42         46
    43        127
    44         30
    45          0
    49          0
    50          7
    51         23
    52         41
    53        116
    54         23
    55         94
    56         24
    57         11
    58          1
    59          0
    62          0
    63          4
    64          1
    65         32
    66         16
    67        149
    68         72
    69         13
    70         12
    71          1
    72          0
    75          0
    77         23
    78          6
    79         18
    80         35
    81         28
    82         29
    83          5
    84         26
    85          2
    86          0
    89          0
    91         14
    92          3
    93         31
    94         19
    95         18
    96         13
    97          3
    98          2
   100         18
   101          1
   103          0
   105          0
   106          1
   107          1
   108          5
   109          3
   110        136
   111         11
   112          5
   113          0
   114          4
   115          0
   117          0
   119          0
   120          0
   121          0
   122          5
   124        999
   125         89
   126          4
   130          0
   131          0
   135          0
   136          2
   137          0
   138          8
   139          2
   149          0
   150          1
   151          0
   152         10
   153          5
   154          0
   164          2
   166          5
   167          0
   178          0
   180          2
   181          0
   182          0
   192          0
   193          0
   194          8
   195         30
   196          4
   197          0