##TITLE=Library Entry 72195
##JCAMP-DX=Revision 4.10 
##DATA TYPE=MASS SPECTRUM
##SAMPLE DESCRIPTION=Exported from NIST MS Search
##NAMES=HP
##CAS NAME=2H-Pyran-2-one, tetrahydro-6-pentyl-
##MOLFORM=C10H18O2
##CAS REGISTRY NO=705-86-2
##MP= -300
##BP= -300
##MW= 170
##$RETENTION INDEX=1496
##$CONDENSED SPECTRUM=NO
##NPOINTS= 59
##XYDATA=(XY..XY) 1 
    17         79
    29        111
    39         57
    40         13
    41        241
    42        314
    43        266
    44         30
    45         10
    53         23
    54         43
    55        303
    56        169
    57         55
    58         18
    60         19
    67         43
    68         64
    69         99
    70        338
    71        409
    72         28
    73         29
    77          3
    79         14
    81         36
    82         27
    83         51
    84         68
    85         27
    86         55
    87         11
    88          6
    95         22
    96         46
    97         46
    98         38
    99        999
   100        124
   101         21
   102          8
   108         38
   109         18
   110         37
   111         25
   113         18
   114        158
   115         25
   119          6
   123         24
   124         14
   127         24
   128         15
   134         57
   137          8
   141         17
   142         12
   152         84
   170         35