##TITLE=Library Entry 65146
##JCAMP-DX=Revision 4.10 
##DATA TYPE=MASS SPECTRUM
##SAMPLE DESCRIPTION=Japan AIST/NIMC Database- Spectrum MS-NW-7425
##NAMES=HP
##CAS NAME=Benzeneethanol, .alpha.-propyl-
##MOLFORM=C11H16O
##CAS REGISTRY NO=705-73-7
##MP= -300
##BP= -300
##MW= 164
##$RETENTION INDEX=2256
##$CONDENSED SPECTRUM=NO
##NPOINTS= 70
##XYDATA=(XY..XY) 1 
    15          1
    26          1
    27         22
    28          6
    29         13
    31         30
    32          1
    38          3
    39         34
    40          3
    41         27
    42          2
    43         87
    44          4
    45         11
    50          6
    51         22
    52          6
    53          5
    55        202
    56          9
    57          9
    58          2
    59          1
    61          1
    62          3
    63         14
    64          4
    65         59
    66          5
    67          1
    69          1
    71          7
    72          5
    73         49
    74          3
    75          2
    76          2
    77         32
    78         10
    79          9
    86          1
    87          2
    89         11
    90          8
    91        323
    92        999
    93         81
    94          3
   102          2
   103         44
   104          9
   105          4
   106          2
   107          2
   115          7
   116          2
   117          9
   118          2
   119          1
   120          3
   121         41
   122          4
   128          1
   129          1
   131          2
   145          1
   146          2
   163          1
   164          4