##TITLE=Library Entry 94905
##JCAMP-DX=Revision 4.10 
##DATA TYPE=MASS SPECTRUM
##SAMPLE DESCRIPTION=Japan AIST/NIMC Database- Spectrum MS-IW-5406
##NAMES=HP
##CAS NAME=Benzene, (2-nitropropen-1-yl)-
##MOLFORM=C9H9NO2
##CAS REGISTRY NO=705-60-2
##MP= -300
##BP= -300
##MW= 163
##$RETENTION INDEX=0
##$CONDENSED SPECTRUM=NO
##NPOINTS= 100
##XYDATA=(XY..XY) 1 
    15          1
    18          2
    26          3
    27         21
    28         14
    29          1
    30          7
    37          5
    38         14
    39        131
    40         11
    41         17
    42         11
    43         24
    44          2
    45          1
    46          1
    49          2
    50         55
    51        132
    52         27
    53          7
    54          2
    55         12
    56          2
    57        180
    58         40
    59          3
    61          8
    62         35
    63         97
    64         19
    65        108
    66        117
    67         10
    68          5
    69          1
    73          2
    74         26
    75         24
    76         29
    77        123
    78         47
    79         67
    80         30
    81         31
    82          4
    83          1
    85          5
    86         10
    87         13
    88          9
    89        106
    90         25
    91        382
    92         36
    93         22
    94         50
    95          4
    96          1
    97          6
    98          2
   101          4
   102         46
   103         39
   104         16
   105        388
   106         94
   107         38
   108          5
   109          2
   110         10
   111          1
   113          9
   114         15
   115        999
   116        402
   117        237
   118         59
   119          6
   120         18
   121          4
   122          2
   128          1
   129          1
   130          9
   131         12
   132          8
   133         31
   134         16
   135        124
   136         13
   146        160
   147         19
   148          5
   149          1
   162         22
   163        515
   164         53
   165          4