##TITLE=Library Entry 97844
##JCAMP-DX=Revision 4.10 
##DATA TYPE=MASS SPECTRUM
##SAMPLE DESCRIPTION=D.HENNEBERG, MAX-PLANCK INSTITUTE, MULHEIM, WEST GERMAN
Y
##NAMES=HP
##CAS NAME=Ethanamine, 2-chloro-N-(phenylmethylene)-
##MOLFORM=C9H10ClN
##CAS REGISTRY NO=70509-19-2
##MP= -300
##BP= -300
##MW= 167
##$RETENTION INDEX=0
##$CONDENSED SPECTRUM=NO
##NPOINTS= 83
##XYDATA=(XY..XY) 1 
    27        194
    28         73
    29          2
    30          0
    32          1
    35          2
    36          5
    37         12
    38         23
    39         85
    40         12
    41         31
    42          6
    43          5
    44          1
    45          6
    47          2
    48          2
    49         34
    50         95
    51        202
    52         45
    53          4
    54         13
    55          1
    57          1
    59         30
    60          3
    61         13
    62         29
    63        135
    64         28
    65         76
    66          6
    70          4
    71          1
    72          0
    73          6
    74         25
    75         28
    76         49
    77        195
    78         53
    79         10
    80          0
    82          1
    84          2
    86          5
    87          3
    88          8
    89         17
    90         13
    91        160
    92         12
    93          2
    99          1
   100          0
   101          2
   102          7
   104         59
   105        133
   106         35
   107         10
   108          1
   113          0
   114          1
   115          1
   116          8
   117         51
   118        999
   119         88
   120          4
   131         27
   132         19
   133          1
   139          1
   163          0
   164          1
   166          9
   167        114
   168         16
   169         36
   170          3