##TITLE=Library Entry 49209
##JCAMP-DX=Revision 4.10 
##DATA TYPE=MASS SPECTRUM
##SAMPLE DESCRIPTION=ORMSBG, 13(12)705(1978); V. HANUS
##NAMES=HP
##CAS NAME=2H-Inden-2-one, 1,3,3a,4,5,7a-hexahydro-, cis-
##MOLFORM=C9H12O
##CAS REGISTRY NO=70501-26-7
##MP= -300
##BP= -300
##MW= 136
##$RETENTION INDEX=0
##$CONDENSED SPECTRUM=NO
##NPOINTS= 58
##XYDATA=(XY..XY) 1 
    26         24
    27        179
    29         48
    31         24
    38         24
    39        298
    40         60
    41        321
    42         48
    43         60
    44         12
    45         12
    50         36
    51         95
    52         60
    53        107
    54        250
    55         71
    56         24
    57         71
    58        190
    63         24
    64          6
    65        119
    66        131
    67        321
    68        107
    69         48
    70          6
    71         36
    77        268
    78        119
    79        999
    80        155
    81         48
    82         83
    83         24
    84          6
    85         24
    91        208
    92        143
    93        405
    94        327
    95         65
   104          6
   105         18
   106          6
   107         36
   108        524
   109         60
   115         12
   117         24
   118         18
   119         12
   121         24
   135         12
   136        321
   137         36