##TITLE=Library Entry 16582
##JCAMP-DX=Revision 4.10 
##DATA TYPE=MASS SPECTRUM
##SAMPLE DESCRIPTION=Exported from NIST MS Search
##NAMES=HP
##CAS NAME=Pregnane-3,20-diamine, (3.beta.,5.alpha.,20S)-
##MOLFORM=C21H38N2
##CAS REGISTRY NO=7050-25-1
##MP= -300
##BP= -300
##MW= 318
##$RETENTION INDEX=0
##$CONDENSED SPECTRUM=NO
##NPOINTS= 56
##XYDATA=(XY..XY) 1 
    41         20
    42         10
    43         50
    44        999
    45         40
    49         20
    53         20
    55         30
    56        150
    57         20
    67         20
    68         10
    69         30
    70         50
    71         20
    76         10
    78         30
    79         10
    80         40
    81         50
    82         20
    90         20
    92         20
    93        100
    94         50
    95         10
   102         20
   105         20
   106         10
   107         20
   108         10
   109         20
   110         10
   119         10
   121         20
   122         10
   123         20
   135         20
   137         10
   147         10
   148         10
   149         10
   161         10
   162         10
   163         10
   243         20
   244         10
   257         20
   259        100
   260         20
   275        500
   276        100
   277         10
   302         20
   317         10
   318         10