##TITLE=Library Entry 18837
##JCAMP-DX=Revision 4.10 
##DATA TYPE=MASS SPECTRUM
##SAMPLE DESCRIPTION=NIST Mass Spectrometry Data Center, 1990.
##NAMES=HP
##CAS NAME=Cyclopropane, (bromomethyl)-
##MOLFORM=C4H7Br
##CAS REGISTRY NO=7051-34-5
##MP= -300
##BP= -300
##MW= 134
##$RETENTION INDEX=0
##$CONDENSED SPECTRUM=NO
##NPOINTS= 38
##XYDATA=(XY..XY) 1 
    13          2
    14          7
    15          6
    25          9
    26         72
    27        270
    28        106
    29        249
    30          5
    32          9
    37         19
    38         38
    39        218
    40         16
    41         45
    48          2
    49         10
    50         40
    51         40
    52         15
    53        102
    54          2
    55        999
    56         42
    79         12
    80          5
    81         11
    82          4
    93          7
    95          5
   105          3
   106         20
   107          5
   108         18
   119          3
   121          4
   134          5
   136          5