##TITLE=Library Entry 52904
##JCAMP-DX=Revision 4.10 
##DATA TYPE=MASS SPECTRUM
##SAMPLE DESCRIPTION=Chemical Concepts
##NAMES=HP
##CAS NAME=Cyclopentanone, 3-methyl-2-(2-pentenyl)-
##MOLFORM=C11H18O
##CAS REGISTRY NO=7051-39-0
##MP= -300
##BP= -300
##MW= 166
##$RETENTION INDEX=0
##$CONDENSED SPECTRUM=NO
##NPOINTS= 101
##XYDATA=(XY..XY) 1 
    26         10
    27        111
    28         14
    29        128
    30          5
    31          6
    36          4
    37          3
    38         10
    39        174
    40         44
    41        342
    42         54
    43         99
    44         12
    45         10
    46          4
    47          3
    50         12
    51         38
    52         25
    53        123
    54         70
    55        229
    56         54
    57         54
    58          6
    59          4
    60          3
    61          5
    62          4
    63         12
    64          5
    65         52
    66         36
    67        208
    68        158
    69        168
    70         32
    71         15
    73          7
    75         11
    77         89
    78         21
    79        132
    80         39
    81        242
    82         91
    83        999
    84        107
    85         18
    86          4
    91         80
    92         21
    93        155
    94         71
    95        479
    96        101
    97        241
    98        440
    99         52
   100          5
   103          6
   105         32
   106         20
   107         54
   108         17
   109        180
   110         66
   111         63
   112          9
   115          4
   116          3
   119         46
   120         11
   121         10
   122         25
   123         45
   124        218
   125         33
   126          3
   129          3
   130          4
   131          3
   132          3
   133         71
   134          7
   135          8
   137        109
   138         25
   139          5
   144          5
   148         22
   149          9
   151        176
   152         32
   153          6
   165         10
   166        204
   167         30
   168          2