##TITLE=Library Entry 32582
##JCAMP-DX=Revision 4.10 
##DATA TYPE=MASS SPECTRUM
##SAMPLE DESCRIPTION=V.G.Zaikin, TIPS, Russian Acad. Sci.
##NAMES=HP
##CAS NAME=1,1'-Bicyclobutyl
##MOLFORM=C8H14
##CAS REGISTRY NO=7051-52-7
##MP= -300
##BP= -300
##MW= 110
##$RETENTION INDEX=0
##$CONDENSED SPECTRUM=NO
##NPOINTS= 13
##XYDATA=(XY..XY) 1 
    41         35
    53         10
    54        410
    55         20
    66         40
    67        999
    68        110
    69         40
    81        120
    82        250
    83         20
    95         20
   109          3