##TITLE=Library Entry 15224
##JCAMP-DX=Revision 4.10 
##DATA TYPE=MASS SPECTRUM
##SAMPLE DESCRIPTION=D.HENNEBERG, MAX-PLANCK INSTITUTE, MULHEIM, WEST GERMAN
Y
##NAMES=HP
##CAS NAME=6H-Pyrazolo[1,2-a][1,2,4,5]tetrazine, hexahydro-2,3-dimethyl-
##MOLFORM=C7H16N4
##CAS REGISTRY NO=70517-50-9
##MP= -300
##BP= -300
##MW= 156
##$RETENTION INDEX=0
##$CONDENSED SPECTRUM=NO
##NPOINTS= 61
##XYDATA=(XY..XY) 1 
    24          0
    25          3
    26         35
    27        142
    28        320
    29         46
    30        163
    31          6
    32         11
    33          0
    35          0
    36          1
    37          4
    38         14
    39         46
    40         58
    41        166
    42        839
    43        503
    44        999
    45         59
    46          9
    50          0
    51          3
    52          8
    53          6
    54         21
    55         32
    56        113
    57        177
    58         15
    59          8
    60          5
    66          0
    67          1
    68          9
    69         17
    70         34
    71        220
    72        176
    73         65
    74          2
    80          0
    81          6
    82         11
    83        150
    84         79
    85         30
    86         15
    87          1
    95          0
    96          3
    97         11
    98          7
    99          1
   112          0
   113          0
   114         39
   115          2
   156         62
   157          5