##TITLE=Library Entry 76864
##JCAMP-DX=Revision 4.10 
##DATA TYPE=MASS SPECTRUM
##SAMPLE DESCRIPTION=Chemical Concepts
##NAMES=HP
##CAS NAME=4-Phenylbut-2-enenitrile, 2-trimethylsilyloxy-
##MOLFORM=C13H17NOSi
##CAS REGISTRY NO=70533-15-2
##MP= -300
##BP= -300
##MW= 231
##$RETENTION INDEX=0
##$CONDENSED SPECTRUM=NO
##NPOINTS= 180
##XYDATA=(XY..XY) 1 
    26          8
    27         53
    28         27
    29         22
    30          2
    31         14
    36          1
    37          3
    38          7
    39         54
    40          4
    41         34
    42          9
    43         86
    44         36
    45        180
    46         11
    47         43
    48          2
    49          3
    50         31
    51         84
    52         23
    53          9
    54         10
    55         73
    56         18
    57         25
    58         20
    59         57
    60          9
    61         14
    62          9
    63         33
    64         10
    65         94
    66         12
    67          5
    68          4
    69          8
    70         19
    71         10
    72         16
    73        935
    74         83
    75        245
    76         37
    77        146
    78         94
    79         15
    80          1
    81          4
    82          2
    83          8
    84         51
    85         20
    86          6
    87          9
    88          6
    89         28
    90          9
    91        227
    92         18
    93         18
    94          3
    95          6
    96          2
    97          4
    98          7
    99          7
   100         92
   101         20
   102         28
   103        180
   104        999
   105        138
   106          9
   107          6
   108          3
   109          2
   110          2
   111          9
   112          2
   113         24
   114         13
   115         84
   116         31
   117         11
   118          1
   119          6
   120          1
   121         13
   122          3
   123          2
   124          0
   125          1
   126          9
   127          4
   128          7
   129          8
   130         21
   131        285
   132        192
   133         21
   134          2
   135        197
   136         28
   137          8
   138          1
   139          1
   140         21
   141         35
   142         31
   143          5
   144          1
   145         13
   146          4
   147         40
   148          6
   154          3
   155          2
   156          6
   157          3
   158          2
   159         19
   160          3
   161          5
   162          1
   163          1
   164          1
   165          0
   167          1
   168         30
   169          5
   170          2
   171          1
   172          1
   173          6
   174          2
   175          0
   176          0
   177          1
   178          0
   179          0
   180          0
   181          0
   182          0
   183          0
   184          0
   185         24
   186          8
   187          4
   188         14
   189         51
   190          9
   191          3
   192          0
   193          0
   194          0
   195          0
   196          0
   197          0
   198         16
   199          4
   200         57
   201         12
   202         37
   203         31
   204          7
   214          5
   215        146
   216        301
   217         59
   218         14
   219          2
   230          5
   231        368
   232         71
   233         19
   234          2