##TITLE=Library Entry 64881
##JCAMP-DX=Revision 4.10 
##DATA TYPE=MASS SPECTRUM
##SAMPLE DESCRIPTION=Div. of Experiment Therapeutics WRAIR, WRAMC, Washingto
n DC 20307
##NAMES=HP
##CAS NAME=Carbobenzoxy-l-O-methylthreonyl-l-leucine benzylester
##MOLFORM=C26H34N2O6
##CAS REGISTRY NO=70539-75-2
##MP= -300
##BP= -300
##MW= 470
##$RETENTION INDEX=0
##$CONDENSED SPECTRUM=NO
##NPOINTS= 193
##XYDATA=(XY..XY) 1 
    41         42
    43        107
    44         55
    45          7
    47          4
    48          4
    49         31
    51         31
    52          5
    53          4
    54          5
    55         16
    56         40
    57         11
    59        307
    60          7
    61          5
    63         18
    65         74
    66          4
    67          0
    68          2
    69         15
    70         13
    71         11
    72          5
    73          4
    74          3
    75          1
    77         20
    78          4
    79         11
    80          1
    81          1
    82          4
    83          5
    84         27
    85          0
    86        155
    87          0
    88         37
    89         18
    91        999
    92          7
    93          2
    95          1
    96          1
    97          1
    98          3
    99         23
   100         14
   101          2
   102          0
   105          6
   107         11
   108          5
   109          0
   110          0
   111          0
   112          1
   113          4
   114          3
   115          2
   116          2
   117          1
   118          2
   119          1
   120          7
   121          0
   123          1
   124          0
   125          0
   126          0
   127          1
   128          0
   129          1
   130          2
   131          3
   132          6
   133          1
   134          0
   135          0
   139          0
   141          6
   142          2
   143          3
   144          1
   146          9
   147          4
   148          1
   149          0
   152          0
   153          0
   154          0
   158          0
   159          1
   160          0
   161          2
   162          1
   164          9
   165          1
   166          0
   167          0
   168          0
   169          1
   170          0
   171          0
   174          1
   176         20
   178         84
   179          7
   180          0
   181          5
   182          0
   184          6
   185          2
   187          2
   188          0
   189          0
   190          1
   191          9
   192          2
   193          0
   195          0
   199          0
   201          0
   205         16
   206          2
   208          2
   210         20
   211          3
   213          0
   215          0
   216          7
   217          4
   218          0
   220          2
   222         54
   223          7
   224          3
   227          1
   231          3
   232          1
   234          0
   245          0
   248          2
   250         26
   251          3
   252          0
   254          7
   255          1
   260          0
   262          1
   263          3
   264          0
   268          0
   273          4
   274          0
   276          3
   277         58
   278         12
   279          2
   291          1
   295          3
   296          1
   303          1
   304          4
   305          1
   312          1
   319          1
   320          0
   321          0
   322          2
   323          0
   335          7
   336          3
   337          0
   347          0
   350          1
   356          1
   363          0
   367          0
   395          0
   412        334
   413         87
   414         14
   415          2
   423          0
   438          1
   455          0
   469          0
   470          5
   471          1