##TITLE=Library Entry 53707
##JCAMP-DX=Revision 4.10 
##DATA TYPE=MASS SPECTRUM
##SAMPLE DESCRIPTION=RESEARCH LABORATORY, STATE ALCOHOL MONOPOLY ALKO, HELSI
NKI, FINLAND; IRMA NYKANEN ET AL
##NAMES=HP
##CAS NAME=2-Cyclohexen-1-ol, 2-methyl-5-(1-methylethenyl)-, acetate, (1R-tr
ans)-
##MOLFORM=C12H18O2
##CAS REGISTRY NO=7053-79-4
##MP= -300
##BP= -300
##MW= 194
##$RETENTION INDEX=0
##$CONDENSED SPECTRUM=NO
##NPOINTS= 89
##XYDATA=(XY..XY) 1 
    26          6
    27         90
    28         41
    29         83
    38          6
    39        204
    40         48
    41        371
    42         24
    43        965
    44         76
    45         20
    50         20
    51         69
    52         34
    53        145
    54         34
    55        229
    56         55
    57         13
    58         13
    59         13
    60         17
    61          6
    62          6
    63         27
    64         17
    65        135
    66         41
    67        166
    68        128
    69         86
    70         10
    71         13
    72         13
    75          6
    76          6
    77        291
    78         90
    79        312
    80        173
    81        118
    82         62
    83        104
    84        999
    85         65
    86          6
    89         24
    90          3
    91        767
    92        368
    93        368
    94         93
    95         59
    96         69
    97         41
   102          6
   103         52
   104         31
   105        333
   106        114
   107        111
   108        138
   109        673
   110         69
   111          6
   115         65
   116         41
   117        142
   118         27
   119        951
   120        104
   121         27
   122         13
   123         41
   124         17
   126         34
   131         17
   132         48
   133         62
   134        447
   135         55
   136         17
   137         52
   138          3
   150          3
   151         83
   152        395
   153         41