##TITLE=Library Entry 20369
##JCAMP-DX=Revision 4.10 
##DATA TYPE=MASS SPECTRUM
##SAMPLE DESCRIPTION=Zaikin V.G., TIPS RAS, Moscow, Russia
##NAMES=HP
##CAS NAME=5-Chlorovaleric acid, pentyl ester
##MOLFORM=C10H19ClO2
##CAS REGISTRY NO=70543-39-4
##MP= -300
##BP= -300
##MW= 206
##$RETENTION INDEX=1440
##$CONDENSED SPECTRUM=NO
##NPOINTS= 82
##XYDATA=(XY..XY) 1 
    26         18
    27        167
    28          1
    29        222
    30          7
    31         11
    35          3
    36         20
    38         10
    39        118
    40         24
    41        296
    42        369
    43        484
    44         31
    45         23
    49         22
    50          4
    51         14
    52          4
    53         49
    54         41
    55        999
    56         79
    57         40
    58         17
    59         45
    60         23
    61         11
    62         13
    63         39
    64          4
    65         14
    67          8
    68          9
    69         97
    70        972
    71        149
    72          8
    73        133
    74         11
    75          8
    77          3
    81          3
    82         10
    83        177
    84         12
    85         23
    86          4
    87         49
    88          3
    89          4
    90          5
    91        373
    92         19
    93        123
    94          5
    98          3
    99          8
   100         96
   101        424
   102         27
   115         21
   118          9
   119        970
   120         58
   121        321
   122         17
   134          8
   136         90
   137        618
   138         63
   139        204
   140         11
   149          4
   163         10
   165          3
   170          7
   171         30
   172          3
   177         10
   179          3