##TITLE=Library Entry 99722
##JCAMP-DX=Revision 4.10 
##DATA TYPE=MASS SPECTRUM
##SAMPLE DESCRIPTION=Exported from NIST MS Search
##NAMES=HP
##CAS NAME=Mebenil
##MOLFORM=C14H13NO
##CAS REGISTRY NO=7055-03-0
##MP= -300
##BP= -300
##MW= 211
##$RETENTION INDEX=0
##$CONDENSED SPECTRUM=NO
##NPOINTS= 17
##XYDATA=(XY..XY) 1 
    50         12
    51         28
    52         10
    54         12
    63         29
    64         21
    65        118
    66         21
    89         42
    90         42
    91        514
    92         49
    93         31
   119        999
   120         77
   211        295
   212         49