##TITLE=Library Entry 41685
##JCAMP-DX=Revision 4.10 
##DATA TYPE=MASS SPECTRUM
##SAMPLE DESCRIPTION=A.Pleshkova, Nesmeyanov Inst.Org.Elem.Cpds, Moscow
##NAMES=HP
##CAS NAME=N,N-Dimethoxy-1,1-dimethyl-2-carbomethoxyethylamine
##MOLFORM=C8H17NO4
##CAS REGISTRY NO=70569-71-0
##MP= -300
##BP= -300
##MW= 191
##$RETENTION INDEX=0
##$CONDENSED SPECTRUM=NO
##NPOINTS= 34
##XYDATA=(XY..XY) 1 
    43         91
    44         21
    45         61
    46          6
    55        263
    56        373
    57         41
    58         43
    59        161
    60         11
    70        141
    71         51
    72         73
    73        999
    74        121
    75         10
    83        432
    84         39
    88        782
    89         21
   115        753
   116        121
   117         12
   129        303
   130         43
   146         51
   159         43
   160        302
   161         72
   162         11
   176         21
   191         62
   192          6
   193          1