##TITLE=Library Entry 42110
##JCAMP-DX=Revision 4.10 
##DATA TYPE=MASS SPECTRUM
##SAMPLE DESCRIPTION=A.Pleshkova, Nesmeyanov Inst.Org.Elem.Cpds, Moscow
##NAMES=HP
##CAS NAME=N-Methoxy-N-ethoxy-1,1-dimethyl-2-carbomethoxyethylamine
##MOLFORM=C9H19NO4
##CAS REGISTRY NO=70569-72-1
##MP= -300
##BP= -300
##MW= 205
##$RETENTION INDEX=0
##$CONDENSED SPECTRUM=NO
##NPOINTS= 39
##XYDATA=(XY..XY) 1 
    41         82
    42        281
    43        203
    44        143
    45        201
    46         19
    55        296
    56        403
    57         61
    58        141
    59        263
    60         63
    61          9
    70        122
    71         63
    72         62
    73        999
    74        161
    75         18
    83        563
    84         62
    85          7
    86        121
    87         63
    88          9
   102        325
   103         22
   114        305
   115        586
   116         53
   117          7
   129        165
   130         21
   160        133
   161         22
   174        101
   175         32
   205         22
   206          2