##TITLE=Library Entry 91011
##JCAMP-DX=Revision 4.10 
##DATA TYPE=MASS SPECTRUM
##SAMPLE DESCRIPTION=ASES Database, Dalian Institute, P.R. China
##NAMES=HP
##CAS NAME=Methyl 3-methyl-3-(methoxy-chloro)amino-butanoate
##MOLFORM=C7H14ClNO3
##CAS REGISTRY NO=70569-70-9
##MP= -300
##BP= -300
##MW= 195
##$RETENTION INDEX=0
##$CONDENSED SPECTRUM=NO
##NPOINTS= 32
##XYDATA=(XY..XY) 1 
    29        163
    30         79
    31        135
    41         58
    42        104
    43         93
    44        116
    45        207
    46        123
    50        121
    54        132
    55        755
    56        144
    59        565
    70        230
    72        119
    73        456
    74        143
    77         63
    82        617
    83        852
    84         77
    86        228
    99         77
   103         65
   104         32
   114        999
   115        234
   119         64
   121         13
   128         13
   131         12