##TITLE=Library Entry 83892
##JCAMP-DX=Revision 4.10 
##DATA TYPE=MASS SPECTRUM
##SAMPLE DESCRIPTION=J. KAWABATA, DEP. AGRIC. CHEM., HOKKAIDO UNIV., SAPPORO
, JAP
##NAMES=HP
##CAS NAME=Shizukanolide
##MOLFORM=C15H18O2
##CAS REGISTRY NO=70578-36-8
##MP= -300
##BP= -300
##MW= 230
##$RETENTION INDEX=0
##$CONDENSED SPECTRUM=NO
##NPOINTS= 48
##XYDATA=(XY..XY) 1 
    39         78
    41        135
    43         28
    51         30
    53         85
    54         26
    55         36
    65         46
    67         28
    69         22
    77        138
    78         43
    79        157
    81         47
    82         55
    83         22
    91        425
    92         40
    93         43
   103         27
   105        500
   106         88
   107        999
   108         44
   110         62
   115         27
   117         46
   118         22
   119        233
   120         68
   121         33
   124         35
   129         28
   131         42
   135         26
   143         25
   145         31
   148         53
   150         52
   159         33
   160         82
   161         22
   174         27
   187         34
   201         29
   202         27
   215         28
   230         22