##TITLE=Library Entry 20590
##JCAMP-DX=Revision 4.10 
##DATA TYPE=MASS SPECTRUM
##SAMPLE DESCRIPTION=NIST Mass Spectrometry Data Center, 1990.
##NAMES=HP
##CAS NAME=Cyclohexane, (1-methylpropyl)-
##MOLFORM=C10H20
##CAS REGISTRY NO=7058-01-7
##MP= -300
##BP= -300
##MW= 140
##$RETENTION INDEX=1028
##$CONDENSED SPECTRUM=NO
##NPOINTS= 49
##XYDATA=(XY..XY) 1 
    14         17
    15          5
    16          7
    27        131
    28         17
    29        200
    30          5
    39        244
    40         55
    41        600
    42         80
    43         69
    44          9
    50          8
    51         33
    52         18
    53        125
    54        152
    55        999
    56        334
    57        112
    58          5
    63          7
    65         33
    67        464
    68         94
    69        420
    70         40
    71          7
    77         32
    78          8
    79         41
    80         10
    81          7
    82        827
    83        758
    84         50
    91          7
    93          2
    95          7
    96          3
    97          6
   109          5
   110         57
   111        248
   112         21
   125          4
   140        145
   141         15