##TITLE=Library Entry 36036
##JCAMP-DX=Revision 4.10 
##DATA TYPE=MASS SPECTRUM
##SAMPLE DESCRIPTION=D.HENNEBERG, MAX-PLANCK INSTITUTE, MULHEIM, WEST GERMAN
Y
##NAMES=HP
##CAS NAME=Cyclohexane, 1-ethyl-2,3-dimethyl-
##MOLFORM=C10H20
##CAS REGISTRY NO=7058-05-1
##MP= -300
##BP= -300
##MW= 140
##$RETENTION INDEX=968
##$CONDENSED SPECTRUM=NO
##NPOINTS= 76
##XYDATA=(XY..XY) 1 
    26          2
    27         81
    28          6
    29        113
    30          3
    37         15
    38          1
    39         83
    40         14
    41        310
    42         72
    43        121
    44          1
    45          0
    46          0
    47          0
    49          0
    50          2
    51          9
    52          4
    53         40
    54         19
    55        603
    56        173
    57        102
    58          5
    59          0
    60          0
    62          0
    63          1
    64          0
    65          9
    66          5
    67         58
    68         24
    69        999
    70        248
    71         42
    72          1
    75          1
    77          9
    78          1
    79          9
    80          2
    81         26
    82         28
    83        128
    84         79
    85         15
    86          1
    88          2
    89          0
    91          3
    92          0
    93          1
    94          0
    95         16
    96          7
    97         39
    98         15
    99          1
   103          0
   105          0
   107          0
   109          3
   110         69
   111        771
   112         72
   113          2
   123          0
   124          0
   125         21
   139          1
   140        125
   141         13
   142          0