##TITLE=Library Entry 32323
##JCAMP-DX=Revision 4.10 
##DATA TYPE=MASS SPECTRUM
##SAMPLE DESCRIPTION=Chemical Concepts
##NAMES=HP
##CAS NAME=2-Methyl-2,3-divinyloxirane
##MOLFORM=C7H10O
##CAS REGISTRY NO=70597-50-1
##MP= -300
##BP= -300
##MW= 110
##$RETENTION INDEX=0
##$CONDENSED SPECTRUM=NO
##NPOINTS= 58
##XYDATA=(XY..XY) 1 
    26         74
    27        433
    28        140
    29        204
    31         26
    37         27
    38         72
    39        943
    40         87
    41        452
    42         51
    43        902
    44         20
    45         21
    47          8
    49         23
    50         71
    51        134
    52         51
    53        570
    54        313
    55        586
    56         31
    57        319
    58         28
    61         16
    62         17
    63         35
    64          8
    65        110
    66        176
    67        999
    68         92
    69         53
    70         66
    71         17
    73         11
    74         11
    75         14
    77        110
    78         21
    79        267
    80         32
    81        900
    82        257
    83         30
    84         12
    85          8
    91         53
    92         24
    93         20
    94         16
    95        379
    96         19
   108          9
   109        148
   110        887
   111         43