##TITLE=Library Entry 18737
##JCAMP-DX=Revision 4.10 
##DATA TYPE=MASS SPECTRUM
##SAMPLE DESCRIPTION=D.HENNEBERG, MAX-PLANCK INSTITUTE, MULHEIM, WEST GERMAN
Y
##NAMES=HP
##CAS NAME=1,5,9-Cyclododecatriene, (E,E,Z)-
##MOLFORM=C12H18
##CAS REGISTRY NO=706-31-0
##MP= -300
##BP= -300
##MW= 162
##$RETENTION INDEX=1282
##$CONDENSED SPECTRUM=NO
##NPOINTS= 95
##XYDATA=(XY..XY) 1 
    25          1
    26          5
    27        118
    28         23
    29         40
    30          0
    31          1
    33          0
    34          0
    38         14
    39        278
    40         28
    41        266
    42         11
    43          8
    44          0
    45          0
    49          0
    50         10
    51         35
    52         27
    53         98
    54        999
    55         81
    56          4
    58          3
    62          3
    63         12
    64          4
    65         71
    66        134
    67        514
    68         36
    69          5
    70          0
    71          0
    74          1
    75          6
    76          3
    77         97
    78         93
    79        548
    80        375
    81         70
    82          7
    83          4
    84          0
    85          0
    87          4
    88          0
    89          6
    90          3
    91        179
    92         85
    93        334
    94         85
    95         56
    96         10
    97          0
    99          1
   101          1
   102          0
   103          6
   104          4
   105         75
   106         52
   107         44
   108         46
   109          7
   110          0
   111          0
   112          0
   113          0
   115          3
   116          1
   117          3
   118          4
   119        141
   120         80
   121         69
   122          5
   128          1
   129          1
   130          0
   131          2
   132          2
   133        160
   134        105
   135          9
   147         23
   148          2
   160          0
   161          7
   162         60
   163          6