##TITLE=Library Entry 54552
##JCAMP-DX=Revision 4.10 
##DATA TYPE=MASS SPECTRUM
##SAMPLE DESCRIPTION=Exported from NIST MS Search
##NAMES=HP
##CAS NAME=2(3H)-Furanone, 5-hexyldihydro-
##MOLFORM=C10H18O2
##CAS REGISTRY NO=706-14-9
##MP= -300
##BP= -300
##MW= 170
##$RETENTION INDEX=1470
##$CONDENSED SPECTRUM=NO
##NPOINTS= 82
##XYDATA=(XY..XY) 1 
    14          1
    15          2
    26          5
    27         60
    28         43
    29        138
    30          4
    31          4
    32          2
    38          1
    39         42
    40          6
    41         87
    42         40
    43         87
    44         11
    45          4
    50          1
    51          3
    52          1
    53          9
    54         13
    55         86
    56         84
    57         55
    58          9
    59          3
    60          6
    65          2
    66          2
    67         11
    68         16
    69         34
    70         30
    71         12
    72         19
    73          8
    77          2
    78          1
    79          2
    80          1
    81         11
    82         10
    83         17
    84         31
    85        999
    86         53
    87          7
    88          1
    93          3
    94          1
    95         11
    96         11
    97         15
    98          8
    99          3
   100         45
   101         15
   102          2
   108          7
   109          4
   110         20
   111         18
   112          2
   113         27
   114         15
   115          5
   123          6
   124          4
   126          1
   127          5
   128         87
   129          8
   130          1
   134          4
   137          1
   141          4
   142          2
   151          1
   152          7
   169          1
   170          1