##TITLE=Library Entry 75205
##JCAMP-DX=Revision 4.10 
##DATA TYPE=MASS SPECTRUM
##SAMPLE DESCRIPTION=Japan AIST/NIMC Database- Spectrum MS-IW-5414
##NAMES=HP
##CAS NAME=4-Chloro-.beta.-nitrostyrene
##MOLFORM=C8H6ClNO2
##CAS REGISTRY NO=706-07-0
##MP= -300
##BP= -300
##MW= 183
##$RETENTION INDEX=0
##$CONDENSED SPECTRUM=NO
##NPOINTS= 132
##XYDATA=(XY..XY) 1 
    16          1
    26          6
    27         16
    28          2
    30         29
    35          1
    36          8
    37         17
    38         28
    39         50
    40          4
    41          2
    42          2
    43         16
    44          5
    46          5
    47          2
    48          1
    49         23
    50        233
    51        299
    52         41
    53          6
    54          4
    55          4
    56          2
    57          1
    60          7
    61         44
    62         66
    63        121
    64         22
    65         92
    66         13
    67          9
    68         19
    69          7
    70          1
    71          1
    72          5
    73         55
    74        175
    75        626
    76        163
    77         79
    78         16
    79         30
    80          5
    81          2
    82          2
    83          1
    84         15
    85         47
    86         27
    87         39
    88         14
    89        173
    90         59
    91         20
    92        148
    93         29
    94          9
    95          3
    96         68
    97         18
    98         40
    99         91
   100        150
   101        999
   102        813
   103         69
   104         40
   105         11
   106          9
   107          1
   108          6
   109          5
   110          9
   111        173
   112         56
   113         56
   114         22
   115          9
   116         20
   117         14
   118         75
   119         11
   120         85
   121        103
   122         12
   123         11
   124         14
   125        478
   126         52
   127        184
   128         56
   129         12
   130         20
   131          5
   132         59
   133          6
   135          5
   136        941
   137        209
   138        362
   139        209
   140         87
   141         50
   142         22
   143          2
   148        509
   149         48
   150          9
   151         14
   152         16
   153         31
   154         20
   155         36
   156          8
   157          9
   164          1
   165          1
   166         63
   167          9
   168         21
   169          3
   182         16
   183        869
   184         88
   185        289
   186         25
   187          2