##TITLE=Library Entry 53019
##JCAMP-DX=Revision 4.10 
##DATA TYPE=MASS SPECTRUM
##SAMPLE DESCRIPTION=P.A. Leclercq, Lab. Instrum. Anal., Eindhoven Univ. Tec
hnol., Netherlands
##NAMES=HP
##CAS NAME=Cyclohexanecarboxylic acid, 4-butyl-, 4-pentylphenyl ester
##MOLFORM=C22H34O2
##CAS REGISTRY NO=70602-95-8
##MP= -300
##BP= -300
##MW= 330
##$RETENTION INDEX=0
##$CONDENSED SPECTRUM=NO
##NPOINTS= 76
##XYDATA=(XY..XY) 1 
    27        105
    28         14
    29        257
    30          5
    39         81
    41        424
    42         30
    43        160
    44          7
    50          4
    51         17
    52         18
    53         63
    54         69
    55        462
    56         35
    57        284
    58         12
    63          5
    65         56
    67        206
    68         42
    69        289
    70         19
    71         56
    72          3
    77        102
    78         88
    79         92
    81        264
    83        999
    84         63
    85          9
    89         10
    90          9
    91         75
    92         21
    93         37
    94         14
    95         92
    96         72
    97        338
    98         25
   103         11
   105         18
   107        866
   108         85
   109         81
   110         27
   111          6
   115          5
   117          6
   119         13
   120         16
   121         18
   122          7
   123         14
   124          9
   133         13
   134          5
   135         45
   136          6
   137         18
   139        281
   140         28
   147          5
   148         34
   149          6
   164        769
   165        114
   166        471
   167        158
   168         18
   330         48
   331         10
   332          2