##TITLE=Library Entry 48286
##JCAMP-DX=Revision 4.10 
##DATA TYPE=MASS SPECTRUM
##SAMPLE DESCRIPTION=Div. of Experiment Therapeutics WRAIR, WRAMC, Washingto
n DC 20307
##NAMES=HP
##CAS NAME=3',4'-dimethoxybenzaldehyde 4-[2-pyridyl]-3-thiosemicarbazone
##MOLFORM=C15H16N4O2S
##CAS REGISTRY NO=70618-96-1
##MP= -300
##BP= -300
##MW= 316
##$RETENTION INDEX=0
##$CONDENSED SPECTRUM=NO
##NPOINTS= 184
##XYDATA=(XY..XY) 1 
    41        119
    42         26
    43         81
    44         23
    45         40
    46          8
    47         12
    48          2
    49         18
    50        138
    51        510
    52        203
    53         90
    54         29
    55         45
    56          8
    57         19
    58         14
    59         33
    60         33
    61          8
    62         38
    63        135
    64        137
    65        151
    66        167
    67        381
    68         36
    69         29
    70         17
    71         11
    72          3
    73          5
    74         13
    75         29
    76         95
    77        331
    78        999
    79        561
    80         64
    81         23
    82         17
    83         24
    84         16
    85          8
    86          5
    87          3
    88          4
    89         30
    90         46
    91         57
    92        205
    93         74
    94        701
    95        101
    96         11
    97         12
    98         14
    99          3
   100          1
   101          1
   102         17
   103         13
   104         20
   105        166
   106         63
   107        121
   108         30
   109         24
   110         19
   111         18
   112          5
   113          1
   114          0
   115          1
   116          1
   117          9
   118         25
   119         79
   120        860
   121        105
   122         61
   123         20
   124         66
   125         66
   126          7
   127          6
   128          1
   129          2
   130          1
   131          4
   132          4
   133         25
   134         39
   135         57
   136        132
   137        853
   138        107
   139         48
   140          4
   141          1
   142          1
   143          1
   144          0
   145          1
   146         10
   147          9
   148         49
   149         38
   150         64
   151        192
   152        316
   153        121
   154         23
   155          7
   156          1
   158         18
   161          1
   163        116
   164        152
   165        173
   166        137
   167         15
   168          3
   169          2
   170          1
   176          1
   177          2
   179        111
   180        395
   181         44
   182         12
   183          4
   184          1
   185          0
   191          1
   192          2
   193          1
   194          1
   195          3
   196         12
   197         11
   198          1
   199          1
   206          1
   207          0
   208          0
   209          0
   210          1
   211          2
   212          0
   213          1
   222         72
   223          9
   224          4
   225          1
   227          0
   237          3
   238         11
   239          3
   240          2
   241          2
   242          0
   243          5
   244          1
   254          2
   255          1
   256          3
   257          1
   267          1
   271          1
   283          4
   284          1
   285          3
   286          9
   287          2
   299          1
   300          1
   313          1
   314          4
   316        365
   317         68
   318         22
   319          4