##TITLE=Library Entry 56431
##JCAMP-DX=Revision 4.10 
##DATA TYPE=MASS SPECTRUM
##SAMPLE DESCRIPTION=Div. of Experiment Therapeutics WRAIR, WRAMC, Washingto
n DC 20307
##NAMES=HP
##CAS NAME=6-methoxyquinoline-4-carboxaldehyde 4-[2-diethylaminoethyl]thiose
micarbazone
##MOLFORM=C18H25N5OS
##CAS REGISTRY NO=70619-41-9
##MP= -300
##BP= -300
##MW= 359
##$RETENTION INDEX=0
##$CONDENSED SPECTRUM=NO
##NPOINTS= 134
##XYDATA=(XY..XY) 1 
    42         78
    43         28
    44         64
    45          4
    46          1
    47          1
    48          0
    49          4
    50          5
    51         10
    52          4
    53          3
    54          7
    55         10
    56         72
    57         20
    58        124
    59         12
    60         20
    61          4
    62         12
    63         12
    64          4
    65          2
    66          0
    67          1
    68          4
    69         10
    70         35
    71         72
    72         28
    73          4
    74         11
    75         11
    76          6
    77         21
    78          3
    79          1
    80          1
    81          0
    82          2
    83          2
    84         45
    86        999
    87         75
    88         17
    89          8
    90          0
    91          2
    92          0
    96          2
    97          4
    98         11
    99        383
   100         43
   101         20
   102         10
   103         24
   104          2
   105          1
   110          0
   111          0
   112          1
   113          4
   114         11
   115         16
   116         23
   117          5
   118          0
   119          0
   124          1
   125          0
   126          3
   127          6
   128          9
   129          6
   130          4
   131          6
   132          0
   140          4
   141         13
   142         15
   143         11
   144          3
   145          0
   146          0
   153          1
   154          4
   155         22
   156          7
   157          4
   158         22
   159         30
   160          5
   161          0
   168          2
   169          3
   170         20
   171          8
   172          5
   173          2
   174          1
   177          0
   179          0
   183          0
   184         10
   185         17
   186          6
   187          3
   188          0
   199          0
   200          0
   201          2
   202          1
   212          8
   213          1
   243          2
   244          2
   245          1
   261          1
   262          0
   273          0
   285          0
   286          0
   287          8
   288          4
   289          1
   312          1
   326          0
   358          0
   359         62
   360         14
   361          4
   362          0