##TITLE=Library Entry 48239
##JCAMP-DX=Revision 4.10 
##DATA TYPE=MASS SPECTRUM
##SAMPLE DESCRIPTION=Div. of Experiment Therapeutics WRAIR, WRAMC, Washingto
n DC 20307
##NAMES=HP
##CAS NAME=2-acetylpyridine 4-[4-Nitrophenyl]-3-thiosemicarbazone
##MOLFORM=C14H13N5O2S
##CAS REGISTRY NO=70618-20-1
##MP= -300
##BP= -300
##MW= 315
##$RETENTION INDEX=0
##$CONDENSED SPECTRUM=NO
##NPOINTS= 163
##XYDATA=(XY..XY) 1 
    41         24
    42         55
    43         17
    44         11
    45         20
    46         19
    47          4
    48          0
    49          9
    50        128
    51        266
    52        202
    53         88
    54         26
    55          9
    56          6
    57         53
    58         17
    59         17
    60         16
    61          6
    62         23
    63        120
    64         97
    65         84
    66         24
    67         32
    68          4
    69         26
    70         11
    71          8
    72          4
    73          5
    74         28
    75         84
    76        169
    77        185
    78        999
    79        741
    80        131
    81         13
    82         12
    83         10
    84         11
    85          4
    86          4
    87         10
    88          6
    89          8
    90         75
    91         57
    92         79
    93         37
    94         43
    95         16
    96         27
    97          7
    98          3
    99          6
   100          1
   102         10
   103         17
   104        314
   105        300
   106        853
   107         91
   108         96
   109         13
   110          7
   111         15
   112          3
   113          2
   115          2
   116          4
   117         15
   118         21
   119         66
   120        200
   121         54
   122         60
   123         24
   124         32
   125          5
   126          3
   127          2
   129          0
   131          3
   132          1
   133         10
   134        699
   135        269
   136         29
   137         25
   138        133
   139         79
   140         11
   141          5
   142          0
   145          1
   147          3
   148         33
   149         66
   150        177
   151         50
   152        107
   153         11
   154          6
   157          0
   159          2
   161          1
   162          2
   163          5
   164         17
   165          8
   166          1
   167          0
   168          1
   169          2
   176          8
   177         42
   178        114
   179         20
   180         16
   181         50
   182          5
   183          3
   190          6
   191         24
   192          3
   193          2
   194          0
   195          3
   196          2
   205         31
   206          3
   207          2
   208          2
   211         13
   212          0
   235          5
   236         20
   237        242
   238         29
   239         14
   240          3
   241          1
   242          2
   253          2
   254         24
   255          3
   282         16
   283          2
   285          4
   286          6
   298          7
   300        204
   301         31
   302         12
   303          1
   315        414
   316         73
   317         25
   318          3