##TITLE=Library Entry 48241
##JCAMP-DX=Revision 4.10 
##DATA TYPE=MASS SPECTRUM
##SAMPLE DESCRIPTION=Div. of Experiment Therapeutics WRAIR, WRAMC, Washingto
n DC 20307
##NAMES=HP
##CAS NAME=2-acetylpyridine 4-[3-Bromophenyl]-3-thiosemicarbazone
##MOLFORM=C14H13BrN4S
##CAS REGISTRY NO=70618-08-5
##MP= -300
##BP= -300
##MW= 348
##$RETENTION INDEX=0
##$CONDENSED SPECTRUM=NO
##NPOINTS= 232
##XYDATA=(XY..XY) 1 
    41         66
    42        130
    43         20
    44         18
    45         39
    46         23
    47         14
    48          5
    49         41
    50        247
    51        560
    52        375
    53        127
    54         44
    55         12
    56         12
    57         95
    58         25
    59         31
    60         30
    61         19
    62         49
    63        213
    64        154
    65        184
    66         39
    67         62
    68          0
    69         28
    70         11
    71          8
    72          5
    73          9
    74         49
    75        197
    76        248
    77        222
    78        999
    79        779
    80        165
    81         16
    82         15
    83         10
    84         24
    85          2
    86         22
    87          5
    88         12
    89         15
    90        113
    91        170
    92        145
    93         57
    94         60
    95         18
    96         23
    97          6
    98          2
    99         11
   100          1
   101          1
   102         15
   103         12
   104        322
   105        340
   106        800
   107        102
   108         77
   109         14
   110          7
   111         17
   112          4
   113          2
   114          1
   115          2
   116          9
   117         35
   118         30
   119         95
   120        250
   121        123
   122         50
   123         32
   124         35
   125          5
   126          3
   127          4
   128          1
   129          5
   130          2
   131          9
   132          5
   133         12
   134        765
   135        263
   136         32
   137         21
   138         68
   139        142
   140         14
   141          8
   142          0
   143         27
   144          1
   145         26
   146          2
   147          1
   148         29
   149         71
   150        260
   151         60
   152        136
   153         14
   154          3
   155        106
   156          3
   157        100
   158          8
   160          2
   161          2
   162          2
   163          2
   164          5
   165          2
   166          1
   167          1
   168          4
   169          5
   170         10
   171        129
   172          7
   173        131
   174          9
   175          2
   176         11
   177         67
   178        141
   179         17
   180          7
   181          3
   182          4
   183          3
   184          4
   185          1
   187         26
   188          1
   189         20
   190         14
   191          4
   192          8
   193          1
   194          3
   195          1
   196         10
   197          7
   198          9
   199          5
   200          1
   201          1
   202          2
   203          1
   204          1
   207          1
   208          1
   209          1
   210          1
   211          1
   213         11
   214         25
   215         11
   216         24
   217          2
   218          1
   224          0
   227          1
   228          6
   229          3
   230          6
   231          2
   235          3
   238         20
   239          1
   240         21
   241          2
   243          0
   244          3
   246          3
   250          2
   252          1
   253          3
   254          1
   255          4
   256          1
   265          3
   267          1
   268          6
   269         12
   270        199
   271         18
   272        193
   273         20
   274          9
   275          3
   276          1
   277          2
   287          6
   288          1
   289          5
   290          1
   315         13
   316          0
   317         13
   318          2
   319          3
   320          1
   321          3
   330          2
   331          5
   333        137
   334          9
   335        146
   336         20
   337          7
   338          1
   346          2
   347          0
   348        298
   349         81
   350        341
   351         67
   352         21
   353          3