##TITLE=Library Entry 48151
##JCAMP-DX=Revision 4.10 
##DATA TYPE=MASS SPECTRUM
##SAMPLE DESCRIPTION=Div. of Experiment Therapeutics WRAIR, WRAMC, Washingto
n DC 20307
##NAMES=HP
##CAS NAME=2-acetylpyridine 4-[3,4-Dichlorophenyl]-3-thiosemicarbazone
##MOLFORM=C14H12Cl2N4S
##CAS REGISTRY NO=70618-14-3
##MP= -300
##BP= -300
##MW= 338
##$RETENTION INDEX=0
##$CONDENSED SPECTRUM=NO
##NPOINTS= 232
##XYDATA=(XY..XY) 1 
    41         39
    42        143
    43         25
    44         17
    45         29
    46         15
    47         16
    48          5
    49         45
    50        138
    51        509
    52        361
    53        137
    54         42
    55         15
    56         14
    57        101
    58         17
    59         30
    60         31
    61         27
    62         66
    63        137
    64         48
    65         51
    66         29
    67         53
    68         10
    69         22
    70         10
    71         12
    72         19
    73         62
    74         85
    75        109
    76         48
    77        170
    78        999
    79        875
    80        184
    81         18
    82         10
    83         21
    84         39
    85         29
    86         21
    87         13
    88         25
    89         43
    90         60
    91         21
    92         48
    93         46
    94         59
    95         11
    96          6
    97         32
    98         16
    99         43
   100         14
   101         11
   102          6
   103         11
   104        301
   105        298
   106        831
   107        101
   108         20
   109        125
   110         35
   111         64
   112         17
   113          5
   114          3
   115          4
   116          4
   117         10
   118          7
   119         82
   120        307
   121        114
   122         23
   124         70
   125         48
   126         26
   127         17
   128          4
   129          6
   130          4
   131          5
   133         94
   134        698
   135        218
   136         34
   137         28
   138         78
   139         92
   140         11
   141         10
   142         33
   143          6
   144         14
   145        106
   146         24
   147         68
   148         38
   149         30
   150        169
   151         76
   152        194
   154          7
   155          2
   156         13
   157          8
   158          8
   159         13
   160         23
   161        132
   162         28
   163         94
   164         13
   165         18
   166          5
   167          4
   168         10
   169         34
   170          9
   171         20
   172          7
   173          7
   174          4
   175          2
   176         10
   177         61
   178        205
   179         38
   180         12
   181          5
   182          1
   183         33
   184         31
   185         17
   186         27
   187         11
   188         11
   189          5
   190          3
   191          4
   192          3
   193          2
   194          2
   195          0
   196          1
   197          0
   198          2
   200          0
   201          1
   203         18
   204         27
   205         13
   206         18
   207          3
   208          4
   209          0
   215          1
   217          2
   218          8
   219          5
   220          5
   221          3
   222          1
   224          8
   225          2
   226          2
   228         25
   229          3
   230         15
   231          2
   232          2
   234          4
   235          0
   236          2
   242          1
   244          0
   254          1
   256          0
   258          5
   259         19
   260        180
   261         13
   262        138
   263         15
   264         23
   265          4
   266          2
   267          2
   269          2
   270          7
   271         29
   272          5
   273          0
   277          5
   278          0
   279          3
   287          0
   303          1
   304          0
   305         17
   306          3
   307         10
   308          2
   309          5
   310          1
   311          2
   320          0
   321         10
   323        126
   324          9
   325         95
   326         13
   327         15
   328          2
   334          0
   335          1
   337          2
   338        315
   339         22
   340        251
   341         41
   342         41
   343          6
   344          2