##TITLE=Library Entry 48152
##JCAMP-DX=Revision 4.10 
##DATA TYPE=MASS SPECTRUM
##SAMPLE DESCRIPTION=Div. of Experiment Therapeutics WRAIR, WRAMC, Washingto
n DC 20307
##NAMES=HP
##CAS NAME=2-Acetylpyridine 4-[3,5-dichlorophenyl]-3-thiosemicarbazone
##MOLFORM=C14H12Cl2N4S
##CAS REGISTRY NO=70618-15-4
##MP= -300
##BP= -300
##MW= 338
##$RETENTION INDEX=0
##$CONDENSED SPECTRUM=NO
##NPOINTS= 216
##XYDATA=(XY..XY) 1 
    42        133
    43         15
    44         20
    45         24
    46         13
    47         13
    48          5
    49         31
    50        112
    51        393
    52        274
    53         94
    54         28
    55          6
    56          8
    57         68
    58         19
    59         26
    60         27
    61         24
    62         58
    63        126
    64         43
    65         39
    66         20
    67         33
    68          4
    69         12
    70          7
    71          6
    72          9
    73         46
    74         62
    75         85
    76         40
    77        141
    78        999
    79        784
    80        146
    81         14
    82          6
    83         13
    84         20
    85         22
    86         12
    87          9
    88         17
    89         17
    90         52
    91         20
    92         39
    93         30
    94         37
    95          7
    96          4
    97         22
    98         12
    99         41
   100         10
   101         11
   102          5
   103          9
   104        252
   105        236
   106        755
   107         74
   109        100
   110         28
   111         49
   112         14
   113          4
   114          2
   115          3
   116          3
   117         10
   118          6
   119         62
   120        201
   121        116
   122         11
   124         51
   125         30
   126         26
   127         10
   128          6
   129          5
   130          3
   131          5
   133         85
   134        594
   135        155
   136         23
   137         21
   138         82
   139         78
   140         10
   141          7
   142         25
   143          4
   144         13
   145         91
   146         22
   147         61
   148         41
   149         26
   150        157
   151         79
   152        158
   154          8
   155          3
   156         12
   157          6
   158          8
   159         11
   160         18
   161        154
   162         21
   163         94
   164         13
   165         19
   166          5
   167          4
   168          7
   169         30
   170          6
   171         14
   172          5
   173          5
   174          4
   175          2
   176         18
   177        104
   178        155
   179         33
   180          9
   181          5
   182          4
   183         37
   184         42
   185         16
   186         25
   187         10
   188          7
   189          4
   190          2
   191          4
   192          5
   193          3
   194          3
   195          2
   198          2
   201          2
   203         22
   204         28
   205         16
   206         19
   207          4
   208          4
   209          1
   217          2
   218         11
   219         11
   220          8
   221          7
   222          2
   223          1
   224          4
   226          2
   228         35
   229          4
   230         22
   231          2
   232          3
   234          5
   235          1
   236          3
   238          1
   258         12
   259         25
   260        268
   261         46
   262        184
   263         24
   264         38
   265          9
   266          3
   267          3
   269          2
   277         11
   278          1
   279          8
   303          2
   304          1
   305         26
   306          5
   307         17
   308          3
   309         11
   310          2
   311          6
   320          2
   321         10
   323        273
   324         38
   325        177
   326         29
   327         34
   328          4
   337          3
   338        719
   339        157
   340        479
   341         94
   342         97
   343         19
   344          4