##TITLE=Library Entry 40018
##JCAMP-DX=Revision 4.10 
##DATA TYPE=MASS SPECTRUM
##SAMPLE DESCRIPTION=Div. of Experiment Therapeutics WRAIR, WRAMC, Washingto
n DC 20307
##NAMES=HP
##CAS NAME=2,6-dichlorobenzaldehyde 4-[2-Methyl-2-dimethylaminoethyl]thiosem
icarbazone
##MOLFORM=C13H18Cl2N4S
##CAS REGISTRY NO=70619-32-8
##MP= -300
##BP= -300
##MW= 332
##$RETENTION INDEX=0
##$CONDENSED SPECTRUM=NO
##NPOINTS= 117
##XYDATA=(XY..XY) 1 
    42         52
    43         11
    44         31
    46         13
    47          5
    49         29
    51         14
    52          1
    53          0
    54          3
    55          9
    56         38
    57         12
    58         15
    60         16
    61          2
    62          4
    63          4
    64          1
    65          1
    67          2
    68          2
    70         47
    72        999
    73         46
    75         18
    76          2
    77          2
    78          2
    81          1
    82          1
    84         34
    85         94
    86         35
    87          7
    89          4
    90          3
    91          1
    95          0
    96          1
    97          4
    99          5
   100         13
   101          4
   102          3
   103          1
   104          1
   106          2
   107          0
   109         10
   111         11
   112          2
   113          2
   115          8
   117          3
   118          2
   119          1
   121          1
   123         13
   124          9
   126          2
   127          1
   128          1
   129          1
   133          1
   134          1
   136         20
   138          6
   139          1
   142          2
   143          1
   145         18
   147          9
   148          2
   149          4
   150          2
   152          3
   153          3
   154          1
   155          1
   158          1
   159          2
   160          0
   161          1
   167          1
   169          0
   171          4
   172         18
   173          5
   174         16
   176          7
   178          1
   189          1
   191          1
   192          0
   195          1
   197          1
   227          0
   231          3
   233          2
   252          2
   254          1
   256          1
   272          1
   274          1
   286          0
   288          6
   289          1
   290          3
   292          1
   319          0
   332         50
   333         10
   334         35
   335          7
   336          7
   337          1