##TITLE=Library Entry 48322
##JCAMP-DX=Revision 4.10 
##DATA TYPE=MASS SPECTRUM
##SAMPLE DESCRIPTION=Div. of Experiment Therapeutics WRAIR, WRAMC, Washingto
n DC 20307
##NAMES=HP
##CAS NAME=2-Thiophenecarboxaldehyde 4-[2-pyridyl]-3-thiosemicarbazone
##MOLFORM=C11H10N4S2
##CAS REGISTRY NO=70618-99-4
##MP= -300
##BP= -300
##MW= 262
##$RETENTION INDEX=0
##$CONDENSED SPECTRUM=NO
##NPOINTS= 151
##XYDATA=(XY..XY) 1 
    41         30
    42         11
    43         27
    45        143
    47         29
    49         63
    50         48
    51        276
    52        140
    53         35
    54         21
    55         14
    57         73
    58         48
    59         30
    60         29
    62         15
    63         33
    64         31
    65         35
    66         64
    67        214
    69         93
    70        102
    71         36
    72         16
    73         11
    75         12
    76         20
    78        999
    79        145
    81         69
    82         42
    83         88
    84        107
    85         36
    86         39
    88          8
    89          2
    91          8
    92         26
    93          5
    94        509
    96        188
    97         90
    98         60
    99         61
   100         12
   101          3
   102          2
   103          2
   105        114
   106         13
   107          6
   109          7
   110        233
   112        223
   113         10
   114          8
   115          6
   116          6
   117          3
   119          6
   120        730
   121         44
   124        112
   125        171
   126        355
   127         34
   128         17
   129         10
   131         13
   133          1
   134          4
   136          6
   137        969
   138         62
   139         43
   140          6
   142         23
   143         19
   144          2
   145          6
   146          1
   147          2
   149          9
   151        368
   152        392
   153        106
   154         22
   155          6
   157          2
   159          1
   160          0
   161          0
   162          0
   163          1
   164          0
   166          1
   168         46
   169         10
   170          7
   172          1
   173          1
   174          1
   175          1
   177          4
   178          3
   179          8
   180          1
   181          0
   182          1
   183          2
   184          9
   185          3
   186          1
   187          2
   189          7
   190          1
   191          1
   192          1
   193          1
   195          1
   197          1
   200          8
   201          5
   202          5
   203          0
   205          1
   213          3
   215          1
   216          1
   219          1
   220          2
   222          1
   224          0
   227          1
   229         18
   230          4
   231          1
   233          1
   246          2
   249          0
   254          0
   256          0
   261         17
   262        831
   263        116
   264         77
   265          9
   266          1