##TITLE=Library Entry 48432
##JCAMP-DX=Revision 4.10 
##DATA TYPE=MASS SPECTRUM
##SAMPLE DESCRIPTION=Div. of Experiment Therapeutics WRAIR, WRAMC, Washingto
n DC 20307
##NAMES=HP
##CAS NAME=2-acetylpyridine 4-[2,4-dichlorophenyl]-3-thiosemicarbazone
##MOLFORM=C14H12Cl2N4S
##CAS REGISTRY NO=70618-11-0
##MP= -300
##BP= -300
##MW= 338
##$RETENTION INDEX=0
##$CONDENSED SPECTRUM=NO
##NPOINTS= 173
##XYDATA=(XY..XY) 1 
    41         39
    42         94
    43         27
    44         11
    45         23
    46          8
    47         20
    48          6
    49         69
    50        102
    51        384
    52        250
    53         83
    54         25
    55         21
    56         14
    57         75
    58          8
    59         22
    60         25
    61         17
    62         36
    63         97
    64         37
    65         41
    66         19
    67         37
    68          5
    69         33
    70         13
    71         13
    72         11
    73         57
    74         58
    75         80
    76         42
    77        130
    78        999
    79        676
    80         87
    81         13
    82         12
    83         26
    84         56
    85         26
    86         32
    87         11
    88         25
    89         13
    90         27
    91         15
    92         42
    93         36
    94         41
    95         13
    96          2
    97         35
    98         18
    99         27
   100         13
   101          5
   102          5
   103          8
   104        244
   105        192
   106        448
   107         59
   108         19
   109         64
   110         19
   111         41
   112         12
   113          5
   115          2
   117         11
   118         10
   119         87
   120        223
   121        295
   122         41
   124         93
   125         29
   126         30
   127         12
   129          6
   130         13
   131          2
   132         10
   133        204
   134        391
   135        135
   136         19
   137         20
   138         38
   139         21
   140          2
   141          6
   142         26
   143          4
   144         11
   145         34
   146         19
   147         25
   148         27
   149         15
   150         48
   151         34
   152         71
   153          4
   156         14
   157         17
   158         14
   159         14
   160         30
   161         70
   162         22
   163         43
   164         10
   165         11
   167          2
   168         45
   169         39
   170         24
   171         23
   172         10
   173          6
   174          2
   176          5
   177         11
   178         37
   179          5
   183        114
   184        167
   185         70
   186         81
   187         18
   188         14
   189          2
   198         10
   199          5
   200          2
   203         16
   204         39
   205         13
   206         28
   208          2
   218          2
   224         32
   226         12
   228          6
   260         50
   261          8
   262         35
   264         10
   267         12
   286         90
   287         21
   288         35
   289          5
   300         16
   302         18
   303        861
   304        156
   305        327
   306         54
   307         19
   323         28
   325         20
   338         24
   339          4
   340         17
   341          3
   342          3