##TITLE=Library Entry 56429
##JCAMP-DX=Revision 4.10 
##DATA TYPE=MASS SPECTRUM
##SAMPLE DESCRIPTION=Div. of Experiment Therapeutics WRAIR, WRAMC, Washingto
n DC 20307
##NAMES=HP
##CAS NAME=4-[2-Diethylaminoethyl]thiosemicarbazone pyridine-4-carboxaldehyd
e
##MOLFORM=C13H21N5S
##CAS REGISTRY NO=70619-40-8
##MP= -300
##BP= -300
##MW= 279
##$RETENTION INDEX=0
##$CONDENSED SPECTRUM=NO
##NPOINTS= 124
##XYDATA=(XY..XY) 1 
    42        170
    43         53
    44        105
    45          9
    46          4
    47          6
    48          2
    49         13
    50         36
    51        130
    52         24
    53          7
    54         17
    55         19
    56        132
    57         33
    58        188
    59         27
    60         53
    61          8
    62          8
    63         36
    64         23
    65         14
    66         12
    67          6
    68         11
    69         16
    70         47
    71         86
    72         44
    73          7
    74         12
    75          3
    76          7
    77         10
    78         98
    79         26
    80          5
    81          1
    82          2
    83          3
    84         63
    86        999
    87         25
    88          3
    89          0
    90          2
    91          5
    92          7
    93         11
    94          5
    95          1
    96          2
    97          5
    98          2
    99        322
   100         39
   101         11
   102          3
   103         20
   104          5
   105         37
   106         12
   107          8
   108          0
   109          0
   110          1
   111          1
   112          2
   113          3
   114          1
   115          6
   116          2
   117          0
   118          0
   119          1
   120          3
   121          1
   122          1
   123          0
   124          1
   125          0
   126          1
   127          0
   128          2
   129          1
   130          1
   131          4
   132          0
   133          0
   137          1
   138          0
   139          0
   140          2
   141          0
   142          1
   143          2
   145          0
   146          0
   147          1
   157          2
   158          0
   159          7
   161          0
   163          2
   164          4
   165          0
   172          0
   174          0
   180          0
   181          1
   201          0
   205          1
   207         16
   208          1
   209          0
   244          0
   246          0
   250          0
   279         48
   280          9
   281          2
   282          0