##TITLE=Library Entry 48166
##JCAMP-DX=Revision 4.10 
##DATA TYPE=MASS SPECTRUM
##SAMPLE DESCRIPTION=Div. of Experiment Therapeutics WRAIR, WRAMC, Washingto
n DC 20307
##NAMES=HP
##CAS NAME=2-acetylpyridine 4-[4-Bromophenyl]-3-thiosemicarbazone
##MOLFORM=C14H13BrN4S
##CAS REGISTRY NO=70618-09-6
##MP= -300
##BP= -300
##MW= 348
##$RETENTION INDEX=0
##$CONDENSED SPECTRUM=NO
##NPOINTS= 232
##XYDATA=(XY..XY) 1 
    41         62
    42        120
    43         27
    44         14
    45         35
    46         17
    47         20
    48          8
    49         80
    50        210
    51        476
    52        310
    53        108
    54         37
    55         16
    56         14
    57         98
    58         17
    59         22
    60         24
    61         13
    62         40
    63        181
    64        121
    65        121
    66         29
    67         48
    68          8
    69         29
    70         11
    71          8
    72          4
    73          7
    74         40
    75        168
    76        191
    77        172
    78        999
    79        809
    80        140
    81         14
    82         16
    83         13
    84         47
    85          6
    86         30
    87          4
    88         10
    89         10
    90         90
    91        151
    92         81
    93         37
    94         52
    95         16
    96         18
    97          7
    98          3
    99          7
   100          1
   101          1
   102         14
   103         11
   104        251
   105        245
   106        694
   107         80
   108         74
   109         12
   110          6
   111         13
   112          4
   113          2
   114          0
   115          2
   116          9
   117         28
   118         20
   119         82
   120        245
   121         95
   122         33
   123         30
   124         25
   125          5
   126          3
   127          5
   128          0
   129          5
   130          2
   131          6
   132          4
   133          5
   134        770
   135        300
   136         29
   137         15
   138         47
   139        101
   140         11
   141          6
   142          1
   143         32
   144          3
   145         30
   146          3
   147          1
   148         16
   149         40
   150        191
   151         49
   152        122
   153         13
   154          7
   155         78
   156          7
   157         75
   158          7
   159          0
   160          1
   161          4
   162          2
   163          1
   164          5
   165          1
   166          1
   167          1
   168          3
   169          5
   170         17
   171        158
   172         26
   173        149
   174         11
   175          2
   176          6
   177         28
   178        135
   179         16
   180          7
   181          3
   182          5
   183          4
   184          5
   185          1
   186          1
   187         19
   188          3
   189         20
   190         16
   191          4
   192          1
   193          1
   194          1
   195          5
   196         13
   197         10
   198         13
   199          6
   200          1
   201          2
   202          1
   203          2
   204          1
   205          0
   207          0
   208          0
   209          0
   210          1
   211          0
   212          0
   213         12
   214         25
   215         13
   216         24
   217          3
   218          1
   226          0
   227          1
   228          4
   229          2
   230          4
   231          1
   232          0
   235          3
   236          1
   238         14
   239          2
   240         13
   241          1
   244          3
   246          3
   252          0
   253          3
   254          0
   267          0
   268          3
   269         15
   270        141
   271         32
   272        141
   273         17
   274          7
   275          2
   276          0
   277          1
   287          3
   288          0
   289          3
   290          0
   315         10
   316          1
   317          9
   318          1
   319          2
   321          2
   330          0
   331          5
   332          2
   333         77
   334         13
   335         74
   336         11
   337          4
   338          0
   347          0
   348        162
   349         30
   350        162
   351         28
   352          9
   353          1