##TITLE=Library Entry 48355
##JCAMP-DX=Revision 4.10 
##DATA TYPE=MASS SPECTRUM
##SAMPLE DESCRIPTION=Div. of Experiment Therapeutics WRAIR, WRAMC, Washingto
n DC 20307
##NAMES=HP
##CAS NAME=Di-(2-pyridyl)ketone 4-[2-Pyridyl]-3-thiosemicarbazone
##MOLFORM=C17H14N6S
##CAS REGISTRY NO=70619-07-7
##MP= -300
##BP= -300
##MW= 334
##$RETENTION INDEX=0
##$CONDENSED SPECTRUM=NO
##NPOINTS= 190
##XYDATA=(XY..XY) 1 
    41         50
    42          9
    43          9
    44         16
    45         12
    46          5
    47          6
    48          2
    49         17
    50        108
    51        530
    52        312
    53         60
    54         11
    55          4
    56          3
    57          6
    58         14
    59         18
    60         10
    61          5
    62         26
    63         73
    64         52
    65         58
    66         50
    67        130
    68          8
    69          9
    70         19
    71         10
    72          2
    73          1
    74          8
    75         24
    76         80
    77         51
    78        999
    79        415
    80         68
    81          3
    82          8
    83         12
    84         22
    85          9
    86          9
    87         13
    88         19
    89         69
    90         28
    91         15
    92         18
    93         13
    94         97
    95          8
    96          2
    97          4
    98          6
    99          2
   100          3
   101          7
   102          9
   103          9
   104         29
   105        149
   106         10
   107          2
   108          2
   109          5
   110          5
   111          6
   112          2
   113         15
   114         28
   115        119
   116         47
   117         54
   118          9
   119         11
   120         21
   122         10
   123          7
   124         41
   125         12
   126          3
   127          4
   128         10
   129         11
   130          7
   131          1
   134          0
   136        109
   137        157
   138         14
   139         10
   140         42
   141         90
   142         63
   143         11
   144          2
   151         25
   152         38
   153          8
   154          6
   155          7
   156          2
   157          2
   159          1
   160          1
   161          1
   162          3
   165          0
   166         11
   167         38
   168        288
   169        872
   170        234
   171         21
   172          1
   173          0
   174          1
   179          1
   180          2
   181          4
   182         11
   183         23
   184         74
   185          9
   186          2
   187          2
   192          1
   193          1
   194          8
   195          9
   196          4
   197         86
   198         10
   199         11
   200          8
   201         55
   202        325
   203         43
   204         16
   205          2
   209          1
   210          1
   211         30
   212         11
   213        127
   214         33
   215         13
   216          2
   222          1
   224          4
   226          1
   227          3
   228          5
   229          1
   230          1
   239          5
   240         32
   241          8
   242          2
   243          1
   244          2
   245          0
   246          3
   252          1
   256         64
   257         10
   258          5
   259          1
   261          3
   271          1
   272          0
   273         72
   274         13
   275          1
   286          0
   287          1
   301          2
   304          1
   305          4
   306          6
   307          1
   333          4
   334         63
   335         14
   336          4
   337          0