##TITLE=Library Entry 48156
##JCAMP-DX=Revision 4.10 
##DATA TYPE=MASS SPECTRUM
##SAMPLE DESCRIPTION=Div. of Experiment Therapeutics WRAIR, WRAMC, Washingto
n DC 20307
##NAMES=HP
##CAS NAME=2-acetylpyridine 4-[2-Methoxyphenyl]-3-thiosemicarbazone
##MOLFORM=C15H16N4OS
##CAS REGISTRY NO=70618-29-0
##MP= -300
##BP= -300
##MW= 300
##$RETENTION INDEX=0
##$CONDENSED SPECTRUM=NO
##NPOINTS= 190
##XYDATA=(XY..XY) 1 
    41         81
    42        107
    43         28
    44          8
    45         38
    46          9
    47         37
    48         11
    49        108
    50        123
    51        523
    52        427
    53        162
    54         35
    55         24
    56         12
    57        123
    58         18
    59         25
    60         21
    61          6
    62         19
    63        116
    64        138
    65        280
    66         54
    67         55
    68          9
    69         31
    70         18
    71         15
    72          6
    73          5
    74         14
    75         25
    76         53
    77        304
    78        999
    79        874
    80        207
    81         16
    82         11
    83         18
    84         76
    85         11
    86         42
    87          2
    88          9
    89          5
    90         66
    91        113
    92        183
    93         89
    94        101
    95         38
    96         41
    97         15
    98          4
    99          8
   101          1
   102          6
   103         10
   104        270
   105        327
   106        756
   107        102
   108        248
   109         34
   110         17
   111         24
   112          7
   113          3
   114          1
   115          0
   116          2
   117          9
   118         12
   119        117
   120        340
   121        158
   122        119
   123        632
   124         84
   125         13
   126          4
   127          2
   128          0
   129          2
   130          2
   131          7
   132         25
   133         41
   134        684
   135        205
   136         32
   137         27
   138         40
   139        104
   140         16
   141          6
   142          2
   144          0
   145          2
   146          2
   147         45
   148         34
   149         48
   150        240
   151        323
   152        129
   153         28
   154          7
   155          2
   160          0
   161          7
   162          2
   163          5
   164          7
   165         32
   166         56
   167          8
   168          3
   169          1
   170          0
   171          0
   173          0
   174          2
   175          1
   176          8
   177         16
   178         62
   179         14
   180         18
   181          7
   182          2
   183          0
   187          1
   188         11
   189          0
   190         32
   191          3
   192          1
   194          0
   195          1
   196          1
   197          0
   207          3
   208          0
   209          1
   210          2
   211          1
   220          3
   221          4
   222        259
   223         33
   224         15
   225          3
   226          1
   227          2
   235          8
   236          1
   237          1
   239          9
   240          1
   241          1
   250          4
   251          0
   252         24
   253          7
   254          3
   265          0
   267         26
   268          1
   269        318
   270         52
   271         26
   272          4
   282          0
   283          0
   285        160
   286         26
   287          9
   288          0
   297          1
   298          1
   299          2
   300        546
   301        103
   302         34
   303          5