##TITLE=Library Entry 48142
##JCAMP-DX=Revision 4.10 
##DATA TYPE=MASS SPECTRUM
##SAMPLE DESCRIPTION=Div. of Experiment Therapeutics WRAIR, WRAMC, Washingto
n DC 20307
##NAMES=HP
##CAS NAME=2-Acetylpyridine-4-[2,6-dichlorophenyl]-3-thiosemicarbazone
##MOLFORM=C14H12Cl2N4S
##CAS REGISTRY NO=70618-13-2
##MP= -300
##BP= -300
##MW= 338
##$RETENTION INDEX=0
##$CONDENSED SPECTRUM=NO
##NPOINTS= 199
##XYDATA=(XY..XY) 1 
    41         73
    42        164
    43         20
    44         18
    45         50
    46         19
    47         20
    48          5
    49         50
    50        167
    51        649
    52        421
    53        146
    54         50
    55         20
    56         10
    57         78
    58         16
    59         29
    60         29
    61         22
    62         54
    63        124
    64         49
    65         48
    66         25
    67         48
    69         36
    70         11
    71          6
    72         32
    73         68
    74         61
    75         84
    76         47
    77        154
    78        999
    79        704
    80        122
    81         33
    82         46
    83         18
    84         28
    85         20
    86         13
    87          8
    88         22
    89         15
    90         38
    91         13
    92         51
    93         38
    94         31
    95         19
    96          5
    97         23
    98         19
    99         26
   100         13
   101          6
   102          5
   103          8
   104        236
   105        215
   106        379
   107         68
   108         13
   109         51
   110         14
   111         30
   112          8
   113          3
   114          3
   115          7
   116          4
   117         10
   118         10
   119        206
   120        281
   121        471
   122        105
   123         12
   124        133
   125         47
   126         50
   127         16
   128          5
   129          6
   130         10
   131          5
   132         10
   133        234
   134        268
   135         99
   136         20
   137         16
   138         24
   139         15
   140          5
   141          8
   142         18
   143          4
   144          8
   145         21
   146         20
   147         16
   148         23
   149         15
   150         32
   151          2
   152         86
   153         14
   154          2
   155          1
   156         11
   157         15
   158         22
   159         17
   160         32
   161        152
   162         27
   163         93
   164         11
   165         13
   166          3
   167          5
   168         48
   169         27
   170         28
   171         14
   172         11
   173          4
   174          4
   175          1
   176         10
   177         12
   178         14
   179          3
   182          5
   183         71
   184        148
   185         69
   186         70
   187         22
   188         11
   189          4
   190          2
   191          1
   192          1
   194          1
   196          1
   197          2
   198          9
   199          6
   200          5
   201          4
   203         15
   204         33
   205         11
   206         24
   207          4
   208          4
   218          1
   219          1
   224         14
   225          1
   226          7
   227          4
   228          3
   230          2
   240          1
   244          1
   245          1
   259          2
   260         17
   261          2
   262         10
   263          1
   264          1
   267          8
   268          1
   269          3
   273          1
   285          2
   286         64
   287         16
   288         30
   289          5
   290          1
   302         17
   303        389
   304         73
   305        141
   306         23
   307          6
   323          4
   325          3
   338          2
   340          1