##TITLE=Library Entry 48321
##JCAMP-DX=Revision 4.10 
##DATA TYPE=MASS SPECTRUM
##SAMPLE DESCRIPTION=Div. of Experiment Therapeutics WRAIR, WRAMC, Washingto
n DC 20307
##NAMES=HP
##CAS NAME=Piperonal 4-[2-pyridyl]-3-thiosemicarbazone
##MOLFORM=C14H12N4O2S
##CAS REGISTRY NO=70618-97-2
##MP= -300
##BP= -300
##MW= 300
##$RETENTION INDEX=0
##$CONDENSED SPECTRUM=NO
##NPOINTS= 150
##XYDATA=(XY..XY) 1 
    41         42
    42         19
    43         25
    44          5
    45         32
    46          5
    47          6
    50        255
    51        446
    52        189
    53         77
    54         22
    55         17
    56          2
    57          6
    58         12
    59         34
    60         32
    62        133
    63        290
    64         10
    65        399
    66         86
    67        248
    68          5
    69         24
    70         10
    71          7
    72          2
    74         36
    75         17
    76        301
    78        999
    79        246
    80         35
    81         13
    82         11
    83         16
    84         11
    85          5
    86          3
    87          3
    88          9
    89         14
    90         58
    91         59
    92         37
    93          3
    94        459
    95         38
    96          6
    97          7
    98         13
    99          2
   100          1
   101          2
   102          3
   104         42
   105        155
   106         26
   107         16
   108          8
   109         12
   110         10
   111         11
   112          4
   113          0
   115          0
   118         32
   120        705
   121        174
   122         58
   124         67
   125         59
   126          6
   127          3
   128          0
   130          1
   133         30
   134         66
   135         49
   137        756
   138         47
   139         28
   140          2
   141          0
   146         68
   148        223
   149         71
   150        160
   151        185
   152        318
   153        103
   154         22
   155          6
   156          0
   160          1
   161          4
   163        105
   164        379
   165         36
   166          6
   167          5
   168          0
   169          1
   173          1
   175          3
   176          0
   177          2
   178          5
   179         24
   180         21
   181         12
   182          3
   183          1
   189          0
   190          1
   192          0
   197          0
   206         54
   207          7
   208          3
   209          1
   210          1
   211          0
   213          2
   214          0
   221          2
   222          9
   223          1
   225          2
   227          7
   228          1
   230          0
   237          0
   238          5
   239          1
   240          2
   241          1
   267          9
   268          2
   269          2
   270          0
   271          1
   298          0
   299         17
   300        649
   301        113
   302         37
   303          5