##TITLE=Library Entry 48143
##JCAMP-DX=Revision 4.10 
##DATA TYPE=MASS SPECTRUM
##SAMPLE DESCRIPTION=Div. of Experiment Therapeutics WRAIR, WRAMC, Washingto
n DC 20307
##NAMES=HP
##CAS NAME=2-propionylpyridine 4-[4-Bromophenyl]-3-thiosemicarbazone
##MOLFORM=C15H15BrN4S
##CAS REGISTRY NO=70618-77-8
##MP= -300
##BP= -300
##MW= 362
##$RETENTION INDEX=0
##$CONDENSED SPECTRUM=NO
##NPOINTS= 232
##XYDATA=(XY..XY) 1 
    41        146
    42         39
    43         42
    44         70
    45        242
    47         19
    48         10
    49        101
    50        344
    51        591
    52        395
    53        104
    54         63
    55         19
    56         27
    57         17
    58         53
    59         49
    60         39
    61         67
    62        115
    63        283
    64        176
    65        653
    66         86
    67         45
    68         15
    69         26
    70         21
    71         28
    72         10
    73         25
    74         91
    75        192
    76        236
    77        141
    78        999
    79        752
    80         96
    81         22
    82         18
    83         18
    84         47
    85         46
    86         31
    87         69
    88         16
    89         32
    90        114
    91        177
    92        410
    93         81
    94         17
    95         10
    96         11
    97          6
    98          2
    99          4
   100          2
   101          1
   102         22
   103         18
   104        238
   105        588
   106        131
   107         40
   108         41
   109          8
   110          3
   111         36
   112          5
   113          8
   114          1
   115          3
   116         29
   117        176
   118        147
   119         55
   120        219
   121         28
   122         15
   123         18
   124         14
   125         14
   126          2
   127          6
   128          3
   129          6
   130         48
   131         51
   132         54
   133        329
   134        193
   135         84
   136         16
   137         10
   138         21
   139          3
   140          1
   142         48
   143         27
   144          5
   145         25
   146          7
   147          8
   148         72
   149         46
   150         36
   151         10
   152         17
   153          7
   154          2
   155         65
   156          6
   157         64
   158         36
   159          4
   160          2
   161          2
   162         49
   163         11
   164         31
   165         11
   166         22
   167          3
   168          2
   169          3
   170         13
   171        467
   172         44
   173        456
   174         37
   175          4
   176          3
   177          1
   178          2
   179          3
   180          0
   181          4
   182          2
   183          5
   184          2
   185          1
   186          1
   187          7
   188          4
   189          8
   190         13
   191        160
   192         42
   193         11
   194          4
   195          3
   196          8
   197          4
   198          8
   199          2
   200          0
   201          0
   202          0
   203          0
   204          2
   205          0
   206          0
   207          1
   208          1
   209          2
   210          1
   211          0
   212          0
   213        152
   214         20
   215        147
   216         20
   217          8
   218          1
   223          3
   224          0
   225          0
   227          0
   228          1
   229          0
   230          2
   231          0
   232          1
   237          8
   238          5
   239          1
   248          0
   249          2
   251          0
   252          1
   253          3
   254          2
   255          0
   256          0
   259          1
   261          1
   262          1
   282          0
   283          1
   284         18
   285          3
   286         17
   287          2
   288          1
   289          0
   290          1
   294          1
   301          0
   303          0
   311          8
   312          1
   313          0
   329          0
   330          0
   331          0
   333        110
   334         19
   335        111
   336         17
   337          6
   338          0
   340          3
   341          0
   345          0
   347          1
   362         28
   363          5
   364         28
   365          5
   366          1