##TITLE=Library Entry 67062
##JCAMP-DX=Revision 4.10 
##DATA TYPE=MASS SPECTRUM
##SAMPLE DESCRIPTION=Div. of Experiment Therapeutics WRAIR, WRAMC, Washingto
n DC 20307
##NAMES=HP
##CAS NAME=Bis[4-[2-pyridyl]-3-thiosemicarbazone]-2,6-diacetylpyridine
##MOLFORM=C21H21N9S2
##CAS REGISTRY NO=70619-46-4
##MP= -300
##BP= -300
##MW= 463
##$RETENTION INDEX=0
##$CONDENSED SPECTRUM=NO
##NPOINTS= 125
##XYDATA=(XY..XY) 1 
    41        162
    42         37
    43         30
    44         33
    45          9
    47         18
    49         26
    50         99
    51        216
    52        107
    53         27
    54         22
    55          3
    56          3
    57         19
    58         34
    59         45
    60         13
    62          8
    63         28
    64         52
    65         45
    66        126
    67        620
    68         44
    69          7
    70         23
    72          3
    74          4
    75         25
    76        143
    77        108
    78        592
    79         93
    80          9
    81          6
    82          6
    83         17
    84         17
    89          3
    90          8
    91         17
    92         19
    93         59
    94        999
    95         80
    99          7
   102         17
   103         51
   104         90
   105        152
   106         40
   107          6
   108         12
   109          9
   110          6
   111          4
   115          7
   117         14
   118         37
   119         35
   120         53
   121         10
   124         18
   125         22
   129          8
   130         29
   131         31
   132          4
   133         12
   134         21
   135         28
   136        423
   137        313
   138         44
   139         16
   144         11
   145         18
   146         19
   147         37
   148         12
   151         85
   152         72
   153         14
   159          8
   160          7
   161         14
   162         15
   163         12
   174         13
   175         29
   176         21
   177         18
   178          4
   179        182
   180         30
   181         15
   189         29
   190          9
   192         28
   193         91
   194         18
   195          4
   197          3
   202         13
   203        160
   204         23
   205         14
   217         29
   218          7
   219         41
   232         13
   233         22
   236          7
   255         23
   281         11
   311        185
   312         46
   313         19
   327          3
   354         17
   369         64
   370         15
   371          3
   463          6