##TITLE=Library Entry 67075
##JCAMP-DX=Revision 4.10 
##DATA TYPE=MASS SPECTRUM
##SAMPLE DESCRIPTION=Div. of Experiment Therapeutics WRAIR, WRAMC, Washingto
n DC 20307
##NAMES=HP
##CAS NAME=Indole-3-carboxaldehyde 4-[2-pyridyl]-3-thiosemicarbazone
##MOLFORM=C15H13N5S
##CAS REGISTRY NO=70619-00-0
##MP= -300
##BP= -300
##MW= 295
##$RETENTION INDEX=0
##$CONDENSED SPECTRUM=NO
##NPOINTS= 175
##XYDATA=(XY..XY) 1 
    41        266
    42         43
    43         41
    44         47
    45         26
    46          4
    47         46
    48          4
    49         40
    50        183
    51        378
    52        172
    53         30
    54         32
    55         11
    56          8
    57          2
    58         54
    59         27
    60          9
    61         22
    62         76
    63        140
    64        125
    65         82
    66        167
    67        863
    68         64
    69         12
    70         22
    71         13
    72          6
    73          7
    74         37
    75         70
    76        130
    77         47
    78        489
    79         75
    80          8
    81          4
    82          7
    83         14
    84         12
    85         11
    86         17
    87         31
    88         63
    89        226
    90         44
    91          9
    92         14
    93         53
    94        999
    95         90
    96          5
    97          4
    98          6
    99          6
   100          2
   101         49
   102         48
   103         20
   104         12
   105         16
   106          5
   107          4
   108          6
   109          5
   110          2
   111          9
   112          5
   113          2
   114         67
   115        106
   116        312
   117        109
   118         14
   119         11
   120         75
   121          7
   122          2
   123          1
   124          7
   125          7
   126          2
   127         20
   128         54
   129         70
   130         20
   131         20
   132         24
   133          3
   134          3
   135          0
   136        354
   137        118
   138         24
   139          6
   140          2
   141         14
   142        255
   143        421
   144         60
   145         15
   146          6
   147          2
   148          7
   149          5
   150          4
   151         13
   152         51
   153         19
   154          7
   155          3
   156          1
   157          5
   158         10
   159        124
   160         18
   161          4
   162          2
   163          6
   164          5
   165          5
   166          1
   167          1
   168          8
   169          5
   170          2
   171          1
   172          4
   173          6
   174          9
   175          2
   176          2
   177          4
   178         14
   179          7
   180          3
   185          5
   186          2
   187          3
   192          0
   193          1
   194          0
   197          0
   198          0
   199          0
   200          1
   201        497
   202         59
   203         25
   204          3
   210          0
   212          0
   216          0
   217          1
   220         12
   221         10
   222          8
   223          1
   230          1
   233          2
   235          0
   257          0
   262          1
   270          0
   272          1
   292          1
   293          2
   294          1
   295         79
   296         15
   297          5