##TITLE=Library Entry 61478
##JCAMP-DX=Revision 4.10 
##DATA TYPE=MASS SPECTRUM
##SAMPLE DESCRIPTION=CHBEAM, 112(5)1585(1979); T. KAPPE ET AL.
##NAMES=HP
##CAS NAME=6H-1,3-Oxazin-6-one, 4-hydroxy-2,5-bis(phenylmethyl)-
##MOLFORM=C18H15NO3
##CAS REGISTRY NO=70611-44-8
##MP= -300
##BP= -300
##MW= 293
##$RETENTION INDEX=0
##$CONDENSED SPECTRUM=NO
##NPOINTS= 24
##XYDATA=(XY..XY) 1 
    44        300
    55        160
    77        210
    89        200
    90        260
    91        999
    92        300
   103        160
   104        160
   105        180
   117        140
   118        580
   121        140
   131        260
   148        110
   149        100
   157         60
   175         30
   176        100
   179         70
   180         50
   249         50
   267         40
   293         20