##TITLE=Library Entry 47810
##JCAMP-DX=Revision 4.10 
##DATA TYPE=MASS SPECTRUM
##SAMPLE DESCRIPTION=Div. of Experiment Therapeutics WRAIR, WRAMC, Washingto
n DC 20307
##NAMES=HP
##CAS NAME=Acetophenone 4-[4-pyridyl]-3-thiosemicarbazone
##MOLFORM=C14H14N4S
##CAS REGISTRY NO=70619-11-3
##MP= -300
##BP= -300
##MW= 270
##$RETENTION INDEX=0
##$CONDENSED SPECTRUM=NO
##NPOINTS= 177
##XYDATA=(XY..XY) 1 
    42        235
    43         34
    44         13
    45         26
    46          2
    47         36
    48         12
    49        127
    50        155
    51        706
    52        125
    53         31
    54         23
    55         13
    56         25
    57         39
    58         16
    59         27
    60         22
    61          6
    62         15
    63         48
    64         31
    65         98
    66         62
    67         88
    68          9
    69         18
    70         11
    71         11
    72          5
    73          7
    74         25
    75         33
    76         85
    77        999
    78        496
    79         79
    80         12
    81         24
    82         17
    83         23
    84         75
    85          4
    86         42
    87          4
    88         10
    89         24
    90         13
    91         63
    92        116
    93         88
    94        179
    95         46
    96         10
    97         12
    98         17
    99          5
   100          1
   101          4
   102         34
   103        198
   104        231
   105         62
   106         22
   107         10
   108          5
   109         11
   110         11
   111          6
   112          3
   113          1
   115          3
   116         13
   117         99
   118        357
   119        251
   120        180
   121         22
   122          4
   123          5
   124         33
   125         70
   126          7
   127          4
   128          2
   129          1
   130          1
   131          6
   132          7
   133        433
   134        119
   135         16
   136         23
   137        268
   138         19
   139         14
   140          1
   141          1
   143          2
   145          1
   146          1
   147          4
   148          3
   149          8
   150         81
   151        106
   152         90
   153         12
   154          4
   157          1
   159          2
   160          3
   161          9
   162          3
   163          2
   166          3
   167          3
   168          0
   169          0
   171          0
   174          1
   176        140
   177         67
   178         15
   179          5
   180          1
   181          2
   183          2
   185          1
   187          1
   190          0
   191          2
   192          6
   193        125
   194         16
   195          8
   196          6
   197          3
   203          4
   205          1
   207          2
   208          1
   210          1
   211          0
   218          2
   219          1
   220          0
   221          5
   222          2
   223          4
   224          0
   228          1
   235          0
   236          3
   237         48
   238          9
   239          1
   240          2
   242          1
   247          1
   249          2
   252          2
   253          3
   255        791
   256        129
   257         47
   258          6
   262          1
   264          1
   267          1
   268          1
   269          5
   270        689
   271        123
   272         41
   273          5