##TITLE=Library Entry 48318
##JCAMP-DX=Revision 4.10 
##DATA TYPE=MASS SPECTRUM
##SAMPLE DESCRIPTION=Div. of Experiment Therapeutics WRAIR, WRAMC, Washingto
n DC 20307
##NAMES=HP
##CAS NAME=methyl 2-pyridyl ketone 4-[2-pyridyl]-3-thiosemicarbazone
##MOLFORM=C13H13N5S
##CAS REGISTRY NO=70619-05-5
##MP= -300
##BP= -300
##MW= 271
##$RETENTION INDEX=0
##$CONDENSED SPECTRUM=NO
##NPOINTS= 201
##XYDATA=(XY..XY) 1 
    42        144
    43         75
    44         20
    45         24
    46          6
    47         11
    48          5
    49         46
    50        137
    51        641
    52        246
    53         46
    54         14
    55         23
    56         10
    57         43
    58         17
    59         21
    60         23
    61         14
    62         11
    63         33
    64         34
    65         45
    66         86
    67        185
    68         16
    69         19
    70         10
    71         15
    72          4
    73          6
    74         13
    75         29
    76         40
    77         95
    78        999
    79        262
    80         32
    81         28
    82         11
    83         24
    84         37
    85         11
    86         18
    87          3
    88          5
    89          5
    90          6
    91         17
    92         30
    93         52
    94        336
    95        127
    96         11
    97         13
    98         15
    99         10
   100          2
   101          4
   102          3
   103         12
   104         85
   105        163
   106         81
   107         22
   109         23
   110         13
   111         16
   112          5
   113          4
   114          3
   115          3
   116          3
   117          8
   118         21
   119        206
   120        257
   121        146
   122         13
   124         65
   125         69
   126          7
   127          6
   128          2
   129          3
   130          1
   131          3
   132          3
   133         13
   134        400
   135        138
   137        766
   138         66
   139         38
   140          6
   141          3
   143          3
   144          2
   145          5
   146          2
   147          3
   148          6
   149          6
   150          8
   151        211
   152        146
   153         20
   154          8
   155          2
   156          1
   157          1
   158          0
   159          1
   160          1
   161          4
   162          7
   163          2
   164          1
   165          3
   166          1
   167          2
   168          4
   169          8
   170          2
   171          1
   172          1
   173          1
   174          0
   175          1
   177         86
   178         50
   179          7
   180          3
   181          1
   182          1
   183          2
   184          0
   185          2
   187          1
   189          1
   190          0
   191          1
   192          2
   193         33
   194          4
   195          3
   196          2
   197          9
   198          2
   199          1
   201          1
   203          0
   205          0
   207          1
   208          1
   209          4
   210          3
   211          2
   213          2
   214          0
   215          0
   217          0
   219          0
   221          1
   222          2
   223          1
   224          0
   225          8
   226          2
   227          1
   229         70
   230          8
   231          3
   233          0
   235          0
   236          3
   238        189
   239         28
   240          3
   241          3
   242          1
   243          0
   245          0
   247          0
   253          2
   254          1
   256        125
   257         19
   258          7
   259          1
   262          0
   266          0
   267          0
   268          3
   269          1
   270          2
   271        195
   272         38
   273         12
   274          2