##TITLE=Library Entry 48436
##JCAMP-DX=Revision 4.10 
##DATA TYPE=MASS SPECTRUM
##SAMPLE DESCRIPTION=Div. of Experiment Therapeutics WRAIR, WRAMC, Washingto
n DC 20307
##NAMES=HP
##CAS NAME=2-propionylpyridine 4-[4-carbethoxyphenyl]-3-thiosemicarbazone
##MOLFORM=C18H20N4O2S
##CAS REGISTRY NO=70618-79-0
##MP= -300
##BP= -300
##MW= 356
##$RETENTION INDEX=0
##$CONDENSED SPECTRUM=NO
##NPOINTS= 205
##XYDATA=(XY..XY) 1 
    41         99
    42         31
    43         56
    44         40
    45        168
    46         16
    47         24
    48         11
    49        129
    50        117
    51        365
    52        232
    53         96
    54         40
    55         23
    56         36
    57         18
    58         17
    59         22
    60         29
    61          7
    62         19
    63        105
    64        101
    65        364
    66         45
    67         28
    68         18
    69         25
    70         12
    71         36
    73         11
    74         13
    75         68
    76        117
    77        142
    78        999
    79        864
    80        121
    81         28
    82         13
    83         13
    84          8
    85          3
    86          5
    87          2
    88         12
    89         23
    90        110
    91        131
    92        374
    93        105
    94         25
    95          6
    96         15
    97         11
    98          3
    99          2
   102         17
   103        100
   104        268
   105        602
   106        150
   107         28
   108         62
   109         32
   110          6
   111         19
   112          5
   113          6
   114          0
   115          2
   116         23
   117        161
   118        171
   119         79
   120        863
   121        107
   122         29
   123         22
   124         32
   125         39
   126          4
   127          4
   128          0
   129          1
   130         22
   131         46
   132         50
   133        409
   134        239
   135        109
   136         29
   137         72
   138         52
   139          9
   140          0
   141         56
   144          8
   145         53
   146         10
   147          6
   148        129
   149         60
   150         72
   151         34
   152         40
   153         29
   154          4
   155          5
   157          0
   158          9
   159          1
   160          1
   161          0
   162        143
   163         21
   164         89
   165        132
   166         69
   167          9
   168          5
   169          1
   171          0
   172          1
   174          3
   175          4
   176          8
   177         18
   178          5
   179         10
   180         17
   181          5
   182          2
   189          1
   190          8
   191         46
   192         57
   193          9
   194         10
   195          3
   196          0
   204          3
   205          1
   206          6
   207          9
   208         25
   209          3
   210          0
   218          0
   219          1
   222          2
   223          4
   224          2
   225          0
   232          0
   239          0
   240          0
   246          6
   247          0
   248          0
   249          0
   250         13
   251          2
   252          1
   253          4
   254          1
   255          1
   264          2
   266          4
   267          0
   268          0
   276          2
   277          5
   278        119
   279         19
   280          8
   281          3
   283          7
   284          2
   295          3
   296          0
   297          0
   299         38
   300          6
   301          2
   306          1
   311         31
   312          6
   313          1
   323          5
   324          1
   325          0
   327        904
   328        187
   329         63
   330          9
   331          0
   339          6
   340          1
   342          2
   356        223
   357         48
   358         16
   359          2