##TITLE=Library Entry 22722
##JCAMP-DX=Revision 4.10 
##DATA TYPE=MASS SPECTRUM
##SAMPLE DESCRIPTION=S. MIHARA, OGAWA & CO. LTD., TOKYO, JAPA
##NAMES=HP
##CAS NAME=N-Nitroso-2-methylthiazolidine
##MOLFORM=C4H8N2OS
##CAS REGISTRY NO=70629-19-5
##MP= -300
##BP= -300
##MW= 132
##$RETENTION INDEX=0
##$CONDENSED SPECTRUM=NO
##NPOINTS= 54
##XYDATA=(XY..XY) 1 
    27        190
    29        100
    30        320
    34         20
    35        220
    39         20
    40         10
    41        150
    42        700
    43        130
    44        500
    45        190
    46        120
    47         90
    48         20
    49         10
    53         10
    54        190
    55        170
    56        999
    57        340
    58        320
    59        500
    60        680
    61        430
    62         60
    63         30
    64         10
    67         10
    68         90
    69        110
    70         70
    71         10
    72         10
    73         20
    74        760
    75         70
    76        100
    85         40
    86        120
    87        150
    88        430
    89         30
    90         40
    99         80
   100         20
   101        190
   102        960
   103        300
   104        200
   105         10
   117         10
   132        100
   133         10