##TITLE=Library Entry 7006
##JCAMP-DX=Revision 4.10 
##DATA TYPE=MASS SPECTRUM
##SAMPLE DESCRIPTION=James Little,Eastman Chem.Co.,Kingsport,TN
##NAMES=HP
##CAS NAME=Isoxazole, 4,5-dimethyl-
##MOLFORM=C5H7NO
##CAS REGISTRY NO=7064-40-6
##MP= -300
##BP= -300
##MW= 97
##$RETENTION INDEX=0
##$CONDENSED SPECTRUM=NO
##NPOINTS= 24
##XYDATA=(XY..XY) 1 
    27        287
    29        150
    39        163
    40        229
    41        161
    42        160
    43        999
    52         73
    53         52
    54        653
    55        327
    56         26
    57         26
    66          9
    67          9
    68         75
    69         32
    70         64
    82        117
    83          8
    96         43
    97        564
    98         43
    99          8