##TITLE=Library Entry 17417
##JCAMP-DX=Revision 4.10 
##DATA TYPE=MASS SPECTRUM
##SAMPLE DESCRIPTION=Chemical Concepts
##NAMES=HP
##CAS NAME=5,7:26,28-Dietheno-8H,25H-diindeno[2,1-t:1',2'-u][1,4,7,10,13,16]
hexaoxacyclopentacosin, 10,11,13,14,16,17,19,20,22,23-decahydro-, (s)-
##MOLFORM=C37H38O6
##CAS REGISTRY NO=70657-77-1
##MP= -300
##BP= -300
##MW= 578
##$RETENTION INDEX=0
##$CONDENSED SPECTRUM=NO
##NPOINTS= 60
##XYDATA=(XY..XY) 1 
    28         26
    29         30
    31         25
    43         57
    45        999
    59         25
    71          8
    73         38
    87         37
    89        789
    90         36
   117         10
   133        596
   134         39
   149         28
   150         37
   151         25
   157         33
   163        169
   164         48
   170         37
   171        667
   172         27
   177        102
   178         50
   179         29
   221         65
   289         19
   300         26
   302         26
   313         60
   314         31
   315         36
   324         23
   325         22
   326        112
   327        100
   328         56
   329         68
   330         29
   339         62
   340         61
   341         89
   342        369
   343        252
   344         67
   355         66
   356         48
   357        195
   358        133
   359         39
   371         30
   384         44
   385         22
   402         12
   416         11
   445          8
   578        638
   579        270
   580         58