##TITLE=Library Entry 7532
##JCAMP-DX=Revision 4.10 
##DATA TYPE=MASS SPECTRUM
##SAMPLE DESCRIPTION=K. Kirk, LC, NIDDK, NIH, Bethesda, MD 20892
##NAMES=HP
##CAS NAME=Oxazolidine, 2-isopropyl-4-[[[2-allyli]phenoxy]methyl]-
##MOLFORM=C16H21NO3
##CAS REGISTRY NO=70687-97-7
##MP= -300
##BP= -300
##MW= 275
##$RETENTION INDEX=0
##$CONDENSED SPECTRUM=NO
##NPOINTS= 205
##XYDATA=(XY..XY) 1 
    41        508
    42        337
    43        999
    44         96
    45         16
    47         49
    48         69
    49        582
    50         13
    51        194
    52         51
    53         61
    54         92
    55        250
    56        793
    57        103
    58        206
    59         11
    60         13
    61          4
    62         13
    63         58
    64         17
    65         82
    66         20
    67          5
    68         78
    69         32
    70        247
    71         85
    72        180
    74        185
    75         31
    77        230
    78         92
    79        107
    80         13
    82        136
    84        228
    85         41
    86        548
    87         21
    88         19
    89         48
    91        384
    92         29
    94         36
    96        176
    98        335
    99         15
   100        278
   101         30
   102         66
   103         90
   104         56
   105        214
   106         14
   107        217
   108         27
   109          3
   110          8
   111          4
   112         14
   113          9
   114          9
   115        242
   116        163
   117         76
   118        130
   119        172
   120         44
   121         18
   122          4
   123          0
   124         23
   125         16
   126         42
   127         22
   128        135
   129         32
   130         46
   131        478
   132        171
   133        435
   134        267
   135         35
   136          7
   137          1
   138          2
   140        257
   141         41
   142         70
   143         27
   144         61
   145        116
   146         24
   147         62
   148         15
   149          5
   150          2
   151          1
   152          1
   153          3
   154          3
   155          6
   156          3
   157         22
   158          4
   159         55
   160         28
   162        145
   164         53
   165          3
   166          0
   167          2
   168          2
   169          6
   170          1
   171         58
   172         32
   173         55
   174         20
   175        137
   176         18
   177         19
   178         10
   179          6
   180          3
   181          2
   182          1
   183          2
   184          0
   185         29
   186          4
   187          2
   188          8
   189          2
   190          3
   191          1
   192          2
   193          0
   195          0
   196          0
   197          1
   198          1
   199          8
   200          5
   201          3
   202         13
   203          2
   204          3
   205          1
   206          1
   207          0
   208          1
   211          0
   212          0
   213         27
   214          5
   215          1
   216         13
   217          2
   218          1
   219          0
   220          1
   221          0
   224          0
   226         21
   227          4
   228         10
   229          2
   230          2
   231          1
   232          2
   233          1
   234          6
   235          1
   236          1
   239          7
   240          1
   241          2
   242          0
   243          3
   244          0
   246          2
   247          1
   248          1
   249          1
   250          1
   255          0
   257          3
   258          0
   260         23
   261          5
   262         60
   263         11
   264          2
   265          0
   272          0
   273          2
   274          1
   275        501
   276        179
   277         26
   278          3