##TITLE=Library Entry 16307
##JCAMP-DX=Revision 4.10 
##DATA TYPE=MASS SPECTRUM
##SAMPLE DESCRIPTION=Japan AIST/NIMC Database- Spectrum MS-IW-3803
##NAMES=HP
##CAS NAME=Benzenesulfonamide, 4-bromo-N,N-dimethyl-
##MOLFORM=C8H10BrNO2S
##CAS REGISTRY NO=707-60-8
##MP= -300
##BP= -300
##MW= 263
##$RETENTION INDEX=0
##$CONDENSED SPECTRUM=NO
##NPOINTS= 142
##XYDATA=(XY..XY) 1 
    14          1
    15         44
    17          2
    18          7
    26          2
    27         12
    28         54
    29          5
    30          5
    32          1
    37          6
    38         18
    39         11
    40          5
    41         14
    42        298
    43        278
    44        999
    45         52
    46          1
    48          3
    49          8
    50        254
    51         60
    52          4
    53          2
    55          1
    57          2
    58          5
    59         14
    60         18
    61          6
    62          9
    63         24
    64          8
    65          9
    66          1
    67          1
    68          1
    69         12
    70         10
    71          1
    72          1
    73         14
    74        105
    75        347
    76        342
    77        138
    78         14
    79          3
    80          4
    81          4
    82          7
    89          1
    90          2
    91          4
    92         49
    93         55
    94          6
    95          5
    96         21
    97          2
    98          1
    99         17
   100         20
   101          2
   104          6
   105          7
   106          2
   107          6
   108         23
   109          3
   110          1
   117          3
   118          7
   119          5
   120         11
   121          1
   123          1
   124          2
   125          3
   128          2
   129         10
   130          3
   131         12
   133          1
   136          1
   139          1
   140          4
   141         66
   142          5
   143          9
   144          1
   145          5
   146          1
   153          1
   154          3
   155        734
   156        120
   157        716
   158        115
   159          7
   161          1
   169          1
   171         14
   172         13
   173         14
   174         13
   175          6
   177          5
   182          3
   183          4
   184          8
   185          4
   186          2
   187          1
   188          1
   189          2
   198         20
   199         32
   200         21
   201         31
   202          2
   203         26
   204         11
   205         27
   206         11
   207          2
   219        261
   220         37
   221        287
   222         38
   223         35
   224          3
   225          1
   262         48
   263        500
   264        100
   265        511
   266         53
   267         25
   268          2