##TITLE=Library Entry 18014
##JCAMP-DX=Revision 4.10 
##DATA TYPE=MASS SPECTRUM
##SAMPLE DESCRIPTION=NIST Mass Spectrometry Data Center
##NAMES=HP
##CAS NAME=3-Methyl-1-phenyl-2-phospholene-1-oxide
##MOLFORM=C11H13OP
##CAS REGISTRY NO=707-61-9
##MP= -300
##BP= -300
##MW= 192
##$RETENTION INDEX=0
##$CONDENSED SPECTRUM=NO
##NPOINTS= 129
##XYDATA=(XY..XY) 1 
    13          4
    14          7
    15         31
    16          4
    17         17
    18         68
    19          2
    26         63
    27        326
    28         74
    29         62
    31          9
    33          4
    37         23
    38         90
    39        508
    40        107
    41        290
    42         33
    43         76
    44         17
    45         42
    47        999
    48         49
    49         55
    50        278
    51        693
    52         97
    53        156
    54         20
    55         38
    56         27
    57         82
    58         13
    59         16
    60          3
    61         10
    62         37
    63         81
    64         22
    65        127
    66         44
    67        210
    68        114
    69         72
    70         29
    71         81
    72          7
    73         35
    74         61
    75         84
    77        528
    78        105
    79         37
    80         17
    81         27
    82         17
    83         71
    84          9
    85         17
    86         15
    87         54
    89         35
    91         87
    92         15
    93          5
    94         22
    95         43
    96         72
    97        177
    98        133
    99        399
   100         34
   101         11
   102         16
   103         21
   105        126
   106         16
   107         76
   108         33
   109         33
   110          5
   113         72
   115        471
   116         60
   117         81
   118         11
   119          3
   120          6
   121         19
   122          3
   124         55
   125         66
   126         10
   127         32
   128         92
   129        105
   130         56
   131         11
   133         34
   134         44
   135          8
   139          4
   141         22
   142         23
   143         38
   144         13
   146        160
   147         28
   149         52
   150         17
   151         41
   152         37
   153          4
   159          5
   162          7
   164        700
   165         78
   166          8
   171          4
   173          5
   174          5
   175          4
   177        191
   178         18
   191        285
   192        715
   193         91
   194          9