##TITLE=Library Entry 86286
##JCAMP-DX=Revision 4.10 
##DATA TYPE=MASS SPECTRUM
##SAMPLE DESCRIPTION=Chuck Anderson, Aldrich Chemical Co.
##NAMES=HP
##CAS NAME=3,5-Dimethyl-1-adamantanol
##MOLFORM=C12H20O
##CAS REGISTRY NO=707-37-9
##MP= -300
##BP= -300
##MW= 180
##$RETENTION INDEX=1315
##$CONDENSED SPECTRUM=NO
##NPOINTS= 52
##XYDATA=(XY..XY) 1 
    27         39
    28         11
    29         91
    31          9
    39        122
    40         20
    41        249
    42         19
    43        145
    51         14
    52          7
    53         74
    54         13
    55        132
    56         11
    57         37
    65         25
    66         11
    67         61
    68         13
    69         37
    71         10
    77         66
    78         13
    79         81
    80         15
    81         81
    82         18
    83         17
    91         60
    92          9
    93         41
    94         14
    95         55
    96          3
   105         27
   106         31
   107        271
   108         85
   109        999
   110         70
   119          3
   121         40
   122        127
   123        885
   124         79
   125          8
   147         10
   165        114
   166         13
   180        316
   181         47