##TITLE=Library Entry 62059
##JCAMP-DX=Revision 4.10 
##DATA TYPE=MASS SPECTRUM
##SAMPLE DESCRIPTION=F. TURECEK,HEYROVSKY INST PHYS CHEM & ELECTROCHEM,PRAGU
E,CZECH
##NAMES=HP
##CAS NAME=cis-anti-cis-Tricyclo[7.3.0.0(2,6)]-7-dodecene
##MOLFORM=C12H18
##CAS REGISTRY NO=70702-18-0
##MP= -300
##BP= -300
##MW= 162
##$RETENTION INDEX=0
##$CONDENSED SPECTRUM=NO
##NPOINTS= 65
##XYDATA=(XY..XY) 1 
    38         10
    39        250
    40         40
    41        310
    42         30
    43         20
    50         20
    51         90
    52         50
    53        110
    54         20
    55         80
    56         10
    57         10
    58         20
    62         10
    63         40
    64         10
    65        170
    66         80
    67        290
    68         20
    69         20
    75         10
    76         10
    77        290
    78        150
    79        880
    80        600
    81        350
    82         20
    83         10
    89         20
    90         10
    91        999
    92        340
    93        350
    94        540
    95        150
    96         30
   103         50
   104         40
   105        290
   106        130
   107         50
   108         30
   115         60
   116         20
   117         80
   118         40
   119        740
   120        360
   121        290
   122         20
   131         30
   132         10
   133        920
   134        530
   135         70
   147         80
   148         10
   161         60
   162        650
   163         90
   164         10