##TITLE=Library Entry 2210
##JCAMP-DX=Revision 4.10 
##DATA TYPE=MASS SPECTRUM
##SAMPLE DESCRIPTION=Chemical Concepts
##NAMES=HP
##CAS NAME=2(3H)-Naphthalenone, 4,4a,5,6,7,8-hexahydro-1-methoxy-
##MOLFORM=C11H16O2
##CAS REGISTRY NO=70703-08-1
##MP= -300
##BP= -300
##MW= 180
##$RETENTION INDEX=0
##$CONDENSED SPECTRUM=NO
##NPOINTS= 143
##XYDATA=(XY..XY) 1 
    26         78
    27        704
    28        143
    29        365
    30         23
    31         37
    33         18
    34         15
    37         29
    38         86
    39        905
    40        195
    41        999
    42        146
    43        268
    44        166
    45        175
    46         18
    47         17
    48          5
    49         13
    50        121
    51        322
    52        266
    53        704
    54        160
    55        502
    56         58
    57         91
    58         20
    59         33
    60         15
    61         19
    62         35
    63        129
    64         50
    65        369
    66        236
    67        622
    68        107
    69         97
    70         30
    71         80
    72         20
    73         12
    74         25
    75         33
    76         27
    77        520
    78        200
    79        853
    80        202
    81        562
    82         79
    83         54
    84         46
    85         29
    86         16
    87         16
    88          8
    89         28
    90         20
    91        522
    92        180
    93        373
    94        154
    95        323
    96         98
    97        122
    98         28
    99         22
   100          9
   101          8
   102         13
   103         40
   104         39
   105        141
   106         81
   107        172
   108        138
   109        642
   110        359
   111        157
   112         37
   113         30
   114          9
   115         38
   116         14
   117         65
   118         21
   119        120
   120        209
   121        451
   122        187
   123        773
   124        182
   125         58
   126         22
   127          9
   128         11
   129         19
   130         12
   131         20
   132         16
   133         30
   134         17
   135         51
   136         24
   137        292
   138        510
   139         77
   140         12
   141          7
   143          4
   144          6
   145          8
   146          4
   147         33
   148         33
   149         56
   150         72
   151        438
   152        207
   153         28
   154          6
   155          3
   156          4
   157          3
   159          4
   161          5
   162          8
   163         10
   164          6
   165        213
   166         29
   167          7
   168          6
   177          3
   178         16
   179         20
   180        633
   181         93
   182         10