##TITLE=Library Entry 81456
##JCAMP-DX=Revision 4.10 
##DATA TYPE=MASS SPECTRUM
##SAMPLE DESCRIPTION=HCACAV, 62(3)689(1979); J. M. J. TRONCHET AND J. F. TRO
NCHET
##NAMES=HP
##CAS NAME=.alpha.-d-Xylofuranose, 3-C-[(acetyloxy)methyl]-, 1,2,3-triacetat
e 5-benzoate
##MOLFORM=C21H24O11
##CAS REGISTRY NO=70723-04-5
##MP= -300
##BP= -300
##MW= 452
##$RETENTION INDEX=0
##$CONDENSED SPECTRUM=NO
##NPOINTS= 10
##XYDATA=(XY..XY) 1 
   105        999
   154        140
   168        180
   209        100
   210         80
   215         90
   229        130
   290         50
   317        150
   393        150