##TITLE=Library Entry 82094
##JCAMP-DX=Revision 4.10 
##DATA TYPE=MASS SPECTRUM
##SAMPLE DESCRIPTION=HCACAV, 62(3)689(1979); J. M. J. TRONCHET AND J. F. TRO
NCHET
##NAMES=HP
##CAS NAME=.alpha.-D-Xylofuranose, 3-C-[(acetyloxy)methyl]-1,2-O-(1-methylet
hylidene)-, 3-acetate 5-benzoate
##MOLFORM=C20H24O9
##CAS REGISTRY NO=70723-03-4
##MP= -300
##BP= -300
##MW= 408
##$RETENTION INDEX=0
##$CONDENSED SPECTRUM=NO
##NPOINTS= 11
##XYDATA=(XY..XY) 1 
   105        999
   169        110
   206        110
   207         90
   211        200
   230        120
   258        200
   274        140
   291        360
   393        360
   408         10