##TITLE=Library Entry 47933
##JCAMP-DX=Revision 4.10 
##DATA TYPE=MASS SPECTRUM
##SAMPLE DESCRIPTION=A.A.Kutin, Moscow, Russia
##NAMES=HP
##CAS NAME=Antra[8,8a,9-c,d]isoxazol-6-one, 5-phenylamino-
##MOLFORM=C20H12N2O2
##CAS REGISTRY NO=70730-76-6
##MP= -300
##BP= -300
##MW= 312
##$RETENTION INDEX=0
##$CONDENSED SPECTRUM=NO
##NPOINTS= 202
##XYDATA=(XY..XY) 1 
    37         11
    38         43
    39        231
    40         24
    41         23
    42         55
    43         58
    44         30
    45          6
    46          0
    50        372
    51        737
    52         94
    53         35
    54          5
    55          6
    56          6
    58        115
    59          0
    61         20
    62        102
    63        167
    64         73
    65        153
    66         29
    67          6
    69          4
    70          4
    72         29
    74        225
    75        304
    76        661
    77        999
    78        134
    79         24
    80          2
    82          4
    84          4
    85         15
    87        182
    88        115
    89         51
    90         29
    92         50
    93         15
    94          5
    95          4
    96          2
    98         48
    99        112
   100        137
   101        185
   102        102
   103        128
   104        274
   105         80
   106          7
   108          5
   109          6
   110         26
   111         52
   112         35
   113        105
   114         81
   115         32
   116         12
   117         11
   118          2
   119          3
   120          5
   122          7
   123         29
   125        130
   126        189
   127        198
   128        196
   129         64
   130         74
   131          6
   133         10
   134         15
   135          9
   137         82
   138         48
   139         41
   140         29
   141         18
   142         25
   143          2
   146          2
   148          2
   149         18
   150         37
   151         99
   152        154
   153        148
   154         76
   155         30
   156         16
   157          4
   160          3
   162         20
   163         44
   164        107
   165         24
   166         11
   167          7
   168          7
   171          0
   173          0
   174         17
   175         36
   176         63
   177         36
   178         45
   179        141
   180        111
   181         38
   182         33
   183          4
   184          1
   186          1
   187          6
   188         13
   189         27
   190         15
   191         11
   192         15
   193          4
   194          2
   195          1
   199         16
   200         49
   201         69
   202         88
   203         37
   204         26
   205         10
   206         20
   208         32
   209         65
   210          8
   211          6
   213          9
   214         20
   215         16
   216         19
   217         19
   218          3
   219          5
   223          2
   224          8
   226         51
   227        141
   228        117
   229         88
   230         33
   231          9
   232          5
   233          3
   234          1
   235          3
   236          0
   237          4
   238          7
   239          8
   240         24
   241         15
   242          7
   243          3
   244          0
   255        389
   256         97
   257         23
   258         10
   259          3
   260          3
   263          0
   264         11
   266         56
   267         70
   268         25
   269          8
   270          2
   271          4
   272         10
   280          1
   283        144
   284         62
   285         24
   286         33
   287          4
   294         16
   295         54
   296          9
   297          5
   311        641
   312        880
   313        155
   314         68
   315          9
   316          0