##TITLE=Library Entry 46277
##JCAMP-DX=Revision 4.10 
##DATA TYPE=MASS SPECTRUM
##SAMPLE DESCRIPTION=Asinex Ltd, Moscow, Russia
##NAMES=HP
##CAS NAME=5-Chloro-3-(4-iodo-phenylimino)-1,3-dihydro-indol-2-one
##MOLFORM=C14H8ClIN2O
##CAS REGISTRY NO=70758-63-3
##MP= -300
##BP= -300
##MW= 382
##$RETENTION INDEX=0
##$CONDENSED SPECTRUM=NO
##NPOINTS= 170
##XYDATA=(XY..XY) 1 
    36          0
    37          8
    38         75
    39         65
    40         10
    45          2
    46          0
    47          0
    48          0
    49         43
    50        715
    51        142
    52         44
    53          4
    59          0
    61         14
    62         71
    63        179
    64         60
    65         57
    66          3
    72          4
    73         42
    74        101
    75        317
    76        999
    77         92
    78          7
    80          0
    82          1
    83          0
    84          1
    85          1
    86          6
    87         14
    88         33
    89         22
    90         53
    91          4
    97          7
    98          9
    99          9
   100         27
   101          6
   102         29
   103          4
   104          0
   109          1
   110          8
   111          3
   112          4
   113          3
   114         10
   115         15
   116         15
   117          5
   118          0
   119          0
   121          0
   122          1
   123          5
   124        111
   125         31
   126         44
   127         42
   128         62
   129         24
   132          0
   135          0
   136         10
   137         12
   138         25
   139          7
   140         12
   141          2
   142          2
   144          0
   147          0
   148          2
   149          4
   150         25
   151         94
   152         99
   153         55
   154         25
   155          9
   160          0
   161          0
   162          3
   163         24
   164        105
   165         65
   166         14
   167          0
   171          0
   172          0
   173         16
   174         10
   175          7
   176          6
   177         24
   178         19
   179         36
   180          9
   181         16
   182          0
   183          0
   187          0
   189          3
   190          5
   191         54
   192        263
   193         35
   194          1
   198          1
   199         25
   200         91
   201         26
   202         29
   203        181
   204         10
   205          0
   211          0
   212          0
   214          0
   220          5
   221          0
   222          0
   225          0
   226         17
   227         49
   228         16
   229         16
   230          4
   241          0
   243          0
   244          0
   251          0
   254          4
   255          7
   256          2
   257          2
   261          0
   262          0
   264          0
   290          0
   291          0
   292          1
   300          0
   310          0
   318          0
   319          1
   326          0
   327         13
   328          2
   329          3
   330          0
   347          0
   353         23
   354        504
   355         81
   356        191
   357         25
   358          1
   381         18
   382        630
   383        107
   384        207
   385         27
   386          1