##TITLE=Library Entry 82418
##JCAMP-DX=Revision 4.10 
##DATA TYPE=MASS SPECTRUM
##SAMPLE DESCRIPTION=Chemical Concepts
##NAMES=HP
##CAS NAME=3-Hydroxy-2-methylthio-3-phenylpropanoic acid
##MOLFORM=C10H12O3S
##CAS REGISTRY NO=70760-18-8
##MP= -300
##BP= -300
##MW= 212
##$RETENTION INDEX=0
##$CONDENSED SPECTRUM=NO
##NPOINTS= 125
##XYDATA=(XY..XY) 1 
    26          9
    27         93
    29         42
    30          2
    31         26
    33          3
    34          3
    35         80
    36          4
    37         14
    38         21
    39         75
    40          7
    41         27
    42         42
    43         71
    44         30
    45        235
    46         76
    47        114
    48         17
    49         28
    50        126
    51        300
    52         86
    53         26
    54          3
    55         17
    56         11
    57         21
    58         18
    59         42
    60        135
    61        338
    62         33
    63         45
    64          6
    65         25
    66          3
    67          4
    68          3
    69         11
    70          3
    71          8
    72          5
    73         15
    74         40
    75         29
    76         36
    77        507
    78        118
    79        253
    80         21
    81          4
    82          2
    83          5
    84          3
    85          5
    86          5
    87          7
    88        284
    89         26
    90         23
    91         93
    92         10
    93          2
    94          3
    95          2
    96          2
    97          6
    98          3
    99          3
   100          2
   101          3
   102         15
   103         24
   104          9
   105        409
   106        999
   107        269
   108         61
   109          6
   110          2
   111          2
   112          2
   113          2
   115          5
   116          4
   117          5
   118          4
   119          9
   120          7
   121          5
   122          3
   123          3
   124          1
   129          2
   130          2
   131          8
   132          2
   133          3
   134         18
   135         20
   136          4
   137          4
   138          1
   146          3
   147         17
   148          6
   149         31
   150         18
   151          6
   152          2
   158         12
   159          2
   160          2
   161          2
   165          2
   166          6
   167          2
   194         34
   195          6
   196          2
   212          9
   213          2