##TITLE=Library Entry 49274
##JCAMP-DX=Revision 4.10 
##DATA TYPE=MASS SPECTRUM
##SAMPLE DESCRIPTION=ORMSBG, 13(12)705(1978); V. HANUS
##NAMES=HP
##CAS NAME=2H-Inden-2-one, 1,3,3a,4,7,7a-hexahydro-, trans-
##MOLFORM=C9H12O
##CAS REGISTRY NO=7077-08-9
##MP= -300
##BP= -300
##MW= 136
##$RETENTION INDEX=0
##$CONDENSED SPECTRUM=NO
##NPOINTS= 44
##XYDATA=(XY..XY) 1 
    26         32
    27        285
    29         49
    38         50
    39        505
    40         78
    41        320
    42         38
    43         18
    50         65
    51        141
    52         80
    53        190
    54        355
    55         54
    58         25
    64         13
    65        127
    66        214
    67        334
    68         55
    69         20
    74         11
    77        327
    78         98
    79        999
    80        159
    81         58
    82        349
    83         15
    91        320
    92        385
    93        420
    94        348
    95         79
   105         20
   107         47
   108        370
   109         35
   117         35
   118         20
   121         20
   136        745
   137         66