##TITLE=Library Entry 34804
##JCAMP-DX=Revision 4.10 
##DATA TYPE=MASS SPECTRUM
##SAMPLE DESCRIPTION=R. SELF, AGRIC. RES. COUNC., FOOD RES. INST., NORWICH,
 U+
##NAMES=HP
##CAS NAME=N-(Heptafluorobutyryl)leucine propyl ester
##MOLFORM=C13H18F7NO3
##CAS REGISTRY NO=70771-94-7
##MP= -300
##BP= -300
##MW= 369
##$RETENTION INDEX=0
##$CONDENSED SPECTRUM=NO
##NPOINTS= 117
##XYDATA=(XY..XY) 1 
    28         32
    29         55
    30          4
    31         10
    36          2
    38          3
    39         37
    40          9
    41        235
    42         36
    43        618
    44         30
    45         18
    47          4
    50          1
    51          3
    52          3
    53         12
    54         11
    55         41
    56         15
    57         28
    58          4
    59         12
    60          1
    61          6
    65          2
    67         21
    68         21
    69        999
    70         59
    71         17
    72          3
    73         13
    74         13
    75          1
    76          2
    77          3
    78          2
    79          1
    80          2
    81          1
    82          3
    83          2
    84          2
    85          3
    86          4
    88          3
    92          2
    93          2
    94          2
    95          2
    96          6
    97          7
    98          5
    99         16
   100          8
   101          2
   102          2
   105          0
   107          0
   109          4
   110          0
   112          3
   113         10
   114         16
   115          8
   116          2
   119          7
   121          2
   128          2
   130         10
   131          4
   149          1
   150          2
   169         48
   172          6
   178          3
   192          4
   196          3
   197          3
   213          1
   214         73
   215          5
   220          3
   224          2
   225          7
   226         46
   227          3
   238          8
   239         21
   240        333
   241         25
   242          3
   252         12
   253         71
   254          6
   262         20
   263          2
   265          4
   266         43
   267          5
   268          5
   270          7
   271         21
   280          5
   281          8
   282        429
   283         64
   284          7
   308          8
   309          2
   310          6
   312          6
   313         63
   314          7
   326          2