##TITLE=Library Entry 79604
##JCAMP-DX=Revision 4.10 
##DATA TYPE=MASS SPECTRUM
##SAMPLE DESCRIPTION=J Am Soc Mass Spectrom 2008, 19, 1114-1118
##NAMES=HP
##CAS NAME=N-Benzoyl derivative of o-bromoaniline
##MOLFORM=C13H10BrNO
##CAS REGISTRY NO=70787-27-8
##MP= -300
##BP= -300
##MW= 275
##$RETENTION INDEX=0
##$CONDENSED SPECTRUM=NO
##NPOINTS= 48
##XYDATA=(XY..XY) 1 
    37         22
    38         50
    39         70
    40         10
    41         10
    49         10
    50        131
    51        308
    52         53
    53         10
    61         10
    62         27
    63        121
    64         81
    65         40
    74         40
    75         30
    76         60
    77        758
    78         60
    88         10
    89         10
    90         30
    91        131
    92         20
    93         10
   104         10
   105        999
   106         91
   107         10
   117         10
   119         10
   139         10
   140         10
   143         20
   145         20
   166         10
   167         20
   170         20
   172         20
   195         10
   196        569
   197         91
   198         10
   275         40
   276         10
   277         40
   278         10