##TITLE=Library Entry 32175
##JCAMP-DX=Revision 4.10 
##DATA TYPE=MASS SPECTRUM
##SAMPLE DESCRIPTION=Chemical Concepts
##NAMES=HP
##CAS NAME=Tricyclo[4.2.1.0<2,5>]non-3-ene
##MOLFORM=C9H12
##CAS REGISTRY NO=7078-40-2
##MP= -300
##BP= -300
##MW= 120
##$RETENTION INDEX=0
##$CONDENSED SPECTRUM=NO
##NPOINTS= 79
##XYDATA=(XY..XY) 1 
    26          4
    27         38
    28          3
    29          7
    37          2
    38         10
    39         98
    40         20
    41         39
    42          2
    43          7
    44          2
    45          2
    49          0
    50         14
    51         36
    52         15
    53         26
    54          4
    55         15
    56          2
    57          9
    58          4
    61          1
    62          7
    63         23
    64          5
    65         76
    66        999
    67         65
    68          3
    69          4
    70          3
    71          4
    73          1
    74          3
    75          3
    76          3
    77         94
    78         55
    79        170
    80         14
    81          4
    82          1
    83          3
    84          0
    85          2
    86          0
    87          1
    89          8
    90          4
    91        257
    92        104
    93         17
    94          2
    95          2
    96          1
    97          2
    98          1
    99          1
   102          2
   103         14
   104          8
   105         83
   106          8
   107          2
   108          1
   109          1
   110          1
   111          1
   112          1
   113          1
   115         12
   116          2
   117         12
   118          4
   119         13
   120        107
   121         12