##TITLE=Library Entry 1293
##JCAMP-DX=Revision 4.10 
##DATA TYPE=MASS SPECTRUM
##SAMPLE DESCRIPTION=H. SUESS, CIBA-GEIGY AG, MUNCHWILEN, SWITZER
##NAMES=HP
##CAS NAME=trans-1,2-Bis(aminomethyl)cyclohexane
##MOLFORM=C8H18N2
##CAS REGISTRY NO=70795-46-9
##MP= -300
##BP= -300
##MW= 142
##$RETENTION INDEX=0
##$CONDENSED SPECTRUM=NO
##NPOINTS= 13
##XYDATA=(XY..XY) 1 
    30        999
    41        350
    43        170
    54        100
    55         70
    56        350
    67        200
    68        100
    81        170
    82        100
    96        160
   113        450
   142         20