##TITLE=Library Entry 1083
##JCAMP-DX=Revision 4.10 
##DATA TYPE=MASS SPECTRUM
##SAMPLE DESCRIPTION=H. SUESS, CIBA-GEIGY AG, MUNCHWILEN, SWITZER
##NAMES=HP
##CAS NAME=cis-1,2-Bis(aminomethyl)cyclohexane
##MOLFORM=C8H18N2
##CAS REGISTRY NO=70795-45-8
##MP= -300
##BP= -300
##MW= 142
##$RETENTION INDEX=0
##$CONDENSED SPECTRUM=NO
##NPOINTS= 15
##XYDATA=(XY..XY) 1 
    30        999
    41        160
    43        300
    54        160
    55         90
    56        420
    67        220
    68        120
    79         50
    81        170
    82        140
    95         50
    96        150
   113        260
   142         20