##TITLE=Library Entry 47
##JCAMP-DX=Revision 4.10 
##DATA TYPE=MASS SPECTRUM
##SAMPLE DESCRIPTION=Humboldt-Universitat zu Berlin, Department of Chemistry
, Analytical Group
##NAMES=HP
##CAS NAME=3-(n-Propylamino)-2,1-benzisothiazole
##MOLFORM=C10H12N2S
##CAS REGISTRY NO=708-42-9
##MP= -300
##BP= -300
##MW= 192
##$RETENTION INDEX=0
##$CONDENSED SPECTRUM=NO
##NPOINTS= 165
##XYDATA=(XY..XY) 1 
    12          0
    14          0
    15          3
    16         33
    17        271
    18        999
    19         13
    20          2
    26          2
    27         28
    28         13
    29          6
    30          1
    31          0
    32          1
    33          0
    34          0
    37          2
    38          4
    39         18
    40          2
    41         22
    42          2
    43         14
    44          2
    45         10
    46          4
    47          2
    48          0
    49          0
    50          5
    51          6
    52          5
    53          1
    54          1
    55          1
    56          1
    57          2
    58          2
    59          1
    60          2
    61          1
    62          3
    63         11
    64          8
    65          3
    66          0
    67          1
    68          1
    69          7
    70          3
    71          2
    72          1
    73          1
    74          1
    75          4
    76         12
    77          5
    78          6
    79          1
    80          0
    81          2
    82          3
    83          2
    84          1
    85          0
    86          0
    87          0
    88          2
    89          3
    90         20
    91          6
    92          5
    93          2
    94          2
    95          5
    96          6
    97          1
    98          0
    99          0
   100          0
   101          0
   102          3
   103          9
   104          8
   105         23
   106          4
   107          4
   108          5
   109          6
   110          1
   111          0
   112          0
   113          0
   114          0
   115          1
   116          4
   117         20
   118         18
   119          9
   120          1
   121          4
   122         20
   123         19
   124          3
   125          1
   126          0
   127          0
   128          0
   129          5
   130          8
   131          2
   132          0
   133          4
   134          9
   135         31
   136         68
   137          7
   138          4
   139          0
   142          0
   143          0
   144          0
   145          0
   146          1
   147          1
   148          5
   149         27
   150         87
   151          9
   152          4
   153          0
   154          0
   155          0
   156          0
   157          0
   158          1
   159          0
   160          0
   161          3
   162          5
   163        310
   164         33
   165         16
   166          1
   167          0
   171          1
   172          0
   173          0
   174          1
   175          2
   176          1
   177          4
   178          0
   179          0
   183          0
   185          0
   187          0
   189          0
   190          1
   192        317
   193         42
   194         17
   195          1
   196          0