##TITLE=Library Entry 79489
##JCAMP-DX=Revision 4.10 
##DATA TYPE=MASS SPECTRUM
##SAMPLE DESCRIPTION=PJCHDG, 53( )277(1979); E. BARANOWSKA ET AL.
##NAMES=HP
##CAS NAME=.alpha.-DL-Lyxo-hexopyranoside, hexyl 6-(acetylamino)-4,6-dideoxy
-1-thio-, 3-benzoate
##MOLFORM=C21H31NO5S
##CAS REGISTRY NO=70835-90-4
##MP= -300
##BP= -300
##MW= 409
##$RETENTION INDEX=0
##$CONDENSED SPECTRUM=NO
##NPOINTS= 87
##XYDATA=(XY..XY) 1 
    40         10
    41        110
    42         40
    43        160
    44         20
    45         20
    46         10
    47         20
    50         30
    52         10
    53         20
    54         10
    55         70
    56        110
    57         60
    58         30
    59         10
    60         90
    61         20
    67         20
    68         30
    69         30
    70         20
    71         10
    72         30
    73         30
    74         10
    75         10
    76         30
    77        230
    78         20
    79         10
    80         40
    81         20
    82         40
    83         30
    84         40
    85         20
    86         30
    87         10
    91         10
    94         30
    95         10
    97         20
    98         30
    99         70
   100         60
   101         10
   104         10
   105        999
   106         80
   107         10
   110        100
   111         50
   112         10
   122        120
   123         20
   124         90
   125         30
   126         10
   127         10
   128         90
   129         10
   140         10
   141         10
   142         30
   152         60
   153         10
   154         20
   160         40
   169         10
   170        180
   171         20
   202         30
   210         10
   215         10
   223          5
   232          0
   250         10
   269         60
   270         20
   274         40
   275         10
   287         30
   288         10
   292        140
   293         20