##TITLE=Library Entry 61006
##JCAMP-DX=Revision 4.10 
##DATA TYPE=MASS SPECTRUM
##SAMPLE DESCRIPTION=PJCHDG, 53( )277(1979); E. BARANOWSKA ET AL.
##NAMES=HP
##CAS NAME=.alpha.-dl-Lyxo-hexopyranoside, hexyl 4,6-dideoxy-6-[[[1-[(phenyl
methoxy)carbonyl]-2-pyrrolidinyl]carbonyl]amino]-1-thio-, 2-acetate 3-benzoa
te
##MOLFORM=C34H44N2O8S
##CAS REGISTRY NO=70835-95-9
##MP= -300
##BP= -300
##MW= 640
##$RETENTION INDEX=0
##$CONDENSED SPECTRUM=NO
##NPOINTS= 127
##XYDATA=(XY..XY) 1 
    40         20
    41        170
    42         80
    43        250
    44         80
    45         80
    47        290
    50         80
    51        130
    52         30
    53         30
    54         20
    55        100
    56        100
    57         30
    60         50
    61         30
    62         10
    63         20
    64         10
    65         80
    66         10
    67         30
    68         50
    69         80
    70        270
    71         20
    73         10
    74         20
    75         10
    76         20
    77        200
    78         80
    79        100
    80         30
    81         30
    82         30
    83         30
    84         30
    85         20
    87         20
    89         20
    90         30
    91        999
    92        100
    93         10
    94         30
    95         20
    96         20
    97         20
    98         20
    99         10
   104         10
   105        570
   106         80
   107         20
   108         50
   110         30
   111         30
   112         10
   113         10
   114         30
   118         30
   122         10
   123         20
   125         30
   126         10
   127         10
   128         20
   141         50
   153         10
   154         20
   160        370
   161         50
   196         10
   202         10
   204        150
   205         30
   207         10
   210         10
   211         10
   223         30
   228         10
   232         10
   233         30
   234         10
   235         10
   249         10
   251         80
   252         10
   254         10
   272         10
   313         40
   314         50
   315         20
   323         10
   341         30
   342         30
   343         20
   351         20
   352         10
   355         20
   356         10
   357         10
   367         20
   387         30
   391         10
   401         10
   402         10
   415         30
   416         10
   445         10
   458         50
   459         20
   460         10
   463         60
   464         30
   472         10
   474         20
   475         10
   479         10
   480         10
   523        220
   524         80
   525         20
   580         50
   581         20