##TITLE=Library Entry 62730
##JCAMP-DX=Revision 4.10 
##DATA TYPE=MASS SPECTRUM
##SAMPLE DESCRIPTION=PJCHDG, 53( )277(1979); E. BARANOWSKA ET AL.
##NAMES=HP
##CAS NAME=.alpha.-dl-Lyxo-hexopyranoside, hexyl 4,6-dideoxy-6-[[[1-[(phenyl
methoxy)carbonyl]-2-pyrrolidinyl]carbonyl]amino]-1-thio-, 2,3-diacetate
##MOLFORM=C29H42N2O8S
##CAS REGISTRY NO=70835-94-8
##MP= -300
##BP= -300
##MW= 578
##$RETENTION INDEX=0
##$CONDENSED SPECTRUM=NO
##NPOINTS= 84
##XYDATA=(XY..XY) 1 
    41         50
    42         10
    43        260
    44         20
    45         10
    55         20
    56         20
    57         10
    60         10
    61         10
    65         30
    67         10
    68         30
    69         20
    70        180
    71         10
    77         10
    79         10
    80         10
    81         10
    82         10
    83         10
    84         10
    85         10
    89         10
    90         10
    91        999
    92         80
    94         20
    95         10
    96         10
    97         10
    98         10
    99         10
   107         10
   108         10
   110         10
   111         10
   112         10
   113         10
   114         30
   115         10
   125         10
   126         10
   128         10
   141         10
   142         20
   153         10
   154         10
   160        450
   161         60
   187         10
   204        150
   205         30
   210         10
   211         10
   223         10
   228         10
   232         10
   233         10
   235         10
   251         10
   252         10
   272         10
   313         40
   314         30
   315         10
   325         10
   341         20
   342         30
   343         10
   359         10
   401         30
   402         10
   412         10
   417         10
   458         30
   459         20
   460         10
   461        180
   462         50
   463         10
   518         50
   519         10