##TITLE=Library Entry 64447
##JCAMP-DX=Revision 4.10 
##DATA TYPE=MASS SPECTRUM
##SAMPLE DESCRIPTION=PJCHDG, 53( )277(1979); E. BARANOWSKA ET AL.
##NAMES=HP
##CAS NAME=.alpha.-DL-Lyxo-hexopyranoside, methyl 4,6-dideoxy-6-[[[1-[(pheny
lmethoxy)carbonyl]-2-pyrrolidinyl]carbonyl]amino]-1-thio-, 3-benzoate
##MOLFORM=C27H32N2O7S
##CAS REGISTRY NO=70835-97-1
##MP= -300
##BP= -300
##MW= 528
##$RETENTION INDEX=0
##$CONDENSED SPECTRUM=NO
##NPOINTS= 113
##XYDATA=(XY..XY) 1 
    40         30
    41        140
    42         50
    43         70
    44         80
    45         80
    46         10
    47         50
    48         40
    49         30
    50        100
    51        150
    52         40
    53         30
    54         10
    55         50
    56         40
    57         20
    61         30
    62         10
    63         20
    64         10
    65         90
    66         20
    67         20
    68         50
    69         50
    70        200
    71         40
    73         20
    74         40
    75         30
    76         40
    77        300
    78         50
    79         50
    80         10
    81         30
    82         30
    83         30
    84         20
    85         10
    86         10
    87         10
    89         30
    90         30
    91        999
    92        100
    93         10
    94         30
    95         20
    96         30
    97         30
    98         30
    99         20
   104         10
   105        530
   106         50
   107         40
   108         40
   110         20
   111         20
   112         10
   113         20
   114         40
   115         10
   122        180
   123         30
   125         30
   128         20
   140         20
   141         40
   153         20
   158         20
   160        320
   161         50
   181         10
   204        140
   205         30
   223         10
   232         10
   233         20
   249         10
   251         10
   269         10
   271         10
   280         10
   281         10
   288        910
   289         20
   292         10
   297         10
   298         10
   302         10
   313         20
   315         10
   317         10
   340         10
   341         10
   345         10
   355         20
   359         30
   368         10
   373         10
   388         40
   389         20
   406         30
   419         10
   437         20
   462         30
   481         50
   482         20
   510         10