##TITLE=Library Entry 6914
##JCAMP-DX=Revision 4.10 
##DATA TYPE=MASS SPECTRUM
##SAMPLE DESCRIPTION=Chemical Concepts
##NAMES=HP
##CAS NAME=Propanedioic acid, dihydroxy-, bis(1-methylethyl) ester
##MOLFORM=C9H16O6
##CAS REGISTRY NO=70841-85-9
##MP= -300
##BP= -300
##MW= 220
##$RETENTION INDEX=0
##$CONDENSED SPECTRUM=NO
##NPOINTS= 57
##XYDATA=(XY..XY) 1 
    25          0
    26          1
    27         83
    29         16
    30          0
    31          9
    33          0
    36          0
    37          0
    38          1
    39         25
    41        167
    42         38
    43        999
    44         35
    45        195
    46          8
    56          0
    58          1
    59         41
    60          1
    61          9
    62          0
    63          0
    64          1
    69          7
    70          0
    71          2
    72          0
    74          1
    76          0
    85          1
    87         16
    88          7
    89         11
    90          0
    91        162
    92         76
    93          3
    94          0
   104          0
   116          0
   117          0
   119          3
   120          0
   130          1
   133        186
   134         11
   135         10
   136          0
   137          0
   161          4
   177          3
   178          0
   179          0
   203          0
   221          0