##TITLE=Library Entry 95
##JCAMP-DX=Revision 4.10 
##DATA TYPE=MASS SPECTRUM
##SAMPLE DESCRIPTION=CHBEAM,112(6)2158(1979); W. LUTZ AND W. SUNDERMEYER
##NAMES=HP
##CAS NAME=Carbonocyanidic amide, (trifluoromethyl)-
##MOLFORM=C3HF3N2O
##CAS REGISTRY NO=70856-23-4
##MP= -300
##BP= -300
##MW= 138
##$RETENTION INDEX=0
##$CONDENSED SPECTRUM=NO
##NPOINTS= 14
##XYDATA=(XY..XY) 1 
    27        999
    31         90
    42         40
    44         90
    45         60
    47        480
    50        100
    54        480
    64        130
    69        960
    92        830
   111        930
   118         40
   138        120