##TITLE=Library Entry 73073
##JCAMP-DX=Revision 4.10 
##DATA TYPE=MASS SPECTRUM
##SAMPLE DESCRIPTION=Japan AIST/NIMC Database- Spectrum MS-IW-4683
##NAMES=HP
##CAS NAME=N-(2,3-Dimethyl-5-oxo-1-phenyl-3-pyrazolin-4-yl)-4-morpholineacet
amide
##MOLFORM=C17H22N4O3
##CAS REGISTRY NO=70862-88-3
##MP= -300
##BP= -300
##MW= 330
##$RETENTION INDEX=0
##$CONDENSED SPECTRUM=NO
##NPOINTS= 205
##XYDATA=(XY..XY) 1 
    15         18
    26          2
    27          9
    28         47
    29         30
    30         15
    31          1
    38          2
    39          6
    40          3
    41         22
    42         60
    43         31
    44         13
    45          7
    50          2
    51          9
    52          5
    53          4
    54         11
    55         17
    56        474
    57         54
    58          5
    63          3
    64          8
    65          6
    66          2
    67          7
    68          6
    69          6
    70         33
    71         20
    72         13
    73          2
    76          2
    77         24
    78          9
    79          1
    80          2
    81          3
    82         10
    83         93
    84        175
    85         13
    86          8
    87          6
    88          1
    90          1
    91         15
    92          5
    93         17
    94          5
    95          2
    96          7
    97          4
    98         33
    99         47
   100        999
   101         86
   102          5
   103          2
   104          8
   105          4
   106          8
   107          1
   108          1
   109          5
   110          6
   111         11
   112          3
   113          1
   115          1
   116          1
   117          2
   118          5
   119         16
   120          5
   121          3
   122          2
   123         12
   124          4
   125          5
   126          6
   127          6
   128          2
   129          1
   130          1
   131          1
   132          9
   133          1
   134          1
   135          2
   136          3
   137          7
   138          5
   139         22
   140          2
   141          1
   143          3
   144          1
   145          4
   146          4
   147          2
   148          1
   149          1
   150          4
   151          2
   152          3
   153         13
   154          1
   158          2
   159          5
   160          1
   161          1
   162          1
   165          5
   168          1
   169          1
   171          3
   172          2
   173          3
   174          1
   175          1
   180          1
   181          1
   182          2
   183          9
   184          4
   185          2
   186          2
   187          5
   188         10
   189          7
   190          1
   191          2
   192          1
   197          1
   198          4
   199          2
   200          3
   201          4
   202         36
   203        274
   204        101
   205         10
   206          1
   208          4
   209          1
   210          1
   211          1
   212          5
   213          4
   214          6
   215         10
   216         12
   217          6
   220          1
   226         12
   227         23
   228         10
   229         38
   230        300
   231         57
   232          6
   238          2
   241          1
   242          2
   243          2
   244          5
   245        173
   246         26
   247          2
   254         10
   255          2
   257          1
   258          1
   259          2
   267          1
   269          1
   270          2
   271          2
   272         22
   273          4
   283          1
   284          7
   285         13
   286          3
   287          2
   288          2
   297          2
   298          1
   299          1
   300         27
   301          5
   302          6
   303          1
   312         21
   313          5
   315          8
   316          1
   328          1
   330        225
   331         50
   332          7