##TITLE=Library Entry 81644
##JCAMP-DX=Revision 4.10 
##DATA TYPE=MASS SPECTRUM
##SAMPLE DESCRIPTION=Chemical Concepts
##NAMES=HP
##CAS NAME=Ethanediamide, N,N'-bis(1-phenylethyl)-
##MOLFORM=C18H20N2O2
##CAS REGISTRY NO=70864-05-0
##MP= -300
##BP= -300
##MW= 296
##$RETENTION INDEX=0
##$CONDENSED SPECTRUM=NO
##NPOINTS= 102
##XYDATA=(XY..XY) 1 
    26          0
    27         37
    28          8
    30          0
    37          0
    38          0
    39         14
    40          1
    41          1
    42         27
    44          4
    50          5
    51         31
    52          7
    53          3
    54          0
    62          0
    63          5
    64          1
    65          7
    66          0
    68          0
    70          2
    73          0
    74          0
    75          2
    76          4
    77        102
    78         29
    79         83
    80          5
    86          0
    87          0
    89          3
    90          1
    91         10
    92          1
   101          1
   102          4
   103         48
   104         75
   105        999
   106         90
   107          3
   112          0
   113          0
   114          0
   115          0
   116          0
   117          0
   118          2
   119          3
   120         68
   121          8
   122          0
   123          1
   124          0
   125          0
   126          0
   128          0
   129          0
   130          0
   131          0
   132         13
   133         20
   134          3
   140          0
   141          0
   146         17
   147          2
   148          3
   149          3
   150          0
   158          0
   159          0
   163          1
   164          0
   165          0
   166          0
   173          0
   174          0
   175          0
   176          0
   177         16
   178          2
   179          0
   181          0
   182          0
   187          0
   189          0
   191        296
   192         34
   193          3
   194          0
   207          0
   253          2
   254          0
   281          4
   282          0
   296         19
   297          4
   298          0