##TITLE=Library Entry 28613
##JCAMP-DX=Revision 4.10 
##DATA TYPE=MASS SPECTRUM
##SAMPLE DESCRIPTION=F. TURECEK,HEYROVSKY INST PHYS CHEM & ELECTROCHEM,PRAGU
E,CZECH
##NAMES=HP
##CAS NAME=(4R,S)-4-(2-Butyl)-cis-bicyclo[4.3.0]-2-nonen-8-one
##MOLFORM=C13H20O
##CAS REGISTRY NO=70869-60-2
##MP= -300
##BP= -300
##MW= 192
##$RETENTION INDEX=0
##$CONDENSED SPECTRUM=NO
##NPOINTS= 82
##XYDATA=(XY..XY) 1 
    27        210
    29        350
    38         10
    39        260
    40         40
    41        640
    42         40
    43        110
    44         40
    50         30
    51        110
    52         40
    53        120
    54         70
    55        220
    56        100
    57        560
    58        999
    59         40
    62         10
    63         30
    64         20
    65        125
    66         40
    67        150
    68         40
    69         90
    70         30
    71         50
    76         10
    77        330
    78        170
    79        860
    80        100
    81        220
    82        110
    83         60
    84         10
    85         30
    91        440
    92        150
    93        670
    94        140
    95        170
    96         80
    97         60
    98         60
    99         10
   102         10
   103         60
   104        100
   105        170
   106         60
   107        210
   108        170
   109         70
   110         40
   111         40
   115         60
   116         20
   117        100
   118         50
   119        110
   120         30
   121        170
   122         60
   123         30
   131         30
   132         50
   133         50
   134        120
   135        250
   136        260
   137         80
   138         10
   145         50
   162         10
   163        170
   164         40
   191         10
   192        190
   193         40