##TITLE=Library Entry 15239
##JCAMP-DX=Revision 4.10 
##DATA TYPE=MASS SPECTRUM
##SAMPLE DESCRIPTION=Chemical Concepts
##NAMES=HP
##CAS NAME=Propanamide, N-methyl-2-amino-
##MOLFORM=C4H10N2O
##CAS REGISTRY NO=70875-70-6
##MP= -300
##BP= -300
##MW= 102
##$RETENTION INDEX=0
##$CONDENSED SPECTRUM=NO
##NPOINTS= 44
##XYDATA=(XY..XY) 1 
    25          0
    26          4
    27         23
    29         17
    30         30
    31          5
    33          0
    38          1
    40         10
    41         17
    42         81
    43         33
    44        999
    45         40
    51          0
    52          0
    53          1
    54          1
    55          9
    56          6
    57          4
    58         40
    59          8
    60          3
    67          0
    68          1
    69          9
    70          2
    71          0
    72          0
    73          0
    77          0
    78          0
    81          0
    83          0
    84          1
    85          0
    86          1
    87          4
    88          0
   101          0
   102          6
   103          6
   104          0