##TITLE=Library Entry 11209
##JCAMP-DX=Revision 4.10 
##DATA TYPE=MASS SPECTRUM
##SAMPLE DESCRIPTION=PJCHDG, 53( )277(1979); E. BARANOWSKA ET AL.
##NAMES=HP
##CAS NAME=.alpha.-dl-Lyxo-hexopyranoside, hexyl 6-(acetylamino)-4,6-dideoxy
-1-thio-
##MOLFORM=C14H27NO4S
##CAS REGISTRY NO=70880-25-0
##MP= -300
##BP= -300
##MW= 305
##$RETENTION INDEX=0
##$CONDENSED SPECTRUM=NO
##NPOINTS= 103
##XYDATA=(XY..XY) 1 
    40         40
    41        440
    42        230
    43        999
    44        150
    45        130
    46         40
    47         90
    50         40
    51         40
    52         40
    53         50
    54         50
    55        290
    56        570
    57        270
    58        180
    59         80
    60        430
    61         30
    62         30
    63         30
    64         30
    65         30
    67         80
    68        130
    69        300
    70         80
    71        100
    72        150
    73        290
    74         30
    75         10
    76         40
    77         50
    78         40
    79         40
    80         30
    81         80
    82         90
    83        150
    84        160
    85        140
    86        220
    87         80
    88         40
    89         50
    93         30
    94         90
    95         50
    96         20
    97         70
    98         90
    99        320
   100        280
   101         40
   102         50
   103         40
   109         30
   110        140
   111         80
   112        690
   113         30
   114         30
   115         60
   116         50
   117         40
   118        140
   119         30
   124        240
   125         40
   126         40
   127         40
   128        380
   129        100
   130         30
   131         60
   141         30
   145         20
   146        400
   147         40
   152         80
   153         40
   154         90
   158         40
   159         30
   160         70
   161         80
   162         10
   168         20
   169         70
   170        430
   171         80
   172         20
   173         30
   188        550
   189         70
   190         10
   269        140
   270         40
   271         20
   287         30
   288         10