##TITLE=Library Entry 47676
##JCAMP-DX=Revision 4.10 
##DATA TYPE=MASS SPECTRUM
##SAMPLE DESCRIPTION=A.Mazepa, Phys.-Chem.Institute, Odessa, Ukraine
##NAMES=HP
##CAS NAME=N-(2-Benzoyl-4-methyl-phenyl)-2-chloro-acetamide
##MOLFORM=C16H14ClNO2
##CAS REGISTRY NO=70890-59-4
##MP= -300
##BP= -300
##MW= 287
##$RETENTION INDEX=0
##$CONDENSED SPECTRUM=NO
##NPOINTS= 74
##XYDATA=(XY..XY) 1 
    50          9
    51        164
    52         37
    53         17
    54          1
    57         20
    63         28
    64         42
    65         25
    66         31
    67          4
    75          3
    76         29
    77        999
    78        125
    79         53
    89         19
    90         22
    91         34
    92          2
   103          4
   104        161
   105        807
   106        154
   107         12
   114          5
   115         13
   116          2
   119          3
   120          6
   132          6
   133          9
   134        111
   135         13
   146         47
   147         12
   151          4
   152         45
   153          8
   160        378
   161         30
   164          6
   165         33
   166         27
   167         60
   168          3
   179          6
   180        132
   181         56
   182        512
   183         61
   184        148
   185          6
   186          3
   193          1
   194         42
   195         37
   208         18
   209         70
   210        930
   211        446
   212        115
   213          2
   237          3
   238        573
   239         82
   240          2
   252        156
   253         18
   286         16
   287        741
   288        145
   289        255
   290         30