##TITLE=Library Entry 30969
##JCAMP-DX=Revision 4.10 
##DATA TYPE=MASS SPECTRUM
##SAMPLE DESCRIPTION=Japan AIST/NIMC Database- Spectrum MS-NW-6898
##NAMES=HP
##CAS NAME=.beta.-D-Glucopyranoside, methyl
##MOLFORM=C7H14O6
##CAS REGISTRY NO=709-50-2
##MP= -300
##BP= -300
##MW= 194
##$RETENTION INDEX=0
##$CONDENSED SPECTRUM=NO
##NPOINTS= 103
##XYDATA=(XY..XY) 1 
    14          6
    15         94
    16          2
    17          3
    18         10
    19          3
    26          8
    27         58
    28         65
    29        119
    30         17
    31        168
    32         13
    33         71
    34          1
    38          3
    39         23
    40          7
    41         53
    42         63
    43        134
    44         59
    45        132
    46          7
    47         14
    49          1
    51          2
    52          2
    53          8
    54         11
    55         66
    56        124
    57        406
    58         22
    59         56
    60        999
    61        347
    62         14
    63          3
    67          1
    68          8
    69         64
    70         62
    71        200
    72         28
    73        429
    74        402
    75        113
    76          6
    77          1
    78          3
    79          2
    80          2
    81          5
    82          1
    83          4
    84          3
    85         49
    86         21
    87         52
    88          7
    89         11
    90          2
    91          6
    95          1
    96          2
    97         47
    98         58
    99         16
   100          2
   101          9
   102          3
   103         31
   104         25
   105          3
   109          1
   110          1
   112          1
   113          4
   114          3
   115          4
   116         42
   117          7
   118          1
   120          4
   121         17
   122          1
   126          2
   127          3
   128          1
   129          1
   131         66
   132          4
   133          9
   134          2
   139          1
   143          1
   144         35
   145         18
   146          2
   163         20
   164          2
   193          1