##TITLE=Library Entry 27687
##JCAMP-DX=Revision 4.10 
##DATA TYPE=MASS SPECTRUM
##SAMPLE DESCRIPTION=Japan AIST/NIMC Database- Spectrum MS-NW-7938
##NAMES=HP
##CAS NAME=Etilefrine
##MOLFORM=C10H15NO2
##CAS REGISTRY NO=709-55-7
##MP= -300
##BP= -300
##MW= 181
##$RETENTION INDEX=1685
##$CONDENSED SPECTRUM=NO
##NPOINTS= 88
##XYDATA=(XY..XY) 1 
    15          3
    17          1
    18          3
    26          1
    27         12
    28         24
    29         24
    30        188
    31          3
    39         18
    40          4
    41          9
    42          9
    43          8
    44          9
    45          1
    50          3
    51          9
    52          2
    53          3
    54          2
    55          5
    56         18
    57          8
    58        999
    59         39
    60          1
    62          2
    63          5
    64          2
    65         15
    66          6
    67          3
    68          1
    69          1
    70          1
    71          1
    74          1
    76          1
    77         31
    78          5
    79          3
    80          1
    81          1
    83          1
    85          1
    88          1
    89          2
    90          1
    91          8
    92          1
    93          7
    94          7
    95         15
    96          1
    97          1
   103          2
   104          1
   105          2
   106          3
   107         10
   108          7
   109          1
   116          1
   117          1
   118          1
   119          2
   120          6
   121         10
   122          5
   123          5
   124          2
   131          1
   132          1
   133          4
   134          4
   135          1
   136          1
   137          1
   146          2
   148          4
   149          1
   159          1
   162          8
   163          5
   164          1
   181          7
   182          1