##TITLE=Library Entry 34435
##JCAMP-DX=Revision 4.10 
##DATA TYPE=MASS SPECTRUM
##SAMPLE DESCRIPTION=B.V. BURGER, DEP. CHEM., UNIV. STELLENBOSCH, SOUTH AFRI
C
##NAMES=HP
##CAS NAME=(E,E)-7,11,15-Trimethyl-3-methylene-hexadeca-1,6,10,14-tetraene
##MOLFORM=C20H32
##CAS REGISTRY NO=70901-63-2
##MP= -300
##BP= -300
##MW= 272
##$RETENTION INDEX=0
##$CONDENSED SPECTRUM=NO
##NPOINTS= 68
##XYDATA=(XY..XY) 1 
    41        543
    42         29
    43         80
    53         76
    54         11
    55        200
    56         23
    57         59
    58         20
    65         31
    66         11
    67        196
    68        126
    69        999
    70         85
    71         27
    77         75
    78         14
    79        161
    80         32
    81        389
    82         56
    83         35
    85         13
    91        105
    92         43
    93        390
    94         57
    95        155
    96         20
    97         19
   105         73
   106         24
   107        119
   108         20
   109         72
   117         10
   118         10
   119         92
   120        127
   121         78
   122         24
   123         43
   124         10
   131         12
   132         35
   133        149
   134         48
   135         58
   136         14
   137         29
   145         13
   146         24
   147         50
   148         25
   149         15
   159         31
   160         14
   161         61
   162         18
   187         30
   188         15
   189         19
   190         18
   203         18
   229          9
   257          8
   272         26