##TITLE=Library Entry 76767
##JCAMP-DX=Revision 4.10 
##DATA TYPE=MASS SPECTRUM
##SAMPLE DESCRIPTION=K.NAGRABA, LAB. PHYSICOCHEM., JAGIELLONIAN UNIV., CRACO
W, PO
##NAMES=HP
##CAS NAME=2-Butenamide, N-(2,5-dichlorophenyl)-3-methoxy-2-(phenylamino)-,
 (E)-
##MOLFORM=C17H16Cl2N2O2
##CAS REGISTRY NO=70911-12-5
##MP= -300
##BP= -300
##MW= 350
##$RETENTION INDEX=0
##$CONDENSED SPECTRUM=NO
##NPOINTS= 85
##XYDATA=(XY..XY) 1 
    15         40
    27         35
    29         29
    31         14
    36         35
    38         14
    39         47
    40         14
    41         12
    42         29
    43        608
    44         18
    45         21
    50         28
    51        102
    52         30
    54         21
    55         11
    57         40
    59         66
    62         14
    63         30
    64         16
    65         40
    66         14
    67         18
    73         16
    74         11
    75         20
    76         26
    77        395
    78         72
    79         23
    89         14
    90         28
    91         35
    92         23
    93         89
    94         29
    99         18
   102         14
   103         53
   104        999
   105        113
   106         29
   117         92
   118         91
   119         20
   120         32
   124         29
   125         12
   126         19
   127         18
   128         14
   129         21
   130         71
   131         34
   132         50
   133         35
   134        155
   135         19
   144         29
   146         87
   147         20
   157         19
   158         23
   160         37
   161        395
   162        261
   163         40
   164         11
   175         18
   176         14
   188         13
   189         19
   190         29
   218         14
   293         27
   295         14
   317         14
   350        230
   351         55
   352        149
   353         37
   354         29