##TITLE=Library Entry 76945
##JCAMP-DX=Revision 4.10 
##DATA TYPE=MASS SPECTRUM
##SAMPLE DESCRIPTION=K.NAGRABA, LAB. PHYSICOCHEM., JAGIELLONIAN UNIV., CRACO
W, PO
##NAMES=HP
##CAS NAME=2-Anilino-2',5'-dichloro-3-hydroxycrotonanilide
##MOLFORM=C16H14Cl2N2O2
##CAS REGISTRY NO=70911-20-5
##MP= -300
##BP= -300
##MW= 336
##$RETENTION INDEX=0
##$CONDENSED SPECTRUM=NO
##NPOINTS= 80
##XYDATA=(XY..XY) 1 
    15         45
    27         14
    28         43
    36         35
    37         29
    38         43
    39         72
    41         22
    42         23
    43        259
    44         20
    50         73
    51        189
    52         84
    61         28
    62         50
    63        105
    64         35
    65         43
    66         20
    73         42
    74         36
    75         46
    76         75
    77        618
    78        160
    79         50
    80         20
    88         16
    89         20
    90         87
    91         38
    93         79
    94         23
    99         58
   100         17
   101         23
   102         18
   103         42
   104        999
   105        161
   106        186
   107         19
   118         28
   120         44
   124         45
   125         31
   126         52
   127         35
   128         23
   129         22
   132        101
   133         70
   134         17
   135         21
   146         26
   147        311
   148        186
   149         57
   150         35
   157         50
   160        105
   161        293
   162         50
   163        179
   164         30
   165         31
   175        267
   176         40
   187         41
   189         26
   200         30
   202         20
   293        227
   294         53
   295        153
   296         34
   297         30
   336         64
   338         43