##TITLE=Library Entry 98637
##JCAMP-DX=Revision 4.10 
##DATA TYPE=MASS SPECTRUM
##SAMPLE DESCRIPTION=K.NAGRABA, LAB. PHYSICOCHEM., JAGIELLONIAN UNIV., CRACO
W, PO
##NAMES=HP
##CAS NAME=2-Butenamide, N-(2,5-dichlorophenyl)-3-methoxy-2-[(4-methylphenyl
)amino]-, (E)-
##MOLFORM=C18H18Cl2N2O2
##CAS REGISTRY NO=70911-14-7
##MP= -300
##BP= -300
##MW= 364
##$RETENTION INDEX=0
##$CONDENSED SPECTRUM=NO
##NPOINTS= 64
##XYDATA=(XY..XY) 1 
    15         50
    26         37
    31         33
    36         46
    39         81
    42         37
    43        386
    51         46
    52         48
    57         55
    59         92
    62         35
    63         86
    64         42
    65        125
    75         35
    76         46
    77         72
    79         29
    89         81
    90         82
    91        371
    92         55
    93         33
   106         72
   107        125
   116         55
   117         54
   118        999
   119        160
   124         55
   125         37
   126         53
   127         37
   130         81
   131         90
   132         89
   133         72
   134         55
   135         90
   142         29
   143         40
   144         72
   145         55
   146         54
   147         55
   148        151
   149         37
   158         36
   160         90
   161         81
   162         35
   163         46
   174         55
   175        441
   176        160
   177         37
   203         29
   204         28
   364        230
   365         90
   366        162
   367         55
   368         55