##TITLE=Library Entry 12223
##JCAMP-DX=Revision 4.10 
##DATA TYPE=MASS SPECTRUM
##SAMPLE DESCRIPTION=K.NAGRABA, LAB. PHYSICOCHEM., JAGIELLONIAN UNIV., CRACO
W, PO+
##NAMES=HP
##CAS NAME=2',5'-Dichloro-2-(p-chloroanilino)-3-methoxycrotonanilide
##MOLFORM=C17H15Cl3N2O2
##CAS REGISTRY NO=70911-16-9
##MP= -300
##BP= -300
##MW= 384
##$RETENTION INDEX=0
##$CONDENSED SPECTRUM=NO
##NPOINTS= 90
##XYDATA=(XY..XY) 1 
    26         27
    27         25
    29         45
    36         92
    38         29
    39         54
    41         25
    42         18
    43        999
    44         20
    45         31
    50         60
    51         76
    52         45
    54         34
    55         25
    57         98
    59         54
    62         25
    63         63
    64         27
    65         25
    73         43
    74         34
    75        152
    76         58
    77         83
    85         25
    89         27
    90         49
    91         31
    99         65
   101         36
   102         56
   103         63
   104         27
   109         27
   111        255
   112         49
   113         85
   117         45
   118         40
   124         54
   125         54
   126         56
   127        112
   128         54
   129         45
   130        152
   131         81
   133         76
   135         43
   137         43
   138        940
   139         96
   140        313
   141         43
   145         27
   151         34
   153         31
   154         43
   160         36
   161         78
   162         54
   163         67
   164         81
   165         40
   166         45
   167         46
   168        188
   169         43
   170         63
   174         40
   178         27
   180         98
   181         27
   182         36
   188         34
   189         27
   194         60
   195        689
   196        230
   197        251
   198         83
   384        298
   385         81
   386        293
   387         63
   388        114
   389         27