##TITLE=Library Entry 98614
##JCAMP-DX=Revision 4.10 
##DATA TYPE=MASS SPECTRUM
##SAMPLE DESCRIPTION=K.NAGRABA, LAB. PHYSICOCHEM., JAGIELLONIAN UNIV., CRACO
W, PO
##NAMES=HP
##CAS NAME=2',5'-Dichloro-3-hydroxy-2-(p-methylanilino)crotonanilide
##MOLFORM=C17H16Cl2N2O2
##CAS REGISTRY NO=70911-21-6
##MP= -300
##BP= -300
##MW= 350
##$RETENTION INDEX=0
##$CONDENSED SPECTRUM=NO
##NPOINTS= 114
##XYDATA=(XY..XY) 1 
    15         35
    27         20
    28         30
    30         16
    31         11
    32         14
    35         14
    36         49
    37         40
    38         53
    39        108
    40         20
    41         37
    42         22
    43        235
    44         28
    45         21
    47         10
    49         19
    50         41
    51         59
    52         69
    53         23
    54         10
    55         12
    60         17
    61         45
    62         76
    63        176
    64         64
    65        256
    66         23
    69         12
    70         10
    72         14
    73         57
    74         37
    75         38
    76         20
    77         67
    78         25
    79         22
    81         28
    83         12
    85         11
    86         14
    87         18
    88         28
    89        108
    90        199
    91        653
    92        107
    93         32
    97         28
    98         30
    99         88
   100         21
   101         35
   102         13
   103         12
   104         25
   105         20
   106         57
   107        128
   108         22
   109         18
   116         32
   117         55
   118        999
   119        203
   120        254
   121         26
   124         69
   125         49
   126         93
   127         34
   128         30
   132         29
   133         45
   134         45
   135         34
   136         17
   143         17
   144         22
   145         18
   146        132
   147         69
   159         18
   160         40
   161        732
   162        249
   163        326
   164         38
   165         48
   171         77
   172         16
   174        128
   175         21
   187         67
   188         28
   189        380
   190         65
   191         14
   307        309
   308         69
   309        203
   310         42
   311         39
   312         10
   350        118
   351         26
   352         79
   353         17
   354         15