##TITLE=Library Entry 32635
##JCAMP-DX=Revision 4.10 
##DATA TYPE=MASS SPECTRUM
##SAMPLE DESCRIPTION=H. SUESS, CIBA-GEIGY AG, MUNCHWILEN, SWITZER !
##NAMES=HP
##CAS NAME=trans-1,2-Cyclohexanedicarbonitrile
##MOLFORM=C8H10N2
##CAS REGISTRY NO=70925-19-8
##MP= -300
##BP= -300
##MW= 134
##$RETENTION INDEX=0
##$CONDENSED SPECTRUM=NO
##NPOINTS= 18
##XYDATA=(XY..XY) 1 
    41        700
    51        110
    52        140
    53        140
    54        470
    55        200
    56        910
    66        180
    67        999
    68        120
    79        400
    80        590
    81        470
    94        750
   106        310
   107        470
   133        190
   134        120