##TITLE=Library Entry 3372
##JCAMP-DX=Revision 4.10 
##DATA TYPE=MASS SPECTRUM
##SAMPLE DESCRIPTION=V.G.Zaikin, Petrochem. Synth. Inst., Moscow
##NAMES=HP
##CAS NAME=1-Bromo-3-(2-bromoethyl)octane
##MOLFORM=C10H20Br2
##CAS REGISTRY NO=70928-48-2
##MP= -300
##BP= -300
##MW= 298
##$RETENTION INDEX=0
##$CONDENSED SPECTRUM=NO
##NPOINTS= 94
##XYDATA=(XY..XY) 1 
    36          8
    37         17
    38         26
    39        319
    40         68
    41        999
    42        155
    43        839
    44         47
    45         11
    50         20
    51         42
    52         15
    53        159
    54         61
    55        848
    56        115
    57        681
    58         33
    61          7
    63         13
    65         33
    66         21
    67        286
    68         87
    69        941
    70        108
    71        355
    72         26
    77         21
    78          9
    79         29
    80          9
    81        142
    82         29
    83        305
    84         59
    85         81
    91         13
    92          6
    93         19
    95         61
    96         10
    97        104
    98         12
    99          8
   105         11
   106          9
   107         67
   108         12
   109         82
   110         16
   111        145
   112         16
   115          8
   119         33
   120          6
   121         48
   122          8
   123         25
   133         17
   135         64
   137         59
   139         49
   147         38
   148        145
   149        115
   150        142
   151         76
   152          5
   161         29
   162         79
   163         75
   164         77
   165         38
   172          5
   176          8
   177         32
   178         11
   179         27
   190          6
   191         35
   192         11
   193         25
   218          6
   219         27
   220          8
   221         28
   241         11
   243         28
   245         11
   298          3
   300          6
   302          3