##TITLE=Library Entry 69549
##JCAMP-DX=Revision 4.10 
##DATA TYPE=MASS SPECTRUM
##SAMPLE DESCRIPTION=H SUESS, CIBA-GEIGY AG, MUNCHWILEN, SWITZERL
##NAMES=HP
##CAS NAME=cis-1-Acetamido-3-(p-toluenesulfonamido)cyclohexane
##MOLFORM=C15H22N2O3S
##CAS REGISTRY NO=70925-30-3
##MP= -300
##BP= -300
##MW= 310
##$RETENTION INDEX=0
##$CONDENSED SPECTRUM=NO
##NPOINTS= 14
##XYDATA=(XY..XY) 1 
    43        240
    56        100
    60        140
    65         70
    70         60
    91        530
    96        999
   112         20
   138         70
   155        640
   225        120
   251        140
   267         60
   310        100