##TITLE=Library Entry 15830
##JCAMP-DX=Revision 4.10 
##DATA TYPE=MASS SPECTRUM
##SAMPLE DESCRIPTION=ASES Database, Dalian Institute, P.R. China
##NAMES=HP
##CAS NAME=trans-Cyclohexane-1,3-dicarboxamide
##MOLFORM=C8H14N2O2
##CAS REGISTRY NO=70925-13-2
##MP= -300
##BP= -300
##MW= 170
##$RETENTION INDEX=0
##$CONDENSED SPECTRUM=NO
##NPOINTS= 48
##XYDATA=(XY..XY) 1 
    41        554
    42         71
    43        180
    44        999
    45        105
    46         59
    50         18
    51         89
    52         32
    53        182
    54        184
    55        799
    56        257
    57         37
    59        159
    65         40
    67        295
    68         86
    69         85
    71         85
    72        610
    73         62
    77         73
    79        149
    80        917
    82        296
    83        278
    84         26
    85         73
    86         21
    96         59
    97        155
    98         74
    99        185
   108        148
   109         93
   110         92
   111         36
   112         73
   124         18
   125        850
   126        183
   127         17
   136         88
   153        243
   154         82
   169          3
   170         36