##TITLE=Library Entry 82052
##JCAMP-DX=Revision 4.10 
##DATA TYPE=MASS SPECTRUM
##SAMPLE DESCRIPTION=H. SUESS, CIBA-GEIGY AG, MUNCHWILEN, SWITZER
##NAMES=HP
##CAS NAME=cis-1-Acetamido-4-(N-phenethylbenzamido)cyclohexane
##MOLFORM=C23H28N2O2
##CAS REGISTRY NO=70924-95-7
##MP= -300
##BP= -300
##MW= 364
##$RETENTION INDEX=0
##$CONDENSED SPECTRUM=NO
##NPOINTS= 14
##XYDATA=(XY..XY) 1 
    60         40
    77        210
    81         80
    91        100
    96         50
    98         50
   105        999
   110        350
   140         30
   151        260
   231        210
   259         20
   273        380
   364         10