##TITLE=Library Entry 16744
##JCAMP-DX=Revision 4.10 
##DATA TYPE=MASS SPECTRUM
##SAMPLE DESCRIPTION=V.G.Zaikin, TIPS, Russian Acad. Sci., Moscow
##NAMES=HP
##CAS NAME=3-Methyl-5-methoxy-1-pentanol
##MOLFORM=C7H16O2
##CAS REGISTRY NO=70928-41-5
##MP= -300
##BP= -300
##MW= 132
##$RETENTION INDEX=0
##$CONDENSED SPECTRUM=NO
##NPOINTS= 37
##XYDATA=(XY..XY) 1 
    30         16
    31        230
    32         18
    33         36
    39        109
    40         26
    41        285
    42        108
    43        153
    44         40
    45        999
    46         23
    47          9
    51          9
    52          4
    53         35
    54         26
    55        177
    56         84
    57         76
    58        138
    59         69
    60          9
    67        215
    68         23
    69         83
    70         69
    71        195
    72         22
    73         11
    81         22
    82        115
    83         14
    85        146
    86          9
    99         23
   100          5