##TITLE=Library Entry 35014
##JCAMP-DX=Revision 4.10 
##DATA TYPE=MASS SPECTRUM
##SAMPLE DESCRIPTION=V.G.Zaikin, TIPS, Russian Acad. Sci.
##NAMES=HP
##CAS NAME=4-n-Hexylthiane, S,S-dioxide
##MOLFORM=C11H22O2S
##CAS REGISTRY NO=70928-52-8
##MP= -300
##BP= -300
##MW= 218
##$RETENTION INDEX=0
##$CONDENSED SPECTRUM=NO
##NPOINTS= 48
##XYDATA=(XY..XY) 1 
    53        110
    54        120
    55        770
    56        290
    57        280
    67        320
    68        130
    69        999
    70        280
    71        140
    77         20
    79         30
    81        350
    82        100
    83        620
    84        190
    85         60
    95        250
    96         50
    97        440
    98         60
   106         90
   109         90
   110         50
   111        140
   112         30
   117         10
   123         70
   124         30
   125         40
   126         50
   133         40
   134        100
   135         10
   147        140
   148         20
   149         10
   151         10
   152        120
   153         30
   161        110
   162         20
   175         20
   201         80
   202         10
   218         60
   219          8
   220          3