##TITLE=Library Entry 1372
##JCAMP-DX=Revision 4.10 
##DATA TYPE=MASS SPECTRUM
##SAMPLE DESCRIPTION=H. SUESS, CIBA-GEIGY AG, MUNCHWILEN, SWITZER
##NAMES=HP
##CAS NAME=trans-1,4-Bis(acetamidomethyl)cyclohexane
##MOLFORM=C12H22N2O2
##CAS REGISTRY NO=70924-84-4
##MP= -300
##BP= -300
##MW= 226
##$RETENTION INDEX=0
##$CONDENSED SPECTRUM=NO
##NPOINTS= 18
##XYDATA=(XY..XY) 1 
    30        999
    43        480
    55         70
    56         90
    60        360
    67        100
    72        280
    73        400
    79         80
    93         70
    95        210
   108        200
   112        130
   124         20
   154        790
   155        120
   167        100
   226         20