##TITLE=Library Entry 51587
##JCAMP-DX=Revision 4.10 
##DATA TYPE=MASS SPECTRUM
##SAMPLE DESCRIPTION=NIST Mass Spectrometry Data Center, 2013
##NAMES=HP
##CAS NAME=Ecgonine ethyl ester
##MOLFORM=C11H19NO3
##CAS REGISTRY NO=70939-97-8
##MP= -300
##BP= -300
##MW= 213
##$RETENTION INDEX=1576
##$CONDENSED SPECTRUM=NO
##NPOINTS= 146
##XYDATA=(XY..XY) 1 
    15         17
    16          1
    18          1
    19          1
    25          1
    26          8
    27         67
    28         48
    29        125
    30         26
    31         18
    32          7
    37          1
    38          2
    39         46
    40         11
    41         83
    42        303
    43         55
    44         46
    45         13
    46          1
    47          2
    50          2
    51          7
    52          7
    53         36
    54         37
    55        131
    56         65
    57         75
    58         31
    59          2
    60          3
    61          1
    63          2
    64          1
    65         16
    66         11
    67         55
    68         85
    69         32
    70         44
    71         37
    72          4
    73          4
    74          1
    75          1
    76          3
    77         13
    78          7
    79         19
    80         32
    81         61
    82        999
    83        597
    84         92
    85          9
    86         35
    87          4
    88          3
    89          2
    91         15
    92          5
    93         22
    94        277
    95         37
    96        623
    97        358
    98         47
    99          8
   100         40
   101          6
   102          1
   103          1
   104          1
   105          1
   106          5
   107          7
   108         23
   109          7
   110         51
   111         11
   112         96
   113          9
   114          7
   115          2
   117          2
   118          1
   119          6
   120         11
   121          3
   122         37
   123          9
   124         33
   125          5
   126         23
   127          2
   128          3
   129          2
   130          9
   131          1
   132          7
   133          1
   134          1
   135          2
   136          9
   137          3
   138         29
   139          5
   140         86
   141          8
   142          3
   143          1
   144          1
   148          2
   150          4
   151          1
   152          4
   153          1
   154          2
   155          1
   156          8
   157          1
   158          1
   166         21
   167          4
   168        179
   169         39
   170         12
   171          1
   180          1
   182          2
   184         20
   185          6
   186          1
   194          1
   195          3
   196         39
   197          5
   198          3
   211          1
   212          2
   213         74
   214          8
   215          1