##TITLE=Library Entry 33002
##JCAMP-DX=Revision 4.10 
##DATA TYPE=MASS SPECTRUM
##SAMPLE DESCRIPTION=CHBEAM, 112(6)2012(1979); R. HERBERT AND M. CHRISTL
##NAMES=HP
##CAS NAME=1,3-Methano-1H-indene, octahydro-2-(phenylthio)-, (1.alpha.,2.bet
a.,3.alpha.,3a.beta.,7a.beta.)-
##MOLFORM=C16H20S
##CAS REGISTRY NO=70938-93-1
##MP= -300
##BP= -300
##MW= 244
##$RETENTION INDEX=0
##$CONDENSED SPECTRUM=NO
##NPOINTS= 14
##XYDATA=(XY..XY) 1 
    39        500
    41        670
    67        999
    77        770
    79        760
    91        910
    93        710
   109        600
   134        430
   135        910
   148        430
   162        280
   175        140
   244        710