##TITLE=Library Entry 1297
##JCAMP-DX=Revision 4.10 
##DATA TYPE=MASS SPECTRUM
##SAMPLE DESCRIPTION=Japan AIST/NIMC Database- Spectrum MS-NW-2631
##NAMES=HP
##CAS NAME=L-Threonine, N-glycyl-
##MOLFORM=C6H12N2O4
##CAS REGISTRY NO=7093-70-1
##MP= -300
##BP= -300
##MW= 176
##$RETENTION INDEX=0
##$CONDENSED SPECTRUM=NO
##NPOINTS= 141
##XYDATA=(XY..XY) 1 
    12          3
    13          2
    14         14
    15         43
    16         16
    17         19
    18         69
    25          3
    26         17
    27         55
    28        205
    29        103
    30        999
    31         55
    32          5
    36          7
    37          1
    38          4
    39         18
    40          9
    41         40
    42         65
    43         92
    44        118
    45        101
    46          9
    47          1
    51          3
    52          9
    53          4
    54         29
    55         33
    56         70
    57        187
    58         29
    59         21
    60          5
    63          1
    66          3
    67         11
    68         17
    69         41
    70         10
    71         30
    72         16
    73         16
    74         52
    75         55
    76          2
    77          1
    79          2
    80          2
    81          5
    82          8
    83          9
    84         17
    85         40
    86         45
    87         15
    88          5
    89          2
    92          2
    93          3
    94          6
    95          8
    96          6
    97         54
    98          6
    99          5
   100          3
   101          5
   102          4
   103          2
   104          9
   105          2
   106          2
   107          2
   108          2
   109          6
   110          3
   111          7
   112          8
   113         15
   114        507
   115         39
   116          4
   117          1
   118          1
   119          1
   120          3
   121          3
   122          2
   123          3
   124          4
   125          4
   126          9
   127          4
   128          1
   130          2
   131          2
   132         65
   133          9
   134          2
   135          2
   136          3
   137          3
   138          2
   139          3
   140         45
   141          4
   142          1
   143          6
   144          2
   145          1
   146          2
   147          1
   149          2
   150          3
   151          3
   152          4
   153          3
   154          6
   155          2
   156          2
   158         13
   159          1
   160          2
   161          1
   162          2
   163          1
   164          2
   165          2
   166          2
   167          1
   168          2
   171          1
   172          7
   173          1
   174          1
   176          1
   177          1