##TITLE=Library Entry 5684
##JCAMP-DX=Revision 4.10 
##DATA TYPE=MASS SPECTRUM
##SAMPLE DESCRIPTION=Chemical Concepts
##NAMES=HP
##CAS NAME=Ditetradecyl 1,4-dihydro-2,6-dimethyl-3,5-pyridinedicarboxylate
##MOLFORM=C37H67NO4
##CAS REGISTRY NO=70938-06-6
##MP= -300
##BP= -300
##MW= 589
##$RETENTION INDEX=0
##$CONDENSED SPECTRUM=NO
##NPOINTS= 154
##XYDATA=(XY..XY) 1 
    34         41
    35         28
    36         23
    38         40
    39        114
    40        633
    41        485
    43        999
    44        301
    45         21
    47          5
    49         11
    50         37
    51          9
    52         44
    54         25
    55        360
    57        530
    58         23
    59          2
    60          9
    61         10
    63         16
    64         23
    65         19
    67         58
    69        187
    70         75
    71        138
    72         11
    73          6
    74          8
    75          9
    76          5
    77         38
    78         11
    79         30
    80          9
    81         33
    82         21
    83         86
    84         35
    85         49
    86          2
    87          5
    91         16
    92          5
    93         22
    94         10
    95         35
    96         21
    97         34
    98         14
    99          2
   101          5
   103          3
   104          4
   105         28
   106         30
   107         59
   108         20
   110         26
   111         25
   112         24
   113         11
   115          4
   116          2
   118          5
   119          6
   121         14
   122          6
   123         22
   124          9
   125          9
   126          8
   128         14
   129          7
   131          6
   133         15
   134         24
   135         34
   136         13
   137          4
   139          1
   140          2
   148          3
   149         13
   150         22
   151         63
   152        103
   153          9
   154          8
   157          3
   160          7
   162          5
   163          8
   164          7
   165          2
   170          1
   171         29
   172          1
   176          3
   178         33
   179         24
   180         71
   181          9
   182          2
   189          3
   192          3
   193          8
   195         17
   196        194
   197         24
   201          2
   206          3
   207          3
   220          3
   233          2
   234          4
   248          2
   264          9
   276          5
   278          6
   283          4
   290          4
   292          7
   304          4
   306          2
   318          2
   320          2
   334          2
   346          4
   347         10
   348          9
   350          4
   374         18
   375          9
   376         57
   377         13
   378          5
   379          2
   388         10
   389          5
   390         17
   391         16
   392        502
   393        111
   394         14
   406         10
   407          2
   446          3
   587          5
   588          5
   589          4