##TITLE=Library Entry 29129
##JCAMP-DX=Revision 4.10 
##DATA TYPE=MASS SPECTRUM
##SAMPLE DESCRIPTION=Drug Lab
##NAMES=HP
##CAS NAME=3,4-Dimethoxymethamphetamine
##MOLFORM=C12H19NO2
##CAS REGISTRY NO=70932-18-2
##MP= -300
##BP= -300
##MW= 209
##$RETENTION INDEX=0
##$CONDENSED SPECTRUM=NO
##NPOINTS= 85
##XYDATA=(XY..XY) 1 
    38          1
    39         13
    40          2
    41          7
    42         20
    43         10
    44          4
    45          1
    50          3
    51         13
    52          5
    53          4
    54          2
    55          4
    56         34
    57         11
    58        999
    59         39
    60          1
    62          1
    63          6
    64          4
    65         20
    66          4
    67          2
    68          1
    70          1
    71          1
    74          1
    75          1
    76          2
    77         18
    78         16
    79         12
    80          3
    81          1
    89          9
    90          8
    91         16
    92          4
    93          2
    94          4
    95          2
    97          2
   102          1
   103          4
   104          1
   105         13
   106         16
   107         28
   108          7
   109          3
   115          2
   117          1
   118          3
   119          2
   120          2
   121          5
   122          2
   123          2
   131          2
   132          1
   133          2
   134          1
   135          7
   136          3
   137          8
   138          2
   146          1
   147          2
   148          1
   149          2
   150          2
   151         43
   152         85
   153          8
   162          2
   163          2
   164          2
   178          3
   179          2
   192          2
   194          2
   207          1
   208          1