##TITLE=Library Entry 4086
##JCAMP-DX=Revision 4.10 
##DATA TYPE=MASS SPECTRUM
##SAMPLE DESCRIPTION=G. Lange, Inst. Org. Chem., Univ. Wurzburg, Germany
##NAMES=HP
##CAS NAME=Benzene, [(1,2-dimethyl-1-propenyl)sulfonyl]-
##MOLFORM=C11H14O2S
##CAS REGISTRY NO=70941-87-6
##MP= -300
##BP= -300
##MW= 210
##$RETENTION INDEX=0
##$CONDENSED SPECTRUM=NO
##NPOINTS= 65
##XYDATA=(XY..XY) 1 
    39        133
    40         52
    41        999
    42         57
    43         90
    44         12
    45          9
    50         33
    51        136
    52         19
    53        124
    54         13
    55         23
    56          8
    57         72
    58          5
    59         10
    63         12
    64          6
    65         30
    66         13
    67        194
    68         51
    69        193
    70         17
    71         15
    74          5
    75          5
    76          7
    77        131
    78        124
    79         42
    81          7
    82          5
    83          7
    85         35
    91        144
    92         12
    94          6
    97         21
   103          7
   105         41
   109          9
   110          6
   115          8
   117         72
   118          6
   120          5
   125         72
   126         77
   127         10
   128         11
   129         30
   130         31
   131          9
   142          5
   143        106
   144        251
   145        268
   146         30
   152          5
   175         20
   193         36
   210         46
   211          8