##TITLE=Library Entry 30686
##JCAMP-DX=Revision 4.10 
##DATA TYPE=MASS SPECTRUM
##SAMPLE DESCRIPTION=A.A.Kutin, Moscow, Russia
##NAMES=HP
##CAS NAME=(3-Nitro-[1,2,4]triazol-1-yl)-acetic acid methyl ester
##MOLFORM=C5H6N4O4
##CAS REGISTRY NO=70965-23-0
##MP= -300
##BP= -300
##MW= 186
##$RETENTION INDEX=0
##$CONDENSED SPECTRUM=NO
##NPOINTS= 67
##XYDATA=(XY..XY) 1 
    33          4
    36          1
    38         19
    39         58
    40         61
    41        142
    42        443
    43         63
    45        653
    46        326
    48          1
    50          0
    51          3
    53        539
    54        265
    55         75
    57         34
    59        999
    60         22
    61          6
    62          1
    65          0
    66          1
    67          5
    69        421
    70         21
    72         40
    73         72
    74          4
    75          0
    77          0
    78          0
    81        227
    82         21
    84         59
    85        261
    86         13
    87          1
    91          0
    93          0
    96         15
    97         11
    98          2
   100         72
   101          2
   106          0
   107          0
   111        320
   112         52
   113          4
   114          6
   115          3
   127        307
   128         20
   129          2
   136          0
   139          0
   155         11
   156          7
   157         15
   158          0
   170         76
   171          5
   186        811
   187         59
   188          7
   189          0