##TITLE=Library Entry 13078
##JCAMP-DX=Revision 4.10 
##DATA TYPE=MASS SPECTRUM
##SAMPLE DESCRIPTION=A.A.Kutin, Moscow, Russia
##NAMES=HP
##CAS NAME=Benzoxazole, 2-(5,5-dimethyl-4-nitro-2-oxazolin-3-yl)-
##MOLFORM=C12H11N3O4
##CAS REGISTRY NO=70976-49-7
##MP= -300
##BP= -300
##MW= 261
##$RETENTION INDEX=0
##$CONDENSED SPECTRUM=NO
##NPOINTS= 99
##XYDATA=(XY..XY) 1 
    37         21
    38         71
    39        215
    40         69
    41        144
    43        999
    44         54
    45         21
    46         39
    49          3
    50         46
    51         92
    52         65
    53         54
    54         16
    55         21
    57         13
    61          8
    62         53
    63        193
    64        190
    65         90
    66         26
    67         20
    68          3
    69         23
    70          4
    71          3
    74          2
    75         25
    76         31
    77         68
    78         49
    79         15
    81          4
    82          1
    83          1
    87          5
    88          2
    89         30
    90         73
    91         82
    92         48
    93         28
    95          2
   101          4
   102         25
   103         31
   104         11
   105         15
   106          7
   108          9
   113          2
   114          2
   115         32
   116         20
   117         23
   118         19
   119         38
   120         19
   121          4
   127          7
   128         18
   129         11
   130         40
   131         10
   132         13
   133         32
   134          9
   139          9
   140         11
   141         10
   142          1
   143          9
   144         49
   145         37
   146         30
   147          1
   154         13
   155          5
   156         14
   157          7
   158         15
   159          2
   160          5
   168          1
   169         15
   170         23
   171         40
   173        845
   174         76
   175          3
   183          2
   184        105
   214          2
   215          5
   260          3
   261         65
   262         10