##TITLE=Library Entry 52298
##JCAMP-DX=Revision 4.10 
##DATA TYPE=MASS SPECTRUM
##SAMPLE DESCRIPTION=Chemical Concepts
##NAMES=HP
##CAS NAME=Phosphinous chloride, bis[5-methyl-2-(1-methylethyl)cyclohexyl]-
##MOLFORM=C20H38ClP
##CAS REGISTRY NO=70971-58-3
##MP= -300
##BP= -300
##MW= 344
##$RETENTION INDEX=0
##$CONDENSED SPECTRUM=NO
##NPOINTS= 271
##XYDATA=(XY..XY) 1 
    26          2
    27         78
    29         99
    30          2
    31          2
    33          2
    34          5
    35          4
    36         27
    37          4
    38         11
    39         78
    41        437
    42         33
    43        342
    44          9
    45          7
    46          1
    47          2
    48          1
    49          0
    50          4
    51         15
    52          8
    53         67
    54         34
    55        578
    56         43
    57        359
    58         20
    59         11
    60          1
    61          7
    62          4
    63          5
    64          1
    65         25
    66         12
    67        164
    68         47
    69        467
    70         33
    71         66
    72          5
    73         12
    74          3
    75          4
    77         50
    78         11
    79         82
    80         24
    81        323
    82         41
    83        999
    84         84
    85         24
    86          2
    87          8
    88          2
    89          4
    91         49
    92         14
    93         77
    94         34
    95        301
    96         65
    97        224
    98         19
    99         16
   100          3
   101          5
   102          5
   103          4
   104          1
   105          8
   106          3
   107         17
   108          5
   109         22
   110          7
   111          5
   112          1
   113         17
   114          3
   115         12
   116         11
   117          7
   118          2
   119         17
   120          3
   121         15
   122          5
   123         39
   124          6
   125          4
   126          1
   127          7
   128          4
   129          6
   130          3
   131          1
   132          2
   133          2
   134          6
   135          7
   136         21
   137         46
   138         67
   139        102
   140         14
   141          2
   142          0
   143          1
   144          1
   145          0
   146          0
   147          0
   148          1
   149          7
   150         40
   151          6
   152         13
   153          1
   154          0
   155          2
   156          0
   157          2
   158          0
   159          0
   160          0
   161          1
   163         13
   164         11
   165          5
   166          3
   167          1
   168          0
   169          3
   170          5
   171         18
   172          9
   173         16
   174          2
   175          0
   176          0
   177          3
   178          3
   179          1
   180          1
   181          0
   182          0
   183          1
   184          1
   185          1
   186          1
   187          0
   189          0
   190          0
   191          6
   192          1
   193          2
   194          0
   195          0
   196          0
   197          2
   198          1
   199          3
   200          0
   201          0
   203          0
   204          0
   205         15
   206         40
   207         64
   208         22
   209         20
   210          2
   211          0
   212          0
   213          0
   214          0
   215          0
   217          0
   218          0
   219          3
   220          3
   221          1
   222          0
   223          0
   224          0
   225          0
   226          0
   227          0
   231          0
   232          0
   233         13
   234          2
   235          4
   236          0
   237          0
   238          0
   239          1
   240          0
   241          2
   242          0
   245          0
   246          0
   247          1
   248          0
   249          0
   250          0
   251          0
   253          1
   254          0
   255          0
   256          0
   257          0
   259          0
   260          0
   261          0
   262          0
   263          0
   264          0
   265          2
   266          0
   267         13
   268          3
   269          0
   271          0
   273          0
   274          0
   275          6
   276          1
   277          1
   278          0
   281          0
   282          0
   283          0
   287          3
   288          0
   289          2
   290          0
   291          0
   293          0
   295          0
   296          0
   298          0
   299          0
   301        131
   302         24
   303         44
   304          8
   305          0
   307          0
   308          0
   309          2
   310          2
   311          0
   313          0
   314          0
   315          0
   329          3
   330          0
   331          1
   336          0
   341          0
   342          0
   344         18
   345          4
   346          6
   347          1