##TITLE=Library Entry 48603
##JCAMP-DX=Revision 4.10 
##DATA TYPE=MASS SPECTRUM
##SAMPLE DESCRIPTION=CHBEAM, 112(6)2012(1979); R. HERBERT AND M. CHRISTL
##NAMES=HP
##CAS NAME=Tricyclo[4.1.1.0(2,5)]octane
##MOLFORM=C8H12
##CAS REGISTRY NO=70970-60-4
##MP= -300
##BP= -300
##MW= 108
##$RETENTION INDEX=0
##$CONDENSED SPECTRUM=NO
##NPOINTS= 13
##XYDATA=(XY..XY) 1 
    39        670
    41        370
    54        880
    66        300
    67        790
    77        320
    79        999
    80        620
    91        160
    93        320
    99         30
   107         20
   108          4