##TITLE=Library Entry 62534
##JCAMP-DX=Revision 4.10 
##DATA TYPE=MASS SPECTRUM
##SAMPLE DESCRIPTION=Chuck Anderson, Aldrich Chemical Co.
##NAMES=HP
##CAS NAME=(2S)-Glycidyl tosylate
##MOLFORM=C10H12O4S
##CAS REGISTRY NO=70987-78-9
##MP= -300
##BP= -300
##MW= 228
##$RETENTION INDEX=0
##$CONDENSED SPECTRUM=NO
##NPOINTS= 77
##XYDATA=(XY..XY) 1 
    14          7
    15         52
    18          0
    26         10
    27         66
    28         27
    29        108
    30          7
    31         75
    32          1
    36          4
    37          3
    38         16
    39        140
    40         12
    41         43
    42         16
    43         49
    44          4
    45         48
    48          4
    49          2
    50         23
    51         42
    52         13
    53         10
    55         12
    56         32
    57         24
    61          2
    62         16
    63         61
    64         20
    65        236
    66         13
    67          5
    71          6
    72          0
    73         14
    74          5
    75          5
    76          4
    77         43
    78         12
    79         21
    80          5
    86          2
    87          3
    89         73
    90         35
    91        999
    92        118
    93          9
   103          3
   105         19
   106          2
   107         38
   108         24
   109          2
   111          3
   119          4
   121          1
   133          1
   139         65
   140          6
   141          3
   155        456
   156         40
   157         24
   172         93
   173         60
   174          9
   175          2
   184          1
   228         43
   229          5
   230          1