##TITLE=Library Entry 25360
##JCAMP-DX=Revision 4.10 
##DATA TYPE=MASS SPECTRUM
##SAMPLE DESCRIPTION=Exported from NIST MS Search
##NAMES=HP
##CAS NAME=Tritetracontane
##MOLFORM=C43H88
##CAS REGISTRY NO=7098-21-7
##MP= -300
##BP= -300
##MW= 604
##$RETENTION INDEX=4300
##$CONDENSED SPECTRUM=NO
##NPOINTS= 233
##XYDATA=(XY..XY) 1 
    39         21
    40          6
    41        142
    42         48
    43        476
    44         18
    45          1
    49          1
    50          2
    51          3
    52          2
    53         13
    54         36
    55        286
    56        164
    57        999
    58         52
    59          8
    60          1
    62          1
    63          1
    64          1
    65          3
    66          4
    67         43
    68         47
    69        220
    70        128
    71        641
    72         37
    73          2
    74          1
    75          1
    76          2
    77          4
    78          3
    79          7
    80          5
    81         33
    82         54
    83        216
    84         79
    85        418
    86         29
    87          2
    88          1
    89          1
    91          6
    92          3
    93          3
    94          3
    95         22
    96         32
    97        157
    98         51
    99        100
   100          9
   101          2
   102          1
   103          1
   104          2
   105          7
   106          2
   107          2
   108          2
   109         11
   110         13
   111         70
   112         35
   113         67
   114          6
   115          2
   116          1
   117          2
   118          1
   119          2
   120          2
   121          2
   122          1
   123          5
   124          8
   125         31
   126         26
   127         51
   128          6
   129          1
   130          1
   131          2
   132          1
   137          3
   138          5
   139         14
   140         21
   141         40
   142          5
   143          1
   151          2
   152          4
   153          8
   154         16
   155         33
   156          4
   157          1
   166          3
   167          6
   168         14
   169         28
   170          4
   171          1
   180          2
   181          4
   182         12
   183         23
   184          3
   185          1
   194          2
   195          3
   196         11
   197         20
   198          3
   199          1
   208          2
   209          3
   210          9
   211         17
   212          3
   213          1
   222          2
   223          2
   224          8
   225         15
   226          4
   227          1
   236          2
   237          2
   238          7
   239         13
   240          3
   241          1
   249          1
   250          2
   251          2
   252          6
   253         12
   254          3
   255          1
   264          2
   265          1
   266          6
   267         11
   268          2
   269          1
   280          5
   281         10
   282          2
   283          1
   294          5
   295          9
   296          2
   297          1
   308          4
   309          8
   310          2
   311          1
   322          4
   323          8
   324          2
   325          1
   336          4
   337          7
   338          2
   339          1
   350          3
   351          7
   352          2
   362          1
   364          3
   365          6
   366          2
   376          1
   378          3
   379          6
   380          2
   390          1
   391          1
   392          2
   393          6
   394          2
   404          1
   406          2
   407          5
   408          2
   418          1
   420          2
   421          5
   422          2
   434          2
   435          5
   436          2
   448          2
   449          5
   450          2
   451          1
   462          2
   463          5
   464          2
   476          1
   477          4
   478          2
   490          1
   491          4
   492          2
   493          1
   504          1
   505          4
   506          2
   518          1
   519          4
   520          2
   521          1
   532          1
   533          4
   534          2
   546          1
   547          4
   548          2
   560          1
   561          2
   562          1
   575          2
   576          1
   604          1
   605          1