##TITLE=Library Entry 85745
##JCAMP-DX=Revision 4.10 
##DATA TYPE=MASS SPECTRUM
##SAMPLE DESCRIPTION=Chemical Concepts
##NAMES=HP
##CAS NAME=1-(1,2,3-Trimethyl-cyclopent-2-enyl)-ethanone
##MOLFORM=C10H16O
##CAS REGISTRY NO=70987-81-4
##MP= -300
##BP= -300
##MW= 152
##$RETENTION INDEX=0
##$CONDENSED SPECTRUM=NO
##NPOINTS= 47
##XYDATA=(XY..XY) 1 
    27         45
    28         10
    29         16
    39         56
    40         13
    41         83
    42         11
    43        151
    44         17
    45          6
    50          5
    51         21
    52          7
    53         30
    54          6
    55         62
    56          4
    62          6
    63         10
    64          5
    65         29
    66          6
    67        317
    68         20
    69         27
    70          3
    77         56
    78         14
    79         45
    80          7
    81        101
    82          9
    91         51
    92         11
    93         43
    94         26
    95         10
   105         14
   106          4
   107         22
   108         22
   109        999
   110        104
   111          8
   151          4
   152         39
   153          8