##TITLE=Library Entry 51439
##JCAMP-DX=Revision 4.10 
##DATA TYPE=MASS SPECTRUM
##SAMPLE DESCRIPTION=Japan AIST/NIMC Database- Spectrum MS-NW-2506
##NAMES=HP
##CAS NAME=Histidine
##MOLFORM=C6H9N3O2
##CAS REGISTRY NO=71-00-1
##MP= -300
##BP= -300
##MW= 155
##$RETENTION INDEX=0
##$CONDENSED SPECTRUM=NO
##NPOINTS= 66
##XYDATA=(XY..XY) 1 
    14          1
    15          6
    16          2
    17          8
    18         28
    25          1
    26         10
    27         24
    28         63
    29         13
    30         26
    36          2
    37          3
    38          7
    39         22
    40         17
    41         27
    42         27
    43         13
    44         29
    45          6
    46         10
    50          1
    51          5
    52         19
    53         15
    54        127
    55         77
    56         47
    57          9
    64          1
    65          2
    66         12
    67          6
    68         11
    69         16
    70          2
    71          1
    74         26
    75          3
    79          2
    80          8
    81        444
    82        999
    83        117
    84          5
    92          2
    93         35
    94         12
    95          4
    97          1
   106          1
   107          7
   108          5
   109         63
   110        176
   111         19
   112          1
   119          1
   120          2
   121          1
   135          1
   137          9
   138          1
   155         10
   156          1