##TITLE=Library Entry 90091
##JCAMP-DX=Revision 4.10 
##DATA TYPE=MASS SPECTRUM
##SAMPLE DESCRIPTION=Japan AIST/NIMC Database- Spectrum MS-NW-7228
##NAMES=HP
##CAS NAME=1,3,5-Triazine-2,4(1H,3H)-dione
##MOLFORM=C3H3N3O2
##CAS REGISTRY NO=71-33-0
##MP= -300
##BP= -300
##MW= 113
##$RETENTION INDEX=0
##$CONDENSED SPECTRUM=NO
##NPOINTS= 62
##XYDATA=(XY..XY) 1 
    12          6
    13         15
    14          6
    15          9
    16         21
    17          3
    18          9
    24          1
    25          1
    26         15
    27         83
    28        670
    29         56
    30          8
    31          3
    35          2
    38          5
    39          3
    40         12
    41        143
    42        115
    43        526
    44        302
    45          6
    46          1
    49          4
    52          5
    53          9
    54         12
    55          7
    56          3
    57          6
    59          2
    60         39
    61          6
    64          2
    66          1
    67          1
    68          7
    69        136
    70        833
    71         34
    72          3
    75          3
    77          2
    81          2
    82          1
    83          3
    84          2
    85        156
    86         35
    87          9
    95          1
    96          1
    97          4
    98          1
   109          1
   110          1
   111          2
   113        999
   114         50
   115          6