##TITLE=Library Entry 1027
##JCAMP-DX=Revision 4.10 
##DATA TYPE=MASS SPECTRUM
##SAMPLE DESCRIPTION=NIST Mass Spectrometry Data Center, 1992
##NAMES=HP
##CAS NAME=Spermine
##MOLFORM=C10H26N4
##CAS REGISTRY NO=71-44-3
##MP= -300
##BP= -300
##MW= 202
##$RETENTION INDEX=0
##$CONDENSED SPECTRUM=NO
##NPOINTS= 143
##XYDATA=(XY..XY) 1 
    13          0
    14          1
    15         46
    16         13
    17         39
    18        157
    25          1
    26         19
    27         94
    28        349
    29        144
    30        999
    31         27
    32          4
    34          1
    36          4
    37          2
    38         14
    39         73
    40         30
    41        297
    42        347
    43        263
    44        957
    45         79
    46         14
    47          1
    48          1
    49          2
    50          6
    51         12
    52         11
    53         18
    54         62
    55        141
    56        354
    57        685
    58        236
    59         24
    60         20
    62          2
    63          3
    64          2
    65          8
    66          4
    67         29
    68        139
    69        102
    70        521
    71        102
    72        228
    73         30
    74         59
    75         16
    76          2
    77         15
    78          6
    79          2
    80         22
    81         32
    82         84
    83         98
    84        825
    85        155
    86         78
    87        122
    88         11
    89         70
    90          6
    91          1
    92          2
    93          3
    94         11
    95          8
    96         71
    97         79
    98        285
    99         78
   100         25
   101         29
   102         46
   103         17
   105         17
   106          1
   107          2
   108          3
   109         20
   110         37
   111         19
   112         58
   113        116
   114         18
   115         37
   116         20
   117          2
   118          1
   120          2
   121          4
   122          3
   123         14
   124          1
   125        130
   126         85
   127        187
   128         18
   129         49
   130         41
   131          4
   133          1
   135          0
   136          1
   137          2
   138          2
   139          6
   140         11
   141          6
   142          3
   144          2
   145          5
   146          6
   147          1
   149          7
   150          2
   151          3
   152          2
   153          6
   154          4
   155          3
   156          3
   158        101
   159         34
   160          3
   165          3
   166          1
   168          1
   172         21
   173          2
   181          3
   182          1
   184          2
   186          1
   202          4
   203          1