##TITLE=Library Entry 6025
##JCAMP-DX=Revision 4.10 
##DATA TYPE=MASS SPECTRUM
##SAMPLE DESCRIPTION=Patti Price, Georgia Bureau of Investigation, Decatur,
 Georgia
##NAMES=HP
##CAS NAME=Digitoxin
##MOLFORM=C41H64O13
##CAS REGISTRY NO=71-63-6
##MP= -300
##BP= -300
##MW= 764
##$RETENTION INDEX=0
##$CONDENSED SPECTRUM=NO
##NPOINTS= 225
##XYDATA=(XY..XY) 1 
    41        830
    42        197
    43        999
    44        463
    45        466
    46         32
    48         53
    50          7
    51         54
    52         32
    53        201
    54         76
    55        793
    56        124
    57        678
    58        333
    59        153
    60        266
    61         35
    63         22
    64         44
    65         92
    66         57
    67        406
    68        162
    69        734
    70        107
    71        348
    72         41
    73        439
    74         29
    75         32
    76          1
    77        167
    78         48
    79        349
    80         98
    81        409
    82         89
    83        240
    84        148
    85        282
    86        102
    87         63
    88         21
    89         13
    91        333
    92         72
    93        269
    94         99
    95        562
    96        173
    97        356
    98        152
    99         65
   100         15
   101         31
   103         50
   104         66
   105        231
   106         83
   107        261
   108        150
   109        207
   110        111
   111        441
   112         87
   113        694
   114         87
   115         67
   116         49
   117         77
   118         48
   119        300
   120         72
   121        145
   122         59
   123         91
   124        182
   125         78
   126         93
   127         94
   128         60
   129        166
   130         64
   131        596
   132         77
   133        155
   134         57
   135        126
   136         57
   137         68
   138         29
   139         44
   140         23
   141         57
   142         38
   143         83
   144         43
   145        127
   146         52
   147        351
   148        127
   149        102
   150         31
   151         50
   152         38
   153         57
   154         38
   155         53
   156         30
   157         72
   158         31
   159         90
   160         43
   161         99
   162        132
   163        150
   164         37
   165         62
   166         30
   167         29
   168         24
   169         38
   170         20
   171         47
   172         29
   173         59
   174         63
   175         86
   176         54
   177         84
   178         36
   179         57
   180         40
   181         91
   182         34
   183         48
   184         20
   185         51
   186         18
   187         44
   188         19
   189         55
   190         24
   191         43
   192         23
   193         38
   194         23
   195         82
   196         23
   197         55
   198         22
   199         37
   200         16
   201         94
   202         39
   203        735
   204        137
   205         26
   206         25
   207         44
   208         24
   209         23
   210         23
   211         35
   213         63
   214         21
   215         37
   217         33
   218         18
   219         54
   220         20
   221        193
   222         50
   223         16
   224         16
   225         29
   226         17
   227         26
   228         34
   229         36
   230         19
   231         54
   232         20
   233         25
   234         16
   235         28
   236         29
   237         41
   239         23
   241         19
   242         15
   243         61
   244         16
   245         20
   246        150
   247         44
   250         20
   255         44
   256         17
   257         51
   258         16
   259         39
   262         17
   263         16
   264         23
   269         16
   271         24
   275         20
   281         19
   283         17
   285         17
   313         20
   323         41
   338         50
   339        250
   340         66
   341         47
   355         20
   356        163
   357        172
   358         41
   374         30
   401         44