##TITLE=Library Entry 55647
##JCAMP-DX=Revision 4.10 
##DATA TYPE=MASS SPECTRUM
##SAMPLE DESCRIPTION=Japan AIST/NIMC Database- Spectrum MS-NW-5651
##NAMES=HP
##CAS NAME=Tetraethylammonium bromide
##MOLFORM=C8H20BrN
##CAS REGISTRY NO=71-91-0
##MP= -300
##BP= -300
##MW= 209
##$RETENTION INDEX=0
##$CONDENSED SPECTRUM=NO
##NPOINTS= 63
##XYDATA=(XY..XY) 1 
    12          1
    13          2
    14          5
    15         30
    17          1
    18          3
    24          1
    25         10
    26         71
    27        296
    28        115
    29        381
    30        256
    31          4
    38          1
    39          6
    40          6
    41         24
    42        102
    43         16
    44         97
    45          2
    51          1
    52          3
    53          1
    54         10
    55          7
    56         65
    57         16
    58        257
    59          9
    68          2
    69          1
    70         34
    71         13
    72         31
    73          2
    79         11
    80         10
    81         11
    82          9
    84          9
    85          3
    86        999
    87         56
    88          2
    91          2
    92          1
    93          9
    94          2
    95          7
    99          6
   100         56
   101        173
   102         11
   104          2
   105          1
   106          2
   107          2
   108        174
   109          5
   110        174
   111          4