##TITLE=Library Entry 58212
##JCAMP-DX=Revision 4.10 
##DATA TYPE=MASS SPECTRUM
##SAMPLE DESCRIPTION=Japan AIST/NIMC Database- Spectrum MS-IW- 121
##NAMES=HP
##CAS NAME=3-(p-Fluorophenyl)-1,1-dimethylthiourea
##MOLFORM=C9H11FN2S
##CAS REGISTRY NO=710-21-4
##MP= -300
##BP= -300
##MW= 198
##$RETENTION INDEX=0
##$CONDENSED SPECTRUM=NO
##NPOINTS= 126
##XYDATA=(XY..XY) 1 
    15         12
    26          1
    27          5
    30         45
    31          6
    32          3
    33          1
    34          1
    37          3
    38          4
    39          8
    40          4
    41          5
    42         69
    43         23
    44        289
    45        108
    46          4
    47         16
    49          2
    50         20
    51         13
    52          3
    55          3
    56         18
    57         29
    58          3
    59          2
    60          6
    61         13
    62          6
    63         12
    64          4
    65          1
    68          9
    69         27
    70          9
    71        433
    72         24
    73         53
    74         19
    75        129
    76         23
    77          4
    78          1
    80          1
    81         10
    82         15
    83         55
    84          7
    85          1
    87          3
    88        999
    89        125
    90         52
    91          7
    92          2
    93          6
    94         24
    95        325
    96         53
    97          6
    98          8
    99         48
   100          4
   101          1
   102          4
   106          1
   107          2
   108         14
   109         80
   110         28
   111         15
   112          1
   113          3
   114          6
   115          1
   120          1
   121         33
   122         32
   123          4
   124         46
   125          5
   126         36
   127         56
   128         38
   129          5
   130          1
   133         24
   134          7
   135          5
   136          4
   137          4
   138         92
   139          9
   140          2
   141          3
   142          2
   149         13
   150         82
   151         16
   152          6
   153        721
   154        151
   155         42
   156          7
   163          1
   165        155
   166         23
   167          5
   168          2
   169         20
   170          2
   171          7
   181         24
   182         30
   183         18
   184          3
   185          1
   195          1
   196          3
   197         48
   198        937
   199        116
   200         48
   201          5