##TITLE=Library Entry 82901
##JCAMP-DX=Revision 4.10 
##DATA TYPE=MASS SPECTRUM
##SAMPLE DESCRIPTION=V.A.KOPTYUG, ATLAS OF MASS SPECTRA OF ORGANIC COMPOUNDS
##NAMES=HP
##CAS NAME=Pyridine, 5-hexyl-2-methyl-
##MOLFORM=C12H19N
##CAS REGISTRY NO=710-40-7
##MP= -300
##BP= -300
##MW= 177
##$RETENTION INDEX=1410
##$CONDENSED SPECTRUM=NO
##NPOINTS= 41
##XYDATA=(XY..XY) 1 
    39         58
    41         65
    42         17
    43         69
    51         25
    52         19
    53         37
    55         16
    65         44
    66         15
    77        148
    78         43
    79         88
    80         14
    91         35
    92         26
    93         29
    94         17
   104         14
   105         27
   106        999
   107        357
   108         30
   117         29
   118         18
   119         48
   120        358
   121         71
   130         10
   131         13
   132         58
   133         12
   134        134
   135         36
   148         44
   149         10
   162         16
   175         23
   176         48
   177        227
   178         36