##TITLE=Library Entry 72196
##JCAMP-DX=Revision 4.10 
##DATA TYPE=MASS SPECTRUM
##SAMPLE DESCRIPTION=Japan AIST/NIMC Database- Spectrum MS-NW-3938
##NAMES=HP
##CAS NAME=2H-Pyran-2-one, 6-hexyltetrahydro-
##MOLFORM=C11H20O2
##CAS REGISTRY NO=710-04-3
##MP= -300
##BP= -300
##MW= 184
##$RETENTION INDEX=1539
##$CONDENSED SPECTRUM=NO
##NPOINTS= 104
##XYDATA=(XY..XY) 1 
    14          1
    15          7
    18          4
    26          6
    27        118
    28         22
    29        104
    30          2
    31          4
    32          3
    38          3
    39         73
    40         14
    41        229
    42        202
    43        263
    44         14
    45          7
    50          2
    51          4
    52          3
    53         19
    54         30
    55        203
    56         90
    57         40
    58         14
    59          3
    60         20
    61          2
    63          1
    65          4
    66          3
    67         32
    68         63
    69        102
    70        277
    71        355
    72         19
    73         21
    74          1
    77          3
    78          1
    79          6
    80          4
    81         26
    82         28
    83         55
    84         43
    85         16
    86         27
    87          7
    88          1
    91          3
    92          1
    93          3
    94          3
    95         19
    96         33
    97         38
    98         23
    99        999
   100         92
   101         14
   102          3
   105          1
   107          2
   108          1
   109          8
   110         11
   111          9
   112         11
   113         37
   114         99
   115         17
   116          2
   119          4
   120          1
   121          1
   122         20
   123         12
   124         20
   125          7
   126          1
   127          5
   128          6
   129          2
   133          1
   137          9
   138          4
   141          8
   142          7
   143          1
   147          1
   148         15
   149          2
   151          1
   155          6
   156          2
   166         13
   167          2
   183          2
   184          3
   185          1