##TITLE=Library Entry 25406
##JCAMP-DX=Revision 4.10 
##DATA TYPE=MASS SPECTRUM
##SAMPLE DESCRIPTION=Chemical Concepts
##NAMES=HP
##CAS NAME=Pentadecane, 8-heptyl-
##MOLFORM=C22H46
##CAS REGISTRY NO=71005-15-7
##MP= -300
##BP= -300
##MW= 310
##$RETENTION INDEX=0
##$CONDENSED SPECTRUM=NO
##NPOINTS= 124
##XYDATA=(XY..XY) 1 
    26          1
    27         32
    29        124
    30          3
    39         16
    41        218
    42         35
    43        567
    44         18
    50          0
    51          1
    52          0
    53          8
    54         16
    55        178
    56        102
    57        999
    58         39
    59          0
    65          1
    66          2
    67         20
    68         17
    69        119
    70         69
    71        759
    72         36
    73          1
    77          1
    78          0
    79          3
    80          0
    81         11
    82         26
    83        100
    84         42
    85        477
    86         34
    87          0
    91          1
    92          0
    93          0
    94          0
    95          4
    96         28
    97         91
    98         33
    99        214
   100         15
   101          1
   104          0
   105          0
   109          2
   110         21
   111         63
   112         26
   113        149
   114         13
   115          0
   120          0
   121          0
   123          0
   124         17
   125         51
   126         20
   127        132
   128         12
   129          0
   137          0
   138         11
   139         26
   140         16
   141        104
   142         11
   143          1
   152          7
   153         19
   154         12
   155         69
   156          8
   157          0
   165          0
   166          4
   167         13
   168         12
   169         30
   170          4
   171          0
   179          1
   180          2
   181          9
   182         26
   183         10
   184          0
   195          0
   196         18
   197         12
   198          1
   209          1
   210        543
   211        429
   212         60
   213          4
   224         16
   225         17
   226          2
   227          0
   238          6
   239          7
   240          2
   252          2
   253          3
   254          0
   264          0
   266          1
   267          2
   268          0
   280          0
   281          0
   295          0
   309          2
   310         54
   311         14
   312          1