##TITLE=Library Entry 5567
##JCAMP-DX=Revision 4.10 
##DATA TYPE=MASS SPECTRUM
##SAMPLE DESCRIPTION=W.KROSZCZYNSKI,INST. ORG. CHEM., POL. ACAD. SCI., WARSA
W, PO
##NAMES=HP
##CAS NAME=1.alpha.-Carboethoxymethyl-17.beta.-hydroxy-17.alpha.-methyl-5.al
pha.-androstan-3-one
##MOLFORM=C24H38O4
##CAS REGISTRY NO=71017-11-3
##MP= -300
##BP= -300
##MW= 390
##$RETENTION INDEX=0
##$CONDENSED SPECTRUM=NO
##NPOINTS= 376
##XYDATA=(XY..XY) 1 
    19          6
    20          0
    21          0
    22          0
    23          0
    24          0
    25          1
    26          7
    27        115
    28         22
    29        615
    30         14
    31         21
    32          0
    33          0
    34          0
    35          0
    36          0
    37          2
    38          2
    39         81
    40         31
    41        598
    42         79
    43        999
    44         27
    45         76
    46          2
    47          5
    48          0
    49          1
    50          1
    51         10
    52         12
    53        149
    54         34
    55        381
    56         26
    57        105
    58        117
    59         40
    60         42
    61         44
    62          1
    63          6
    64          3
    65         52
    66         31
    67        315
    68        103
    69        158
    70         22
    71        358
    72         50
    73         21
    74          4
    75          5
    76          1
    77        158
    78         38
    79        320
    80         66
    81        336
    82         64
    83         73
    84         13
    85         86
    86         15
    87         33
    88         25
    89         10
    90          4
    91        274
    92         54
    93        295
    94         74
    95        217
    96         32
    97         48
    98          9
    99         20
   100          4
   101          9
   102          6
   103         17
   104         13
   105        246
   106         72
   107        276
   108         96
   109        139
   110        119
   111         87
   112         19
   113         68
   114         32
   115         68
   116         18
   117         61
   118         34
   119        142
   120         58
   121        234
   122        114
   123        109
   124         18
   125         22
   126          4
   127          7
   128         20
   129         25
   130         14
   131         78
   132         25
   133        112
   134         49
   135        108
   136         24
   137         26
   138         20
   139         12
   140          5
   141         23
   142         15
   143        146
   144         27
   145         84
   146         31
   147        128
   148         36
   149         55
   150         11
   151         23
   152          7
   153          7
   154          6
   155         12
   156         91
   157        205
   158         41
   159        136
   160         51
   161        144
   162         76
   163         72
   164         18
   165         16
   166          7
   167          8
   168          4
   169         13
   170          8
   171         33
   172         64
   173         59
   174        233
   175        135
   176        147
   177         36
   178         13
   179         11
   180          4
   181          9
   182          4
   183         14
   184          9
   185         28
   186         12
   187         38
   188         14
   189         27
   190         16
   191         18
   192          4
   193          7
   194          5
   195         15
   196          7
   197         23
   198          9
   199         47
   200         11
   201         53
   202         12
   203         21
   204          7
   205         11
   206          6
   207          5
   208          9
   209         22
   210          9
   211         23
   212          8
   213         37
   214         57
   215         96
   216        105
   217         42
   218         14
   219          9
   220          6
   221          4
   222          2
   223          8
   224          4
   225         15
   226          9
   227         38
   228         14
   229         56
   230         19
   231         46
   232         35
   233         27
   234        117
   235         27
   236          5
   237          7
   238          6
   239         14
   240         11
   241         24
   242         11
   243         50
   244         16
   245         30
   246         10
   247          7
   248          7
   249          8
   250          3
   251          9
   252          5
   253         20
   254         10
   255         52
   256         28
   257         20
   258         14
   259         20
   260          5
   261          2
   262          2
   263          2
   264          1
   265          1
   266         10
   267         15
   268         14
   269         49
   270         13
   271         29
   272         14
   273         75
   274         40
   275         21
   276          3
   277          4
   278          1
   279          2
   280          2
   281          1
   282          2
   283         24
   284         47
   285         34
   286         32
   287        138
   288         32
   289          5
   290          6
   291          4
   292          3
   293         10
   294          2
   295          1
   296          1
   297          7
   298         14
   299          9
   300          7
   301         24
   302         18
   303        118
   304         29
   305          7
   306          2
   307          3
   308          8
   309         15
   310          7
   311         32
   312         11
   313          2
   314         17
   315         11
   316         63
   317         31
   318          7
   319         24
   320         35
   321          8
   322          2
   323          1
   324          1
   325          7
   326         34
   327         35
   328         10
   329          7
   330         24
   331          6
   332         14
   333        300
   334         72
   335         10
   336          1
   337          0
   338          0
   339          3
   340          1
   341          1
   342          0
   343          4
   344         40
   345         88
   346         21
   347          7
   348          1
   349          0
   350          0
   351          0
   352          0
   353          0
   354          8
   355          4
   356          2
   357         29
   358         10
   359          1
   360          0
   361          2
   362          1
   363          0
   364          0
   365          0
   366          0
   367          0
   368          0
   369          0
   370          0
   371          2
   372         28
   373         28
   374          6
   375         14
   376          3
   377          0
   378          0
   379          0
   380          0
   381          0
   382          0
   383          0
   384          0
   385          0
   386          0
   387          0
   388          1
   389          5
   390        164
   391        100
   392         23
   393          3
   394          0