##TITLE=Library Entry 13858
##JCAMP-DX=Revision 4.10 
##DATA TYPE=MASS SPECTRUM
##SAMPLE DESCRIPTION=Exported from NIST MS Search
##NAMES=HP
##CAS NAME=Pregn-5-en-20-one, 3,8,12,14-tetrahydroxy-, (3.beta.,12.beta.,14.
beta.)-
##MOLFORM=C21H32O5
##CAS REGISTRY NO=7102-32-1
##MP= -300
##BP= -300
##MW= 364
##$RETENTION INDEX=0
##$CONDENSED SPECTRUM=NO
##NPOINTS= 230
##XYDATA=(XY..XY) 1 
    26         38
    27        221
    28        155
    29        191
    31         80
    39        229
    40         68
    41        482
    42         51
    43        999
    44        106
    45         89
    50         57
    51        100
    52         48
    53        202
    54         63
    55        361
    56         74
    57        242
    60         36
    63         42
    64         25
    65        183
    66         57
    67        261
    68         48
    69        106
    70         42
    71        136
    74         25
    75         21
    76         21
    77        310
    78        153
    79        482
    80         85
    81        291
    82         59
    83        100
    84        102
    85        102
    89         31
    91        468
    92        144
    93        242
    94        119
    95        195
    96         53
    97        482
    98         63
    99         36
   101         21
   102         31
   103         42
   104         53
   105        482
   106        127
   107        191
   108         89
   109        242
   110         93
   111        170
   112         38
   113        114
   114         42
   115        102
   116         42
   117        100
   118         57
   119        202
   120        948
   121        285
   122        102
   123        327
   124         51
   125         74
   126         27
   127         57
   128         80
   129         80
   130         36
   131        106
   132         25
   133         89
   134         68
   135        102
   136         78
   137         85
   138        451
   139         68
   140         57
   141        127
   142         51
   143         93
   144         51
   145        170
   146         42
   147        340
   148        134
   149         59
   150         48
   151         48
   152         42
   153        195
   154         80
   155         42
   156         21
   157         68
   158         57
   159        100
   160         51
   161        187
   162         80
   163         63
   164         51
   165        142
   166        127
   167         80
   168         29
   169         51
   170         17
   171        106
   172         25
   173         42
   174         85
   175         42
   176         21
   177         57
   178         42
   179         51
   180        117
   181         42
   182         21
   183         42
   184         29
   185         25
   186         21
   187         25
   188         21
   189         63
   190         53
   191         68
   192         21
   193         34
   194         46
   195         29
   196         21
   197         25
   198         48
   199         42
   201         17
   203         17
   204         36
   205         38
   206         31
   207         25
   208         80
   209        206
   210         48
   211         36
   212         36
   215         36
   217         36
   218         21
   219         68
   220         25
   221         17
   222         42
   223         36
   225         21
   226        957
   227        365
   228         53
   231         51
   233         27
   239         36
   241         25
   243         21
   249         25
   250         17
   251         21
   252         12
   253         21
   254         21
   256         12
   257         12
   259         12
   260         21
   261         36
   263         12
   264         12
   267         38
   268         12
   269         17
   271         25
   272         14
   276         17
   277         17
   279         17
   283         12
   284         21
   285         51
   287         21
   288         12
   289          8
   295         59
   296         14
   300          8
   302         12
   303         12
   304          8
   311         14
   313         63
   314         21
   315         10
   318         17
   319         14
   328         57
   329         12
   330         21
   331         14
   346        174
   347         38
   348         21
   349         31
   350         12
   364        204
   365         42
   366         17