##TITLE=Library Entry 15800
##JCAMP-DX=Revision 4.10 
##DATA TYPE=MASS SPECTRUM
##SAMPLE DESCRIPTION=NIST Mass Spectrometry Data Center
##NAMES=HP
##CAS NAME=Cathinone
##MOLFORM=C9H11NO
##CAS REGISTRY NO=71031-15-7
##MP= -300
##BP= -300
##MW= 149
##$RETENTION INDEX=1335
##$CONDENSED SPECTRUM=NO
##NPOINTS= 63
##XYDATA=(XY..XY) 1 
    26          2
    27         15
    28         21
    29          5
    30          1
    37          2
    38          5
    39         11
    40          4
    41          9
    42         57
    43         26
    44        999
    45         28
    49          2
    50         43
    51        116
    52         12
    53          3
    54          1
    55          2
    57          1
    61          1
    62          3
    63          5
    64          1
    65          2
    66          1
    73          2
    74         15
    75          9
    76         14
    77        181
    78         32
    79         10
    80          1
    86          1
    87          1
    89          2
    90          1
    91          2
    92          1
   102          1
   103          2
   104          3
   105         84
   106         18
   107          2
   115          1
   116          1
   117          1
   118          1
   119          1
   120          1
   130          1
   131          1
   132          1
   133          2
   134         11
   135          1
   148          1
   149          1
   150          1