##TITLE=Library Entry 21959
##JCAMP-DX=Revision 4.10 
##DATA TYPE=MASS SPECTRUM
##SAMPLE DESCRIPTION=NIST Mass Spectrometry Data Center
##NAMES=HP
##CAS NAME=(n-Butylthio)acetonitrile
##MOLFORM=C6H11NS
##CAS REGISTRY NO=71037-08-6
##MP= -300
##BP= -300
##MW= 129
##$RETENTION INDEX=0
##$CONDENSED SPECTRUM=NO
##NPOINTS= 70
##XYDATA=(XY..XY) 1 
    12          2
    13          7
    14          8
    15         33
    26         43
    27        338
    28         36
    29        332
    30         11
    33          2
    34          3
    35          6
    37          5
    38         18
    39        161
    40         63
    41        700
    42        122
    43        110
    44         10
    45        237
    46        131
    47        210
    48         10
    49         13
    50          8
    51         10
    52          4
    53         22
    54         17
    55        181
    56        999
    57        201
    58         34
    59         62
    60         38
    61         26
    62          8
    67          2
    68         12
    69          5
    70         11
    71         13
    72         10
    73        156
    74         80
    75         10
    76          4
    80         16
    81          2
    82         16
    83          5
    84          2
    86        102
    87         20
    88          9
    89         47
    90          2
    91          2
    94          4
    95          5
    96         33
    97          2
   100         25
   101          8
   114         31
   128         27
   129        239
   130         18
   131         11