##TITLE=Library Entry 12839
##JCAMP-DX=Revision 4.10 
##DATA TYPE=MASS SPECTRUM
##SAMPLE DESCRIPTION=R.SELF FOOD RESEARCH INSTITUTE, NORWICH, U.K.
##NAMES=HP
##CAS NAME=2-Propenamide, N-[4-(acetylamino)butyl]-3-[3,4-bis(acetyloxy)phen
yl]-
##MOLFORM=C19H24N2O6
##CAS REGISTRY NO=71046-31-6
##MP= -300
##BP= -300
##MW= 376
##$RETENTION INDEX=0
##$CONDENSED SPECTRUM=NO
##NPOINTS= 204
##XYDATA=(XY..XY) 1 
    28         49
    29         38
    30        395
    36         34
    37         12
    38         42
    39         85
    41        289
    42        767
    43        999
    44        129
    45         71
    49         14
    50         44
    51         96
    52         46
    53         35
    54         21
    55         70
    56         52
    57         41
    58         48
    59         34
    60         48
    61         20
    62         42
    63         63
    64         31
    65         36
    66         16
    67         37
    68         75
    69         72
    70        906
    71         60
    72        275
    73         70
    74         23
    75         25
    76         25
    77        156
    78        103
    79         59
    80         18
    81         15
    82         14
    83         20
    84         37
    85         73
    86         61
    87         43
    88         40
    89        214
    90         44
    91         43
    92         14
    93         20
    94         60
    95         25
    96         14
    97         18
    98         51
    99         31
   100         46
   101         59
   102         19
   103         16
   104         20
   105         74
   106         52
   107         56
   108         13
   109         21
   110         38
   111         33
   112        655
   113        677
   114        466
   115         78
   116         23
   117        132
   118         47
   119         24
   120         17
   121         11
   122         24
   123         48
   124         26
   125         19
   126         11
   127         39
   128         10
   129        171
   130         32
   131        743
   132         62
   133         61
   134        608
   135        162
   136        147
   137         26
   138         81
   139         26
   140         12
   141         17
   143         15
   144         14
   145        183
   146         56
   147         61
   148         23
   149         30
   150         23
   151         16
   152         14
   156         22
   157         55
   158         14
   159         18
   160         34
   161         44
   162        372
   163        929
   164        204
   165         41
   166         11
   167         10
   168          9
   169         45
   170         15
   171         10
   173         17
   174         17
   175         41
   176         30
   177         29
   178        108
   179         80
   180         96
   181         24
   182         12
   186         12
   187         20
   188         25
   189         26
   190         24
   191         20
   192         38
   193         37
   194         11
   197         12
   202         19
   203         23
   204         32
   205        235
   206         85
   207         58
   208         26
   209         15
   211         31
   212         15
   215         17
   216         25
   217         11
   218         16
   219         24
   220         87
   221         60
   222         41
   223         17
   231         24
   232         39
   233        205
   234         45
   235         20
   238          9
   246         10
   247         39
   248         17
   249         17
   250         25
   262         22
   263         12
   264         20
   273         17
   274         66
   275         72
   276         27
   290         14
   291         57
   292        757
   293        124
   294         52
   295         11
   304         10
   315         10
   316         21
   317         58
   318         17
   333         16
   334         87
   335         23
   376         38
   377         14