##TITLE=Library Entry 17440
##JCAMP-DX=Revision 4.10 
##DATA TYPE=MASS SPECTRUM
##SAMPLE DESCRIPTION=V.G.Zaikin, TIPS, Russian Acad. Sci.
##NAMES=HP
##CAS NAME=1,4-Dimethoxy-2-phenylbutane
##MOLFORM=C12H18O2
##CAS REGISTRY NO=71053-00-4
##MP= -300
##BP= -300
##MW= 194
##$RETENTION INDEX=0
##$CONDENSED SPECTRUM=NO
##NPOINTS= 70
##XYDATA=(XY..XY) 1 
    37          2
    38          9
    39         86
    40          7
    41         37
    42          5
    43         27
    44         31
    45        999
    46         69
    47          6
    49          4
    50         36
    51         95
    52         26
    53         15
    55         11
    57          4
    58         18
    59          5
    62         11
    63         35
    64          7
    65         57
    66          5
    69          5
    70          7
    71         35
    74         11
    75         16
    76         11
    77        132
    78         83
    79         33
    89         17
    90          9
    91        442
    92         44
    93          4
   102         24
   103        128
   104        241
   105        162
   106         19
   107          9
   113          5
   114          7
   115         70
   116         48
   117        333
   118        359
   119        209
   120         23
   121         20
   127          7
   128         16
   129         20
   130         25
   131         46
   132        277
   133         39
   134         35
   135         16
   147         40
   148         27
   149         11
   161          8
   162        126
   163         17
   164          6