##TITLE=Library Entry 16980
##JCAMP-DX=Revision 4.10 
##DATA TYPE=MASS SPECTRUM
##SAMPLE DESCRIPTION=V.G.Zaikin, TIPS, Russian Acad. Sci., Moscow
##NAMES=HP
##CAS NAME=1-Methoxy-3-hydroxymethylheptane
##MOLFORM=C9H20O2
##CAS REGISTRY NO=71052-95-4
##MP= -300
##BP= -300
##MW= 160
##$RETENTION INDEX=0
##$CONDENSED SPECTRUM=NO
##NPOINTS= 59
##XYDATA=(XY..XY) 1 
    30         35
    31        178
    32         45
    33         45
    38         10
    39        168
    40         37
    41        456
    42        162
    43        238
    44         70
    45        999
    46         25
    47          6
    50          7
    51         14
    52          9
    53         55
    54         68
    55        573
    56        298
    57        296
    58        375
    59         76
    63          8
    65         10
    66         13
    67        115
    68        130
    69        189
    70        208
    71        225
    72         36
    75         15
    76          8
    79          9
    80          6
    81        130
    82        140
    83         46
    84         22
    85        138
    86         10
    87          6
    95         50
    96          7
    97         34
    98        177
    99         29
   100         74
   101          9
   109         15
   110         41
   111          8
   114          9
   127          9
   130         18
   145          9
   160          2