##TITLE=Library Entry 34963
##JCAMP-DX=Revision 4.10 
##DATA TYPE=MASS SPECTRUM
##SAMPLE DESCRIPTION=V.G.Zaikin, TIPS, Russian Acad. Sci.
##NAMES=HP
##CAS NAME=2-n-Butylthiolane, S,S-dioxide
##MOLFORM=C8H16O2S
##CAS REGISTRY NO=71053-03-7
##MP= -300
##BP= -300
##MW= 176
##$RETENTION INDEX=0
##$CONDENSED SPECTRUM=NO
##NPOINTS= 31
##XYDATA=(XY..XY) 1 
    53         40
    54         60
    55        570
    56        480
    57         70
    67         80
    68         90
    69        999
    70        210
    71         30
    81         50
    82         30
    83        160
    84        150
    91        150
    92        130
    95         30
    97         10
   109         30
   110         50
   111        140
   112         10
   120         40
   133         10
   134         40
   159        110
   160         11
   161          6
   176         30
   177          3
   178          1