##TITLE=Library Entry 19367
##JCAMP-DX=Revision 4.10 
##DATA TYPE=MASS SPECTRUM
##SAMPLE DESCRIPTION=V.G.Zaikin, TIPS, Russian Acad. Sci.
##NAMES=HP
##CAS NAME=3-Cyclohexylthiolane,S,S-dioxide
##MOLFORM=C10H18O2S
##CAS REGISTRY NO=71053-08-2
##MP= -300
##BP= -300
##MW= 202
##$RETENTION INDEX=0
##$CONDENSED SPECTRUM=NO
##NPOINTS= 71
##XYDATA=(XY..XY) 1 
    38         14
    39        270
    40         53
    41        552
    42         44
    43         46
    44         19
    45         16
    47          5
    48         42
    49          4
    50         23
    51         42
    52         26
    53        128
    54        152
    55        999
    56        103
    57         30
    58          6
    59          4
    63         26
    64         54
    65         43
    66         38
    67        392
    68         66
    69         84
    70          6
    77         56
    78         28
    79         87
    80         34
    81        448
    82        138
    83        349
    84         26
    91         53
    92          6
    93         40
    94         17
    95        254
    96        108
    97         10
   103         17
   104         54
   105         15
   107         28
   108         11
   109         80
   110         34
   115          6
   116          4
   117         11
   118          6
   119        357
   120         97
   121         78
   122         11
   130          4
   131         26
   132          4
   135         24
   136         46
   137         56
   138         15
   185         20
   186          3
   202         21
   203          3
   204          1