##TITLE=Library Entry 17560
##JCAMP-DX=Revision 4.10 
##DATA TYPE=MASS SPECTRUM
##SAMPLE DESCRIPTION=V.G.Zaikin, TIPS, Russian Acad. Sci.
##NAMES=HP
##CAS NAME=4-Methoxy-2-phenyl-1-butanol
##MOLFORM=C11H16O2
##CAS REGISTRY NO=71052-98-7
##MP= -300
##BP= -300
##MW= 180
##$RETENTION INDEX=0
##$CONDENSED SPECTRUM=NO
##NPOINTS= 59
##XYDATA=(XY..XY) 1 
    39         53
    40         16
    41         29
    42          5
    43         14
    44         27
    45        999
    46         24
    50         27
    51         67
    52         16
    53         16
    55         16
    57          7
    58         14
    59          9
    61          5
    62         12
    63         35
    64          7
    65         53
    66          7
    71         16
    74         14
    75          9
    76         12
    77        120
    78         87
    79         39
    89         27
    90         11
    91        353
    92         80
    93         14
   102         20
   103        136
   104        176
   105         76
   106          7
   114          9
   115         71
   116         95
   117        448
   118        958
   119        154
   120         40
   121         17
   127          2
   128          7
   129          9
   130          4
   131         15
   132         34
   133          6
   147         19
   150         82
   151         10
   162         20
   163          2