##TITLE=Library Entry 20260
##JCAMP-DX=Revision 4.10 
##DATA TYPE=MASS SPECTRUM
##SAMPLE DESCRIPTION=V.G.Zaikin, TIPS, Russian Acad. Sci.
##NAMES=HP
##CAS NAME=3-n-Hexylthiolane, S,S-dioxide
##MOLFORM=C10H20O2S
##CAS REGISTRY NO=71053-07-1
##MP= -300
##BP= -300
##MW= 204
##$RETENTION INDEX=0
##$CONDENSED SPECTRUM=NO
##NPOINTS= 35
##XYDATA=(XY..XY) 1 
    53         50
    54         80
    55        999
    56        360
    57        390
    67        110
    68        100
    69        710
    70        310
    71         90
    81        110
    82         60
    83        640
    84        110
    95         80
    96         40
    97        280
    98         40
   109         40
   110         20
   111         60
   112         40
   119        100
   120         30
   123         30
   133         10
   134         30
   138         60
   147         20
   161         10
   187        180
   188         20
   204         10
   205          1
   206          0