##TITLE=Library Entry 17061
##JCAMP-DX=Revision 4.10 
##DATA TYPE=MASS SPECTRUM
##SAMPLE DESCRIPTION=V.G.Zaikin, TIPS, Russian Acad. Sci., Moscow
##NAMES=HP
##CAS NAME=2-Methyl-4-methoxy-1-butanol
##MOLFORM=C6H14O2
##CAS REGISTRY NO=71052-94-3
##MP= -300
##BP= -300
##MW= 118
##$RETENTION INDEX=0
##$CONDENSED SPECTRUM=NO
##NPOINTS= 34
##XYDATA=(XY..XY) 1 
    30         31
    31        200
    32         20
    33         41
    38         10
    39         93
    40         23
    41        260
    42         58
    43         91
    44         38
    45        999
    46         26
    47          8
    51          8
    53         22
    54          8
    55        109
    56        326
    57         89
    58        502
    59         43
    67         15
    68         18
    69         20
    70         15
    71         83
    72         27
    76          7
    85         77
    86          7
    87          8
    88         42
   103         14