##TITLE=Library Entry 64032
##JCAMP-DX=Revision 4.10 
##DATA TYPE=MASS SPECTRUM
##SAMPLE DESCRIPTION=Organic Synthesis Lab, MSU, Moscow.TRC 1047
##NAMES=HP
##CAS NAME=Phenylmethyl N-(4-hydroxyphenyl)carbamate
##MOLFORM=C14H13NO3
##CAS REGISTRY NO=7107-59-7
##MP= -300
##BP= -300
##MW= 243
##$RETENTION INDEX=0
##$CONDENSED SPECTRUM=NO
##NPOINTS= 44
##XYDATA=(XY..XY) 1 
    39          7
    50          1
    51         12
    52         15
    53         12
    54          1
    55          1
    59          2
    62          3
    63         11
    64          3
    65         63
    75          2
    76          1
    77         31
    78         11
    79         61
    80         11
    81         31
    89         21
    90         16
    91        999
    92         86
    93          4
   103          3
   105          7
   106          5
   107         63
   108        182
   109         28
   122         16
   123          1
   135        117
   136         11
   196          1
   198         44
   199        246
   200         42
   201          2
   210          1
   211          1
   243        272
   244         48
   245          2