##TITLE=Library Entry 18317
##JCAMP-DX=Revision 4.10 
##DATA TYPE=MASS SPECTRUM
##SAMPLE DESCRIPTION=A.A.Kutin, Moscow, Russia
##NAMES=HP
##CAS NAME=Hydrazine, N-(bromo)(nitro)methylene)-N'-(2-nitrophenyl)-
##MOLFORM=C7H5BrN4O4
##CAS REGISTRY NO=71081-08-8
##MP= -300
##BP= -300
##MW= 288
##$RETENTION INDEX=0
##$CONDENSED SPECTRUM=NO
##NPOINTS= 170
##XYDATA=(XY..XY) 1 
    33          3
    34          4
    35          2
    36          6
    37         80
    38        181
    39        401
    40        108
    41         59
    42         12
    43         24
    44         39
    46         82
    48          6
    50        191
    51        442
    52        999
    53        121
    54         13
    55         12
    56          5
    57          6
    58          2
    60         10
    61         38
    62        149
    63        498
    64        410
    65         99
    66         24
    67          8
    68          5
    69          5
    70          2
    71          3
    72          1
    73          8
    74         37
    75         50
    76        128
    77        371
    78        273
    79        524
    80         63
    81         20
    82         19
    83          3
    84          2
    85          2
    86          4
    87         16
    88         49
    89         57
    90        329
    91        494
    92         54
    93         12
    94          6
    95          3
    96          1
    97          2
    98          1
    99          1
   100          0
   101          1
   102          4
   103         12
   104         13
   105         29
   107        532
   108         42
   109         13
   110          0
   111          1
   112          0
   113          0
   114          0
   115          3
   116         21
   117         18
   118          9
   119         22
   120         17
   121         12
   122         15
   123          3
   124          0
   125          1
   127          0
   128          0
   129          1
   130          0
   131          1
   132          0
   133          3
   135        287
   136         83
   137        279
   138         26
   139          2
   140          0
   141          1
   142          1
   143          3
   144          1
   145          1
   146          1
   147          1
   148          1
   149          3
   150          7
   151          1
   152          9
   153          1
   154          0
   155          4
   156          3
   157          4
   158          2
   159          0
   160          2
   161          1
   162          1
   163         12
   164          1
   165          0
   166          1
   167          2
   168          4
   169          4
   170          5
   171          4
   172          1
   174          0
   176          3
   178          0
   180         16
   181          2
   182          2
   183          1
   184          1
   185          3
   186          1
   187          2
   195          0
   196          7
   198          6
   199          1
   208          0
   210         28
   211          2
   212          0
   213          2
   214          1
   215          4
   216          1
   217          3
   226          3
   227          1
   228          2
   235          0
   241          1
   243          0
   278          0
   286          0
   288         90
   289          9
   290         83
   291          6
   292          0