##TITLE=Library Entry 33464
##JCAMP-DX=Revision 4.10 
##DATA TYPE=MASS SPECTRUM
##SAMPLE DESCRIPTION=V.G. Zaikin, R.S.Borisov, TIPS RAS, Moscow, Russia
##NAMES=HP
##CAS NAME=9-Dodecyn-1-ol
##MOLFORM=C12H22O
##CAS REGISTRY NO=71084-08-7
##MP= -300
##BP= -300
##MW= 182
##$RETENTION INDEX=1543
##$CONDENSED SPECTRUM=NO
##NPOINTS= 76
##XYDATA=(XY..XY) 1 
    26          6
    27         51
    28         29
    29         73
    30          2
    31         72
    38          4
    39        102
    40         33
    41        361
    42         41
    43         95
    44          6
    45         11
    50          7
    51         25
    52         24
    53        119
    54         89
    55        475
    56         38
    57         43
    58          5
    62          2
    63          9
    64          3
    65         64
    66         66
    67        896
    68        999
    69        189
    70         23
    71         45
    72          3
    77         84
    78         23
    79        352
    80         97
    81        374
    82        501
    83         56
    84         12
    85         17
    86          2
    91         72
    92          5
    93        244
    94         62
    95        296
    96         66
    97         36
    98         19
    99          4
   103          2
   105         18
   106          4
   107        103
   108         32
   109        165
   110         28
   111         18
   112          5
   117          2
   119          5
   121         60
   122         29
   123         24
   124          2
   125          4
   133          2
   135         53
   136         12
   137          1
   139          3
   149          3
   164          2