##TITLE=Library Entry 59228
##JCAMP-DX=Revision 4.10 
##DATA TYPE=MASS SPECTRUM
##SAMPLE DESCRIPTION=A.A.Kutin, Moscow, Russia
##NAMES=HP
##CAS NAME=13-Benzyl-1,4,7,10-tetraoxa-13-aza-cyclopentadecane
##MOLFORM=C17H27NO4
##CAS REGISTRY NO=71089-11-7
##MP= -300
##BP= -300
##MW= 309
##$RETENTION INDEX=0
##$CONDENSED SPECTRUM=NO
##NPOINTS= 110
##XYDATA=(XY..XY) 1 
    33         10
    38         11
    39         53
    40         89
    41         89
    42        221
    43        204
    44        143
    45        402
    46         19
    50         22
    51         47
    52         12
    53          7
    54         22
    55         39
    56        207
    57         61
    58         61
    59         50
    60         11
    62          7
    63         21
    65        117
    66          7
    68          9
    69         15
    70         69
    71         31
    72        131
    73         53
    74         45
    75         12
    77         86
    78         18
    79         12
    84        111
    85         17
    86         64
    87         45
    88         25
    89         68
    91        999
    92         91
    98         14
    99         10
   100         62
   101         11
   102         21
   103         23
   104         30
   105         79
   106         80
   107         51
   114         15
   115          9
   116         41
   117         21
   118         36
   119         31
   120        169
   121         20
   128         10
   130         17
   131         21
   132         45
   133         50
   134         47
   135         57
   136         13
   144         12
   146         39
   147         15
   148         28
   149         10
   150         21
   151          9
   158          9
   160         27
   161         11
   162         65
   163         22
   164        141
   165         18
   174          7
   175          6
   176         58
   177         15
   178         39
   188         22
   189          6
   190         25
   192         10
   204         14
   206         10
   208          6
   217         15
   218         11
   220         11
   222         12
   232         12
   233          9
   234         65
   235          8
   250          6
   252          6
   278         49
   279          9
   307          8
   309         10