##TITLE=Library Entry 7791
##JCAMP-DX=Revision 4.10 
##DATA TYPE=MASS SPECTRUM
##SAMPLE DESCRIPTION=J. Klune, Insect Chem. Ecol. Lab., USDA, Beltsville, MD
 20705
##NAMES=HP
##CAS NAME=n-Propyl heptyl ether
##MOLFORM=C10H22O
##CAS REGISTRY NO=71112-89-5
##MP= -300
##BP= -300
##MW= 158
##$RETENTION INDEX=1075
##$CONDENSED SPECTRUM=NO
##NPOINTS= 70
##XYDATA=(XY..XY) 1 
    41        344
    42        148
    43        999
    44         53
    45         25
    46          1
    47          1
    50          0
    51          2
    52          1
    53         14
    54         19
    55        246
    56        223
    57        878
    58         50
    59         31
    60          5
    66          1
    67         12
    68         85
    69        144
    70        390
    71         37
    72          5
    73        258
    74         12
    75          3
    77          1
    78          0
    79          1
    80          0
    81          5
    82          5
    83         42
    84          5
    85          3
    86          1
    87          1
    88          1
    89          0
    91          0
    93          0
    96          3
    97        138
    98        136
    99         29
   100          1
   101          1
   106          0
   110          0
   111          0
   114          0
   115          9
   116          1
   117          0
   124          0
   127          0
   128          0
   129         11
   130          2
   133          0
   135          0
   136          0
   142          0
   143          0
   157          1
   158          3
   159          1
   160          0