##TITLE=Library Entry 11516
##JCAMP-DX=Revision 4.10 
##DATA TYPE=MASS SPECTRUM
##SAMPLE DESCRIPTION=RESEARCH LAB, STATE ALCOHOL MONOPOLY ALKO, HELSINKI, FI
NLAND AND; IRMA NYKANEN ET AL
##NAMES=HP
##CAS NAME=2-Cyclohexen-1-ol, 2-methyl-5-(1-methylethenyl)-, acetate, (1R-ci
s)-
##MOLFORM=C12H18O2
##CAS REGISTRY NO=7111-29-7
##MP= -300
##BP= -300
##MW= 194
##$RETENTION INDEX=0
##$CONDENSED SPECTRUM=NO
##NPOINTS= 92
##XYDATA=(XY..XY) 1 
    27        137
    29        103
    30          3
    31          3
    38         13
    39        248
    40         51
    41        448
    42         34
    43        999
    44        148
    45         20
    50         24
    51         86
    52         37
    53        162
    54         34
    55        241
    56         48
    57         13
    58         13
    59         17
    60         13
    61          3
    62          3
    63         27
    64         13
    65        144
    66         37
    67        158
    68        144
    69         68
    70          3
    71         17
    72         10
    76          3
    77        306
    78         89
    79        268
    80        120
    81         89
    82         58
    83         82
    84        758
    85         41
    86          6
    87          3
    89         17
    90          6
    91        758
    92        365
    93        393
    94         82
    95         48
    96         65
    97         27
    98          3
   102         10
   103         41
   104         27
   105        293
   106        103
   107        106
   108        130
   109        675
   110         62
   111         10
   115         55
   116         13
   117        110
   118         20
   119        779
   120         75
   121         20
   122         13
   123         34
   124         13
   125         27
   126          6
   129          6
   131         10
   132         34
   133         31
   134        306
   135         48
   136         17
   137         44
   150          6
   151         48
   152        368
   153         41
   194          3