##TITLE=Library Entry 28892
##JCAMP-DX=Revision 4.10 
##DATA TYPE=MASS SPECTRUM
##SAMPLE DESCRIPTION=G. ECKHARDT, INST. ORG. CHEM. BIOCHEM., UNIV. BONN
##NAMES=HP
##CAS NAME=3-Cyclohexyloxypropylamine, N,N-dimethyl-
##MOLFORM=C11H23NO
##CAS REGISTRY NO=71126-67-5
##MP= -300
##BP= -300
##MW= 185
##$RETENTION INDEX=0
##$CONDENSED SPECTRUM=NO
##NPOINTS= 31
##XYDATA=(XY..XY) 1 
    30         18
    31          5
    39         21
    41         61
    42         55
    43         20
    44         42
    45         18
    53          6
    54          8
    55         31
    56         12
    57         19
    58        999
    59         43
    67          7
    70         13
    71         12
    72         14
    82          6
    83         12
    84         16
    85          8
    86         14
    87         67
    88          6
   102        176
   103         14
   184          1
   185         12
   186          1