##TITLE=Library Entry 28884
##JCAMP-DX=Revision 4.10 
##DATA TYPE=MASS SPECTRUM
##SAMPLE DESCRIPTION=G. ECKHARDT, INST. ORG. CHEM. BIOCHEM., UNIV. BONN, W.
 GERMA
##NAMES=HP
##CAS NAME=N,N-Dimethyl-3-isopropoxypropylamine
##MOLFORM=C8H19NO
##CAS REGISTRY NO=71126-66-4
##MP= -300
##BP= -300
##MW= 145
##$RETENTION INDEX=0
##$CONDENSED SPECTRUM=NO
##NPOINTS= 19
##XYDATA=(XY..XY) 1 
    30         22
    32         12
    39         17
    41         39
    42         61
    43         43
    44         38
    45         36
    57         17
    58        999
    59         43
    72         14
    84         11
    86         30
    87         47
   102         95
   103          6
   130          2
   145         15