##TITLE=Library Entry 28883
##JCAMP-DX=Revision 4.10 
##DATA TYPE=MASS SPECTRUM
##SAMPLE DESCRIPTION=G. ECKHARDT, INST. ORG. CHEM. BIOCHEM., UNIV. BONN, W.
 GERMA
##NAMES=HP
##CAS NAME=N,N-Dimethyl-3-butoxypropylamine
##MOLFORM=C9H21NO
##CAS REGISTRY NO=71126-65-3
##MP= -300
##BP= -300
##MW= 159
##$RETENTION INDEX=0
##$CONDENSED SPECTRUM=NO
##NPOINTS= 18
##XYDATA=(XY..XY) 1 
    30         13
    39         11
    41         31
    42         45
    43         15
    44         31
    57         24
    58        999
    59         41
    87         31
   102         57
   103          4
   116          3
   130          1
   144          1
   158          1
   159         39
   160          4