##TITLE=Library Entry 82733
##JCAMP-DX=Revision 4.10 
##DATA TYPE=MASS SPECTRUM
##SAMPLE DESCRIPTION=G. ECKHARDT, INST. ORG. CHEM. BIOCHEM., UNIV. BONN, W.
 GERMA
##NAMES=HP
##CAS NAME=N-Phenyl-2-benzyloxyethylamine
##MOLFORM=C15H17NO
##CAS REGISTRY NO=71126-63-1
##MP= -300
##BP= -300
##MW= 227
##$RETENTION INDEX=0
##$CONDENSED SPECTRUM=NO
##NPOINTS= 39
##XYDATA=(XY..XY) 1 
    30         13
    38         14
    39         81
    40         10
    41         20
    42          9
    50         31
    51        117
    52         28
    53          9
    62          8
    63         32
    64         16
    65        136
    66         27
    74          7
    75          7
    76         12
    77        239
    78         54
    79         70
    80          6
    89         16
    90         11
    91        254
    92         47
    93        208
    94         16
   104         32
   105         32
   106        999
   107         91
   118         17
   119          8
   120         17
   121          9
   151          6
   227        186
   228         35