##TITLE=Library Entry 27852
##JCAMP-DX=Revision 4.10 
##DATA TYPE=MASS SPECTRUM
##SAMPLE DESCRIPTION=G. ECKHARDT, INST. ORG. CHEM. BIOCHEM., UNIV. BONN, W.
 GERMA
##NAMES=HP
##CAS NAME=N,N-Dimethyl-2-cyclohexyloxyethylamine
##MOLFORM=C10H21NO
##CAS REGISTRY NO=71126-60-8
##MP= -300
##BP= -300
##MW= 171
##$RETENTION INDEX=0
##$CONDENSED SPECTRUM=NO
##NPOINTS= 24
##XYDATA=(XY..XY) 1 
    30         15
    39         17
    41         39
    42         63
    43         21
    44         27
    45         26
    53          6
    54          8
    55         29
    56         20
    57         26
    58        999
    59         40
    67          8
    70          8
    71         28
    72         57
    73         59
    82          8
    83          6
    88          7
   171         29
   172          6