##TITLE=Library Entry 55275
##JCAMP-DX=Revision 4.10 
##DATA TYPE=MASS SPECTRUM
##SAMPLE DESCRIPTION=D. LUKE UNILEVER RESEARCH LAB., PORT SUNLIGHT
##NAMES=HP
##CAS NAME=Octanamide, N-(2-hydroxyethyl)-
##MOLFORM=C10H21NO2
##CAS REGISTRY NO=7112-02-9
##MP= -300
##BP= -300
##MW= 187
##$RETENTION INDEX=0
##$CONDENSED SPECTRUM=NO
##NPOINTS= 69
##XYDATA=(XY..XY) 1 
    15         19
    17         22
    18        103
    26          8
    27         84
    28         79
    29         83
    30         13
    36          8
    38          5
    39         48
    40         12
    41        186
    42         61
    43         84
    44        153
    45         21
    51          3
    52          3
    53         16
    54         43
    55        165
    56         32
    57         62
    58          4
    60          4
    65          3
    66          2
    67         25
    68         25
    69         41
    70         12
    71          5
    72          4
    73          4
    79          4
    80          2
    81          9
    82         13
    83         21
    84          9
    85        999
    86         55
    87          6
    95          3
    96         16
    97         11
    98        430
    99         89
   100          6
   110         15
   111          6
   112         84
   113          8
   114          3
   124          5
   125          2
   126         36
   127          5
   128          3
   129          7
   138          2
   140         81
   141          8
   142          2
   154         11
   168         12
   169          2
   170          7