##TITLE=Library Entry 37304
##JCAMP-DX=Revision 4.10 
##DATA TYPE=MASS SPECTRUM
##SAMPLE DESCRIPTION=D.HENNEBERG, MAX-PLANCK INSTITUTE, MULHEIM, WEST GERMAN
Y
##NAMES=HP
##CAS NAME=Undecane, 3-methylene-
##MOLFORM=C12H24
##CAS REGISTRY NO=71138-64-2
##MP= -300
##BP= -300
##MW= 168
##$RETENTION INDEX=0
##$CONDENSED SPECTRUM=NO
##NPOINTS= 72
##XYDATA=(XY..XY) 1 
    22          1
    26          4
    27         91
    28         28
    29        144
    30          2
    31          1
    35          2
    37          3
    38          0
    39         63
    40         16
    41        335
    42        196
    43        200
    44          6
    45          0
    46          0
    49          0
    51          9
    52          2
    53         33
    54         38
    55        573
    56        133
    57        124
    64          0
    65          5
    66          5
    67         49
    68         27
    69        182
    70        999
    71        190
    72          8
    76          0
    77          5
    79          7
    80          3
    81         16
    82         16
    83        189
    84         28
    85          9
    91          1
    94          0
    95          9
    96          5
    97         42
    98         18
    99          5
   104          0
   108          1
   109          1
   110          0
   111          7
   112          2
   121          0
   126          0
   127          3
   128          1
   129          0
   133          0
   137          1
   138          2
   139         32
   140          4
   143          0
   156          0
   166          0
   168         15
   169          0