##TITLE=Library Entry 57280
##JCAMP-DX=Revision 4.10 
##DATA TYPE=MASS SPECTRUM
##SAMPLE DESCRIPTION=T.Marunaka,Biomed.Mass Spectrom., 9,381(1982)
##NAMES=HP
##CAS NAME=2,4(1H,3H)-Pyrimidinedione, 5-fluoro-1-(tetrahydro-3-hydroxy-2-fu
ranyl)-, trans-
##MOLFORM=C8H9FN2O4
##CAS REGISTRY NO=71145-47-6
##MP= -300
##BP= -300
##MW= 216
##$RETENTION INDEX=0
##$CONDENSED SPECTRUM=NO
##NPOINTS= 35
##XYDATA=(XY..XY) 1 
    39         82
    40         68
    41        219
    42         41
    43        116
    44        116
    45         89
    57        429
    58        226
    59        187
    60        119
    68          7
    69        215
    70         48
    71         73
    86        119
    87        999
    88        169
   100         21
   113          7
   114        112
   115         11
   116         46
   117         48
   130        158
   131        146
   156         14
   157          9
   158         14
   159         82
   170          7
   198         41
   199          5
   216        231
   217         50