##TITLE=Library Entry 59219
##JCAMP-DX=Revision 4.10 
##DATA TYPE=MASS SPECTRUM
##SAMPLE DESCRIPTION=J.CASSAN FACULTY OF SCIENCE, UNIV. OF NICE, NICE, FRANC
E
##NAMES=HP
##CAS NAME=1,3,2-Dioxaphospholan-2-amine, N,N-dimethyl-, 2-sulfide
##MOLFORM=C4H10NO2PS
##CAS REGISTRY NO=7114-53-6
##MP= -300
##BP= -300
##MW= 167
##$RETENTION INDEX=0
##$CONDENSED SPECTRUM=NO
##NPOINTS= 62
##XYDATA=(XY..XY) 1 
    40         33
    41         93
    42        366
    43        193
    44        866
    45        159
    46         10
    47         79
    48         10
    50         10
    51         13
    53         17
    54         10
    55         44
    56         31
    57         40
    58         12
    59        113
    60         59
    63         36
    64         20
    65         83
    66         11
    67         23
    68         17
    69         32
    70         20
    71         24
    74         73
    75         31
    76         22
    77         17
    78         10
    79         13
    80         23
    81         12
    82         17
    83         10
    90         37
    91        999
    92         31
    93         12
    94         27
    95         15
    96         10
    97         53
   106         46
   107         53
   108         17
   109         10
   123        100
   124         31
   125         10
   134        533
   135         79
   136         11
   150         12
   151         27
   167        533
   168         37
   169         28
   175          8