##TITLE=Library Entry 48473
##JCAMP-DX=Revision 4.10 
##DATA TYPE=MASS SPECTRUM
##SAMPLE DESCRIPTION=Chemical Concepts
##NAMES=HP
##CAS NAME=Cyclopropene, 3-methyl-3-vinyl-
##MOLFORM=C6H8
##CAS REGISTRY NO=71153-30-5
##MP= -300
##BP= -300
##MW= 80
##$RETENTION INDEX=0
##$CONDENSED SPECTRUM=NO
##NPOINTS= 36
##XYDATA=(XY..XY) 1 
    26         46
    27        210
    28         22
    29          1
    31          1
    36          1
    37         26
    38         43
    39        396
    40         33
    41         49
    42          0
    48          1
    49         19
    50         92
    51        128
    52        100
    53        145
    54         26
    55          0
    60          1
    61         13
    62         21
    63         37
    64          7
    65        132
    66          8
    73          1
    74          9
    75          9
    76          1
    77        381
    78         44
    79        999
    80         66
    81          1