##TITLE=Library Entry 48764
##JCAMP-DX=Revision 4.10 
##DATA TYPE=MASS SPECTRUM
##SAMPLE DESCRIPTION=Chemical Concepts
##NAMES=HP
##CAS NAME=(7-Bromobicyclo[4.1.0]hept-7-yl)phenylmethanol
##MOLFORM=C14H17BrO
##CAS REGISTRY NO=71161-54-1
##MP= -300
##BP= -300
##MW= 280
##$RETENTION INDEX=0
##$CONDENSED SPECTRUM=NO
##NPOINTS= 206
##XYDATA=(XY..XY) 1 
    26         10
    27        126
    28         20
    29         76
    30          2
    31          6
    37          3
    38         14
    39        227
    40         37
    41        214
    42         19
    43         40
    44          3
    45          2
    49          1
    50         49
    51        191
    52         58
    53        143
    54         32
    55        152
    56         10
    57         26
    58          4
    59          2
    61          2
    62         17
    63         71
    64         30
    65        149
    66         65
    67        261
    68         56
    69         35
    70          9
    71         24
    72          5
    73          2
    74         21
    75         36
    76         51
    77        852
    78        200
    79        999
    80         95
    81        214
    82         26
    83         23
    84         11
    85        112
    86         13
    87          9
    88          8
    89         65
    90         50
    91        669
    92         66
    93         61
    94         32
    95        260
    96         23
    97         16
    98          4
    99          3
   100          1
   101         10
   102         43
   103         63
   104         85
   105        541
   106         50
   107        620
   108         49
   109         35
   110          4
   111         48
   112          4
   113          7
   114          9
   115        239
   116        114
   117        237
   118         69
   119         35
   120         22
   121          9
   122          6
   123         33
   124          4
   125          2
   126         10
   127         61
   128        157
   129        232
   130        215
   131         88
   132         28
   133        164
   134         18
   135         24
   136          1
   137         17
   138          1
   139         13
   140          6
   141        645
   142        183
   143         57
   144         48
   145         61
   146         13
   147          3
   148          6
   149          7
   150          6
   151          5
   152         21
   153         32
   154         39
   155        135
   156         69
   157         85
   158         44
   159         46
   160          5
   161          8
   162          1
   163          5
   164          1
   165         15
   166         11
   167         28
   168         28
   169         15
   170          4
   171        191
   172         55
   173         55
   174          8
   175          2
   176          5
   177          1
   178          3
   179          3
   180          1
   181         16
   182         48
   183        648
   184        100
   185         13
   186          2
   187          2
   188          0
   189          0
   191          1
   193          2
   195          9
   196         19
   197          9
   198         34
   199         19
   200        122
   201        245
   202         35
   203          8
   204          4
   205          4
   206          7
   207         11
   208         10
   209         12
   210          3
   211          8
   212          1
   213          7
   214          1
   219         16
   220          7
   221         22
   222          8
   223          9
   224          1
   225          3
   226          1
   233          1
   234          2
   235          2
   236          2
   237          4
   238          1
   239          3
   240          1
   246          0
   247          1
   249          0
   262         14
   263         12
   264         14
   265         11
   266          1
   280         45
   281          7
   282         44
   283          7
   284          0