##TITLE=Library Entry 24689
##JCAMP-DX=Revision 4.10 
##DATA TYPE=MASS SPECTRUM
##SAMPLE DESCRIPTION=D.HENNEBERG, MAX-PLANCK INSTITUTE, MULHEIM, WEST GERMAN
Y
##NAMES=HP
##CAS NAME=1-Hexene, 5,5-dimethyl-
##MOLFORM=C8H16
##CAS REGISTRY NO=7116-86-1
##MP= -300
##BP= -300
##MW= 112
##$RETENTION INDEX=705
##$CONDENSED SPECTRUM=NO
##NPOINTS= 63
##XYDATA=(XY..XY) 1 
    29        232
    30          4
    32         22
    37          1
    38          5
    39        119
    40         15
    41        424
    42         22
    43        271
    44          8
    45          1
    46          2
    47          0
    49          1
    50          7
    51         13
    52          4
    53         30
    54         11
    55        559
    56        237
    57        999
    58         41
    59          0
    62          0
    63          1
    64          0
    65          5
    66          2
    67          9
    68          3
    69         80
    70         56
    71         75
    72          3
    74          0
    75          0
    76          0
    77          6
    78          1
    79          6
    80          0
    81          9
    82          1
    83         22
    84         45
    85          3
    91          1
    92          0
    93          0
    94          0
    95          1
    96          2
    97        140
    98         10
    99          0
   102          0
   104          0
   108          0
   111          0
   112         43
   113          3