##TITLE=Library Entry 34956
##JCAMP-DX=Revision 4.10 
##DATA TYPE=MASS SPECTRUM
##SAMPLE DESCRIPTION=MASS SPECTRA OF ORGANIC COMPOUNDS, CSIRO, B.H. KENNETT
 ET AL
##NAMES=HP
##CAS NAME=1-Ethyl-2,2,6-trimethylcyclohexane
##MOLFORM=C11H22
##CAS REGISTRY NO=71186-27-1
##MP= -300
##BP= -300
##MW= 154
##$RETENTION INDEX=1046
##$CONDENSED SPECTRUM=NO
##NPOINTS= 39
##XYDATA=(XY..XY) 1 
    27        163
    29        228
    39        152
    40         37
    41        674
    42        115
    43        376
    44         48
    53         82
    54         37
    55        746
    56        732
    57        245
    67         84
    68         59
    69        999
    70        427
    71        129
    75         23
    77         32
    79         28
    81         60
    82         82
    83        384
    84        438
    85        105
    91         15
    95         23
    96         42
    97        129
    98         89
   111        124
   112         32
   125         36
   126         14
   139        163
   140         28
   154        202
   155         18