##TITLE=Library Entry 81371
##JCAMP-DX=Revision 4.10 
##DATA TYPE=MASS SPECTRUM
##SAMPLE DESCRIPTION=MASS SPECTRA OF ORGANIC COMPOUNDS, CSIRO, B.H. KENNETT
 ET AL
##NAMES=HP
##CAS NAME=Megastigma-4,6(E),8(Z)-triene
##MOLFORM=C13H20
##CAS REGISTRY NO=71186-24-8
##MP= -300
##BP= -300
##MW= 176
##$RETENTION INDEX=1336
##$CONDENSED SPECTRUM=NO
##NPOINTS= 88
##XYDATA=(XY..XY) 1 
    26         10
    27        230
    29        220
    30         10
    38         10
    39        330
    41        670
    42         40
    43        110
    50         20
    51        140
    52         60
    53        240
    54         20
    55        460
    56         30
    57         20
    58         20
    59         10
    62         10
    63         70
    64         40
    65        200
    66         40
    67        140
    68         20
    69        200
    70         40
    71         30
    72         20
    75         30
    76         20
    77        380
    78        110
    79        260
    80         50
    81        130
    82         20
    83         30
    89         30
    90         20
    91        550
    92        100
    93        240
    94         70
    95         90
    96         30
    97         10
   102         20
   103         90
   104         70
   105        999
   106        220
   107        240
   108         80
   109         20
   115        150
   116         70
   117        140
   118         50
   119        710
   120        440
   121        340
   122         40
   127         40
   128         90
   129         80
   130         50
   131        130
   132         50
   133        390
   134         80
   135         50
   141         20
   142         10
   143         20
   144         20
   145         50
   146         40
   147        180
   148        140
   149         20
   159         40
   161        720
   162        110
   176        540
   177         90
   178         10