##TITLE=Library Entry 80864
##JCAMP-DX=Revision 4.10 
##DATA TYPE=MASS SPECTRUM
##SAMPLE DESCRIPTION=MASS SPECTRA OF ORGANIC COMPOUNDS, CSIRO, B.H. KENNETT
 ET AL
##NAMES=HP
##CAS NAME=Megastigma-4,6(Z),8(Z)-triene
##MOLFORM=C13H20
##CAS REGISTRY NO=71186-25-9
##MP= -300
##BP= -300
##MW= 176
##$RETENTION INDEX=1288
##$CONDENSED SPECTRUM=NO
##NPOINTS= 78
##XYDATA=(XY..XY) 1 
    26         60
    27        300
    29        290
    30         10
    39        370
    41        680
    42         50
    43        170
    45         20
    50         40
    51        160
    52         60
    53        300
    54         40
    55        480
    56         70
    57         40
    63         70
    64         40
    65        240
    66         60
    67        180
    69        230
    70         40
    71         60
    72         50
    73         50
    75         60
    76         40
    77        430
    78        140
    79        300
    80         60
    81        160
    82         30
    83         30
    91        590
    92        120
    93        220
    94         70
    95        120
    96         30
   103        100
   104         60
   105        999
   106        230
   107        260
   108         80
   109         30
   115        160
   116         80
   117        150
   118         60
   119        730
   120        470
   121        340
   127         30
   128         90
   129         90
   130         40
   131        130
   132         50
   133        410
   134         70
   135         60
   136         10
   137         10
   145         50
   146         50
   147        180
   148        140
   149         30
   159         60
   161        730
   162        110
   163         20
   176        600
   177        110