##TITLE=Library Entry 52865
##JCAMP-DX=Revision 4.10 
##DATA TYPE=MASS SPECTRUM
##SAMPLE DESCRIPTION=Susan Richardson
##NAMES=HP
##CAS NAME=Methane, dichloronitro-
##MOLFORM=CHCl2NO2
##CAS REGISTRY NO=7119-89-3
##MP= -300
##BP= -300
##MW= 129
##$RETENTION INDEX=0
##$CONDENSED SPECTRUM=NO
##NPOINTS= 20
##XYDATA=(XY..XY) 1 
    36         12
    37         20
    38          8
    42         12
    43         36
    44          5
    46         52
    47        109
    48        248
    49         33
    50         79
    51          4
    61          8
    63          4
    82         12
    83        999
    84         12
    85        633
    86          5
    87        104