##TITLE=Library Entry 89967
##JCAMP-DX=Revision 4.10 
##DATA TYPE=MASS SPECTRUM
##SAMPLE DESCRIPTION=Chemical Concepts
##NAMES=HP
##CAS NAME=3-Pentenoic acid, 5-chloro-, methyl ester
##MOLFORM=C6H9ClO2
##CAS REGISTRY NO=71195-26-1
##MP= -300
##BP= -300
##MW= 148
##$RETENTION INDEX=0
##$CONDENSED SPECTRUM=NO
##NPOINTS= 97
##XYDATA=(XY..XY) 1 
    25          1
    26         63
    27        389
    28         20
    29         40
    30         11
    31         18
    33          3
    35          5
    36         12
    37         11
    38         25
    39        240
    40         12
    41        119
    42         37
    43         45
    44          7
    45         19
    46          0
    47          1
    48          2
    49         33
    50         50
    51        104
    52         49
    53        762
    54        947
    55        111
    56          6
    57          5
    58          4
    59        681
    60         16
    61         16
    62         12
    63         18
    64          3
    65          5
    66          1
    67          7
    68          4
    69         14
    70          2
    71        248
    72         11
    73          4
    74         11
    75         18
    76          2
    77          7
    78          0
    79          2
    80          0
    81         63
    82         11
    83          5
    84         16
    85         10
    86          1
    87          9
    88        122
    89        341
    90         55
    91        111
    92          5
    93          2
    94          0
    95          0
    96          0
    97          8
    98          1
    99         14
   100          1
   101          3
   105          2
   106         16
   107          1
   108          5
   109          0
   110          0
   111          7
   112         12
   113        999
   114         57
   115          7
   116         12
   117         60
   118          5
   119         19
   120          1
   121          0
   133          1
   147          1
   148          1
   149          0
   150          0