##TITLE=Library Entry 22839
##JCAMP-DX=Revision 4.10 
##DATA TYPE=MASS SPECTRUM
##SAMPLE DESCRIPTION=R.A. CORRAL, DIV. QUIM. ORG., UNIV. NAC. LA PLATA, ARGE
N
##NAMES=HP
##CAS NAME=1-Ethyl-3-methyl-2,4,5-trioxoimidazolidine
##MOLFORM=C6H8N2O3
##CAS REGISTRY NO=71194-99-5
##MP= -300
##BP= -300
##MW= 156
##$RETENTION INDEX=0
##$CONDENSED SPECTRUM=NO
##NPOINTS= 22
##XYDATA=(XY..XY) 1 
    40         40
    41         40
    42         80
    43        220
    44         80
    54         10
    55         20
    56        999
    57        170
    58        350
    59         20
    70        210
    71        170
    72        110
    85         20
    99         10
   100         80
   113         80
   128         40
   129         40
   141         60
   156        620