##TITLE=Library Entry 76382
##JCAMP-DX=Revision 4.10 
##DATA TYPE=MASS SPECTRUM
##SAMPLE DESCRIPTION=Div. of Experiment Therapeutics WRAIR, WRAMC, Washingto
n DC 20307
##NAMES=HP
##CAS NAME=5-(Carbethoxyfluoromethylidene)hydantoin
##MOLFORM=C7H7FN2O4
##CAS REGISTRY NO=712-13-0
##MP= -300
##BP= -300
##MW= 202
##$RETENTION INDEX=0
##$CONDENSED SPECTRUM=NO
##NPOINTS= 39
##XYDATA=(XY..XY) 1 
    41         21
    42         28
    43        451
    44        498
    45        151
    47         84
    49         49
    51         26
    52         12
    53         22
    54         50
    55         31
    58        887
    59        118
    60        136
    67         44
    68         20
    70        204
    71         23
    72         20
    73         51
    74         37
    75         22
    85        112
    86        526
    87         19
   102          9
   103        999
   104         11
   113         16
   126         56
   130        256
   131        176
   157        106
   158         29
   174        142
   175          7
   202        219
   203         57