##TITLE=Library Entry 79570
##JCAMP-DX=Revision 4.10 
##DATA TYPE=MASS SPECTRUM
##SAMPLE DESCRIPTION=Japan AIST/NIMC Database- Spectrum MS-NW-8722
##NAMES=HP
##CAS NAME=Phenyl cyclohexyl ketone
##MOLFORM=C13H16O
##CAS REGISTRY NO=712-50-5
##MP= -300
##BP= -300
##MW= 188
##$RETENTION INDEX=1597
##$CONDENSED SPECTRUM=NO
##NPOINTS= 70
##XYDATA=(XY..XY) 1 
    27         16
    28          5
    29         12
    38          1
    39         22
    40          2
    41         59
    42          3
    43          5
    45          1
    50         10
    51         50
    52          5
    53          9
    54         12
    55         88
    56          4
    63          2
    65          4
    66          1
    67         22
    68          2
    69          1
    74          2
    75          2
    76          8
    77        246
    78         22
    79         10
    80          1
    81          5
    82          9
    83         18
    84          1
    89          1
    91          7
    92          1
   103          2
   104          3
   105        999
   106         77
   107         28
   108          2
   115          5
   116          1
   117          2
   120         52
   121          7
   127          1
   128          2
   129          2
   131          3
   132          1
   133        101
   134          9
   141          2
   142          2
   145          6
   146          8
   147         12
   148          1
   159          3
   169          2
   170          8
   171          1
   173          2
   187         15
   188        154
   189         22
   190          2