##TITLE=Library Entry 31470
##JCAMP-DX=Revision 4.10 
##DATA TYPE=MASS SPECTRUM
##SAMPLE DESCRIPTION=NIST Mass Spectrometry Data Center
##NAMES=HP
##CAS NAME=6-Nitropiperonal
##MOLFORM=C8H5NO5
##CAS REGISTRY NO=712-97-0
##MP= -300
##BP= -300
##MW= 195
##$RETENTION INDEX=0
##$CONDENSED SPECTRUM=NO
##NPOINTS= 83
##XYDATA=(XY..XY) 1 
    12          4
    13          5
    14         36
    16         16
    17         13
    18         13
    19         10
    25         17
    26         32
    27         35
    28         31
    29        414
    30        370
    31         30
    32          7
    36         20
    37        160
    38        103
    39        300
    40         27
    41         21
    42         71
    43         14
    44          8
    45         20
    46         26
    48         15
    49        101
    50        351
    51        391
    52        136
    53        630
    54         48
    55        276
    56          9
    60         31
    61        392
    62        999
    63        893
    64        128
    65        390
    66         47
    67         29
    69        357
    70         16
    73         22
    74         50
    75         57
    76         52
    77         85
    79        813
    80         62
    81         40
    89         15
    90         45
    91        124
    92         31
    93         20
    95         15
   105         14
   107        886
   108         66
   109         78
   119        333
   120        665
   121        171
   122         32
   123         13
   134         71
   135         25
   136         16
   137        115
   138          9
   148        277
   149         33
   150          8
   151         80
   165        786
   166         82
   167         12
   178         34
   195        341
   196         35