##TITLE=Library Entry 91525
##JCAMP-DX=Revision 4.10 
##DATA TYPE=MASS SPECTRUM
##SAMPLE DESCRIPTION=Chemical Concepts
##NAMES=HP
##CAS NAME=8-Acetyl-5,5-dimethyl-4-oxo-non-8-enoic acid, methyl ester
##MOLFORM=C14H22O4
##CAS REGISTRY NO=71208-42-9
##MP= -300
##BP= -300
##MW= 254
##$RETENTION INDEX=0
##$CONDENSED SPECTRUM=NO
##NPOINTS= 149
##XYDATA=(XY..XY) 1 
    26          2
    27         34
    28         14
    29         31
    31          4
    38          2
    39         43
    40         20
    41        125
    42         20
    43        790
    44         24
    45         27
    50          3
    51         10
    52          5
    53         36
    54          8
    55        209
    56         43
    57         49
    58          3
    59         92
    60          3
    62          3
    63          3
    64          2
    65         13
    66          5
    67         37
    68         12
    69         77
    70         20
    71         23
    72          3
    73          2
    74          2
    76          2
    77         27
    78          6
    79         41
    80          8
    81        109
    82         15
    83         27
    84         22
    85         36
    86          3
    87         81
    88         15
    89          2
    91         23
    92          8
    93         70
    94         10
    95        115
    96         17
    97        115
    98         20
    99         14
   103          3
   104          4
   105         33
   106          9
   107         31
   108          5
   109         25
   110          9
   111         56
   112          9
   113          5
   114          9
   115        999
   116         72
   117         12
   118          3
   119         33
   120          7
   121        279
   122         45
   123         50
   124         16
   125         41
   126        225
   127         25
   128          5
   129          3
   130          3
   131          3
   133         12
   134          3
   135         20
   136          4
   137          9
   138          8
   139        340
   140        142
   141         20
   142          2
   143          3
   144          2
   145         13
   146          3
   147         24
   148         15
   149         22
   150          2
   151          9
   152          3
   153          4
   154          3
   155          3
   158        214
   159         27
   160          4
   161         15
   162          5
   163         59
   164          8
   165          6
   166          2
   167         17
   168          5
   169          3
   171          9
   175          2
   176          2
   177         13
   178          3
   179          8
   180          4
   181         17
   182          2
   187          8
   189          6
   193          4
   195          7
   204          3
   205         41
   206          7
   207          4
   211          3
   221          6
   222         10
   223         33
   224          5
   236         23
   237          5
   254          3