##TITLE=Library Entry 19781
##JCAMP-DX=Revision 4.10 
##DATA TYPE=MASS SPECTRUM
##SAMPLE DESCRIPTION=NIST Mass Spectrometry Data Center, 1990.
##NAMES=HP
##CAS NAME=4-Methyl-5-hexen-2-ol
##MOLFORM=C7H14O
##CAS REGISTRY NO=71228-22-3
##MP= -300
##BP= -300
##MW= 114
##$RETENTION INDEX=0
##$CONDENSED SPECTRUM=NO
##NPOINTS= 48
##XYDATA=(XY..XY) 1 
    14          7
    15         69
    18         29
    19         39
    26         42
    27        366
    28        110
    29        272
    30         10
    31         86
    32         13
    37          9
    38         42
    39        380
    40         79
    41        402
    42        238
    43        441
    44          9
    45        926
    46         24
    50         34
    51         57
    52         31
    53        174
    54        120
    55        999
    56         75
    57         78
    58        252
    59         88
    63         16
    65         31
    66         16
    67        108
    68         47
    69         59
    70        319
    71         91
    77         17
    79        132
    81        868
    82         62
    85         59
    95         24
    96         96
    97         19
    99         12