##TITLE=Library Entry 18379
##JCAMP-DX=Revision 4.10 
##DATA TYPE=MASS SPECTRUM
##SAMPLE DESCRIPTION=Chemical Concepts
##NAMES=HP
##CAS NAME=Chromium, tricarbonyl[2-[(1,2,3,4,5,6-.eta.)-2-methylphenyl]-1,3-
dioxolane]-
##MOLFORM=C13H12CrO5
##CAS REGISTRY NO=71250-04-9
##MP= -300
##BP= -300
##MW= 300
##$RETENTION INDEX=0
##$CONDENSED SPECTRUM=NO
##NPOINTS= 180
##XYDATA=(XY..XY) 1 
    26          7
    27         21
    28         23
    29         24
    30          2
    31          0
    37          1
    38          4
    39         32
    40          6
    41          9
    42          3
    43         11
    44          1
    45         16
    46          0
    50         54
    51         18
    52        999
    53        130
    54         28
    55          2
    56          0
    57          3
    61          0
    62          4
    63         15
    64          4
    65         43
    66         11
    67          8
    68         24
    69         17
    70          3
    71          1
    72          0
    73          8
    74          1
    75          2
    76          2
    77         21
    78         14
    79          5
    80         48
    81          9
    82          8
    83          4
    84          0
    85          1
    86          0
    87          0
    88          0
    89          9
    90          8
    91         93
    92         12
    93          3
    94          3
    95          8
    96         60
    97         11
    98          2
    99          0
   101          2
   102          3
   103         13
   104          5
   105         23
   106          2
   107          1
   108         16
   109          1
   110         18
   111          7
   112          2
   113          0
   114          0
   115          4
   116          1
   117          4
   118          1
   119         48
   120         10
   121          1
   122          4
   123          0
   125          0
   126          0
   127          1
   128          1
   129          4
   130          1
   131          1
   132          0
   133          1
   134          0
   135          0
   136          1
   137          0
   139          0
   140          0
   141          3
   142         15
   143         22
   144          4
   145          1
   146          0
   149          4
   150          0
   152          0
   153          0
   154          1
   155          1
   156          8
   157          7
   158         64
   159         13
   160          4
   161          0
   162          0
   163          8
   164          1
   165          0
   166          1
   167          2
   168         17
   169          4
   170        294
   171         90
   172        231
   173         48
   174         10
   175          0
   182          2
   183          0
   184         50
   185         13
   186         81
   187         16
   188        106
   189         21
   190          4
   191          0
   195          0
   196          1
   197          1
   198          0
   199          0
   200          0
   201          0
   202          0
   212          1
   213          1
   214         48
   215         18
   216        458
   217        105
   218         22
   219          2
   220          0
   242          5
   243          2
   244         94
   245         22
   246          5
   247          0
   256          0
   268          1
   269          0
   271          0
   272          3
   273          0
   296          1
   297          0
   298         10
   299          2
   300        192
   301         48
   302         12
   303          1