##TITLE=Library Entry 35009
##JCAMP-DX=Revision 4.10 
##DATA TYPE=MASS SPECTRUM
##SAMPLE DESCRIPTION=Chemical Concepts
##NAMES=HP
##CAS NAME=Methyl 2-hydroxydecanoate
##MOLFORM=C11H22O3
##CAS REGISTRY NO=71271-24-4
##MP= -300
##BP= -300
##MW= 202
##$RETENTION INDEX=1440
##$CONDENSED SPECTRUM=NO
##NPOINTS= 87
##XYDATA=(XY..XY) 1 
    24          4
    26         18
    27        168
    29        356
    30         16
    31         63
    33        101
    34          1
    38         15
    39         89
    40         34
    41        420
    42         96
    43        394
    44        138
    45         38
    46          9
    51          9
    53         20
    54         46
    55        599
    56         70
    57        436
    58         24
    59         55
    60         14
    61         23
    67         74
    69        999
    70         90
    71         69
    72         16
    74        101
    75          6
    76         11
    77         16
    78          0
    79          6
    80         11
    81         51
    82         52
    83        497
    84         40
    85         18
    87         99
    88         10
    89         14
    90        264
    91          9
    92          8
    93          5
    94          4
    95         32
    96         22
    97         52
    98         31
    99          3
   100         12
   101          4
   103         48
   104          7
   105         12
   106          0
   107          0
   108          4
   109         11
   110         12
   111          4
   112          9
   113         50
   114         12
   115          8
   116          1
   117          1
   118          0
   119          1
   122          2
   123          5
   124         20
   125         34
   126         14
   127         40
   129          2
   141         27
   143        351
   144         44
   145         10