##TITLE=Library Entry 86597
##JCAMP-DX=Revision 4.10 
##DATA TYPE=MASS SPECTRUM
##SAMPLE DESCRIPTION=Japan AIST/NIMC Database- Spectrum MS-IW-3106
##NAMES=HP
##CAS NAME=N-(4-Methyl-2-pyrimidinyl)acetoacetamide
##MOLFORM=C9H11N3O2
##CAS REGISTRY NO=713-70-2
##MP= -300
##BP= -300
##MW= 193
##$RETENTION INDEX=0
##$CONDENSED SPECTRUM=NO
##NPOINTS= 81
##XYDATA=(XY..XY) 1 
    14          3
    15         19
    26          7
    27         18
    28         35
    29          7
    30          2
    31          5
    37          2
    38          8
    39         46
    40         37
    41         45
    42         50
    43        222
    44          7
    45          1
    50          1
    51          6
    52         12
    53         26
    54         12
    55         13
    56          8
    57          1
    58          3
    64          3
    65          6
    66         47
    67         55
    68         39
    69         72
    70          3
    77          1
    78          2
    79          4
    80          9
    81         25
    82        197
    83         12
    84          9
    85         31
    86          1
    92          8
    93         68
    94         53
    95          8
    96          1
   107          2
   108         15
   109        999
   110        198
   111         11
   120          1
   122         19
   123          9
   125          1
   133          1
   134          1
   135          4
   136         70
   137          6
   143          6
   144          1
   145          2
   148          8
   149          5
   150        179
   151         67
   152          6
   160          1
   164          1
   176          4
   177          1
   178        400
   179         39
   180          3
   192          1
   193        271
   194         29
   195          2