##TITLE=Library Entry 68926
##JCAMP-DX=Revision 4.10 
##DATA TYPE=MASS SPECTRUM
##SAMPLE DESCRIPTION=A.A.Kutin, Moscow, Russia
##NAMES=HP
##CAS NAME=Alpha,alpha,alpha-trifluoro-4'-nitroanisole
##MOLFORM=C7H4F3NO3
##CAS REGISTRY NO=713-65-5
##MP= -300
##BP= -300
##MW= 207
##$RETENTION INDEX=0
##$CONDENSED SPECTRUM=NO
##NPOINTS= 79
##XYDATA=(XY..XY) 1 
    33          7
    37         58
    38        143
    39         28
    40         12
    41          2
    42          1
    43          0
    44          3
    46         18
    47          9
    50        178
    51         55
    52         49
    53         29
    54         12
    55          2
    57         20
    58          0
    61         48
    62        109
    63        333
    64        305
    65         16
    66         12
    69        561
    71          1
    73         18
    74         81
    75        269
    76         64
    77          5
    78          6
    79          7
    80         24
    81          3
    83         79
    84          3
    89          1
    92        271
    93         28
    95        999
    96         53
    97          2
   100          1
   101         30
   102          1
   106          4
   107          2
   108         10
   109          0
   111          5
   112          0
   113         10
   114          2
   121         15
   122         97
   123          9
   132          3
   133          5
   147          3
   149        104
   150          5
   159          1
   161        132
   162          9
   174          0
   175          4
   177        281
   178         20
   179          1
   188         14
   189          1
   191         26
   192          2
   205         12
   207        656
   208         47
   209          4