##TITLE=Library Entry 72170
##JCAMP-DX=Revision 4.10 
##DATA TYPE=MASS SPECTRUM
##SAMPLE DESCRIPTION=Japan AIST/NIMC Database- Spectrum MS-NW-3510
##NAMES=HP
##CAS NAME=.delta.-Dodecalactone
##MOLFORM=C12H22O2
##CAS REGISTRY NO=713-95-1
##MP= -300
##BP= -300
##MW= 198
##$RETENTION INDEX=1719
##$CONDENSED SPECTRUM=NO
##NPOINTS= 123
##XYDATA=(XY..XY) 1 
    14          2
    15          6
    17          1
    18          8
    26          8
    27        133
    28         18
    29        128
    30          3
    31          5
    32          4
    37          1
    38          4
    39         91
    40         18
    41        269
    42        184
    43        256
    44         13
    45          7
    50          3
    51          8
    52          3
    53         24
    54         39
    55        229
    56        114
    57         80
    58         16
    59          4
    60         19
    61          3
    63          2
    65          6
    66          5
    67         47
    68         60
    69        121
    70        229
    71        308
    72         18
    73         21
    74          2
    77          6
    78          3
    79         11
    80          6
    81         34
    82         32
    83         57
    84         72
    85         16
    86         23
    87          9
    88          1
    91          7
    92          3
    93          5
    94          6
    95         22
    96         42
    97         54
    98         31
    99        999
   100        100
   101         15
   102          3
   103          1
   105          4
   106          1
   107          4
   108          2
   109         15
   110         20
   111         18
   112          6
   113         17
   114        105
   115         21
   116          4
   117          2
   119          5
   120          2
   121          2
   122          1
   123         11
   124          9
   125          6
   126          9
   127         31
   128          9
   129          3
   130          1
   131          1
   133          5
   134          2
   135          1
   136         26
   137         14
   138         24
   139          5
   140          1
   141          6
   142          9
   143          2
   147          1
   151          8
   152          4
   153          1
   154          1
   155          5
   156          2
   161          1
   162         13
   163          2
   165          1
   169          5
   170          2
   180         17
   181          3
   197          1
   198          4
   199          1