##TITLE=Library Entry 34150
##JCAMP-DX=Revision 4.10 
##DATA TYPE=MASS SPECTRUM
##SAMPLE DESCRIPTION=J. BUDDRUS, INST. SPEKTROCHEM., DORTMUND, WEST GERMA&
##NAMES=HP
##CAS NAME=3-Desoxy-1,2,5-tris-O-(trifluoracetyl)-.beta.-DL-threo-pentofuran
ose
##MOLFORM=C11H7F9O7
##CAS REGISTRY NO=71301-32-1
##MP= -300
##BP= -300
##MW= 422
##$RETENTION INDEX=0
##$CONDENSED SPECTRUM=NO
##NPOINTS= 41
##XYDATA=(XY..XY) 1 
    15         50
    16         50
    27        120
    29        200
    31         50
    36         50
    39        120
    40         50
    41        300
    42         70
    43        100
    44         50
    45         50
    47         50
    50         50
    52         40
    53        300
    54         50
    55         70
    57         70
    59        180
    68         30
    69        999
    70         20
    73         50
    78         50
    81        200
    82         20
    87         70
    91         30
    97        180
    99         70
   125        100
   140         30
   153        260
   166        210
   167         50
   181        270
   195         90
   295         50
   309        130