##TITLE=Library Entry 73415
##JCAMP-DX=Revision 4.10 
##DATA TYPE=MASS SPECTRUM
##SAMPLE DESCRIPTION=Drug Lab
##NAMES=HP
##CAS NAME=Moclobemide
##MOLFORM=C13H17ClN2O2
##CAS REGISTRY NO=71320-77-9
##MP= -300
##BP= -300
##MW= 268
##$RETENTION INDEX=2241
##$CONDENSED SPECTRUM=NO
##NPOINTS= 60
##XYDATA=(XY..XY) 1 
    39          1
    40          1
    41          9
    42         30
    43          7
    44          7
    45          2
    50          8
    51          4
    54          6
    55         16
    56         71
    57          7
    58          2
    61          1
    63          1
    68          2
    69          4
    70         32
    71          5
    72         12
    73          1
    74          6
    75         34
    76         11
    77          3
    82          2
    83          6
    84          4
    85          6
    86          5
    87          2
    88          4
    98         16
   100        999
   101         58
   102          4
   103          1
   104          3
   105          1
   110          2
   111         79
   112         11
   113        111
   114          8
   137          1
   138          1
   139         94
   140          8
   141         31
   142          2
   156          1
   168          1
   182          9
   183          1
   184          3
   225          4
   227          1
   250          2
   268          1