##TITLE=Library Entry 37047
##JCAMP-DX=Revision 4.10 
##DATA TYPE=MASS SPECTRUM
##SAMPLE DESCRIPTION=PYTCAS 20 459(1981); JUAN C MARTINEZ ET AL
##NAMES=HP
##CAS NAME=(3R,4S,2E)-2-Hexadec-15-enylidene)-3-hydroxy-4-methylbutanolide
##MOLFORM=C21H36O3
##CAS REGISTRY NO=71325-94-5
##MP= -300
##BP= -300
##MW= 336
##$RETENTION INDEX=0
##$CONDENSED SPECTRUM=NO
##NPOINTS= 17
##XYDATA=(XY..XY) 1 
    41        680
    43        540
    55        600
    57        400
    69        320
    70        999
    71        140
    81        280
    83        240
    95        300
    97        200
   140        300
   142        200
   292         70
   308         90
   318         30
   336        120