##TITLE=Library Entry 44749
##JCAMP-DX=Revision 4.10 
##DATA TYPE=MASS SPECTRUM
##SAMPLE DESCRIPTION=NIST Mass Spectrometry Data Center
##NAMES=HP
##CAS NAME=Pentadecanoic acid, methyl ester
##MOLFORM=C16H32O2
##CAS REGISTRY NO=7132-64-1
##MP= -300
##BP= -300
##MW= 256
##$RETENTION INDEX=1820
##$CONDENSED SPECTRUM=NO
##NPOINTS= 129
##XYDATA=(XY..XY) 1 
    15          6
    26          1
    27         23
    28          8
    29         63
    30          2
    31          3
    33          1
    38          1
    39         28
    40          6
    41        194
    42         45
    43        262
    44         10
    45         10
    51          1
    52          1
    53         15
    54         17
    55        230
    56         45
    57        128
    58          9
    59         91
    60          3
    61          2
    65          3
    66          2
    67         27
    68         13
    69        122
    70         23
    71         46
    72          4
    73         23
    74        999
    75        181
    76          9
    77          3
    78          1
    79          9
    80          3
    81         22
    82         10
    83         78
    84         34
    85         25
    87        695
    88         62
    89          5
    91          2
    93          6
    94          2
    95         17
    96          8
    97         62
    98         30
    99          6
   100          3
   101         66
   102          7
   103          1
   107          5
   108          1
   109          9
   110          4
   111         22
   112          7
   113          4
   114          1
   115         27
   116         10
   117          1
   121          5
   122          1
   123          4
   124          2
   125         10
   126          2
   127          1
   129         70
   130         13
   131          1
   135          4
   136          1
   137          2
   138          2
   139          5
   140          1
   141          1
   143        187
   144         18
   145          2
   149          2
   151          1
   152          1
   153          3
   154          1
   157         53
   158          7
   159          1
   163          1
   167          1
   171         31
   172          4
   177          1
   180          2
   181          1
   182          3
   183          1
   185         28
   186          4
   195          1
   199         39
   200          6
   201          1
   205          1
   213         84
   214         12
   215          1
   223          1
   225         45
   226          8
   227         19
   228          3
   256         60
   257         12
   258          1