##TITLE=Library Entry 3214
##JCAMP-DX=Revision 4.10 
##DATA TYPE=MASS SPECTRUM
##SAMPLE DESCRIPTION=U.S. BUREAU OF MINES, BARTLESVILLE, OKLAHOMA, USA
##NAMES=HP
##CAS NAME=Sulfide, cyclohexyl cyclopentyl
##MOLFORM=C11H20S
##CAS REGISTRY NO=7133-21-3
##MP= -300
##BP= -300
##MW= 184
##$RETENTION INDEX=0
##$CONDENSED SPECTRUM=NO
##NPOINTS= 119
##XYDATA=(XY..XY) 1 
    24          0
    25          1
    26         29
    27        315
    28         54
    29        178
    30          3
    31          0
    32          4
    33          2
    34          4
    35          5
    36          0
    37          6
    38         18
    39        385
    40         54
    41        999
    42         56
    43         44
    44          2
    45        216
    46         14
    47        118
    48          3
    49          6
    50          9
    51         27
    52         13
    53        120
    54        161
    55        539
    56         27
    57          6
    58         41
    59         86
    60        102
    61         48
    62          7
    63          6
    64          1
    65         36
    66         40
    67        730
    68        243
    69        604
    70         36
    71         42
    72         13
    73        136
    74         31
    75         12
    76          3
    77         19
    78          5
    79         38
    80         19
    81        227
    82        654
    83        561
    84         37
    85         21
    86          6
    87         35
    88          3
    89          2
    91          1
    93          1
    94          0
    95          4
    96          0
    97          4
    98          1
    99          8
   100         41
   101        319
   102        116
   103        175
   104         15
   105          7
   106          0
   107          0
   108          1
   109          3
   110          0
   111          0
   112          0
   113          2
   114         31
   115        246
   116         75
   117        132
   118         12
   119          5
   120          0
   121          0
   122          0
   123          0
   124          0
   127          2
   128          1
   129          3
   130          0
   141         44
   142          4
   143          2
   144          0
   150          0
   151          0
   155          6
   156          2
   157          0
   182          0
   183          2
   184        490
   185         65
   186         26
   187          3
   188          0