##TITLE=Library Entry 47846
##JCAMP-DX=Revision 4.10 
##DATA TYPE=MASS SPECTRUM
##SAMPLE DESCRIPTION=V.G.Zaikin, TIPS, Russian Acad. Sci., Moscow
##NAMES=HP
##CAS NAME=2-Dimethyl(pentafluorophenyl)silyloxypropane
##MOLFORM=C11H13F5OSi
##CAS REGISTRY NO=71338-74-4
##MP= -300
##BP= -300
##MW= 284
##$RETENTION INDEX=1140
##$CONDENSED SPECTRUM=NO
##NPOINTS= 131
##XYDATA=(XY..XY) 1 
    30          4
    31         68
    35          8
    36         51
    37          6
    38         23
    39        131
    40         15
    41        151
    42         44
    43        391
    44         68
    45        147
    46         10
    48        331
    49        189
    50         26
    51         82
    53         13
    55         15
    56         13
    57         47
    58         13
    59         32
    60          7
    61         34
    62         20
    63         69
    64          9
    65         57
    66          5
    67         16
    68         50
    70          5
    71         16
    73         12
    74         42
    75        690
    76        116
    77        999
    78         95
    79        743
    80         76
    81        322
    82         53
    84          6
    85         60
    86         14
    87         12
    89         23
    91         42
    92         59
    93         10
    95        105
    96         10
    98         33
    99        107
   100         10
   101         48
   102          7
   103          6
   105         35
   106         10
   107         19
   109         10
   110         33
   111         35
   113         18
   114         20
   115         11
   116         59
   117         76
   119         72
   120         11
   121         14
   123         23
   124         20
   125        449
   126         44
   127         25
   129        107
   130         11
   132         10
   133         14
   134         46
   135         10
   136          5
   137          7
   139         23
   140         12
   141        103
   142         46
   144          7
   145         59
   146         12
   147          5
   148         11
   157          6
   158         12
   159        129
   160          7
   161         65
   162          7
   163         12
   164          7
   165         11
   168          9
   175          7
   179          9
   181          7
   182          7
   185         11
   186          5
   205          7
   207         44
   209         12
   224          7
   225        170
   226         50
   227         92
   228          9
   229          9
   242          7
   267         24
   268         27
   269        879
   270        165
   271         66
   283         18
   284          5
   285          1