##TITLE=Library Entry 51273
##JCAMP-DX=Revision 4.10 
##DATA TYPE=MASS SPECTRUM
##SAMPLE DESCRIPTION=U.S. BUREAU OF MINES, BARTLESVILLE, OKLAHOMA, USA
##NAMES=HP
##CAS NAME=Cyclohexane, (methylthio)-
##MOLFORM=C7H14S
##CAS REGISTRY NO=7133-37-1
##MP= -300
##BP= -300
##MW= 130
##$RETENTION INDEX=924
##$CONDENSED SPECTRUM=NO
##NPOINTS= 96
##XYDATA=(XY..XY) 1 
    24          0
    25          2
    26         48
    27        386
    28         64
    29        172
    30          3
    31          0
    32          6
    33          4
    34          4
    35         18
    36          0
    37          9
    38         24
    39        362
    40         39
    41        667
    42         41
    43         39
    44          5
    45        243
    46         60
    47        154
    48         35
    49         45
    50         30
    51         57
    52         27
    53        144
    54        372
    55        820
    56         39
    57          6
    58         40
    59         60
    60         11
    61        140
    62         17
    63         16
    64          2
    65         21
    66         20
    67        882
    68         51
    69         13
    70          2
    71         26
    72         12
    73         45
    74         72
    75         16
    76          7
    77         31
    78          8
    79         43
    80         10
    81        160
    82        999
    83        410
    84         27
    85         20
    86          4
    87        193
    88         13
    89         11
    90          0
    91          0
    93          0
    95          1
    96          0
    97          3
    98          0
    99          3
   100          0
   101         13
   102          2
   103          1
   109          0
   110          0
   111          1
   112          0
   113          1
   114          0
   115         58
   116          4
   117          2
   118          0
   127          0
   128          0
   129          2
   130        646
   131         55
   132         31
   133          2
   134          0