##TITLE=Library Entry 20824
##JCAMP-DX=Revision 4.10 
##DATA TYPE=MASS SPECTRUM
##SAMPLE DESCRIPTION=V.A.KOPTYUG, ATLAS OF MASS SPECTRA OF ORGANIC COMPOUNDS
##NAMES=HP
##CAS NAME=Dicyclohexylsulphide
##MOLFORM=C12H22S
##CAS REGISTRY NO=7133-46-2
##MP= -300
##BP= -300
##MW= 198
##$RETENTION INDEX=0
##$CONDENSED SPECTRUM=NO
##NPOINTS= 47
##XYDATA=(XY..XY) 1 
    39        244
    40         31
    41        707
    42         49
    43         61
    44         98
    45        138
    47         81
    50         16
    51         32
    52         20
    53        156
    54        269
    55        999
    56         61
    57         10
    58         23
    59         50
    60         90
    61         76
    65         42
    66         31
    67        853
    68         61
    69         28
    71        104
    74         18
    77         48
    79        122
    80         54
    81        375
    82        877
    83        894
    85         28
    87         57
   110         98
   114        106
   115        326
   116        163
   117        301
   118         31
   119         16
   129         16
   155         33
   192         22
   198        375
   199         81