##TITLE=Library Entry 46803
##JCAMP-DX=Revision 4.10 
##DATA TYPE=MASS SPECTRUM
##SAMPLE DESCRIPTION=V.G.Zaikin, TIPS, Russian Acad. Sci., Moscow
##NAMES=HP
##CAS NAME=1-Dimethyl(pentafluorophenyl)silyloxypropane
##MOLFORM=C11H13F5OSi
##CAS REGISTRY NO=71338-89-1
##MP= -300
##BP= -300
##MW= 284
##$RETENTION INDEX=1180
##$CONDENSED SPECTRUM=NO
##NPOINTS= 149
##XYDATA=(XY..XY) 1 
    30         32
    31         71
    35          6
    36         41
    37         11
    38         41
    39        116
    40         24
    41        236
    42         41
    43        807
    44         66
    45        124
    47        376
    48         18
    49        184
    50         27
    51         69
    52          5
    53          9
    55         14
    56         14
    57         93
    58         25
    59         23
    61         28
    62         25
    63         68
    64         17
    65         42
    66          8
    67         12
    68         17
    69         33
    70          6
    71         12
    73         10
    74         23
    75        405
    76         53
    77        999
    78         91
    79        980
    80         93
    81        342
    82         16
    83         42
    84          5
    85         33
    86         16
    87         21
    88         12
    89         21
    91         35
    92         18
    93         89
    94         14
    95         57
    96          5
    97         12
    98         16
    99        108
   100         10
   101         89
   102         11
   103          7
   104         12
   105         27
   106          5
   107         99
   108         14
   109          5
   110         25
   111         59
   112         16
   113         23
   114          9
   116        160
   117         74
   118         14
   119         80
   120         11
   121         93
   123         27
   124          9
   125        365
   126         32
   127         23
   128          5
   129         93
   130         14
   131          7
   132         23
   133         11
   134         11
   137         11
   138          9
   139         20
   140         11
   141         56
   142          5
   143         33
   144         23
   145        245
   146         25
   147          9
   148         11
   149          9
   151         24
   155          5
   157          9
   158          7
   159         97
   160          9
   161         39
   162          7
   163         29
   165         11
   168          9
   169          4
   170          5
   178          9
   181          7
   185         18
   186          5
   191          5
   199          5
   207         24
   209          9
   211         11
   221          5
   224         13
   225        206
   226         52
   227         32
   239         18
   241         16
   242         13
   255        248
   256         43
   257         15
   268         22
   269        440
   270        101
   271         15
   283          2
   284         15
   285          3
   286          1