##TITLE=Library Entry 48798
##JCAMP-DX=Revision 4.10 
##DATA TYPE=MASS SPECTRUM
##SAMPLE DESCRIPTION=V.G.Zaikin, TIPS, Russian Acad. Sci., Moscow
##NAMES=HP
##CAS NAME=Dimethyl(pentafluorophenyl)silyloxyethane
##MOLFORM=C10H11F5OSi
##CAS REGISTRY NO=71338-73-3
##MP= -300
##BP= -300
##MW= 270
##$RETENTION INDEX=1065
##$CONDENSED SPECTRUM=NO
##NPOINTS= 151
##XYDATA=(XY..XY) 1 
    30         32
    31         61
    32         31
    35          7
    36         20
    37          5
    38          9
    39         22
    41          9
    42         20
    43        117
    44         23
    45        145
    46          7
    47        314
    48         19
    49        136
    50         20
    51         56
    53          9
    55          7
    56          6
    57         43
    58         14
    59         56
    60          7
    61         31
    62         24
    63         80
    64         11
    65         50
    66          2
    67          9
    68         14
    69         27
    70         12
    71          3
    72         16
    74         27
    75        309
    76         35
    77        511
    78         67
    79        999
    80         90
    81        295
    82         21
    83         44
    84          5
    85         37
    86         10
    87         21
    88          5
    89         14
    90         32
    91         19
    92         61
    94          8
    95         62
    96         10
    97         12
    98         35
    99         69
   100         10
   101         85
   102         83
   103         55
   104          7
   105         39
   106         11
   107        373
   108         32
   109         18
   110         35
   111         52
   112         10
   113         18
   114         11
   115          5
   117         41
   118          3
   119         29
   120          5
   122          3
   123         29
   124          7
   125        188
   126         16
   127         48
   128         30
   129         78
   130          5
   131          7
   132         19
   133          7
   135         10
   137         30
   138         10
   139         10
   140          7
   141         62
   142          8
   143         32
   144         23
   145        247
   146         26
   147         10
   148         24
   149          6
   157         16
   158         10
   159         48
   160          5
   161         37
   162          7
   163          5
   164          5
   165         12
   168          7
   177         18
   178          5
   179         12
   181          7
   185         14
   191          6
   199          6
   207         22
   208          6
   209         17
   210          4
   211          8
   212          4
   225         53
   226         19
   227         30
   228          4
   239          6
   240          6
   241          4
   242          6
   245          8
   247          4
   253         17
   254          8
   255        460
   256         79
   257         21
   269          6
   270         38
   271          6
   272          2