##TITLE=Library Entry 51159
##JCAMP-DX=Revision 4.10 
##DATA TYPE=MASS SPECTRUM
##SAMPLE DESCRIPTION=U.S. BUREAU OF MINES, BARTLESVILLE, OKLAHOMA, USA
##NAMES=HP
##CAS NAME=Cyclohexane, (hexylthio)-
##MOLFORM=C12H24S
##CAS REGISTRY NO=7133-26-8
##MP= -300
##BP= -300
##MW= 200
##$RETENTION INDEX=0
##$CONDENSED SPECTRUM=NO
##NPOINTS= 120
##XYDATA=(XY..XY) 1 
    24          0
    25          1
    26         26
    27        385
    28         60
    29        428
    30          9
    31          0
    32          1
    33          1
    34          3
    35          9
    36          0
    37          3
    38          8
    39        237
    40         30
    41        726
    42         78
    43        326
    44         11
    45        132
    46         19
    47         87
    48          5
    49          6
    50          6
    51         18
    52         10
    53         94
    54        189
    55        775
    56        129
    57         39
    58         21
    59         41
    60         62
    61        109
    62          7
    63          6
    64          0
    65         14
    66         15
    67        621
    68         41
    69         43
    70          5
    71         21
    72          5
    73         61
    74         10
    75         15
    76          3
    77         17
    78          5
    79         35
    80         13
    81        215
    82        999
    83        610
    84        105
    85        137
    86         12
    87         80
    88         10
    89         23
    90          1
    91          1
    93          0
    95         23
    96          3
    97          2
    98          2
    99          3
   100          0
   101          8
   102          1
   103          3
   104          0
   105          0
   109          1
   110          0
   111          1
   112          0
   113          2
   114         15
   115        176
   116        137
   117        451
   118         47
   119        102
   120          7
   121          4
   122          0
   123          0
   129         58
   130          7
   131         14
   132          1
   133          1
   143         10
   144          1
   145          1
   157         53
   158          6
   159          3
   160          0
   171          6
   172          0
   173          0
   185          0
   186          0
   187          0
   197          0
   198          0
   199          5
   200        385
   201         55
   202         21
   203          2