##TITLE=Library Entry 51038
##JCAMP-DX=Revision 4.10 
##DATA TYPE=MASS SPECTRUM
##SAMPLE DESCRIPTION=U.S. BUREAU OF MINES, BARTLESVILLE, OKLAHOMA, USA
##NAMES=HP
##CAS NAME=Cyclohexane, (pentylthio)-
##MOLFORM=C11H22S
##CAS REGISTRY NO=7133-42-8
##MP= -300
##BP= -300
##MW= 186
##$RETENTION INDEX=0
##$CONDENSED SPECTRUM=NO
##NPOINTS= 114
##XYDATA=(XY..XY) 1 
    24          0
    25          1
    26         32
    27        435
    28         61
    29        445
    30          9
    31          0
    32          2
    33          2
    34          4
    35         11
    36          0
    37          4
    38         11
    39        279
    40         35
    41        765
    42        116
    43        262
    44          9
    45        161
    46         41
    47        126
    48          6
    49          7
    50          7
    51         21
    52         12
    53        105
    54        220
    55        750
    56         42
    57         13
    58         27
    59         49
    60         60
    61        112
    62          7
    63          7
    64          1
    65         16
    66         17
    67        735
    68         51
    69        114
    70        122
    71        173
    72         13
    73         75
    74         14
    75         27
    76          4
    77         20
    78          6
    79         40
    80         13
    81        239
    82        999
    83        573
    84         37
    85         16
    86          4
    87         56
    88          4
    89          6
    90          0
    91          0
    93          0
    95         25
    96          3
    97          2
    98          0
    99          3
   100          1
   101         11
   102         84
   103        312
   104         38
   105        127
   106          8
   107          5
   108          0
   109          0
   110          0
   111          0
   112          0
   113          2
   114         14
   115        192
   116         71
   117         41
   118          6
   119          2
   127          0
   129         60
   130          7
   131          4
   132          0
   143         76
   144          7
   145          4
   146          0
   157          5
   158          0
   159          0
   171          0
   172          0
   184          0
   185          5
   186        435
   187         58
   188         23
   189          2