##TITLE=Library Entry 51251
##JCAMP-DX=Revision 4.10 
##DATA TYPE=MASS SPECTRUM
##SAMPLE DESCRIPTION=U.S. BUREAU OF MINES, BARTLESVILLE, OKLAHOMA, USA
##NAMES=HP
##CAS NAME=Cyclohexane, (propylthio)-
##MOLFORM=C9H18S
##CAS REGISTRY NO=7133-38-2
##MP= -300
##BP= -300
##MW= 158
##$RETENTION INDEX=0
##$CONDENSED SPECTRUM=NO
##NPOINTS= 104
##XYDATA=(XY..XY) 1 
    24          0
    25          1
    26         42
    27        509
    28         61
    29        225
    30          5
    32          4
    33          3
    34          5
    35          6
    36          0
    37          7
    38         19
    39        345
    40         37
    41        766
    42        107
    43        260
    44          9
    45        225
    46         52
    47        173
    48         10
    49         10
    50         12
    51         30
    52         16
    53        115
    54        305
    55        696
    56         34
    57          7
    58         38
    59         59
    60         55
    61         63
    62          5
    63          6
    64          1
    65         17
    66         19
    67        892
    68         51
    69         17
    70          2
    71         30
    72          6
    73        107
    74         24
    75         31
    76         33
    77        165
    78         14
    79         55
    80         14
    81        232
    82        999
    83        460
    84         30
    85         17
    86          4
    87         26
    88          2
    89         31
    90          6
    91          3
    92          0
    93          0
    95         21
    96          2
    97          1
    98          0
    99          2
   100          0
   101          2
   102          4
   103          3
   104          0
   105          0
   109          0
   111          0
   113          2
   114          8
   115        295
   116         58
   117         21
   118          3
   119          0
   124          0
   125          0
   129         45
   130          4
   131          2
   132          0
   135          0
   143          1
   144          0
   156          0
   157          2
   158        545
   159         59
   160         27
   161          2