##TITLE=Library Entry 51272
##JCAMP-DX=Revision 4.10 
##DATA TYPE=MASS SPECTRUM
##SAMPLE DESCRIPTION=U.S. BUREAU OF MINES, BARTLESVILLE, OKLAHOMA, USA
##NAMES=HP
##CAS NAME=Cyclohexane, (ethylthio)-
##MOLFORM=C8H16S
##CAS REGISTRY NO=7133-25-7
##MP= -300
##BP= -300
##MW= 144
##$RETENTION INDEX=0
##$CONDENSED SPECTRUM=NO
##NPOINTS= 99
##XYDATA=(XY..XY) 1 
    24          0
    25          4
    26         76
    27        551
    28         80
    29        373
    30          8
    32          6
    33          7
    34         10
    35         91
    36          1
    37          9
    38         16
    39        304
    40         32
    41        595
    42         35
    43         35
    44          2
    45        240
    46         40
    47        120
    48          7
    49          6
    50         17
    51         40
    52         19
    53        132
    54        357
    55        730
    56         14
    57         11
    58         54
    59        107
    60         75
    61        103
    62         45
    63        122
    64          6
    65         25
    66         21
    67        992
    68         56
    69         17
    70         19
    71         28
    72          6
    73         86
    74          8
    75         75
    76         13
    77         39
    78          9
    79         47
    80         13
    81        211
    82        999
    83        378
    84         24
    85         18
    86          3
    87         17
    88         14
    89          7
    90          1
    91          0
    92          0
    93          0
    94          0
    95          4
    96          0
    97          2
    98          0
    99          3
   100          0
   101        134
   102          9
   103          7
   104          0
   105          0
   109          0
   110          0
   111          1
   113          1
   114          5
   115        186
   116         17
   117          9
   118          0
   129          3
   130          0
   135          0
   142          0
   143          2
   144        592
   145         58
   146         26
   147          2