##TITLE=Library Entry 3411
##JCAMP-DX=Revision 4.10 
##DATA TYPE=MASS SPECTRUM
##SAMPLE DESCRIPTION=U.S. BUREAU OF MINES, BARTLESVILLE, OKLAHOMA, USA
##NAMES=HP
##CAS NAME=Sulfide, cyclopentyl pentyl
##MOLFORM=C10H20S
##CAS REGISTRY NO=7133-20-2
##MP= -300
##BP= -300
##MW= 172
##$RETENTION INDEX=0
##$CONDENSED SPECTRUM=NO
##NPOINTS= 110
##XYDATA=(XY..XY) 1 
    24          0
    25          1
    26         36
    27        421
    28         53
    29        350
    30          7
    31          0
    32          2
    33          2
    34          5
    35         12
    36          0
    37          6
    38         20
    39        363
    40         61
    41        999
    42        182
    43        305
    44         10
    45        193
    46         47
    47        183
    48          8
    49         10
    50          5
    51         14
    52          5
    53         66
    54         12
    55        137
    56         13
    57         15
    58         32
    59         81
    60         95
    61        118
    62         10
    63          9
    64          1
    65         31
    66         29
    67        446
    68        778
    69        855
    70        253
    71        311
    72         22
    73         65
    74         39
    75         33
    76          5
    77          3
    78          0
    79          2
    80          0
    81         90
    82          9
    83          3
    84          1
    85         15
    86          2
    87         55
    88          3
    89          7
    90          0
    91          0
    93          0
    95          1
    96          0
    97          4
    98          1
    99          7
   100         21
   101        526
   102        224
   103        386
   104         58
   105        208
   106         14
   107          9
   108          0
   109          0
   110          0
   111          0
   113          0
   114          0
   115        169
   116         16
   117         14
   118          1
   119          0
   127          0
   129         11
   130          1
   131          1
   141          0
   143         58
   144          7
   145          3
   146          0
   157          0
   158          0
   170          0
   171          5
   172        447
   173         56
   174         23
   175          2