##TITLE=Library Entry 3421
##JCAMP-DX=Revision 4.10 
##DATA TYPE=MASS SPECTRUM
##SAMPLE DESCRIPTION=U.S. BUREAU OF MINES, BARTLESVILLE, OKLAHOMA, USA
##NAMES=HP
##CAS NAME=Sulfide, cyclopentyl isobutyl
##MOLFORM=C9H18S
##CAS REGISTRY NO=7133-17-7
##MP= -300
##BP= -300
##MW= 158
##$RETENTION INDEX=0
##$CONDENSED SPECTRUM=NO
##NPOINTS= 104
##XYDATA=(XY..XY) 1 
    24          0
    25          1
    26         31
    27        354
    28         44
    29        302
    30          7
    31          0
    32          3
    33          3
    34          4
    35          5
    36          0
    37          9
    38         28
    39        435
    40         66
    41        999
    42         70
    43        149
    44          5
    45        219
    46         54
    47        219
    48         26
    49         19
    50          8
    51         16
    52          6
    53         68
    54         13
    55        134
    56        183
    57        448
    58         43
    59         80
    60         64
    61         45
    62          5
    63          6
    64          1
    65         33
    66         29
    67        605
    68        617
    69        839
    70         49
    71         34
    72          9
    73         65
    74         36
    75         55
    76          5
    77          4
    78          0
    79          3
    80          0
    81        231
    82         18
    83          2
    84          1
    85         14
    86          1
    87         34
    88         11
    89         42
    90         30
    91        141
    92          8
    93          6
    94          0
    95          3
    96          0
    97          3
    98          0
    99          6
   100         27
   101        342
   102        214
   103         61
   104         11
   105          2
   109          0
   111          0
   112          0
   113          0
   114          0
   115        459
   116         45
   117         22
   118          2
   119          0
   129         37
   130          4
   131          2
   143          5
   144          0
   145          0
   156          0
   157          3
   158        498
   159         55
   160         24
   161          2