##TITLE=Library Entry 33310
##JCAMP-DX=Revision 4.10 
##DATA TYPE=MASS SPECTRUM
##SAMPLE DESCRIPTION=U.S. BUREAU OF MINES, BARTLESVILLE, OKLAHOMA, USA
##NAMES=HP
##CAS NAME=Cyclopentane, (ethylthio)-
##MOLFORM=C7H14S
##CAS REGISTRY NO=7133-13-3
##MP= -300
##BP= -300
##MW= 130
##$RETENTION INDEX=0
##$CONDENSED SPECTRUM=NO
##NPOINTS= 90
##XYDATA=(XY..XY) 1 
    24          0
    25          5
    26         85
    27        443
    28         65
    29        231
    30          5
    31          0
    32          6
    33          8
    34         12
    35         98
    36          1
    37         15
    38         32
    39        354
    40         58
    41        626
    42         41
    43         19
    44          2
    45        248
    46         46
    47        118
    48          5
    49          6
    50          8
    51         17
    52          6
    53         69
    54          7
    55         40
    56          2
    57         13
    58         63
    59        144
    60         94
    61         96
    62         59
    63        277
    64         12
    65         49
    66         38
    67        493
    68        999
    69        409
    70         22
    71         35
    72         12
    73         97
    74         23
    75         59
    76          5
    77          3
    78          0
    79          1
    80          0
    81         14
    82          1
    83          0
    84          2
    85         11
    86          1
    87         15
    88         12
    89          5
    90          0
    91          0
    93          0
    95          0
    96          0
    97          5
    98          0
    99          7
   100          8
   101        573
   102         50
   103         28
   104          2
   105          0
   115         11
   116          0
   117          0
   127          0
   128          0
   129          2
   130        465
   131         39
   132         22
   133          1