##TITLE=Library Entry 51275
##JCAMP-DX=Revision 4.10 
##DATA TYPE=MASS SPECTRUM
##SAMPLE DESCRIPTION=U.S. BUREAU OF MINES, BARTLESVILLE, OKLAHOMA, USA
##NAMES=HP
##CAS NAME=Cyclohexane, (butylthio)-
##MOLFORM=C10H20S
##CAS REGISTRY NO=7133-40-6
##MP= -300
##BP= -300
##MW= 172
##$RETENTION INDEX=0
##$CONDENSED SPECTRUM=NO
##NPOINTS= 111
##XYDATA=(XY..XY) 1 
    24          0
    25          1
    26         38
    27        421
    28         74
    29        466
    30         10
    31          0
    32          2
    33          2
    34          4
    35         11
    36          0
    37          4
    38         11
    39        276
    40         30
    41        672
    42         43
    43         66
    44          2
    45        176
    46         42
    47        164
    48          7
    49          9
    50          9
    51         25
    52         13
    53        107
    54        239
    55        714
    56        156
    57        198
    58         34
    59         53
    60         53
    61        121
    62          7
    63          7
    64          1
    65         15
    66         17
    67        754
    68         44
    69         15
    70          1
    71         23
    72          5
    73         66
    74         10
    75         11
    76          3
    77         21
    78          6
    79         39
    80         13
    81        229
    82        999
    83        494
    84         31
    85         15
    86          4
    87         44
    88         20
    89         38
    90         22
    91        145
    92          8
    93          7
    94          0
    95         22
    96          2
    97          2
    98          0
    99          2
   100          0
   101          8
   102          1
   103         10
   104          3
   105          1
   109          0
   110          0
   111          0
   112          0
   113          1
   114         12
   115        189
   116         68
   117         27
   118          4
   119          1
   127          0
   128          0
   129        135
   130         12
   131          7
   132          0
   133          0
   143          8
   144          1
   145          0
   157          0
   170          0
   171          3
   172        496
   173         60
   174         25
   175          2
   176          0