##TITLE=Library Entry 60208
##JCAMP-DX=Revision 4.10 
##DATA TYPE=MASS SPECTRUM
##SAMPLE DESCRIPTION=V.G.Zaikin,TIPS,Russian Acad.Sci.Moscow
##NAMES=HP
##CAS NAME=Dimethyl(pentafluorophenyl)silyloxymethylbenzene
##MOLFORM=C15H13F5OSi
##CAS REGISTRY NO=71338-90-4
##MP= -300
##BP= -300
##MW= 332
##$RETENTION INDEX=1520
##$CONDENSED SPECTRUM=NO
##NPOINTS= 104
##XYDATA=(XY..XY) 1 
    26          6
    27         39
    28          2
    29         28
    31         24
    36          3
    38         15
    39        103
    40          6
    41         36
    42          6
    43         25
    45         25
    46          6
    47        113
    48          8
    49         52
    50         37
    51        108
    52         18
    53         11
    55          2
    56          2
    57         13
    58         11
    59         11
    61         11
    62         19
    63         75
    64         19
    65        229
    66          8
    69          4
    73          2
    74         18
    75         69
    76         15
    77        340
    78         47
    79         74
    80         15
    81         94
    82         18
    83          8
    85          7
    86          6
    87          6
    89         42
    90         29
    91        999
    92         99
    93         17
    94          5
    95          5
    98         11
    99         25
   101         17
   105         45
   106         11
   107         21
   109          2
   110          7
   111          8
   117         13
   119         10
   125         62
   129         18
   132         11
   135         11
   139         18
   141          4
   144          4
   145          4
   146         21
   148         11
   149         79
   150         11
   151          2
   155         17
   156          2
   157          2
   159         27
   161          4
   162          2
   163         46
   164        317
   165         52
   166         23
   167          8
   169         13
   183         25
   187         48
   188          8
   225         11
   226         19
   239          4
   257          8
   287         13
   317         59
   318         15
   319          5
   331         29
   332         27
   333          5