##TITLE=Library Entry 3246
##JCAMP-DX=Revision 4.10 
##DATA TYPE=MASS SPECTRUM
##SAMPLE DESCRIPTION=U.S. BUREAU OF MINES, BARTLESVILLE, OKLAHOMA, USA
##NAMES=HP
##CAS NAME=Sulfide, cyclopentyl isopropyl
##MOLFORM=C8H16S
##CAS REGISTRY NO=7133-15-5
##MP= -300
##BP= -300
##MW= 144
##$RETENTION INDEX=0
##$CONDENSED SPECTRUM=NO
##NPOINTS= 98
##XYDATA=(XY..XY) 1 
    24          0
    25          2
    26         45
    27        479
    28         41
    29         54
    30          1
    31          0
    32          5
    33          5
    34          7
    35         11
    36          1
    37         14
    38         41
    39        499
    40         77
    41        999
    42         80
    43        689
    44         23
    45        259
    46         24
    47        161
    48          5
    49         15
    50          7
    51         16
    52          5
    53         60
    54          7
    55         62
    56          5
    57          8
    58         66
    59        193
    60        157
    61        511
    62         15
    63         29
    64          2
    65         41
    66         45
    67        550
    68        774
    69        593
    70         34
    71         42
    72         14
    73        134
    74        107
    75         93
    76         74
    77        427
    78         20
    79         19
    80          0
    81          1
    82          0
    83          0
    84          1
    85         14
    86          1
    87         18
    88          1
    89         23
    90          1
    91          1
    92          0
    93          0
    95         14
    96          1
    97          5
    98          0
    99         10
   100         34
   101         67
   102         96
   103         36
   104          4
   105          0
   111          0
   112          0
   115         62
   116          8
   117          3
   118          0
   129        235
   130         19
   131         11
   132          0
   133          0
   142          0
   143          2
   144        608
   145         59
   146         29
   147          2