##TITLE=Library Entry 47811
##JCAMP-DX=Revision 4.10 
##DATA TYPE=MASS SPECTRUM
##SAMPLE DESCRIPTION=V.G. Zaikin, R.S.Borisov, TIPS RAS, Moscow, Russia
##NAMES=HP
##CAS NAME=2-Methyl-1-dimethyl(pentafluorophenyl)silyloxypropane
##MOLFORM=C12H15F5OSi
##CAS REGISTRY NO=71338-75-5
##MP= -300
##BP= -300
##MW= 298
##$RETENTION INDEX=1242
##$CONDENSED SPECTRUM=NO
##NPOINTS= 202
##XYDATA=(XY..XY) 1 
    26         11
    27         71
    28         15
    29         38
    30          4
    31          4
    38          5
    39         56
    40         12
    41        133
    42         17
    43         96
    44          6
    45         25
    46          5
    47         94
    48         10
    49         84
    50          5
    51         29
    53         13
    54          3
    55         72
    56         35
    57        159
    58         18
    59         17
    60          5
    61         17
    62         15
    63         35
    64          4
    65         21
    66          2
    67          4
    68          5
    69         16
    70          3
    71          9
    72          3
    73          9
    74         35
    75        497
    76         52
    77        999
    78         97
    79        404
    80         63
    81        254
    82         18
    83         30
    84          4
    85         25
    86         11
    87         19
    88         12
    89         27
    90          4
    91         43
    92         18
    93         61
    94         19
    95         85
    96          7
    97          3
    98         21
    99        108
   100         12
   101         74
   102          7
   103          5
   104         14
   105         43
   106         13
   107         68
   108          8
   109         23
   110         31
   111         41
   112         15
   113         44
   114         26
   115         22
   116          3
   117         28
   118          9
   119        113
   120         28
   121          9
   122         45
   123         39
   124         10
   125        718
   126         62
   127        120
   128         17
   129        115
   130        828
   131        133
   132         55
   133         43
   134         10
   135         27
   136          4
   137         33
   138         18
   139         47
   140         28
   141         94
   142         14
   143         52
   144         17
   145        143
   146         19
   147         13
   148         10
   149          6
   151          3
   152          1
   153          5
   154          2
   155         10
   156          9
   157         41
   158         30
   159        244
   160         25
   161         73
   162          8
   163         23
   164         11
   165         22
   166          2
   167          5
   168          3
   169          4
   170          3
   171          3
   173          6
   175         11
   176          6
   177          6
   179         17
   180          2
   181         10
   182          2
   183          9
   184          3
   185         27
   186          4
   187          3
   189          7
   190          2
   191         12
   192          2
   193          3
   195          4
   197          8
   199          8
   201          4
   203          8
   204          3
   205         17
   206          3
   207         86
   208         12
   209         20
   210          4
   211         13
   212          5
   213          2
   219          2
   220          3
   221         16
   222          4
   223         12
   225        643
   226        103
   227        111
   228         12
   229          3
   235          2
   236          3
   238          3
   239         47
   240         13
   241         27
   242          4
   251          2
   252          2
   253          8
   254          4
   255        880
   256        137
   257         36
   258          2
   281          3
   283        449
   284         63
   285         16
   297         12
   298          3