##TITLE=Library Entry 33269
##JCAMP-DX=Revision 4.10 
##DATA TYPE=MASS SPECTRUM
##SAMPLE DESCRIPTION=Exported from NIST MS Search
##NAMES=HP
##CAS NAME=Cyclopentane, (methylthio)-
##MOLFORM=C6H12S
##CAS REGISTRY NO=7133-36-0
##MP= -300
##BP= -300
##MW= 116
##$RETENTION INDEX=931
##$CONDENSED SPECTRUM=NO
##NPOINTS= 91
##XYDATA=(XY..XY) 1 
     1         11
     2          2
    12          2
    13          3
    14         11
    15         95
    16          2
    18          1
    24          1
    25          2
    26         40
    27        266
    28         59
    29         41
    30          1
    31          1
    32          6
    33          4
    34          4
    35         15
    36          1
    37         11
    38         41
    39        516
    40         94
    41        925
    42         61
    43         22
    44          4
    45        309
    46         83
    47        189
    48         48
    49         91
    50         13
    51         27
    52          9
    53        109
    54         11
    55         32
    56          2
    57          7
    58         47
    59         98
    60         11
    61        104
    62          9
    63         15
    64          2
    65         46
    66         25
    67        516
    68        999
    69        479
    70         25
    71         39
    72         18
    73        123
    74         71
    75         16
    76          4
    77          1
    79          1
    81          2
    82          1
    83          1
    84          2
    85         11
    86          2
    87        148
    88         33
    89          9
    90          2
    91          1
    93          1
    95          1
    96          1
    97          7
    98          1
    99          8
   100          2
   101        229
   102         15
   103         11
   104          1
   113          1
   115          2
   116        429
   117         32
   118         20
   119          1