##TITLE=Library Entry 14418
##JCAMP-DX=Revision 4.10 
##DATA TYPE=MASS SPECTRUM
##SAMPLE DESCRIPTION=Div. of Experiment Therapeutics WRAIR, WRAMC, Washingto
n DC 20307
##NAMES=HP
##CAS NAME=2-Acetyl-4'-methoxy-2'-nitrodiphenylamine
##MOLFORM=C15H14N2O4
##CAS REGISTRY NO=71353-21-4
##MP= -300
##BP= -300
##MW= 286
##$RETENTION INDEX=0
##$CONDENSED SPECTRUM=NO
##NPOINTS= 186
##XYDATA=(XY..XY) 1 
    41         41
    42         26
    43        999
    44         21
    45          6
    46          3
    47          2
    48          5
    49          9
    50         92
    51        207
    52        102
    53         51
    54         12
    55         14
    56          4
    57          3
    59          7
    61          6
    62         46
    63        200
    64         64
    65        122
    66         22
    67          8
    68          8
    69         17
    70          2
    71          5
    73          1
    74         28
    75         62
    76         98
    77        206
    78         51
    79         42
    80         25
    81          5
    82          6
    83          3
    84         16
    85          1
    86          6
    87         10
    88         12
    89         41
    90         28
    91         88
    92         32
    93         25
    94          5
    95         37
    96          4
    98         12
    99          8
   100         10
   101         34
   102         36
   103         15
   104         19
   105         30
   106         16
   107          5
   108          6
   109          3
   110          3
   111          3
   112          5
   113         12
   114         11
   115         28
   116         12
   117          8
   118          7
   119          9
   120        179
   121         18
   122          3
   123          1
   124          2
   125         10
   126         44
   127         80
   128         53
   129         15
   130         14
   131          0
   132          5
   133          2
   134          5
   135          2
   136          2
   137          4
   138          6
   139         31
   140         22
   141         11
   142          8
   143          6
   144          3
   145          2
   146          2
   149          1
   150          4
   151          9
   152         25
   153         71
   154        142
   155         32
   156         10
   157          2
   158          0
   159          0
   163          0
   164         10
   165          6
   166         30
   167         64
   168         30
   169         12
   170         14
   171          5
   172          3
   177          4
   178         36
   179         14
   180         27
   181         35
   182        105
   183         53
   184         20
   185          3
   186          2
   187          1
   190          0
   191          2
   192          3
   193          4
   194         10
   195         22
   196         49
   197         40
   198         52
   199         19
   200          3
   206         15
   208         33
   209         21
   210         82
   211         27
   212         26
   213         12
   214          3
   215          2
   221          3
   222          5
   223         55
   224        114
   225         71
   226         26
   227         42
   228          6
   229          1
   235          4
   236          4
   237          8
   238          2
   239         35
   240         65
   241         23
   242          3
   243          4
   244          0
   251         40
   252          8
   253          5
   254          3
   256          1
   269          3
   271          8
   272          0
   283          2
   284          4
   286        470
   287         80
   288         10