##TITLE=Library Entry 63504
##JCAMP-DX=Revision 4.10 
##DATA TYPE=MASS SPECTRUM
##SAMPLE DESCRIPTION=Institute of Organic Chemistry, USSR, 1990
##NAMES=HP
##CAS NAME=N-(1,1-Dimethylpropynyl)phenylacetamide
##MOLFORM=C13H15NO
##CAS REGISTRY NO=7136-86-9
##MP= -300
##BP= -300
##MW= 201
##$RETENTION INDEX=0
##$CONDENSED SPECTRUM=NO
##NPOINTS= 70
##XYDATA=(XY..XY) 1 
    40         17
    41        223
    42         46
    43         25
    44          8
    50         13
    51         55
    52         49
    53          8
    54          5
    55          9
    56          6
    57         10
    58         13
    62          5
    63         37
    64         16
    65        254
    66         28
    67        549
    68        203
    69         27
    71          3
    76          3
    77          7
    79          5
    81          6
    82          8
    83         22
    84          4
    85          8
    89         40
    90         45
    91        999
    92        519
    93         64
    94          7
    95          6
    97          5
   102          5
   105          5
   106          6
   109          3
   110         19
   111          5
   115         26
   116         47
   117         13
   118         13
   119          4
   123          5
   124          3
   127          9
   128         53
   129         26
   130          7
   134          5
   136          5
   141          3
   142          8
   143        111
   144         14
   145          1
   157         11
   158          3
   186         12
   200         42
   201        562
   202         85
   203          6