##TITLE=Library Entry 48823
##JCAMP-DX=Revision 4.10 
##DATA TYPE=MASS SPECTRUM
##SAMPLE DESCRIPTION=CARL DJERASSI DEPT OF CHEM STANFORD UNIV STANFORD CALIF
 94305
##NAMES=HP
##CAS NAME=1-Pentanone, 1-(2-pyridinyl)-
##MOLFORM=C10H13NO
##CAS REGISTRY NO=7137-97-5
##MP= -300
##BP= -300
##MW= 163
##$RETENTION INDEX=1297
##$CONDENSED SPECTRUM=NO
##NPOINTS= 56
##XYDATA=(XY..XY) 1 
    41        120
    42         20
    43         20
    44         20
    49         10
    50         50
    51        220
    52        170
    53         60
    54         20
    55         70
    56         20
    57        110
    58         20
    63         10
    64         10
    65         20
    66         10
    75         10
    76         30
    77         50
    78        750
    79        999
    80        180
    81         20
    83         10
    85         20
    92         10
    93        100
    94         20
   104         60
   105         10
   106        230
   107        120
   108         20
   109         20
   116         10
   117         20
   118         10
   120         60
   121        110
   122         20
   130         20
   132         10
   133         10
   134        560
   135        140
   136         20
   144         10
   146         20
   148         70
   149         20
   159         20
   162         40
   163        220
   164         40