##TITLE=Library Entry 23264
##JCAMP-DX=Revision 4.10 
##DATA TYPE=MASS SPECTRUM
##SAMPLE DESCRIPTION=Chemical Concepts
##NAMES=HP
##CAS NAME=1-Penten-3-one, 1-chloro-4,4-dimethyl-, (E)-
##MOLFORM=C7H11ClO
##CAS REGISTRY NO=71388-72-2
##MP= -300
##BP= -300
##MW= 146
##$RETENTION INDEX=0
##$CONDENSED SPECTRUM=NO
##NPOINTS= 101
##XYDATA=(XY..XY) 1 
    25          4
    26         53
    27        112
    28         19
    29        544
    30         10
    31          1
    35          0
    36          1
    37          5
    38         12
    39        155
    40         75
    41        753
    42         42
    43         18
    44          0
    45          2
    47          0
    48          0
    49          2
    50          7
    51         14
    52          3
    53         15
    54          4
    55         40
    56         72
    57        999
    58         87
    59          1
    60          5
    61         98
    62         10
    63         33
    64          2
    65          6
    66          1
    67         31
    68          2
    69         11
    70          6
    71         15
    72          0
    73          1
    74          0
    75          9
    76          0
    77         15
    78          1
    79          3
    80          0
    81          4
    82          0
    83        150
    84         10
    85         19
    86          4
    87          1
    89        224
    90          7
    91         76
    92          2
    93          1
    94          0
    95         12
    96          4
    97          7
    98          0
    99          4
   101          0
   103         20
   104          9
   105          8
   106          3
   107          0
   109          0
   110          1
   111         56
   112          4
   113          0
   115          0
   117          0
   118         41
   119          3
   120         13
   121          0
   123          0
   125          3
   127          2
   128          4
   129          0
   131          6
   132          0
   133          1
   138          0
   139          2
   146        135
   147         13
   148         42
   149          4