##TITLE=Library Entry 46558
##JCAMP-DX=Revision 4.10 
##DATA TYPE=MASS SPECTRUM
##SAMPLE DESCRIPTION=Div. of Experiment Therapeutics WRAIR, WRAMC, Washingto
n DC 20307
##NAMES=HP
##CAS NAME=2,4-Diamino-5-chloro-6-[phenylsulfonyl]quinazoline
##MOLFORM=C14H11ClN4O2S
##CAS REGISTRY NO=71395-27-2
##MP= -300
##BP= -300
##MW= 334
##$RETENTION INDEX=0
##$CONDENSED SPECTRUM=NO
##NPOINTS= 222
##XYDATA=(XY..XY) 1 
    41         30
    42         65
    43        520
    44         91
    45         30
    46          3
    47          3
    48         10
    49         19
    50        187
    51        821
    52         90
    53         63
    54         17
    55          9
    57          5
    58          6
    60          6
    61         26
    62         83
    63         60
    64         34
    65         87
    66         27
    67         10
    68         47
    69         58
    70         11
    71          9
    72          9
    73         36
    74         66
    75         48
    76         66
    77        999
    78         90
    79         11
    80          7
    81         14
    82          7
    83          4
    84          9
    85          8
    86         25
    87         48
    88        181
    89        133
    90         41
    91          8
    92          5
    93          7
    94          8
    95          6
    96         10
    97        155
    98         18
    99         31
   100         18
   101          8
   102         13
   103         77
   104         46
   105         29
   106          5
   107          3
   108         12
   109         37
   110          7
   111         11
   112         18
   113         14
   114         29
   115         69
   116         76
   117         18
   118          5
   120          7
   121          7
   122         10
   123          8
   124        285
   125        196
   126         94
   127         16
   128          5
   129          6
   130        171
   131         40
   132          9
   133          4
   134          6
   135         11
   136         13
   137         10
   138         13
   139        165
   140         32
   141         90
   142         18
   143          7
   144          4
   145          3
   146          1
   147          1
   148         12
   149         22
   150         28
   151         44
   152         38
   153         19
   154          8
   155          4
   156         30
   157         80
   158         97
   159         13
   160          1
   161          3
   162          6
   163          6
   164         25
   165         11
   166         86
   167        189
   168         36
   169         64
   170          4
   171         10
   172          1
   173          7
   174          1
   175          8
   176         13
   177         23
   178         15
   179         10
   180          1
   181         58
   182          3
   183         28
   184          3
   185          6
   186          1
   188          1
   189          5
   190          2
   191         12
   192         44
   193        132
   194         62
   195         49
   196         22
   197          4
   198          1
   199         20
   200          2
   201         10
   202          1
   203          1
   205         10
   206          7
   207          6
   208          6
   209        455
   210         50
   211        210
   212         15
   213         11
   214          1
   215          4
   216          1
   217          9
   218          8
   219          1
   221          1
   223          2
   224         20
   225         16
   226          7
   227          7
   228         26
   229         11
   230         12
   231          2
   233          4
   234         18
   235         11
   236          1
   241        103
   242         12
   243         31
   244          1
   245          1
   250          6
   251          4
   253         14
   254          2
   255          6
   266          1
   268          1
   269          7
   270         75
   271         10
   272         21
   273          1
   297          1
   298          1
   300          2
   302          4
   304          1
   306          1
   318         30
   319          7
   320         13
   321          2
   332          1
   333          7
   334        334
   335         73
   336        118
   337         33
   338         10