##TITLE=Library Entry 85523
##JCAMP-DX=Revision 4.10 
##DATA TYPE=MASS SPECTRUM
##SAMPLE DESCRIPTION=Chemical Concepts
##NAMES=HP
##CAS NAME=Phosphine, [1,4-phenylenebis(methylene)]bis[diphenyl-
##MOLFORM=C32H28P2
##CAS REGISTRY NO=71403-19-5
##MP= -300
##BP= -300
##MW= 474
##$RETENTION INDEX=0
##$CONDENSED SPECTRUM=NO
##NPOINTS= 101
##XYDATA=(XY..XY) 1 
    26         24
    27         55
    29         38
    31         52
    34         46
    35         35
    36         42
    37         17
    38          2
    39        234
    40         42
    41         10
    44          7
    45         22
    47         45
    48         36
    49         33
    50        169
    51        273
    52        142
    53         39
    54          9
    55         21
    56          9
    57         73
    59         44
    62         72
    63        108
    64         33
    65        108
    67         19
    68         34
    69         56
    73         36
    74         34
    75         23
    76         85
    77        301
    78        753
    79        149
    80         88
    81         91
    82         67
    83         52
    87         45
    89         55
    91        272
    92        126
    93         66
    95          7
   103         77
   104         79
   105         93
   106         43
   107        485
   108        999
   109        117
   110         63
   115         83
   116         28
   117         47
   121         51
   123         53
   128          7
   129         38
   133         75
   141         41
   152        111
   153         49
   157         59
   165        130
   166         34
   167         73
   169         29
   178         74
   179        261
   180        105
   181         54
   182         38
   183        590
   184         92
   185        339
   186        394
   187         62
   197         42
   201         50
   209         29
   211        121
   287         48
   288        164
   289        319
   290        158
   291         42
   350         22
   397        140
   398         50
   459         29
   473        102
   474        932
   475        328
   476         54