##TITLE=Library Entry 72390
##JCAMP-DX=Revision 4.10 
##DATA TYPE=MASS SPECTRUM
##SAMPLE DESCRIPTION=B. R. ANDERSON
##NAMES=HP
##CAS NAME=1,4-Dioxaspiro[4.6]undec-7-ene
##MOLFORM=C9H14O2
##CAS REGISTRY NO=7140-60-5
##MP= -300
##BP= -300
##MW= 154
##$RETENTION INDEX=0
##$CONDENSED SPECTRUM=NO
##NPOINTS= 91
##XYDATA=(XY..XY) 1 
    15         51
    16          2
    17          2
    18          7
    19          4
    26         18
    27        151
    28        127
    29         59
    30          5
    31          8
    37          1
    38          9
    39        158
    40         30
    41        129
    42         84
    43         49
    44          4
    45         25
    46          0
    50          7
    51         42
    52         27
    53         96
    54        120
    55        159
    56         77
    57          7
    58          2
    59          0
    61          1
    62          4
    63         12
    64          3
    65         30
    66         22
    67         77
    68         23
    69         10
    70          4
    71          9
    72          1
    73         13
    74          1
    75          1
    76          1
    77         42
    78         12
    79         51
    80         11
    81         59
    82         33
    83          8
    84          3
    85          5
    86         88
    87         11
    88          1
    89          2
    90          1
    91         27
    92          9
    93         13
    94          3
    95         26
    96          8
    97          5
    98         12
    99        999
   100        169
   101         12
   102          1
   107          1
   108          1
   109         23
   110         11
   111          4
   112         31
   113         14
   114          1
   123          3
   124          3
   125        125
   126         43
   127          4
   139          4
   148          1
   153          6
   154         27
   155          3