##TITLE=Library Entry 42861
##JCAMP-DX=Revision 4.10 
##DATA TYPE=MASS SPECTRUM
##SAMPLE DESCRIPTION=O A MAMER, MCGILL UNIVERSITY, MONTRE
##NAMES=HP
##CAS NAME=N-Valerylglycine, trimethylsilyl ester
##MOLFORM=C10H21NO3Si
##CAS REGISTRY NO=71428-91-6
##MP= -300
##BP= -300
##MW= 231
##$RETENTION INDEX=1501
##$CONDENSED SPECTRUM=NO
##NPOINTS= 88
##XYDATA=(XY..XY) 1 
    15         28
    26         14
    27         90
    28        103
    29        245
    30        429
    31         14
    39         45
    40          8
    41        192
    42         42
    43         81
    44         79
    45        166
    46         12
    47         73
    53         11
    54         16
    55        100
    56         62
    57        433
    58         58
    59         39
    60         14
    61         56
    68         34
    69         11
    70          8
    71         30
    72         49
    73        999
    74        102
    75        340
    76         27
    77         20
    82         11
    83         17
    84         17
    85        309
    86         34
    87         37
    88         26
    89          9
    94         12
    95         20
    98         10
    99        105
   100         20
   101         19
   102         46
   103         17
   104         62
   105          8
   112         16
   114         29
   115          7
   116         38
   117         24
   129         10
   130         86
   131         44
   132         73
   133         10
   141         11
   142         16
   143          9
   145        157
   146         30
   147         30
   148         19
   156          7
   158        511
   159         85
   160         25
   170          7
   172        111
   173         20
   174          8
   179          3
   186         14
   187         16
   189        169
   190         23
   191          9
   202          8
   216        229
   217         37
   218         13