##TITLE=Library Entry 68116
##JCAMP-DX=Revision 4.10 
##DATA TYPE=MASS SPECTRUM
##SAMPLE DESCRIPTION=NIST Mass Spectrometry Data Center
##NAMES=HP
##CAS NAME=Furoylglycine, TMS derivative
##MOLFORM=C10H15NO4Si
##CAS REGISTRY NO=71428-92-7
##MP= -300
##BP= -300
##MW= 241
##$RETENTION INDEX=1662
##$CONDENSED SPECTRUM=NO
##NPOINTS= 149
##XYDATA=(XY..XY) 1 
    15          3
    26          2
    27          4
    28         16
    29         14
    30          5
    31          3
    37          8
    38         31
    39        160
    40          9
    41         10
    42         12
    43         44
    44         23
    45        131
    46         10
    47         53
    48          3
    49          2
    50          2
    51         11
    52          5
    53         16
    54          4
    55         12
    56         13
    57          9
    58         39
    59         39
    60         12
    61         46
    62          4
    63          3
    64          1
    65          4
    66         16
    67         39
    68         10
    69          7
    70          7
    71          5
    72         34
    73        713
    74         73
    75        246
    76         19
    77         19
    78          3
    79          8
    80          6
    81         20
    82          7
    83         47
    85          6
    86         14
    87         10
    88         17
    89          4
    91         15
    92          6
    93          5
    94         64
    95        999
    96         75
    97         25
    98          7
    99          7
   100          8
   101          7
   102         18
   103          3
   104          2
   105          3
   106          5
   107          9
   108         11
   109          7
   110          6
   111         11
   112         25
   113          7
   114          3
   115          2
   116          9
   117          5
   118          1
   120          1
   121          2
   122          3
   123         10
   124         77
   125         67
   126         11
   127         24
   128          7
   129          6
   130         10
   131          2
   132          1
   135          2
   136          1
   137          2
   138          5
   139          8
   140          7
   141         40
   142         80
   143        164
   144         23
   145          7
   146          1
   149          1
   150          1
   151          8
   152         15
   153         18
   154         25
   155          5
   156          7
   157          2
   158          2
   164          1
   165          1
   166          5
   167         30
   168        154
   169        252
   170         41
   171         12
   172          1
   178          2
   180         67
   181         12
   182         48
   183          8
   184          2
   196         96
   197         96
   198         26
   199          6
   200          1
   226        279
   227         45
   228         15
   229          2
   241         20
   242          3
   243          1