##TITLE=Library Entry 60545
##JCAMP-DX=Revision 4.10 
##DATA TYPE=MASS SPECTRUM
##SAMPLE DESCRIPTION=NIST Mass Spectrometry Data Center, 1994
##NAMES=HP
##CAS NAME=1-Chloro-6-phenylhexane
##MOLFORM=C12H17Cl
##CAS REGISTRY NO=71434-68-9
##MP= -300
##BP= -300
##MW= 196
##$RETENTION INDEX=0
##$CONDENSED SPECTRUM=NO
##NPOINTS= 83
##XYDATA=(XY..XY) 1 
    15          7
    26          9
    27        129
    28         22
    29         49
    30          0
    35          1
    36          2
    37          2
    38         10
    39        134
    40         15
    41        154
    42         13
    43         15
    44          0
    49         25
    50         22
    51         74
    52         19
    53         19
    54          5
    55         30
    56          3
    57          1
    61          2
    62          9
    63         46
    64         11
    65        158
    66         10
    67          7
    68          1
    69         46
    70          3
    73          0
    74          2
    75          7
    76          7
    77         67
    78         61
    79         35
    80          2
    81          1
    82          2
    83          1
    86          1
    87          1
    89         25
    91        999
    92        614
    93         46
    94          1
   101          1
   102          6
   103         29
   104         49
   105         73
   106         10
   107          2
   115         19
   116          5
   117         21
   118          6
   119         12
   120          2
   125          2
   127          2
   128          4
   129          2
   130          0
   131          3
   133         15
   134          5
   147          2
   153          2
   155          0
   160          0
   161          1
   196         85
   197         12
   198         31
   199          3