##TITLE=Library Entry 23556
##JCAMP-DX=Revision 4.10 
##DATA TYPE=MASS SPECTRUM
##SAMPLE DESCRIPTION=Chemical Concepts
##NAMES=HP
##CAS NAME=Dodecanoic acid tert-butyl ester
##MOLFORM=C16H32O2
##CAS REGISTRY NO=7143-18-2
##MP= -300
##BP= -300
##MW= 256
##$RETENTION INDEX=0
##$CONDENSED SPECTRUM=NO
##NPOINTS= 139
##XYDATA=(XY..XY) 1 
    25          0
    26          4
    27         71
    28         28
    29        200
    30          4
    31          6
    33          0
    37          1
    38          3
    39         62
    40         16
    41        381
    42         69
    43        222
    44          8
    45          5
    46          0
    47          0
    48          0
    49          0
    50          3
    51          2
    52          0
    53         11
    54         11
    55        127
    56        331
    57        999
    58         62
    59         21
    60         66
    61         15
    62          0
    63          0
    64          0
    65          0
    66          1
    67         13
    68          8
    69         41
    70         19
    71         65
    72          4
    73         43
    74          3
    77          1
    78          0
    79          3
    80          1
    81         11
    82          6
    83         35
    84         19
    85         47
    86          3
    87         14
    88          2
    89          3
    90          0
    92          0
    93          2
    94          1
    95         16
    96          7
    97         25
    98         20
    99          9
   100          1
   101         11
   102          1
   103          3
   104          0
   107          1
   108          0
   109         10
   110          3
   111         10
   112          4
   113          1
   114          1
   115         10
   116          2
   117          0
   121          1
   122          0
   123          3
   124          0
   125          2
   126          0
   127          0
   128          0
   129         19
   130          1
   131          0
   133          0
   135          0
   136          1
   137          1
   138          3
   139          2
   140          7
   141          1
   143          5
   144          0
   145          0
   146          0
   147          0
   149          0
   151          0
   152          0
   153          0
   154          0
   155          0
   157         12
   158          1
   159          0
   160          0
   161          0
   162          1
   163          2
   164          0
   165          0
   167          0
   169          0
   171          4
   172          0
   180          2
   181          2
   183         71
   184          9
   185          1
   198          1
   200         70
   201        170
   202         22
   203          2
   241          2
   242          0