##TITLE=Library Entry 60465
##JCAMP-DX=Revision 4.10 
##DATA TYPE=MASS SPECTRUM
##SAMPLE DESCRIPTION=NIST Mass Spectrometry Data Center, 1994
##NAMES=HP
##CAS NAME=7-Phenyl-1-heptyl chloride
##MOLFORM=C13H19Cl
##CAS REGISTRY NO=71434-47-4
##MP= -300
##BP= -300
##MW= 210
##$RETENTION INDEX=0
##$CONDENSED SPECTRUM=NO
##NPOINTS= 90
##XYDATA=(XY..XY) 1 
    14          0
    15          7
    16          0
    26          9
    27        141
    28         27
    29         83
    30          1
    35          1
    36          2
    37          1
    38          8
    39        134
    40         16
    41        187
    42         20
    43         34
    44          0
    49         22
    50         18
    51         63
    52         15
    53         26
    54          8
    55        106
    56          9
    57          8
    61          2
    62          8
    63         39
    64         11
    65        156
    66         10
    67         11
    68          3
    69          5
    70          1
    73          1
    74          0
    75          7
    76          6
    77         69
    78         68
    79         40
    80          4
    81          2
    82          1
    83         20
    84          1
    87          1
    89         24
    91        999
    92        754
    93         59
    94          3
    95          0
   101          1
   102          6
   103         27
   104         48
   105         73
   106         12
   107          1
   115         19
   116          5
   117         18
   118          5
   119         17
   120          3
   125          2
   126          0
   127          2
   128          3
   129          1
   130          0
   131          3
   133         28
   134          7
   145          1
   147          3
   148          0
   156          0
   167          2
   168          0
   169          1
   175          0
   210         79
   211         11
   212         27
   213          3