##TITLE=Library Entry 60725
##JCAMP-DX=Revision 4.10 
##DATA TYPE=MASS SPECTRUM
##SAMPLE DESCRIPTION=Insect Chem. Ecol. Lab., USDA, Beltsville, MD 20705
##NAMES=HP
##CAS NAME=Linalyl phenylacetate
##MOLFORM=C18H24O2
##CAS REGISTRY NO=7143-69-3
##MP= -300
##BP= -300
##MW= 272
##$RETENTION INDEX=0
##$CONDENSED SPECTRUM=NO
##NPOINTS= 158
##XYDATA=(XY..XY) 1 
    41        542
    43        392
    44         10
    45         19
    47          1
    49          9
    50         11
    51         40
    52         12
    53        113
    55        199
    56         13
    57         27
    58         10
    59         46
    60          1
    61          1
    62          6
    63         30
    65        165
    66          0
    67        180
    68        154
    69        695
    70          9
    71        147
    72         10
    73          5
    74          1
    75          3
    77         64
    78         13
    79         98
    80        745
    81        337
    82         91
    83         65
    84         17
    85         25
    86          5
    87          3
    89         35
    91        999
    92        384
    93        971
    94        180
    95        104
    96         14
    97         19
    98          8
    99         10
   100          2
   101          1
   103          4
   104          2
   105         47
   106         16
   107        119
   108         30
   109         65
   110         20
   111         24
   112          5
   113          3
   114          1
   115          3
   116          0
   117          4
   118         45
   119         64
   121        271
   122         26
   123         19
   124          1
   125         12
   126          2
   127          6
   128          1
   129          3
   130          0
   131          3
   132          3
   133          4
   134         21
   135         52
   136        442
   137        114
   138         30
   139         11
   140          1
   141          3
   142          1
   143          3
   144          0
   145          1
   146          1
   147          8
   148          2
   149          3
   150          7
   151          9
   152         25
   153         31
   154         23
   155          4
   157          1
   159          1
   161          1
   163          2
   165          0
   166          0
   167          1
   168          3
   169          1
   170          1
   171          1
   172          0
   173          1
   175          0
   177          2
   178          0
   179          1
   181          6
   183          1
   184          0
   185          0
   187          0
   188          0
   189          4
   190          1
   191          1
   195          2
   201          0
   202          1
   203          2
   204          2
   205          1
   207          0
   211          0
   216          0
   217          0
   225         14
   226          3
   227          0
   228          1
   229          1
   230          1
   231          3
   245          0
   255          1
   257          0
   259          0
   262          0
   270          0
   271          6
   272         37
   273          9
   274          1