##TITLE=Library Entry 42773
##JCAMP-DX=Revision 4.10 
##DATA TYPE=MASS SPECTRUM
##SAMPLE DESCRIPTION=Institute of Organic Chemistry, Novosibirsk, USSR 1988
##NAMES=HP
##CAS NAME=Bis(heptamethylcyclotetrasiloxy)hexamethyltrisiloxane
##MOLFORM=C20H60O12Si11
##CAS REGISTRY NO=71449-67-7
##MP= -300
##BP= -300
##MW= 800
##$RETENTION INDEX=0
##$CONDENSED SPECTRUM=NO
##NPOINTS= 63
##XYDATA=(XY..XY) 1 
    73        999
    74         83
    75         23
    83          8
    87         30
    89          9
    91         10
   117         27
   131         40
   132         11
   147        428
   148        148
   149         64
   150         38
   205          9
   207         54
   208         17
   221        134
   222         30
   223         36
   224          6
   265         39
   266         10
   267          7
   282         32
   283         11
   284          5
   327         22
   328          9
   341        116
   342         36
   343         27
   355        264
   356        104
   357         70
   401        172
   402         71
   403         52
   404         14
   414         34
   415         10
   428        164
   429         64
   430         52
   458         39
   459         19
   460         20
   475         88
   476         43
   477         33
   478         12
   489         41
   490         19
   563        108
   564         60
   565         47
   566         20
   593         12
   595          7
   623          5
   697          0
   785         28
   786         19