##TITLE=Library Entry 21225
##JCAMP-DX=Revision 4.10 
##DATA TYPE=MASS SPECTRUM
##SAMPLE DESCRIPTION=Chuck Anderson, Aldrich Chemical Co.
##NAMES=HP
##CAS NAME=Ethyl 1-methylcyclopropanecarboxylate
##MOLFORM=C7H12O2
##CAS REGISTRY NO=71441-76-4
##MP= -300
##BP= -300
##MW= 128
##$RETENTION INDEX=0
##$CONDENSED SPECTRUM=NO
##NPOINTS= 68
##XYDATA=(XY..XY) 1 
    13          0
    14          3
    15         21
    16          0
    18          0
    19          1
    25          1
    26         37
    27        318
    28         71
    29        897
    30         24
    31         22
    32          0
    36          0
    37          5
    38         18
    39        269
    40         33
    41        131
    42         48
    43         83
    44          8
    45         40
    46          1
    47          0
    49          1
    50         14
    51         24
    52         10
    53        112
    54        109
    55        999
    56        131
    57         23
    58          9
    59          8
    60          2
    65          0
    66          0
    67          2
    68          0
    69         72
    70          3
    71         11
    72         12
    73         10
    74          3
    81         10
    82         90
    83        614
    84         34
    85        139
    86          6
    87          3
    95          1
    97          0
    98          0
    99        145
   100        992
   101         60
   102          5
   113         15
   114          0
   127         10
   128         71
   129          8
   130          0