##TITLE=Library Entry 14872
##JCAMP-DX=Revision 4.10 
##DATA TYPE=MASS SPECTRUM
##SAMPLE DESCRIPTION=LAC, NIDDK, NIH, Bethesda, MD 20892
##NAMES=HP
##CAS NAME=Cholest-5-en-3-ol (3.beta.)-, carbonochloridate
##MOLFORM=C28H45ClO2
##CAS REGISTRY NO=7144-08-3
##MP= -300
##BP= -300
##MW= 448
##$RETENTION INDEX=0
##$CONDENSED SPECTRUM=NO
##NPOINTS= 234
##XYDATA=(XY..XY) 1 
    41        402
    42         92
    43        999
    44         49
    45          2
    47         23
    48         10
    49         73
    50          5
    51         27
    52          2
    53         45
    54         13
    55        341
    56         54
    57        321
    58         10
    63         64
    65         45
    66         11
    67        150
    68         21
    69        103
    70         17
    71        102
    72          6
    75          1
    77         66
    78         15
    79        123
    80         20
    81        174
    82         21
    83         53
    84         43
    85         22
    86         27
    88          4
    89          1
    91        166
    92         37
    93        141
    94         39
    95        138
    96         13
    97         27
    98          2
    99          2
   103         14
   104         14
   105        189
   106         42
   107        117
   108         30
   109         43
   110          5
   111         12
   112          1
   113          3
   115         26
   116         12
   117         67
   118         22
   119         63
   120         52
   121         53
   122         15
   123         26
   124          4
   125          5
   127          8
   128         16
   129         32
   130         15
   131         63
   132         18
   133         83
   134         22
   135         50
   136         10
   137          9
   138          1
   139          1
   141          9
   142         11
   143         70
   144         26
   145        147
   146         45
   147        114
   148         22
   149         21
   150          3
   151          5
   152          1
   153          5
   154          2
   155          9
   156          7
   157         38
   158         33
   159         52
   160         26
   161         32
   162          9
   163         22
   164          3
   165          7
   166          1
   167          3
   168          1
   169          6
   170          2
   171         17
   172          7
   173         21
   174          9
   175         11
   176          3
   177          6
   178          2
   179          4
   181          3
   182          1
   183          5
   184          3
   185         19
   186          7
   187         11
   188          2
   189          4
   191          4
   192          1
   193          6
   194          2
   195          2
   196          3
   197          9
   198          3
   199         20
   200          6
   201          7
   202          2
   203          2
   204          1
   205         10
   206         10
   207          4
   211          2
   212          4
   213         57
   214         19
   215         11
   216          3
   217          2
   218          1
   219          3
   223          1
   225          3
   226          2
   227          8
   228         19
   229          8
   230          1
   231          1
   233          1
   235          1
   237          1
   239          3
   240          2
   241          4
   242          1
   243          1
   245          6
   246          7
   247         50
   248         10
   249          5
   250          1
   251          1
   253          2
   254          4
   255         38
   256         10
   257          2
   258          2
   259          5
   260         33
   261          9
   262          2
   267          1
   269          1
   273          2
   274          6
   275         12
   276          3
   283          5
   284          2
   287          1
   291          3
   293          5
   294          1
   295          2
   296          1
   297          1
   301          3
   311          1
   314          1
   325          1
   326          9
   327          3
   335          2
   339          1
   352          2
   353         61
   354         19
   355          3
   366          3
   367         18
   368        665
   369        238
   370         36
   371          4
   382          1
   386          5
   387          1
   389          3
   402          2
   404         10
   405          3
   406          4
   433          1
   448          3
   450          1