##TITLE=Library Entry 21949
##JCAMP-DX=Revision 4.10 
##DATA TYPE=MASS SPECTRUM
##SAMPLE DESCRIPTION=Japan AIST/NIMC Database- Spectrum MS-NW-1036
##NAMES=HP
##CAS NAME=4-Piperidinemethanamine
##MOLFORM=C6H14N2
##CAS REGISTRY NO=7144-05-0
##MP= -300
##BP= -300
##MW= 114
##$RETENTION INDEX=0
##$CONDENSED SPECTRUM=NO
##NPOINTS= 71
##XYDATA=(XY..XY) 1 
    14          2
    15         22
    16          2
    26         11
    27         93
    28        214
    29        139
    30        842
    31         22
    32          2
    37          3
    38          7
    39         78
    40         14
    41        152
    42        242
    43        209
    44         99
    45          7
    49          1
    50          7
    51         12
    52         13
    53         44
    54         71
    55        378
    56        999
    57        415
    58        138
    59          9
    63          1
    64          1
    65          9
    66          9
    67         76
    68        116
    69        313
    70        105
    71         30
    72          8
    73          3
    74          1
    75          1
    77          6
    78          2
    79         14
    80         34
    81         28
    82        173
    83         24
    84        387
    85        288
    86        124
    87          7
    93          3
    94         13
    95          5
    96        176
    97        143
    98         20
    99          2
   106          2
   107          1
   108          1
   109          1
   110          1
   111          1
   112          2
   113          9
   114        282
   115         21