##TITLE=Library Entry 20794
##JCAMP-DX=Revision 4.10 
##DATA TYPE=MASS SPECTRUM
##SAMPLE DESCRIPTION=NIST Mass Spectrometry Data Center, 1990.
##NAMES=HP
##CAS NAME=3-Hexene, 2,3-dimethyl-
##MOLFORM=C8H16
##CAS REGISTRY NO=7145-23-5
##MP= -300
##BP= -300
##MW= 112
##$RETENTION INDEX=755
##$CONDENSED SPECTRUM=NO
##NPOINTS= 54
##XYDATA=(XY..XY) 1 
    15         17
    26         10
    27        120
    28         55
    29         74
    30          2
    37          4
    39        270
    40         54
    41        530
    42         73
    43        110
    44         11
    45          4
    46          2
    49          1
    50         22
    51         53
    52         22
    53        132
    54          1
    55        999
    56         67
    57         33
    58          1
    59          3
    61          1
    62          6
    63         15
    64          3
    65         37
    66         15
    67        105
    68         62
    69        561
    70        262
    71         13
    74          4
    77         33
    78          7
    79         41
    80          7
    81         37
    82          4
    83        564
    84         42
    85          1
    91          6
    93          3
    95          9
    97        117
    98          8
   112        236
   113         20