##TITLE=Library Entry 52217
##JCAMP-DX=Revision 4.10 
##DATA TYPE=MASS SPECTRUM
##SAMPLE DESCRIPTION=Exported from NIST MS Search
##NAMES=HP
##CAS NAME=2-Hexene, 2,3-dimethyl-
##MOLFORM=C8H16
##CAS REGISTRY NO=7145-20-2
##MP= -300
##BP= -300
##MW= 112
##$RETENTION INDEX=789
##$CONDENSED SPECTRUM=NO
##NPOINTS= 75
##XYDATA=(XY..XY) 1 
    12          2
    13          2
    14          9
    15         87
    16          3
    25          1
    26         30
    27        324
    28         55
    29        174
    30          4
    31          1
    32          1
    36          1
    37          8
    38         26
    39        360
    40         61
    41        685
    42         68
    43        162
    44          6
    45          1
    46          1
    49          1
    50         20
    51         48
    52         21
    53        113
    54         27
    55        916
    56         70
    57         21
    58          1
    61          2
    62          6
    63         13
    64          2
    65         26
    66         10
    67         88
    68         33
    69        266
    70        137
    71          8
    72          1
    73          1
    74          2
    75          1
    76          1
    77         17
    78          4
    79         16
    80          3
    81         24
    82         20
    83        999
    84         78
    85          3
    86          1
    89          1
    91          5
    92          1
    93          2
    94          1
    95         13
    96          6
    97         71
    98          6
   109          1
   110          1
   111          1
   112        291
   113         26
   114          1