##TITLE=Library Entry 20313
##JCAMP-DX=Revision 4.10 
##DATA TYPE=MASS SPECTRUM
##SAMPLE DESCRIPTION=F.O. GULACAR, DEP. CHEM., STANFORD UNIV., CALIF., US
##NAMES=HP
##CAS NAME=Pregn-5-en-3-ol, 20-[2-(1-methylethyl)cyclopropyl]-, TMS derivati
ve
##MOLFORM=C30H52OSi
##CAS REGISTRY NO=71472-76-9
##MP= -300
##BP= -300
##MW= 456
##$RETENTION INDEX=0
##$CONDENSED SPECTRUM=NO
##NPOINTS= 119
##XYDATA=(XY..XY) 1 
    55        999
    56        158
    57        343
    67        232
    68         61
    69        938
    70        125
    71        142
    73        595
    74         40
    75        340
    77         73
    78         43
    79        210
    81        500
    82         71
    83        189
    84         34
    85        101
    91        165
    93        217
    94         53
    95        325
    96         71
    97        150
    99         33
   103         43
   105        202
   106         48
   107        234
   108         50
   109        205
   110         46
   111        796
   112         66
   113         41
   117         56
   118         41
   119        260
   120        137
   121        192
   122         48
   123        120
   125         58
   129        688
   130         98
   131        162
   132         55
   133        152
   134         65
   135         97
   137         45
   143        117
   145        220
   146         41
   147        202
   148         53
   149         71
   155         45
   157         95
   158         76
   159        175
   160         82
   161        152
   163         51
   169         55
   171         48
   173         71
   175         46
   177         58
   182         35
   185         53
   187         51
   189         56
   197         34
   199         51
   201         43
   211         58
   213         87
   214         43
   215         58
   217         48
   227         30
   228         66
   239         40
   243         58
   245         43
   253        105
   254         48
   255        147
   256         63
   257         98
   258         31
   259         71
   271         73
   281        115
   282         46
   283         46
   296        259
   297         98
   298         78
   326         98
   327        222
   328         33
   343         71
   344         34
   351        127
   366        566
   367        157
   368         43
   371         46
   386        374
   387        127
   388         46
   441         76
   442         34
   456        595
   457        239
   458         92