##TITLE=Library Entry 26277
##JCAMP-DX=Revision 4.10 
##DATA TYPE=MASS SPECTRUM
##SAMPLE DESCRIPTION=A.Pleshkova, Nesmeyanov Inst.Org.Elem.Cpds, Moscow
##NAMES=HP
##CAS NAME=Phenyl-tert-butyl-(morpholine-4-yl)methyl-phosphine
##MOLFORM=C15H24NOP
##CAS REGISTRY NO=71478-36-9
##MP= -300
##BP= -300
##MW= 265
##$RETENTION INDEX=0
##$CONDENSED SPECTRUM=NO
##NPOINTS= 28
##XYDATA=(XY..XY) 1 
    41        497
    42        124
    43         89
    56        242
    57        999
    58        130
    59         12
    65         65
    84        106
    85          9
    86         71
    87        171
    88         12
    99         30
   100        715
   101         71
   102          3
   107         71
   108        231
   109        207
   110        644
   111         41
   124         35
   126         53
   127          3
   166        420
   167         65
   168          5