##TITLE=Library Entry 71599
##JCAMP-DX=Revision 4.10 
##DATA TYPE=MASS SPECTRUM
##SAMPLE DESCRIPTION=LAC, NIDDK, NIH, Bethesda, MD 20892
##NAMES=HP
##CAS NAME=Tetrahydrosolasodine
##MOLFORM=C27H47NO2
##CAS REGISTRY NO=71473-03-5
##MP= -300
##BP= -300
##MW= 417
##$RETENTION INDEX=0
##$CONDENSED SPECTRUM=NO
##NPOINTS= 77
##XYDATA=(XY..XY) 1 
    41         27
    42          7
    43         22
    44         26
    45          2
    49          2
    51          0
    53          4
    54          2
    55         36
    56         27
    57         11
    58          3
    59          0
    65          1
    67         18
    68          7
    69         16
    70         20
    71         10
    77          4
    79         15
    80          3
    81         22
    82         12
    83          6
    84          5
    86          0
    91          9
    92          1
    93         13
    94          4
    95         12
    96          8
    97         10
    98        999
    99         68
   100          2
   105          8
   106          2
   107         10
   108          3
   109          6
   110          2
   111          3
   112          1
   113          1
   114          3
   117          2
   119          4
   120          2
   121          4
   122          2
   123          2
   124          4
   125          2
   126          7
   127          4
   129          1
   131          2
   133          3
   135          2
   138          4
   140         82
   141          9
   145          2
   147          2
   149          1
   150          1
   152          1
   159          1
   161          3
   168          3
   402          1
   416          2
   417          5
   418          1