##TITLE=Library Entry 27878
##JCAMP-DX=Revision 4.10 
##DATA TYPE=MASS SPECTRUM
##SAMPLE DESCRIPTION=Japan AIST/NIMC Database- Spectrum MS-NW-1113
##NAMES=HP
##CAS NAME=Glycine, N,N-dimethyl-, methyl ester
##MOLFORM=C5H11NO2
##CAS REGISTRY NO=7148-06-3
##MP= -300
##BP= -300
##MW= 117
##$RETENTION INDEX=810
##$CONDENSED SPECTRUM=NO
##NPOINTS= 33
##XYDATA=(XY..XY) 1 
    14          4
    15         58
    17          1
    18          3
    26          2
    27          7
    28         23
    29         19
    30         72
    31          4
    32          3
    39          1
    40          6
    41         16
    42        123
    43         28
    44         22
    45         33
    54          2
    55          1
    56         12
    57         34
    58        999
    59         36
    69          3
    72          8
    73          1
    74          2
    88          5
   100          4
   116          2
   117        102
   118          6