##TITLE=Library Entry 75108
##JCAMP-DX=Revision 4.10 
##DATA TYPE=MASS SPECTRUM
##SAMPLE DESCRIPTION=Chemical Concepts
##NAMES=HP
##CAS NAME=Hexanedioic acid, 3-oxo-, diethyl ester
##MOLFORM=C10H16O5
##CAS REGISTRY NO=7149-59-9
##MP= -300
##BP= -300
##MW= 216
##$RETENTION INDEX=0
##$CONDENSED SPECTRUM=NO
##NPOINTS= 87
##XYDATA=(XY..XY) 1 
    26         34
    27        190
    28        116
    29        461
    30         28
    31        256
    39         20
    40          6
    41         37
    42        115
    43        782
    44        191
    45        243
    46         61
    47          5
    50          2
    51          4
    53         14
    54          5
    55        239
    56        145
    57         65
    58         13
    59         10
    60         23
    61         15
    63         15
    67          5
    68          5
    69         80
    70         35
    71         73
    72         11
    73        207
    74        231
    75         50
    76          2
    77          3
    79          5
    81         11
    82          6
    83         18
    84         15
    85         88
    86          8
    87        121
    88         14
    89          7
    96         26
    97        164
    98        121
    99        377
   100         40
   101        999
   102        244
   103         23
   111         11
   112         10
   113         24
   114         20
   115        379
   116         28
   117          4
   123          6
   124         35
   125        316
   126         24
   127          5
   128         19
   129        853
   130         63
   131          8
   139         29
   140         41
   141         39
   142         74
   143        423
   144         78
   145          9
   157         14
   169          8
   170        172
   171        195
   172         19
   173          3
   216         10
   217          3