##TITLE=Library Entry 83009
##JCAMP-DX=Revision 4.10 
##DATA TYPE=MASS SPECTRUM
##SAMPLE DESCRIPTION=NIST Mass Spectrometry Data Center, 1994
##NAMES=HP
##CAS NAME=m-Toluidine, 4-chloro-
##MOLFORM=C7H8ClN
##CAS REGISTRY NO=7149-75-9
##MP= -300
##BP= -300
##MW= 141
##$RETENTION INDEX=0
##$CONDENSED SPECTRUM=NO
##NPOINTS= 91
##XYDATA=(XY..XY) 1 
    13          4
    14         10
    15         40
    16          2
    17          8
    18          2
    26         59
    27        148
    28        182
    29          8
    30         57
    33          1
    35         16
    36         19
    37         84
    38        147
    39        252
    40         48
    41        101
    42         46
    43          3
    44          5
    46          2
    47         11
    48          7
    49         43
    50        173
    51        342
    52        230
    53          2
    54         60
    55          6
    57          6
    60         13
    61         60
    62         91
    63        144
    64         41
    65         64
    66         40
    67         15
    68          2
    71         45
    72         23
    73         67
    74         61
    75         77
    76         61
    77        459
    78        239
    79        249
    80         53
    81          4
    84          8
    85         16
    86         19
    87         24
    88         13
    89         52
    90         16
    91          9
    92          2
    97          6
    98          4
    99         21
   100          8
   101          9
   102         16
   103          2
   104        177
   105          2
   106        999
   107         82
   108          3
   111          5
   112          9
   113         35
   114         25
   115         13
   116          7
   123          4
   124          3
   125         11
   126          2
   127          3
   138          5
   140        210
   141        902
   142        133
   143        301
   144         22