##TITLE=Library Entry 78127
##JCAMP-DX=Revision 4.10 
##DATA TYPE=MASS SPECTRUM
##SAMPLE DESCRIPTION=Institute of Organic Chemistry, Novosibirsk, USSR 1988
##NAMES=HP
##CAS NAME=1-Benzoyl-4,4-dimethylazetidin-2-one
##MOLFORM=C12H13NO2
##CAS REGISTRY NO=715-27-5
##MP= -300
##BP= -300
##MW= 203
##$RETENTION INDEX=0
##$CONDENSED SPECTRUM=NO
##NPOINTS= 23
##XYDATA=(XY..XY) 1 
    39         41
    40         25
    41        102
    42         17
    50         39
    51        143
    52          7
    56        591
    57         27
    70         57
    71         11
    76         30
    77        487
    78         28
   104         23
   105        999
   106         95
   148        520
   149         47
   185          3
   188         31
   203        264
   204         42