##TITLE=Library Entry 10454
##JCAMP-DX=Revision 4.10 
##DATA TYPE=MASS SPECTRUM
##SAMPLE DESCRIPTION=NIST Mass Spectrometry Data Center, 1990.
##NAMES=HP
##CAS NAME=9-Hexacosene
##MOLFORM=C26H52
##CAS REGISTRY NO=71502-22-2
##MP= -300
##BP= -300
##MW= 364
##$RETENTION INDEX=2568
##$CONDENSED SPECTRUM=NO
##NPOINTS= 53
##XYDATA=(XY..XY) 1 
    27         76
    28         45
    29        225
    39         60
    41        647
    42        142
    43        999
    44         40
    53         44
    54        230
    55        909
    56        373
    57        965
    58         44
    66         31
    67        312
    68        177
    69        791
    70        396
    71        508
    79         52
    81        213
    82        318
    83        873
    84        254
    85        353
    95        114
    96        248
    97        970
    98        198
    99        119
   109         48
   110        110
   111        581
   112        130
   113         69
   123         37
   124         83
   125        315
   126         87
   127         47
   138         62
   139        170
   140         63
   152         42
   153        103
   154         44
   167         63
   168         38
   181         44
   182         29
   364        141
   365         36