##TITLE=Library Entry 99876
##JCAMP-DX=Revision 4.10 
##DATA TYPE=MASS SPECTRUM
##SAMPLE DESCRIPTION=NIST Mass Spectrometry Data Center, 1994
##NAMES=HP
##CAS NAME=Bis(2,4,6-trimethylphenyl)diselenide
##MOLFORM=C18H22Se2
##CAS REGISTRY NO=71518-92-8
##MP= -300
##BP= -300
##MW= 398
##$RETENTION INDEX=0
##$CONDENSED SPECTRUM=NO
##NPOINTS= 95
##XYDATA=(XY..XY) 1 
    15          3
    17          3
    18          8
    27         49
    39        142
    40         17
    41        123
    50         26
    51        110
    52         34
    53         56
    62          9
    63         52
    64         14
    65        110
    66         14
    67          8
    74          1
    75         17
    76         19
    77        190
    78         79
    79         78
    80         13
    81          7
    87          6
    89         63
    90         32
    91        470
    92         51
    93        136
    94          4
    95         23
   101          6
   102         66
   103        115
   104         66
   105        388
   106         46
   107         37
   113          4
   115        209
   116         56
   117        171
   118        102
   119        999
   120        139
   121          7
   131          4
   169          5
   178          5
   179         12
   180         20
   181         20
   182         32
   183         35
   184         12
   185          6
   192          6
   193         16
   194         61
   195        124
   196        197
   197        198
   198        325
   199        309
   200        111
   201         57
   202         10
   221          9
   271          6
   272         17
   273         22
   274         51
   275         38
   276         81
   277         28
   278         89
   279         14
   280         31
   315          4
   318          7
   390         17
   391         25
   392         84
   393         74
   394        229
   395        167
   396        410
   397        100
   398        453
   399         90
   400        142
   401         29
   402         15