##TITLE=Library Entry 73339
##JCAMP-DX=Revision 4.10 
##DATA TYPE=MASS SPECTRUM
##SAMPLE DESCRIPTION=L. Cohen, LC, NIDDK, NIH, Bethesda, MD 20892
##NAMES=HP
##CAS NAME=Imidazole, 5-fluoro-2-methyl-
##MOLFORM=C4H5FN2
##CAS REGISTRY NO=71516-19-3
##MP= -300
##BP= -300
##MW= 100
##$RETENTION INDEX=0
##$CONDENSED SPECTRUM=NO
##NPOINTS= 44
##XYDATA=(XY..XY) 1 
    42        129
    43         56
    44         81
    45         27
    46         52
    47          5
    48          6
    49          4
    50          2
    51         13
    52         32
    53         22
    54         20
    55         11
    56          1
    57          5
    58         15
    59         64
    60         21
    61          1
    68          1
    69          3
    70         12
    71         15
    72         71
    73         44
    74          8
    77          2
    78          3
    79         12
    80          1
    81          3
    83          1
    84          2
    85          1
    87          1
    90          1
    97          4
    98         21
    99        481
   100        999
   101         98
   102          4
   103          1