##TITLE=Library Entry 87253
##JCAMP-DX=Revision 4.10 
##DATA TYPE=MASS SPECTRUM
##SAMPLE DESCRIPTION=Div. of Experiment Therapeutics WRAIR, WRAMC, Washingto
n DC 20307
##NAMES=HP
##CAS NAME=4,6-Bis[trichloromethyl]-2-[[3-[1-pyrrolidinyl]propyl]amino]pyrim
idine
##MOLFORM=C13H16Cl6N4
##CAS REGISTRY NO=71523-72-3
##MP= -300
##BP= -300
##MW= 438
##$RETENTION INDEX=0
##$CONDENSED SPECTRUM=NO
##NPOINTS= 211
##XYDATA=(XY..XY) 1 
    41         62
    42        154
    43         37
    44         17
    45          1
    47          2
    48          1
    49         12
    50          3
    51          5
    52          3
    53          8
    54         15
    55         81
    56         34
    57         15
    58          2
    62          7
    63          0
    64          3
    67          6
    68         18
    69         15
    70         50
    71          8
    72          8
    73          1
    74          0
    75          1
    77          1
    79          0
    80          5
    81         13
    82         30
    84        650
    85         37
    86          6
    88          3
    91          2
    92          0
    94          3
    95          5
    96         23
    97         51
    98         53
    99          4
   100          3
   106          5
   107         12
   108         52
   110        999
   111         71
   112          5
   113          4
   114          0
   117          2
   119          4
   121          3
   122          0
   123          1
   124          3
   126          0
   131          1
   132          1
   133          1
   134          2
   135          2
   136          2
   137          0
   138          4
   139          5
   143          0
   144          4
   146          4
   147          0
   148          3
   149          3
   153          0
   155          1
   159          0
   166          0
   171          1
   173          3
   174          0
   175          2
   178          1
   180          4
   182          6
   183          1
   184          6
   185          3
   186          3
   187          0
   188          2
   189          4
   190          1
   191          5
   192          2
   193          2
   200          0
   201          1
   202          3
   203          0
   207          6
   208          2
   209          6
   211          3
   212          2
   213          2
   214          4
   215          1
   216          3
   222          2
   223          1
   224          3
   225          1
   226          3
   227          3
   228          3
   229          1
   230          0
   236          2
   238          3
   239          0
   241          2
   243          3
   248          5
   249          3
   250          6
   251          3
   252          3
   257          2
   258          3
   259          4
   260          5
   261          5
   262          5
   263          4
   264          4
   265          2
   266          1
   269          0
   270         13
   271          5
   272         18
   273          5
   274          9
   275          3
   276          3
   283          2
   284          7
   285          3
   286          8
   287          2
   288          4
   290          0
   292          5
   294         12
   295          5
   296         12
   297          5
   298          7
   299          5
   300          5
   301          3
   302          3
   304          2
   305         11
   306          4
   307         16
   308          4
   309         10
   310          2
   311          3
   321          1
   327          0
   329          3
   330          2
   331         12
   332          4
   333         12
   334          4
   335          3
   336          3
   337          3
   340          1
   342          3
   344          2
   366          6
   367          4
   368          8
   369          5
   370          4
   371          2
   372          0
   374          0
   376          1
   402         37
   403          8
   404         59
   405         12
   406         37
   407          2
   408          8
   409          2
   410          1
   437          0
   438          1
   440          3
   442          2
   444          1