##TITLE=Library Entry 14150
##JCAMP-DX=Revision 4.10 
##DATA TYPE=MASS SPECTRUM
##SAMPLE DESCRIPTION=Div. of Experiment Therapeutics WRAIR, WRAMC, Washingto
n DC 20307
##NAMES=HP
##CAS NAME=1,3(2H)-Benzodioxole, 2-decyl-2-methyl-5-[(2,4-diamino-5-pyrimidi
nyl)methyl]-
##MOLFORM=C23H34N4O2
##CAS REGISTRY NO=71525-17-2
##MP= -300
##BP= -300
##MW= 398
##$RETENTION INDEX=0
##$CONDENSED SPECTRUM=NO
##NPOINTS= 143
##XYDATA=(XY..XY) 1 
    41        500
    42         66
    43        999
    44         32
    45         13
    51         24
    52         20
    53         72
    54         38
    55        271
    56         14
    57         61
    58          6
    60         19
    63         17
    64          3
    65         16
    66          3
    67         35
    68         22
    69         89
    70         17
    71         24
    77         29
    78         15
    79         30
    80         15
    81        139
    82          9
    83         25
    85          3
    89         26
    90         11
    91         15
    92          8
    93          7
    94         11
    95         25
    96         19
    97         20
    98          3
   102          3
   103          3
   104         13
   105         25
   106         25
   107         25
   109          8
   110         30
   111         22
   115         31
   116         29
   117         21
   118         13
   119          3
   121          7
   122         10
   123        355
   124         32
   129        133
   131         19
   132         12
   133         15
   134         41
   135         30
   136         10
   141         11
   142         16
   143         23
   144         21
   145         16
   146         12
   147         17
   148         15
   149         11
   156         11
   158          7
   159         12
   160          9
   161         18
   162         11
   169         12
   170          7
   171         14
   172         17
   173         16
   174          3
   175         12
   184          6
   185         55
   186         46
   187         26
   188          3
   189         14
   197         19
   198         15
   201         10
   203         26
   204          6
   213         57
   214         44
   215         56
   216         61
   217          6
   227         13
   229         23
   230         50
   231        120
   232        141
   233         26
   240         11
   241         13
   243        112
   244         23
   255         11
   256          4
   257        828
   258        138
   259         23
   269         11
   271         33
   272         15
   273          3
   283         13
   285         65
   286         29
   299         24
   313         28
   314          6
   327         32
   328         18
   341         65
   342         16
   355         69
   356         18
   369         28
   381          9
   383         43
   384         15
   397         22
   398        167
   399         41
   400          7