##TITLE=Library Entry 78677
##JCAMP-DX=Revision 4.10 
##DATA TYPE=MASS SPECTRUM
##SAMPLE DESCRIPTION=Humboldt-Universitat zu Berlin, Department of Chemistry
, Analytical Group
##NAMES=HP
##CAS NAME=4-(4-Nitrobenzylidene)-2-phenyl-4,5-dihydro-1,3-oxazol-5-one
##MOLFORM=C16H10N2O4
##CAS REGISTRY NO=7152-75-2
##MP= -300
##BP= -300
##MW= 294
##$RETENTION INDEX=0
##$CONDENSED SPECTRUM=NO
##NPOINTS= 115
##XYDATA=(XY..XY) 1 
    30         54
    31          0
    32         14
    37          2
    38         10
    39         17
    40          2
    41          2
    42          0
    43          1
    44          2
    45          0
    46          1
    50         46
    51        146
    52         10
    53          2
    54          0
    55          1
    56          0
    57          1
    60          0
    61          3
    62         20
    63         19
    64          6
    65          4
    66          0
    67          0
    69          0
    70          0
    71          0
    73          1
    74         15
    75         22
    76         31
    77        446
    78         30
    79          1
    81          0
    82          0
    83          0
    85          1
    86          2
    87          6
    88         20
    89          9
    90          1
    91          0
    92          0
    95          0
    97          0
    98          2
    99          1
   100          1
   101          4
   102          2
   103          6
   105        999
   106         80
   107          5
   108          0
   110          1
   111          0
   112          0
   114         14
   115         20
   116          2
   117          1
   122          0
   124          1
   125          0
   126          0
   127          0
   128          0
   129          0
   130          0
   131          2
   132          0
   139          0
   140          0
   143          0
   145          0
   147          0
   149          0
   150          0
   151          0
   152          0
   160          0
   161          0
   162          0
   163          0
   164          0
   165          0
   171          0
   175          0
   176          0
   177          0
   189          0
   190          0
   191          0
   201          0
   202          0
   203          0
   204          0
   219          0
   248          0
   249          0
   264          2
   265          0
   278          0
   294         61
   295         11
   296          1
   297          0