##TITLE=Library Entry 8739
##JCAMP-DX=Revision 4.10 
##DATA TYPE=MASS SPECTRUM
##SAMPLE DESCRIPTION=Japan AIST/NIMC Database- Spectrum MS-NW-7502
##NAMES=HP
##CAS NAME=Pentanoic acid, 4-methyl-3-oxo-, ethyl ester
##MOLFORM=C8H14O3
##CAS REGISTRY NO=7152-15-0
##MP= -300
##BP= -300
##MW= 158
##$RETENTION INDEX=0
##$CONDENSED SPECTRUM=NO
##NPOINTS= 91
##XYDATA=(XY..XY) 1 
    13          2
    14         13
    15         48
    16          2
    17          1
    18          3
    25          3
    26         24
    27        239
    28         48
    29        608
    30         13
    31        126
    32          3
    37          4
    38          9
    39         86
    40         16
    41        235
    42        113
    43        999
    44         46
    45        113
    46         20
    47          8
    49          1
    50          3
    51          5
    52          1
    53          9
    54          2
    55         34
    56         10
    57         11
    58          9
    59         26
    60        111
    61         54
    62          2
    63          1
    65          2
    66          2
    67          9
    68          5
    69        149
    70        149
    71        620
    72         30
    73         32
    74          3
    75          1
    77          1
    81          1
    83          3
    84          9
    85          4
    86         30
    87        188
    88         42
    89          7
    94          1
    95          2
    96          1
    97         16
    98          2
    99          3
   101          6
   102          2
   103          1
   105          2
   110          1
   111          6
   112         84
   113         62
   114          6
   115        328
   116         22
   117          8
   118          1
   127          1
   128          1
   129          2
   130          5
   131          1
   133          3
   143          5
   144          1
   155          1
   158        141
   159         14
   160          2