##TITLE=Library Entry 114874
##JCAMP-DX=Revision 4.10 
##DATA TYPE=MASS SPECTRUM
##SAMPLE DESCRIPTION=Chuck Anderson, Aldrich Chemical Co.
##NAMES=HP
##CAS NAME=Ethyl 4-cyanobenzoate
##MOLFORM=C10H9NO2
##CAS REGISTRY NO=7153-22-2
##MP= -300
##BP= -300
##MW= 175
##$RETENTION INDEX=1393
##$CONDENSED SPECTRUM=NO
##NPOINTS= 58
##XYDATA=(XY..XY) 1 
    14          1
    15          9
    26         14
    27         78
    28         17
    29         87
    30          5
    36          1
    37          5
    38          9
    39          9
    42          1
    43          9
    44          2
    45         95
    46          1
    49          4
    50         57
    51         71
    52         15
    53          2
    61          1
    62          5
    63          7
    64          5
    65          2
    73          4
    74         20
    75        111
    76         71
    77          7
    87          0
    90          2
    91          0
    99          9
   100          6
   101          8
   102        479
   103         89
   104          9
   105          0
   116          4
   119          4
   129          1
   130        999
   131         87
   132          8
   147        335
   148         31
   149          3
   156          2
   157          5
   158          0
   160          7
   174         33
   175        131
   176         13
   177          0