##TITLE=Library Entry 90314
##JCAMP-DX=Revision 4.10 
##DATA TYPE=MASS SPECTRUM
##SAMPLE DESCRIPTION=ASES Database, Dalian Institute, P.R. China
##NAMES=HP
##CAS NAME=1-(3-Hydroxypropyl)-2-piperidinone  #
##MOLFORM=C8H15NO2
##CAS REGISTRY NO=71533-22-7
##MP= -300
##BP= -300
##MW= 157
##$RETENTION INDEX=0
##$CONDENSED SPECTRUM=NO
##NPOINTS= 7
##XYDATA=(XY..XY) 1 
   112        855
   113        999
   124        358
   126        297
   127        139
   139        288
   157        181