##TITLE=Library Entry 32525
##JCAMP-DX=Revision 4.10 
##DATA TYPE=MASS SPECTRUM
##SAMPLE DESCRIPTION=Japan AIST/NIMC Database- Spectrum MS-NW-4924
##NAMES=HP
##CAS NAME=1-Pentyne, 4-methyl-
##MOLFORM=C6H10
##CAS REGISTRY NO=7154-75-8
##MP= -300
##BP= -300
##MW= 82
##$RETENTION INDEX=552
##$CONDENSED SPECTRUM=NO
##NPOINTS= 53
##XYDATA=(XY..XY) 1 
    13          1
    14          3
    15         22
    25          3
    26         16
    27        338
    28         18
    29         23
    31          3
    32          3
    36          2
    37         22
    38         51
    39        333
    40        200
    41        745
    42        145
    43        789
    44         26
    45          3
    49          4
    50         20
    51         31
    52         12
    53         61
    54        123
    55         22
    56         15
    57          4
    58          2
    59          2
    60          3
    61          7
    62          9
    63         17
    64          3
    65         73
    66         24
    67        999
    68         59
    69          5
    70          1
    73          1
    74          3
    75          1
    77         10
    78          3
    79         20
    80          4
    81         96
    82         28
    83          4
    84          1