##TITLE=Library Entry 24305
##JCAMP-DX=Revision 4.10 
##DATA TYPE=MASS SPECTRUM
##SAMPLE DESCRIPTION=NIST Mass Spectrometry Data Center, 1990.
##NAMES=HP
##CAS NAME=Pentane, 2,2,3,3-tetramethyl-
##MOLFORM=C9H20
##CAS REGISTRY NO=7154-79-2
##MP= -300
##BP= -300
##MW= 128
##$RETENTION INDEX=854
##$CONDENSED SPECTRUM=NO
##NPOINTS= 24
##XYDATA=(XY..XY) 1 
    15         27
    27        130
    28         17
    29        188
    39        158
    40         37
    41        422
    42         54
    43        514
    44         22
    53         51
    55        202
    56        104
    57        999
    58         49
    67         18
    69         72
    70        391
    71        488
    72         27
    83         29
    98         20
    99        114
   113         39