##TITLE=Library Entry 38789
##JCAMP-DX=Revision 4.10 
##DATA TYPE=MASS SPECTRUM
##SAMPLE DESCRIPTION=D.HENNEBERG, MAX-PLANCK INSTITUTE, MULHEIM, WEST GERMAN
Y
##NAMES=HP
##CAS NAME=Heptane, 3,3,5-trimethyl-
##MOLFORM=C10H22
##CAS REGISTRY NO=7154-80-5
##MP= -300
##BP= -300
##MW= 142
##$RETENTION INDEX=908
##$CONDENSED SPECTRUM=NO
##NPOINTS= 50
##XYDATA=(XY..XY) 1 
    24          0
    26          8
    27         56
    28          4
    29        139
    30          3
    36          0
    37          1
    38          0
    39         41
    40          5
    41        187
    42         30
    43        592
    44         17
    45          0
    50          0
    51          2
    52          0
    53         13
    54          2
    55         97
    56         28
    57        625
    58         28
    59          0
    63          0
    65          1
    66          0
    67          4
    68          1
    69         20
    70        261
    71        999
    72         58
    73          1
    77          0
    79          9
    81          1
    82          0
    83         14
    84          2
    85         46
    86          2
    97          2
   112         14
   113         92
   114          8
   127         10
   128          0