##TITLE=Library Entry 48192
##JCAMP-DX=Revision 4.10 
##DATA TYPE=MASS SPECTRUM
##SAMPLE DESCRIPTION=Div. of Experiment Therapeutics WRAIR, WRAMC, Washingto
n DC 20307
##NAMES=HP
##CAS NAME=4-Benzyl-1-piperidinethiocarboxylic acid 2-[1-[2-pyridyl]ethylide
ne]hydrazide
##MOLFORM=C20H24N4S
##CAS REGISTRY NO=71555-35-6
##MP= -300
##BP= -300
##MW= 352
##$RETENTION INDEX=0
##$CONDENSED SPECTRUM=NO
##NPOINTS= 206
##XYDATA=(XY..XY) 1 
    41        210
    42        406
    43        133
    44        229
    45         40
    46          9
    47         12
    48          6
    49         68
    50        219
    51        676
    52        320
    53        131
    54         83
    55        574
    56        680
    57        177
    58        120
    59         28
    60         66
    61         13
    62         27
    63         86
    64         42
    65        264
    66         25
    67         60
    68         51
    69        426
    70         42
    71         10
    72        100
    73         12
    74         26
    75         35
    76         69
    77        161
    78        999
    79        475
    80         73
    81         29
    82        369
    83         78
    84        271
    85         16
    86         28
    87          8
    88         11
    89         42
    90          8
    91        839
    92        139
    93         17
    94          7
    95          9
    96         11
    97         91
    98         15
    99         24
   100          3
   101          4
   102         14
   103         41
   104        250
   105        166
   106        138
   107         30
   108          3
   109          4
   110          2
   111          3
   112          2
   113          1
   114          5
   115         89
   116         44
   117        160
   118         59
   119         54
   120         44
   121        776
   122         82
   123         11
   124          1
   125          1
   126          7
   127         13
   128         30
   129         70
   130         49
   131         51
   132         29
   133         19
   134         22
   135          6
   136          9
   137         12
   138          9
   139          1
   140          1
   141          9
   142          4
   143          9
   144          9
   145         16
   146         15
   148        130
   149         60
   150         38
   151         22
   152         12
   153          2
   154          1
   155         17
   156          5
   157          6
   158          4
   159          3
   160          1
   161          2
   162          5
   163          1
   164          4
   165          0
   166          1
   167          1
   168          0
   169          0
   170          1
   171          3
   172         19
   173         54
   174        509
   175        425
   176        106
   177        416
   178         68
   179         24
   180          4
   181          0
   182          2
   183          0
   184          1
   185          3
   186          1
   187          0
   188          1
   189          6
   190          1
   191          2
   196          1
   197          0
   199         18
   200          3
   201          4
   202          2
   203          0
   205          0
   206          3
   207          0
   212          0
   214          0
   216          1
   218         29
   219          5
   220          1
   230          0
   231          1
   232          3
   233         10
   234          3
   235          1
   236          0
   242          0
   244          2
   245          0
   246          0
   249          0
   253          1
   259          0
   261         11
   262          1
   263          0
   266          0
   274         43
   275          7
   276          3
   277          2
   278          0
   291         15
   292          4
   293          1
   305          0
   319         42
   320         10
   321          1
   323          4
   324          1
   337         54
   338         11
   339          3
   340          0
   352        256
   353         62
   354         18
   355          3