##TITLE=Library Entry 5167
##JCAMP-DX=Revision 4.10 
##DATA TYPE=MASS SPECTRUM
##SAMPLE DESCRIPTION=Div. of Experiment Therapeutics WRAIR, WRAMC, Washingto
n DC 20307
##NAMES=HP
##CAS NAME=4-Methyl-1,4-diazacycloheptane-1-thiocarboxylic acid 2-[1-[2-pyri
dyl]ethylidene]hydrazide
##MOLFORM=C14H21N5S
##CAS REGISTRY NO=71555-56-1
##MP= -300
##BP= -300
##MW= 291
##$RETENTION INDEX=0
##$CONDENSED SPECTRUM=NO
##NPOINTS= 185
##XYDATA=(XY..XY) 1 
    42        999
    43        200
    44        202
    45         19
    46          6
    47         27
    48         12
    49        118
    50         48
    51        229
    52        124
    53         35
    54         51
    55         69
    56        159
    57        596
    58        433
    59         35
    60         57
    61         10
    62          5
    63         13
    64          8
    65         16
    66          7
    67         22
    68         63
    69         71
    70        625
    71        204
    72        192
    73         29
    74          1
    75         10
    76         20
    77         53
    78        584
    79        552
    80         55
    81         24
    82        138
    83        115
    84        318
    85         81
    86        132
    87          1
    88         33
    89          8
    90          9
    91          9
    92         22
    93         16
    94         69
    95         89
    96        319
    97        196
    98         64
    99         40
   100         30
   101         34
   102         33
   103         65
   104        124
   105        105
   106        147
   107         27
   108          7
   109         31
   110         26
   111        155
   112        299
   113        191
   114         92
   115        203
   116         36
   117         25
   118          6
   119         33
   120         13
   121        860
   122        143
   123         27
   124         30
   125         22
   126          1
   127         44
   128         31
   129        142
   130         21
   131         18
   132         26
   133         29
   134         64
   135         12
   136         20
   137          1
   138        252
   139         33
   140         17
   141         12
   142         22
   143         10
   144          3
   145          9
   146          8
   147          8
   148         20
   149         10
   150         13
   151         17
   152          7
   153          2
   154          5
   155         25
   156         57
   157         73
   158         13
   159          9
   160          3
   161          2
   162          2
   163          2
   164          2
   165          1
   168          1
   169          1
   170         73
   171        652
   172         91
   173         36
   174          6
   175          2
   176         10
   177         62
   178         83
   179         15
   180          5
   182          1
   183          1
   184          1
   185          2
   186          1
   187          1
   188          1
   189          1
   190          1
   191          5
   193         10
   194          1
   195          4
   199          1
   201          2
   202          1
   204          1
   205          2
   207          1
   208          1
   213         10
   214          1
   215          1
   216          1
   219         29
   220          2
   221          8
   222          1
   230          9
   231          1
   232          9
   233          4
   234          1
   235          5
   242          1
   244          1
   245          1
   257          1
   258         13
   259          2
   262          1
   276          9
   277          1
   289          1
   291        123
   292         24
   293          7
   294          1