##TITLE=Library Entry 61808
##JCAMP-DX=Revision 4.10 
##DATA TYPE=MASS SPECTRUM
##SAMPLE DESCRIPTION=Div. of Experiment Therapeutics WRAIR, WRAMC, Washingto
n DC 20307
##NAMES=HP
##CAS NAME=2-Acetylpyridine 4-benzyl-4-methylthiosemicarbazone
##MOLFORM=C16H18N4S
##CAS REGISTRY NO=71555-21-0
##MP= -300
##BP= -300
##MW= 298
##$RETENTION INDEX=0
##$CONDENSED SPECTRUM=NO
##NPOINTS= 160
##XYDATA=(XY..XY) 1 
    42        347
    43         47
    44        217
    45         33
    46          4
    47         27
    48          9
    49        125
    50         70
    51        275
    52        127
    53         35
    54         12
    55         10
    56          5
    57         20
    58         21
    59         14
    60         42
    61          7
    62         14
    63         51
    64         20
    65        197
    66         13
    67          9
    68          2
    69          8
    70          4
    71          7
    72         10
    73         11
    74         73
    75         15
    76         29
    77        122
    78        589
    79        339
    80         35
    81          3
    82          4
    83          6
    84         69
    86         52
    87          3
    88          9
    89         40
    91        999
    92        114
    93         25
    94          3
    95          1
    96          1
    97          2
    98          1
    99          5
   100          1
   101          1
   102          2
   103          9
   104        137
   105         91
   106        252
   107         29
   108          2
   109         10
   110          2
   111          3
   112          1
   115          2
   116          6
   117         18
   118        228
   119         81
   120        446
   121        830
   122         87
   123         38
   124          6
   125          2
   127          0
   128          4
   129          2
   130          2
   131          9
   132         36
   133         26
   134         22
   135         14
   136         15
   137          8
   138         26
   139          3
   140          1
   141          1
   145        266
   146         32
   148         41
   149         19
   150         38
   151         24
   152         14
   153          2
   154          1
   158          1
   159          1
   160         11
   161          4
   162         17
   163          8
   164         23
   165          6
   166          4
   167          5
   168          3
   169          1
   176         25
   177        147
   178         41
   179         16
   180          5
   181          2
   182          1
   183          1
   187          8
   188          2
   190          1
   191          2
   192          4
   193         33
   194          8
   195          4
   196          3
   199          3
   205          2
   206          2
   207          8
   208         83
   209        217
   210         38
   211          2
   219          1
   220         52
   221          7
   222          2
   223          1
   237          7
   238          1
   251          2
   265         21
   266          5
   269          1
   283         67
   284         18
   285          5
   295          2
   298        260
   299         58
   300         16
   301          3