##TITLE=Library Entry 61120
##JCAMP-DX=Revision 4.10 
##DATA TYPE=MASS SPECTRUM
##SAMPLE DESCRIPTION=Div. of Experiment Therapeutics WRAIR, WRAMC, Washingto
n DC 20307
##NAMES=HP
##CAS NAME=2-Acetylpyridine 4,4-dibenzylthiosemicarmazone
##MOLFORM=C22H22N4S
##CAS REGISTRY NO=71555-24-3
##MP= -300
##BP= -300
##MW= 374
##$RETENTION INDEX=0
##$CONDENSED SPECTRUM=NO
##NPOINTS= 147
##XYDATA=(XY..XY) 1 
    41         12
    42          7
    44         27
    45          8
    46          2
    47          5
    48          2
    49         21
    50         43
    51        133
    52         57
    53          9
    54          2
    55          1
    58         34
    59          5
    60          5
    61          3
    62          9
    63         34
    64         15
    65        133
    66         10
    67          3
    69          2
    70          1
    71          2
    72          4
    73          2
    74          9
    75         16
    76         26
    77         98
    78        398
    79        148
    80         11
    82          4
    83          2
    84         22
    86         15
    87          1
    88          3
    89         44
    91        999
    92        212
    93         20
    99          8
   102          2
   103          6
   104        130
   105         64
   106        584
   107         48
   108          2
   109          2
   115          3
   116          8
   117         27
   118         57
   119         30
   120         97
   121        147
   122         15
   123         13
   124          2
   125          2
   129          1
   130          2
   131          8
   132         14
   133         11
   134         11
   135          4
   136          4
   137          7
   138          3
   139          2
   146          2
   148        110
   149         40
   150         19
   151          8
   152          5
   153          2
   162          3
   163          3
   164          9
   165         10
   166         14
   167          5
   168          2
   174          1
   176         61
   177        408
   178         84
   179         30
   180         13
   181          3
   182          1
   184          2
   190          3
   193          2
   194         31
   195          1
   196        249
   197        257
   198         49
   199          3
   208         16
   209         49
   210         50
   211         11
   212          1
   221         44
   222          6
   224         10
   225          3
   236          2
   238          3
   239          2
   241         10
   253          2
   254          4
   255          3
   256          2
   257          5
   264          1
   266          1
   271         11
   272          1
   283          2
   296          8
   310          1
   327          8
   328          1
   330          2
   341          9
   342          3
   345          3
   346          5
   359         14
   360          3
   363          1
   374         93
   375         25
   376          7
   377          1