##TITLE=Library Entry 53985
##JCAMP-DX=Revision 4.10 
##DATA TYPE=MASS SPECTRUM
##SAMPLE DESCRIPTION=Div. of Experiment Therapeutics WRAIR, WRAMC, Washingto
n DC 20307
##NAMES=HP
##CAS NAME=1-Piperidinecarbothioic acid, 2-ethyl-, (1-(2-pyridinyl)ethylidin
e)hydrazide
##MOLFORM=C15H22N4S
##CAS REGISTRY NO=71555-32-3
##MP= -300
##BP= -300
##MW= 290
##$RETENTION INDEX=0
##$CONDENSED SPECTRUM=NO
##NPOINTS= 152
##XYDATA=(XY..XY) 1 
    41        303
    42        145
    43         72
    44         73
    45         19
    46          6
    47         13
    48          6
    49         59
    50        130
    51        410
    52        206
    53         76
    54         71
    55        416
    56        362
    57         54
    58         83
    59         21
    60         47
    61         10
    62         13
    63         28
    64         19
    65         34
    66         11
    67         55
    68         44
    69         75
    70         94
    71          6
    72         81
    73          9
    74         17
    75         23
    76         47
    77         73
    78        979
    79        365
    80         40
    81         12
    82         74
    83         58
    84        999
    85         67
    86         25
    87          5
    88          7
    89          4
    90          5
    91         15
    92         57
    93         17
    94          6
    95         30
    96         49
    97         19
    98         15
    99         19
   100          5
   101          4
   102          4
   103          6
   104        178
   105        105
   106         63
   107         12
   108          5
   109         12
   110         58
   111         64
   112        634
   113         76
   114          8
   115          4
   116         15
   117         27
   118          6
   119         41
   120         33
   121        536
   122         47
   123         15
   124          7
   125          1
   126          2
   127          4
   128          4
   129          2
   130          0
   131          4
   132          1
   133          9
   134         12
   135          5
   136          7
   137         50
   138         11
   139          5
   140         10
   141          4
   142          2
   143          1
   144          6
   145          3
   146          3
   148         88
   149         37
   150         15
   151         11
   152          4
   153          1
   154          5
   155        121
   156         66
   157         12
   158          4
   159          2
   160          1
   161          1
   162          3
   163          3
   164          3
   165          0
   166          0
   168          1
   169         14
   170          5
   171         13
   172          2
   173          1
   176         45
   177        268
   178         40
   179         16
   180          2
   184          0
   185          0
   191          1
   202          2
   212         12
   213          1
   215          0
   229          3
   257          4
   261          6
   262          2
   275         10
   276          1
   290         62
   291         12
   292          3