##TITLE=Library Entry 71518
##JCAMP-DX=Revision 4.10 
##DATA TYPE=MASS SPECTRUM
##SAMPLE DESCRIPTION=Div. of Experiment Therapeutics WRAIR, WRAMC, Washingto
n DC 20307
##NAMES=HP
##CAS NAME=2,5-Dimethylpyrrolidine-1-thiocarboxylic acid 2-[1-[2-pyridyl]eth
ylidene]hydrazide
##MOLFORM=C14H20N4S
##CAS REGISTRY NO=71555-27-6
##MP= -300
##BP= -300
##MW= 276
##$RETENTION INDEX=0
##$CONDENSED SPECTRUM=NO
##NPOINTS= 167
##XYDATA=(XY..XY) 1 
    41        413
    42        419
    43        104
    44         87
    45         21
    47         31
    48          3
    49        129
    50         82
    51        325
    52        175
    53         86
    54         43
    55        456
    56        309
    57         67
    58        111
    59         31
    60        100
    61          8
    62         11
    63         21
    64         14
    65         31
    66         13
    67         80
    68         45
    69        131
    70         66
    71         90
    72         94
    73         13
    74         15
    75         15
    76         30
    77         71
    78        769
    79        442
    80         51
    81         66
    82         56
    83        217
    84        409
    86        278
    87         13
    88         20
    89          2
    90          3
    91          8
    92         35
    93         14
    94          6
    95          2
    96         29
    97        324
    98        999
    99        105
   100         33
   101         11
   102          5
   103          5
   104        140
   105         93
   106        134
   107         22
   108          5
   109          7
   110          7
   111          3
   112          3
   113          2
   114         35
   115         20
   116         12
   117         15
   118          0
   119         57
   120         34
   121        859
   122         75
   123        152
   124         14
   125         10
   126         31
   127          5
   128          2
   129         13
   130         16
   131          4
   132          1
   133          6
   134         22
   135          4
   136          6
   137          6
   138         21
   139          2
   140          3
   141          1
   142        103
   143         11
   144          7
   145          1
   146          1
   147          3
   148         42
   149         17
   150         21
   151         15
   152          7
   153          1
   155         54
   156         46
   157         21
   158          6
   159          4
   160          1
   161          0
   162          2
   163          2
   164          4
   165          1
   166          1
   168          2
   170          0
   173          0
   174          1
   176         26
   177        153
   178         25
   179         15
   180          1
   182          1
   183          2
   184          0
   185          1
   187          0
   191          1
   193          0
   194          0
   196          0
   198         35
   199          4
   200          2
   201          0
   205          1
   215          7
   216          1
   218          0
   219          1
   241          2
   243         14
   244          2
   245          4
   247          9
   248          0
   259          2
   261         29
   262          4
   263          1
   273          0
   274          0
   275          0
   276        251
   277         49
   278         15
   279          3