##TITLE=Library Entry 79011
##JCAMP-DX=Revision 4.10 
##DATA TYPE=MASS SPECTRUM
##SAMPLE DESCRIPTION=I. MAZHEIKA, INST. ORG. SYNTH. ACAD. SCI. LATV. SSR, RI
GA,US
##NAMES=HP
##CAS NAME=2-Methyl-2,6-diphenyl-1,3-dioxa-6-aza-2-silacyclooctane
##MOLFORM=C17H21NO2Si
##CAS REGISTRY NO=71573-90-5
##MP= -300
##BP= -300
##MW= 299
##$RETENTION INDEX=0
##$CONDENSED SPECTRUM=NO
##NPOINTS= 25
##XYDATA=(XY..XY) 1 
    41        260
    44        350
    51        230
    55        200
    69        150
    77        540
    78        280
    91        430
   104        510
   105        999
   119        180
   121        200
   131        100
   132        120
   145        100
   151        180
   167         50
   178        120
   194         50
   204         50
   222        510
   240         50
   254         50
   284        180
   299        190