##TITLE=Library Entry 80531
##JCAMP-DX=Revision 4.10 
##DATA TYPE=MASS SPECTRUM
##SAMPLE DESCRIPTION=I. MAZHEIKA, INST. ORG. SYNTH. ACAD. SCI. LATV. SSR, RI
GA,USTV
##NAMES=HP
##CAS NAME=Cyclooctane, 6-aza-2,2-dimethyl-1,3-dioxa-6-phenyl-2-sila-
##MOLFORM=C12H19NO2Si
##CAS REGISTRY NO=71573-91-6
##MP= -300
##BP= -300
##MW= 237
##$RETENTION INDEX=0
##$CONDENSED SPECTRUM=NO
##NPOINTS= 18
##XYDATA=(XY..XY) 1 
    41        190
    42        170
    51        120
    59        120
    75        130
    77        300
    89        240
    91        140
   104        350
   105        999
   117        130
   119        150
   131        180
   160         30
   178         90
   192         70
   222        150
   237        300