##TITLE=Library Entry 3826
##JCAMP-DX=Revision 4.10 
##DATA TYPE=MASS SPECTRUM
##SAMPLE DESCRIPTION=A.A.Kutin, Moscow, Russia
##NAMES=HP
##CAS NAME=1H-Azepine, 2,3,4,5,6,7-hexahydro-2-octylimino-
##MOLFORM=C14H28N2
##CAS REGISTRY NO=7157-82-6
##MP= -300
##BP= -300
##MW= 224
##$RETENTION INDEX=0
##$CONDENSED SPECTRUM=NO
##NPOINTS= 129
##XYDATA=(XY..XY) 1 
    33         63
    34         19
    36         14
    37          4
    38         20
    39        228
    40        335
    41        999
    42        458
    43        709
    44        514
    45        130
    46         15
    48          1
    50          4
    51         13
    52         12
    53         77
    54        224
    55        823
    56        417
    57        387
    58        100
    59         87
    60         36
    61          3
    63          1
    64          3
    65         18
    66         15
    67        155
    68        173
    69        442
    70        172
    71        213
    72        272
    73        108
    74          7
    77         12
    78          5
    79         64
    80         34
    81         53
    82        103
    83        135
    84        245
    85        118
    86        149
    87         58
    91         10
    92          5
    93         10
    94         43
    95         65
    96        975
    97        228
    98        111
    99         36
   100         66
   101         27
   105          2
   106          3
   107          2
   108         18
   109         23
   110         44
   111        186
   112        226
   113        181
   114        117
   115         31
   116          1
   120          1
   121          6
   122         19
   123         23
   124         26
   125        212
   126        430
   127         57
   128         74
   129         33
   130         25
   131          1
   135          1
   136          5
   137         29
   138         35
   139        504
   140        241
   141         29
   142         14
   143          6
   144         10
   148          4
   150          1
   151         16
   152         25
   153        411
   154        144
   155         22
   156         50
   157         19
   158          4
   164          4
   165         16
   167        200
   168         41
   169          3
   170          6
   171         32
   172          6
   175          1
   177         11
   179          9
   181        194
   182         46
   195         52
   196         17
   197          8
   198         22
   199          8
   208          2
   209         17
   210          2
   223         21
   224         90
   225         25
   226         13