##TITLE=Library Entry 72139
##JCAMP-DX=Revision 4.10 
##DATA TYPE=MASS SPECTRUM
##SAMPLE DESCRIPTION=Chemical Concepts
##NAMES=HP
##CAS NAME=6,6,9-Trimethyl-undecane-2,5,10-trione
##MOLFORM=C14H24O3
##CAS REGISTRY NO=71596-96-8
##MP= -300
##BP= -300
##MW= 240
##$RETENTION INDEX=0
##$CONDENSED SPECTRUM=NO
##NPOINTS= 105
##XYDATA=(XY..XY) 1 
    26          3
    27         32
    28         21
    29         35
    31          3
    38          1
    39         23
    40          7
    41        182
    42         23
    43        565
    44         17
    45         13
    50          1
    51          4
    52          2
    53         23
    54          5
    55         87
    56         61
    57         39
    58          6
    59          8
    65          4
    66          2
    67         16
    68          4
    69        565
    70         44
    71        107
    72         56
    73         20
    74          1
    77          7
    78          2
    79          7
    80          2
    81         34
    82          7
    83         49
    84         23
    85         94
    86          8
    87          1
    91          4
    92          1
    93          6
    94          2
    95         14
    96          4
    97         32
    98         25
    99        999
   100         64
   101          9
   104          3
   106          5
   107          6
   108          2
   109         24
   110          4
   111          6
   112          2
   113          4
   114          1
   115          3
   119          2
   121         14
   122          6
   123        451
   124         77
   125         16
   126          2
   127          5
   128          3
   135          4
   136          2
   137          5
   138          2
   139          2
   140         12
   141        209
   142        199
   143         52
   144          6
   145          1
   155          6
   156          5
   161          2
   165          3
   166          1
   167          2
   169         29
   170          8
   171          1
   179          2
   182          2
   183          1
   184          3
   197          4
   198          2
   207          2
   222          5
   223          1
   240          1