##TITLE=Library Entry 85187
##JCAMP-DX=Revision 4.10 
##DATA TYPE=MASS SPECTRUM
##SAMPLE DESCRIPTION=NIST Mass Spectrometry Data Center
##NAMES=HP
##CAS NAME=(1R,3aS,5aS,8aR)-1,3a,5a-Trimethyl-4-methylenedecahydrocyclopenta
[c]pentalene
##MOLFORM=C15H24
##CAS REGISTRY NO=71596-72-0
##MP= -300
##BP= -300
##MW= 204
##$RETENTION INDEX=1412
##$CONDENSED SPECTRUM=NO
##NPOINTS= 85
##XYDATA=(XY..XY) 1 
    27         45
    29         48
    39        125
    40         39
    41        348
    42         30
    43         37
    51         60
    52         27
    53        191
    55        305
    56         35
    63         49
    64         36
    65        165
    66         51
    67        321
    69         99
    77        370
    78         83
    79        558
    80        100
    81        270
    82         44
    86          8
    89         23
    91        565
    92        136
    93        591
    94        409
    95        304
    96         64
    97         35
   102         17
   103         60
   104         24
   105        569
   106        261
   107        674
   108        999
   109        760
   110        111
   111         20
   115        117
   116         40
   117        107
   118         31
   119        471
   120        366
   121        484
   122        304
   123        133
   124         18
   125          9
   127         13
   128         58
   129         36
   130         24
   131         64
   132         21
   133        424
   134        286
   135        206
   136        102
   137         29
   141         29
   142         55
   145         15
   146         26
   147        417
   148        237
   149        149
   150         36
   157         37
   161        388
   162        113
   163         40
   172         14
   175         76
   176         39
   177         12
   189        341
   190         57
   204        127
   205         15