##TITLE=Library Entry 99885
##JCAMP-DX=Revision 4.10 
##DATA TYPE=MASS SPECTRUM
##SAMPLE DESCRIPTION=Asinex Ltd, Moscow, Russia
##NAMES=HP
##CAS NAME=1-Butene-1,1,2-tricarbonitrile, 3,3-dimethyl-
##MOLFORM=C9H9N3
##CAS REGISTRY NO=71591-38-3
##MP= -300
##BP= -300
##MW= 159
##$RETENTION INDEX=0
##$CONDENSED SPECTRUM=NO
##NPOINTS= 75
##XYDATA=(XY..XY) 1 
    12          2
    13          4
    15        192
    24          1
    26         70
    27        278
    29        167
    30          2
    37         61
    38         83
    39        464
    40        134
    41        368
    42        191
    43        117
    44          6
    45          0
    50         91
    51        133
    52        129
    53         74
    54         30
    55         29
    57        622
    58         39
    60          2
    61         12
    62         26
    63         72
    64        129
    65        404
    66        119
    67         47
    68         21
    69          4
    70          1
    75         41
    76        112
    77         81
    78         70
    79         50
    80        122
    82         65
    83          1
    86          1
    87          3
    88          7
    89          7
    91        148
    92        750
    93        148
    94         24
    95          0
   100          0
   101          2
   102         12
   103         11
   104          5
   106        161
   107        320
   108         22
   109          0
   110          0
   112          1
   113          0
   114          1
   116          2
   119        999
   120         70
   121          1
   131          0
   133         89
   134         33
   135          9
   136          0