##TITLE=Library Entry 10521
##JCAMP-DX=Revision 4.10 
##DATA TYPE=MASS SPECTRUM
##SAMPLE DESCRIPTION=Chemical Concepts
##NAMES=HP
##CAS NAME=5-Hydroxy-2,2-dimethyl-5,6-bis-(2-oxopropyl)-cyclohexanone
##MOLFORM=C14H22O4
##CAS REGISTRY NO=71596-92-4
##MP= -300
##BP= -300
##MW= 254
##$RETENTION INDEX=0
##$CONDENSED SPECTRUM=NO
##NPOINTS= 137
##XYDATA=(XY..XY) 1 
    25          3
    26         19
    27         99
    28         19
    29         74
    31         14
    36          2
    37          8
    38         13
    39         99
    40         21
    41        179
    42         64
    43        999
    44         27
    45         10
    50          5
    51         16
    52          8
    53         47
    54         18
    55        409
    56         70
    57         31
    58        204
    59         19
    63          5
    64          2
    65         20
    66          9
    67         32
    68          8
    69        104
    70        122
    71         27
    72          6
    74          4
    76          2
    77         28
    78          5
    79         46
    80          7
    81         45
    82         10
    83         66
    84         17
    85         17
    91         38
    92          9
    93         42
    94         25
    95         42
    96         36
    97        137
    98        499
    99         74
   100         15
   101          2
   105         15
   106          4
   107         78
   108         14
   109         66
   110         27
   111        156
   112         29
   113         23
   114          2
   115          5
   117          3
   119         17
   120         14
   121         13
   122        119
   123         41
   124         12
   125        303
   126        110
   127         14
   128          3
   129          3
   131          2
   133         13
   134          8
   135         22
   136          8
   137         20
   138         61
   139         25
   140         83
   141         20
   142         13
   143          3
   147          5
   150          2
   151         27
   152         13
   153        260
   154        242
   155         29
   156          3
   157          8
   161         13
   162         15
   163         19
   164          2
   165          6
   166          2
   167          6
   168         12
   169          6
   175          7
   176         18
   177          4
   178         15
   179         33
   180          6
   181         10
   182          9
   185          2
   186          3
   190          3
   193         17
   194         25
   195          4
   196        315
   197         44
   198          5
   203          9
   211          6
   218         17
   219          6
   221          2
   235          4
   236         30
   237          5
   254          3