##TITLE=Library Entry 10661
##JCAMP-DX=Revision 4.10 
##DATA TYPE=MASS SPECTRUM
##SAMPLE DESCRIPTION=Chemical Concepts
##NAMES=HP
##CAS NAME=1-(1-Hydroxy-2,2,6-trimethyl-5-methylene-9-oxa-bicyclo[4.2.1]non-
7-yl)-ethanone
##MOLFORM=C14H22O3
##CAS REGISTRY NO=71596-89-9
##MP= -300
##BP= -300
##MW= 238
##$RETENTION INDEX=0
##$CONDENSED SPECTRUM=NO
##NPOINTS= 142
##XYDATA=(XY..XY) 1 
    26          4
    27         61
    28         18
    29         51
    31          8
    38          2
    39         61
    40         23
    41        168
    42         27
    43        999
    44         31
    45         19
    50          3
    51         14
    52          8
    53         51
    54         12
    55        121
    56         34
    57         44
    58          6
    59         16
    60          3
    61          3
    63          4
    65         21
    66          8
    67         44
    68         11
    69        115
    70         24
    71        120
    72         13
    73          5
    77         46
    78         11
    79         69
    80         13
    81        112
    82         16
    83         29
    84         52
    85         76
    86         10
    88          3
    91         37
    92          7
    93         98
    94         23
    95        174
    96         24
    97        106
    98         22
    99        701
   100         42
   101         15
   103          4
   104          3
   105         30
   106          9
   107        106
   108         15
   109         56
   110         14
   111         24
   112          7
   113          5
   114          4
   115          6
   116          3
   117          5
   119         23
   120          9
   121        216
   122         46
   123        127
   124         29
   125         90
   126         10
   127          8
   128          3
   131          4
   133         18
   134          6
   135        176
   136         32
   137         16
   138         10
   139        253
   140        175
   141         32
   142        158
   143         14
   144          3
   145          8
   146          3
   147          5
   149         24
   150         38
   151         10
   152         24
   153         22
   154         13
   155         24
   156          3
   159         13
   160          6
   161         10
   162          4
   163         17
   164         17
   165         15
   166          3
   167         18
   168         39
   169         13
   170          3
   175          4
   176          3
   177         53
   178         18
   179         28
   180         16
   181         24
   182          6
   183          2
   192          2
   193          3
   194          5
   195        129
   196         21
   197          3
   205         24
   206          4
   220         59
   221         10
   222          2
   223         13
   224          3
   238         19
   239          4