##TITLE=Library Entry 30829
##JCAMP-DX=Revision 4.10 
##DATA TYPE=MASS SPECTRUM
##SAMPLE DESCRIPTION=Japan AIST/NIMC Database- Spectrum MS-NW-7933
##NAMES=HP
##CAS NAME=D-(-)-threo-2-Amino-1-(p-nitrophenyl)-1,3-propanediol
##MOLFORM=C9H12N2O4
##CAS REGISTRY NO=716-61-0
##MP= -300
##BP= -300
##MW= 212
##$RETENTION INDEX=0
##$CONDENSED SPECTRUM=NO
##NPOINTS= 85
##XYDATA=(XY..XY) 1 
    15         21
    17          1
    18          4
    26          1
    27          6
    28          7
    29          2
    30         45
    31          9
    32          1
    38          2
    39         13
    40          3
    41          6
    42        137
    43         26
    44          3
    46          1
    50         12
    51         26
    52         10
    53          2
    54          1
    55          2
    57          1
    58          2
    59          8
    60        999
    61         26
    62          4
    63          8
    64          3
    65          7
    66          4
    67          1
    68          1
    73          1
    74          3
    75          4
    76          8
    77         34
    78         22
    79          5
    80          1
    89         12
    90         16
    91          9
    92          6
    93          1
    94          4
    95          2
   102          1
   103          1
   104          5
   105         18
   106         42
   107          5
   108          1
   116          7
   117         34
   118         13
   119          2
   120          3
   121          2
   122          2
   123          2
   129          1
   130          1
   134          2
   135          8
   136         42
   137          7
   146          9
   147          3
   148          1
   150          6
   151          4
   152          5
   153         33
   154          3
   164          2
   165          1
   176          1
   181         37
   182          4