##TITLE=Library Entry 23305
##JCAMP-DX=Revision 4.10 
##DATA TYPE=MASS SPECTRUM
##SAMPLE DESCRIPTION=NIST Mass Spectrometry Data Center, 1994
##NAMES=HP
##CAS NAME=3',4'-Dichloropivalanilide
##MOLFORM=C11H13Cl2NO
##CAS REGISTRY NO=7160-22-7
##MP= -300
##BP= -300
##MW= 245
##$RETENTION INDEX=0
##$CONDENSED SPECTRUM=NO
##NPOINTS= 129
##XYDATA=(XY..XY) 1 
    15         21
    16          0
    17          0
    18          1
    26          3
    27         50
    28         19
    29        172
    30          4
    35          2
    36          3
    37          6
    38         12
    39         96
    40         17
    41        266
    42         30
    43          2
    44          1
    47          2
    49          5
    50          7
    51          7
    52          7
    53          7
    54          2
    55         16
    56          1
    57        999
    58         41
    60          1
    61          8
    62         24
    63         38
    64          8
    65          4
    66          1
    67          0
    69          9
    70          4
    71          1
    72          7
    73         20
    74         12
    75         18
    76          2
    77          1
    78          0
    80          2
    83          4
    84          5
    85         81
    86          7
    87          3
    88          8
    89          8
    90         19
    91          4
    92          0
    94          0
    95          0
    97         12
    98          6
    99         15
   100          3
   101          4
   102          0
   103          0
   107          5
   109         17
   110          5
   111          6
   112          1
   115          0
   119          0
   124         19
   125         23
   126         14
   127         10
   128          2
   129          0
   130          0
   131          0
   133         30
   134          6
   135         19
   136          3
   137          4
   138          0
   145          9
   146          1
   147          5
   148          0
   149          1
   152          0
   153          0
   154          1
   156          0
   159          5
   160         27
   161        119
   162         26
   163         77
   164          8
   165         12
   166          2
   167          0
   173          0
   174          0
   176          0
   187          6
   188          4
   189          3
   190          2
   191          0
   202          9
   204          6
   205          0
   206          1
   210          1
   212          0
   230          1
   232          0
   245         76
   246          9
   247         51
   248          6
   249          8
   250          1