##TITLE=Library Entry 40331
##JCAMP-DX=Revision 4.10 
##DATA TYPE=MASS SPECTRUM
##SAMPLE DESCRIPTION=Chemical Concepts
##NAMES=HP
##CAS NAME=3-(4-Methoxyphenyl)-1,1-dimethylurea
##MOLFORM=C10H14N2O2
##CAS REGISTRY NO=7160-02-3
##MP= -300
##BP= -300
##MW= 194
##$RETENTION INDEX=0
##$CONDENSED SPECTRUM=NO
##NPOINTS= 46
##XYDATA=(XY..XY) 1 
    30          5
    39         10
    41         19
    42         27
    43         11
    44        128
    45         41
    46          4
    51         14
    52         27
    53         22
    56         18
    58          3
    63          9
    64         11
    65         13
    67          5
    72        999
    73         32
    77          8
    78         19
    79         14
    80         14
    81          5
    90          5
    92          9
    95         25
   106         18
   107          3
   108         11
   109          6
   121         27
   122         94
   123          9
   124         32
   134         45
   135          4
   136         11
   149        310
   150         41
   151          8
   179          2
   193          5
   194        459
   195         64
   196          5