##TITLE=Library Entry 16769
##JCAMP-DX=Revision 4.10 
##DATA TYPE=MASS SPECTRUM
##SAMPLE DESCRIPTION=TNO Volatile Compounds in Food - Chemical Concepts
##NAMES=HP
##CAS NAME=2,4-Hexadiene, 1,6-dimethoxy-, (E,E)-
##MOLFORM=C8H14O2
##CAS REGISTRY NO=71603-53-7
##MP= -300
##BP= -300
##MW= 142
##$RETENTION INDEX=0
##$CONDENSED SPECTRUM=NO
##NPOINTS= 61
##XYDATA=(XY..XY) 1 
    26          9
    27        166
    29        213
    30         29
    31         50
    33          5
    37          2
    38         17
    39        259
    40         31
    41        520
    42         27
    43         76
    44         15
    45        999
    46         18
    47         31
    50         20
    51         59
    52         37
    53        112
    54         31
    55         56
    56          7
    57          8
    58         25
    59          6
    61          0
    62          1
    63         11
    64          1
    65        107
    66        212
    67        368
    68         32
    69         86
    70          2
    71         76
    72          0
    75        200
    76          3
    77        147
    78         73
    79        324
    80        122
    81         80
    82         38
    83          3
    84         70
    85          4
    92          2
    94         14
    95        149
    96         20
    97        360
    98         21
   101          0
   109        145
   110        425
   111         39
   142          4