##TITLE=Library Entry 14197
##JCAMP-DX=Revision 4.10 
##DATA TYPE=MASS SPECTRUM
##SAMPLE DESCRIPTION=ORMSBG, 13(9)504(1978); H. DEMIAN ET AL
##NAMES=HP
##CAS NAME=Ethanone, 1-[2-(4-ethoxyphenyl)-4-methyl-5-thiazolyl]-
##MOLFORM=C14H15NO2S
##CAS REGISTRY NO=71633-86-8
##MP= -300
##BP= -300
##MW= 261
##$RETENTION INDEX=0
##$CONDENSED SPECTRUM=NO
##NPOINTS= 20
##XYDATA=(XY..XY) 1 
    43        999
    44        460
    45        290
    71        440
    72        210
   114        130
   119        180
   120        170
   148        110
   149         50
   177         20
   190        120
   218        600
   219         80
   232         60
   233        110
   246        390
   247         60
   261        650
   262        100