##TITLE=Library Entry 54835
##JCAMP-DX=Revision 4.10 
##DATA TYPE=MASS SPECTRUM
##SAMPLE DESCRIPTION=NIST Mass Spectrometry Data Center
##NAMES=HP
##CAS NAME=3-Thiophenemethanol
##MOLFORM=C5H6OS
##CAS REGISTRY NO=71637-34-8
##MP= -300
##BP= -300
##MW= 114
##$RETENTION INDEX=1052
##$CONDENSED SPECTRUM=NO
##NPOINTS= 64
##XYDATA=(XY..XY) 1 
    12         10
    13          3
    17          9
    18          7
    24          6
    25         38
    26         54
    29         71
    30         35
    32         47
    33         19
    34         13
    36         24
    37        134
    38        184
    39        515
    40         36
    41         70
    42          7
    45        863
    46         46
    47         54
    48         21
    49         69
    50        173
    51        143
    52         65
    53        196
    54         20
    55         30
    57        145
    58        183
    60         17
    61         25
    62         16
    63         19
    64          2
    66          7
    68         37
    69        134
    70         44
    71         50
    72          3
    73          2
    79          3
    81        285
    82         63
    83         52
    85        999
    86         83
    87         56
    88          4
    92          5
    93         10
    95         25
    97        424
    98         33
    99         21
   111         41
   113        279
   114        670
   115         59
   116         32
   117          2