##TITLE=Library Entry 99231
##JCAMP-DX=Revision 4.10 
##DATA TYPE=MASS SPECTRUM
##SAMPLE DESCRIPTION=Chemical Concepts
##NAMES=HP
##CAS NAME=Benzeneacetic acid, 4-methyl-.alpha.-oxo-
##MOLFORM=C9H8O3
##CAS REGISTRY NO=7163-50-0
##MP= -300
##BP= -300
##MW= 164
##$RETENTION INDEX=0
##$CONDENSED SPECTRUM=NO
##NPOINTS= 72
##XYDATA=(XY..XY) 1 
    25          1
    26         14
    27         25
    28          6
    29         12
    31          0
    36          1
    37         18
    38         35
    39        164
    40         11
    41         34
    42          1
    43          9
    44          9
    45         91
    46          1
    47          0
    48          0
    49          9
    50         69
    51         75
    52         18
    53          9
    55          0
    57          1
    59          5
    60          3
    61         21
    62         59
    63        143
    64         29
    65        378
    66         20
    67          1
    73          5
    74         22
    75         18
    76         13
    77         11
    78          2
    79          3
    84          2
    85          7
    86         11
    87          9
    88          2
    89         89
    90         49
    91        825
    92         61
    93          2
   102          0
   103          1
   104          1
   105          3
   107          2
   111          5
   113          1
   118          5
   119        999
   120         93
   121          7
   135          2
   136          3
   139          7
   140          0
   141          2
   156          1
   162          0
   164         31
   165          3