##TITLE=Library Entry 79942
##JCAMP-DX=Revision 4.10 
##DATA TYPE=MASS SPECTRUM
##SAMPLE DESCRIPTION=BMSYAL, 6(3)117(1979); R. M. THOMPSON AND D. A. CORY
##NAMES=HP
##CAS NAME=D-Arabinitol, pentabenzoate
##MOLFORM=C40H32O10
##CAS REGISTRY NO=71641-43-5
##MP= -300
##BP= -300
##MW= 672
##$RETENTION INDEX=0
##$CONDENSED SPECTRUM=NO
##NPOINTS= 18
##XYDATA=(XY..XY) 1 
    77        680
   105        999
   122        150
   202         77
   269        290
   281         41
   282         51
   294         14
   306         29
   311         40
   323         75
   324         72
   331         75
   403        240
   428        160
   537         25
   550          5
   551          5