##TITLE=Library Entry 80343
##JCAMP-DX=Revision 4.10 
##DATA TYPE=MASS SPECTRUM
##SAMPLE DESCRIPTION=BMSYAL, 6(3)117(1979); R. M. THOMPSON AND D. A. CORY
##NAMES=HP
##CAS NAME=D-Arabinose, O-(phenylmethyl)oxime, 2,3,4,5-tetrabenzoate
##MOLFORM=C40H33NO9
##CAS REGISTRY NO=71641-38-8
##MP= -300
##BP= -300
##MW= 671
##$RETENTION INDEX=0
##$CONDENSED SPECTRUM=NO
##NPOINTS= 18
##XYDATA=(XY..XY) 1 
    77        710
    91        850
   105        999
   122        170
   195         39
   201         28
   216         50
   269         18
   280         27
   281         27
   294         60
   403         16
   459        530
   473          3
   549          8
   550          8
   641          5
   671         14