##TITLE=Library Entry 23557
##JCAMP-DX=Revision 4.10 
##DATA TYPE=MASS SPECTRUM
##SAMPLE DESCRIPTION=G. VON UNRUH, UNIV. MED. KLINIK, VENUSBERG, BONN, W. GE
R.
##NAMES=HP
##CAS NAME=Hexanoic acid, 2-ethyl-, 1,1-dimethylethyl ester
##MOLFORM=C12H24O2
##CAS REGISTRY NO=71648-27-6
##MP= -300
##BP= -300
##MW= 200
##$RETENTION INDEX=0
##$CONDENSED SPECTRUM=NO
##NPOINTS= 16
##XYDATA=(XY..XY) 1 
    41        183
    42         17
    43         34
    55         45
    56         93
    57        999
    58         48
    59         19
    70         13
    73         12
    87         14
    88         53
    99         43
   127         55
   144         11
   145         35