##TITLE=Library Entry 31000
##JCAMP-DX=Revision 4.10 
##DATA TYPE=MASS SPECTRUM
##SAMPLE DESCRIPTION=H. MITA,RHEUMATO ALLERGOL. CENT.,SAGAMIHARA HOSP.,KANAG
AWA,J
##NAMES=HP
##CAS NAME=N-.alpha.-Heptafluorobutyryl-N-tele-ethoxycarbonylhistamine
##MOLFORM=C12H12F7N3O3
##CAS REGISTRY NO=71642-14-3
##MP= -300
##BP= -300
##MW= 379
##$RETENTION INDEX=0
##$CONDENSED SPECTRUM=NO
##NPOINTS= 61
##XYDATA=(XY..XY) 1 
    50         53
    51         65
    52         85
    53         65
    54        105
    55        122
    56         79
    57        130
    58         36
    60        999
    61         90
    62         26
    66         31
    67         58
    68         81
    69        246
    71         69
    73         28
    74         20
    75         23
    76         20
    77         66
    78        336
    79         36
    80         24
    81        902
    82        160
    87         25
    88         23
    91         25
    93         67
    94        697
    95        227
    99         50
   107         47
   109        253
   110         32
   119         36
   121         60
   122        134
   123        129
   135         24
   137         24
   138         85
   153         59
   154         32
   166        824
   167        171
   169        101
   178         20
   182         36
   191         36
   210         57
   226         95
   228         40
   256         24
   288         34
   306        144
   334         27
   379        290
   380         43