##TITLE=Library Entry 80346
##JCAMP-DX=Revision 4.10 
##DATA TYPE=MASS SPECTRUM
##SAMPLE DESCRIPTION=BMSYAL, 6(3)117(1979); R. M. THOMPSON AND D. A. CORY
##NAMES=HP
##CAS NAME=L-Mannose, 6-deoxy-, O-(phenylmethyl)oxime, 2,3,4,5-tetrabenzoate
##MOLFORM=C41H35NO9
##CAS REGISTRY NO=71641-40-2
##MP= -300
##BP= -300
##MW= 685
##$RETENTION INDEX=0
##$CONDENSED SPECTRUM=NO
##NPOINTS= 20
##XYDATA=(XY..XY) 1 
    77        720
    91        800
   105        999
   122        220
   195         30
   215         19
   230         72
   280         23
   281         58
   282         14
   283         12
   308         53
   331         40
   417         28
   473        600
   519          3
   563          6
   564         13
   655          4
   685         16