##TITLE=Library Entry 80342
##JCAMP-DX=Revision 4.10 
##DATA TYPE=MASS SPECTRUM
##SAMPLE DESCRIPTION=BMSYAL, 6(3)117(1979); R. M. THOMPSON AND D. A. CORY
##NAMES=HP
##CAS NAME=D-Ribose, O-(phenylmethyl)oxime, 2,3,4,5-tetrabenzoate
##MOLFORM=C40H33NO9
##CAS REGISTRY NO=71641-37-7
##MP= -300
##BP= -300
##MW= 671
##$RETENTION INDEX=0
##$CONDENSED SPECTRUM=NO
##NPOINTS= 17
##XYDATA=(XY..XY) 1 
    77        730
    91        850
   105        999
   122        210
   195         47
   201         22
   216         74
   269         19
   280         29
   281         33
   294         76
   403         21
   459        700
   549          7
   550         12
   641          5
   671         13