##TITLE=Library Entry 80353
##JCAMP-DX=Revision 4.10 
##DATA TYPE=MASS SPECTRUM
##SAMPLE DESCRIPTION=BMSYAL, 6(3)117(1979); R. M. THOMPSON AND D. A. CORY
##NAMES=HP
##CAS NAME=D-Mannose, O-(phenylmethyl)oxime, 2,3,4,5,6-pentabenzoate
##MOLFORM=C48H39NO11
##CAS REGISTRY NO=71641-47-9
##MP= -300
##BP= -300
##MW= 805
##$RETENTION INDEX=0
##$CONDENSED SPECTRUM=NO
##NPOINTS= 20
##XYDATA=(XY..XY) 1 
    77        450
    91        620
   105        999
   122        130
   195         21
   269         18
   280         13
   281         14
   294          4
   311         10
   323         16
   331         16
   350         34
   426         12
   428         14
   537          6
   593        220
   684          4
   775          6
   805          5