##TITLE=Library Entry 44618
##JCAMP-DX=Revision 4.10 
##DATA TYPE=MASS SPECTRUM
##SAMPLE DESCRIPTION=Chemical Concepts
##NAMES=HP
##CAS NAME=Dodecanoic acid, 12-hydroxy-, methyl ester
##MOLFORM=C13H26O3
##CAS REGISTRY NO=71655-36-2
##MP= -300
##BP= -300
##MW= 230
##$RETENTION INDEX=0
##$CONDENSED SPECTRUM=NO
##NPOINTS= 145
##XYDATA=(XY..XY) 1 
    26          4
    27         78
    28          1
    29        159
    30          6
    31        172
    33          4
    39         73
    40         17
    41        410
    42        101
    43        280
    44         21
    45         39
    46          2
    51          3
    52          2
    53         35
    54         63
    55        588
    56         91
    57         90
    58         10
    59        126
    60          7
    61          4
    65          6
    66         11
    67        115
    68        114
    69        321
    70         49
    71         46
    72         10
    73         49
    74        999
    75        258
    76         15
    77          6
    78          3
    79         27
    80         23
    81        124
    82        124
    83        220
    84        318
    85         57
    86          6
    87        549
    88         65
    89          6
    91          7
    92          4
    93         23
    94         33
    95        107
    96        145
    97        168
    98        423
    99         46
   100          9
   101         88
   102         13
   103          2
   105          9
   106          3
   107         19
   108         20
   109         54
   110         92
   111         78
   112        123
   113         27
   114         20
   115         59
   116         17
   117          2
   119         11
   120          6
   121         22
   122          6
   123         48
   124         31
   125         39
   126         29
   127         19
   128         16
   129         65
   130         16
   131          3
   133         13
   134         11
   135          9
   136         26
   137         41
   138         75
   139         37
   140          7
   141         13
   142         10
   143        159
   144         23
   145          5
   147          5
   149          7
   150          4
   151         23
   152         50
   153         14
   154         20
   155         15
   156          7
   157         62
   158          7
   161          9
   162         30
   163         72
   164         11
   165          2
   167          2
   168          4
   169         23
   170          6
   171         12
   179         12
   180         47
   181        143
   182         19
   183          7
   184          2
   185          6
   197         15
   198         18
   199        192
   200        267
   201         40
   202          3
   212         11
   213         62
   214         10
   215          1
   230          3
   231        347
   232         54
   233          6