##TITLE=Library Entry 50734
##JCAMP-DX=Revision 4.10 
##DATA TYPE=MASS SPECTRUM
##SAMPLE DESCRIPTION=NIST Mass Spectrometry Data Center
##NAMES=HP
##CAS NAME=Pentanoic acid, 4-methyl-, 3,7-dimethyl-6-octenyl ester
##MOLFORM=C16H30O2
##CAS REGISTRY NO=71662-18-5
##MP= -300
##BP= -300
##MW= 254
##$RETENTION INDEX=1687
##$CONDENSED SPECTRUM=NO
##NPOINTS= 100
##XYDATA=(XY..XY) 1 
    26          1
    27         34
    28         17
    29         51
    30          1
    31          3
    37          1
    38          1
    39         68
    40         16
    41        439
    42         59
    43        287
    44         11
    45          5
    50          2
    51          7
    52          4
    53         63
    54         23
    55        321
    56         87
    57        111
    58          6
    59         13
    60          5
    65         14
    66          8
    67        358
    68        213
    69        731
    70         90
    71        108
    72          7
    73         16
    74          4
    77         15
    78          3
    79         31
    80         72
    81        999
    82        595
    83        204
    84         18
    85          9
    86          2
    87          2
    91         10
    93         14
    94         57
    95        668
    96        158
    97         45
    98          5
    99        134
   100         10
   101         39
   102          2
   103          2
   105          7
   106          2
   107         15
   108          7
   109        288
   110         68
   111         18
   112          5
   113          2
   114          2
   115         42
   116          5
   117         34
   119          7
   121         13
   122          7
   123        770
   124         77
   125          5
   133          5
   135         12
   137         26
   138        397
   139         48
   140          4
   141          2
   143          2
   147          5
   148          3
   149          5
   150          3
   155          2
   157          2
   161          5
   171          1
   177         10
   181          1
   189          2
   204          3
   205          4
   211          1