##TITLE=Library Entry 57611
##JCAMP-DX=Revision 4.10 
##DATA TYPE=MASS SPECTRUM
##SAMPLE DESCRIPTION=Chemical Concepts
##NAMES=HP
##CAS NAME=Pentanoic acid, 2,4-dimethyl-, methyl ester
##MOLFORM=C8H16O2
##CAS REGISTRY NO=71672-33-8
##MP= -300
##BP= -300
##MW= 144
##$RETENTION INDEX=0
##$CONDENSED SPECTRUM=NO
##NPOINTS= 81
##XYDATA=(XY..XY) 1 
    25          1
    26         16
    27        189
    28          0
    29        198
    30          7
    31         19
    33          5
    36          1
    37          8
    38          3
    39         89
    40          5
    41        244
    42         64
    43        716
    44         13
    45         22
    46          0
    50          4
    51          5
    52          5
    53         11
    54          5
    55        104
    56         92
    57        179
    58         13
    59        158
    60         10
    61          6
    63          2
    64          2
    65          3
    66          2
    67          6
    68          6
    69         40
    70         21
    71         14
    72          1
    73         15
    74          3
    77          2
    78          1
    81          3
    82          2
    83         13
    84         10
    85        117
    86          7
    87         81
    88        999
    89         43
    90          5
    91          2
    92          0
    94          0
    97          3
    98          3
    99         24
   100          2
   101        183
   102         14
   103          0
   105          2
   111          1
   112          1
   113         52
   114          2
   115         39
   116          2
   117          1
   118          2
   119          1
   127          1
   129         12
   130          3
   141          1
   142          1
   144          2