##TITLE=Library Entry 48253
##JCAMP-DX=Revision 4.10 
##DATA TYPE=MASS SPECTRUM
##SAMPLE DESCRIPTION=NIST Mass Spectrometry Data Center
##NAMES=HP
##CAS NAME=2-Ethoxybenzyl alcohol
##MOLFORM=C9H12O2
##CAS REGISTRY NO=71672-75-8
##MP= -300
##BP= -300
##MW= 152
##$RETENTION INDEX=0
##$CONDENSED SPECTRUM=NO
##NPOINTS= 71
##XYDATA=(XY..XY) 1 
    15         25
    19          6
    26         44
    27        278
    29        256
    30         10
    31         54
    37         12
    38         49
    39        280
    40         40
    41         89
    42         12
    43         25
    45          9
    47         30
    50         76
    51        230
    52         85
    53         58
    54          7
    55         53
    56          3
    61          7
    62         25
    63         68
    64         33
    65        140
    66         48
    67         37
    68          8
    69          3
    73          3
    74         13
    75         15
    76         46
    77        482
    78        999
    79        131
    80          8
    81          5
    89         14
    90          6
    91         51
    92         12
    93         32
    94         30
    95        256
    96         20
   103          7
   105        161
   106        700
   107        171
   108         16
   115          3
   116          3
   117          8
   118          3
   119         54
   121         78
   122         19
   123        304
   124         37
   125          4
   133         29
   134         66
   135         19
   136          3
   152        583
   153         57
   154          4