##TITLE=Library Entry 81681
##JCAMP-DX=Revision 4.10 
##DATA TYPE=MASS SPECTRUM
##SAMPLE DESCRIPTION=Exported from NIST MS Search
##NAMES=HP
##CAS NAME=2-Propen-1-one, 3-(2-furanyl)-1-phenyl-
##MOLFORM=C13H10O2
##CAS REGISTRY NO=717-21-5
##MP= -300
##BP= -300
##MW= 198
##$RETENTION INDEX=0
##$CONDENSED SPECTRUM=NO
##NPOINTS= 115
##XYDATA=(XY..XY) 1 
    14          6
    15          8
    26          6
    27         29
    28         43
    29         16
    36          5
    37          9
    38         30
    39        176
    40         11
    41         13
    42          8
    43         36
    49          5
    50         71
    51        213
    52         22
    53         16
    54          4
    55         44
    56          6
    57         14
    58         20
    61          9
    62         25
    63         76
    64         28
    65        246
    66         20
    67          4
    68          8
    69          8
    70         25
    71         55
    72         18
    73          6
    74         26
    75         23
    76         33
    77        589
    78         74
    79         10
    81          6
    82          4
    84         10
    85         34
    86          5
    87          6
    88          3
    89         19
    90          6
    91         29
    92         18
    93         44
    94          6
    95         10
    96          8
    97         11
    98          5
    99          9
   101          4
   102         31
   103         47
   104         12
   105        999
   106         79
   107         10
   109          3
   113          5
   114          8
   115        123
   116         33
   117         54
   118         68
   119          9
   120         40
   121        386
   122         49
   123          6
   126          3
   127          6
   128         18
   129          7
   130         13
   131          5
   139         23
   140          7
   141        197
   142         61
   143          8
   144        172
   145         21
   149         24
   150          4
   151          6
   152         11
   153         15
   154          4
   155          7
   157         29
   158          4
   162          6
   164          4
   168          8
   169         94
   170         94
   171         14
   180          5
   181         15
   196         11
   197         85
   198        853
   199        124
   200         19