##TITLE=Library Entry 67568
##JCAMP-DX=Revision 4.10 
##DATA TYPE=MASS SPECTRUM
##SAMPLE DESCRIPTION=Japan AIST/NIMC Database- Spectrum MS-IW- 711
##NAMES=HP
##CAS NAME=Undecanoic acid, 11-phenoxy-
##MOLFORM=C17H26O3
##CAS REGISTRY NO=7170-44-7
##MP= -300
##BP= -300
##MW= 278
##$RETENTION INDEX=0
##$CONDENSED SPECTRUM=NO
##NPOINTS= 89
##XYDATA=(XY..XY) 1 
    17          3
    18         20
    27          3
    28          3
    29          9
    31          1
    39          6
    40          1
    41         33
    42          5
    43         28
    44          3
    45          4
    51          3
    53          2
    54          3
    55         65
    56          9
    57         15
    59          4
    60          5
    65          8
    66          5
    67         11
    68          7
    69         52
    70          7
    71          9
    73          8
    74          2
    77         21
    78          2
    79          8
    80          1
    81         15
    82          9
    83         40
    84         11
    85          5
    87          4
    91          2
    93          6
    94        999
    95         83
    96         11
    97         19
    98          8
    99          2
   100          1
   101          4
   105          1
   107         13
   108          2
   109          5
   110          3
   111         10
   112          1
   113          1
   114          2
   115          2
   119          2
   121          2
   122          3
   123          6
   124          7
   125          8
   127          1
   129          1
   133          1
   135          2
   137          3
   138          1
   139          1
   147          1
   148          2
   149         23
   150          3
   165          1
   166          4
   167         23
   168          3
   185          5
   199          2
   218          2
   234          1
   261          2
   278        165
   279         31
   280          3