##TITLE=Library Entry 67489
##JCAMP-DX=Revision 4.10 
##DATA TYPE=MASS SPECTRUM
##SAMPLE DESCRIPTION=Japan AIST/NIMC Database- Spectrum MS-NW-6759
##NAMES=HP
##CAS NAME=3-Phenoxypropionic acid
##MOLFORM=C9H10O3
##CAS REGISTRY NO=7170-38-9
##MP= -300
##BP= -300
##MW= 166
##$RETENTION INDEX=0
##$CONDENSED SPECTRUM=NO
##NPOINTS= 78
##XYDATA=(XY..XY) 1 
    15          1
    18          2
    25          1
    26          9
    27         35
    28         12
    29         18
    31          6
    32          3
    36          1
    37          6
    38         15
    39         73
    40         17
    41          2
    42          5
    43         15
    44          4
    45         40
    46          2
    47          3
    49          2
    50         18
    51         51
    52          6
    53          6
    54          2
    55         54
    56          3
    57          1
    60          5
    61          4
    62          7
    63         23
    64         11
    65         97
    66         87
    67          7
    68          3
    71          3
    72          9
    73         37
    74          9
    75          5
    76          5
    77         96
    78         20
    79         13
    80          1
    87          3
    89          1
    91         10
    92          6
    93         15
    94        999
    95         74
    96          5
   101          1
   103          3
   105          1
   107         34
   108          3
   109          1
   115          1
   119          2
   120          8
   121         16
   122          1
   123          1
   126          1
   127          5
   147          1
   148          3
   149          7
   150          1
   166        339
   167         35
   168          5