##TITLE=Library Entry 91098
##JCAMP-DX=Revision 4.10 
##DATA TYPE=MASS SPECTRUM
##SAMPLE DESCRIPTION=T. Jones, LC, NHLBI, NIH, Bethesda, MD 20892
##NAMES=HP
##CAS NAME=6,9-Pentadecadione
##MOLFORM=C15H28O2
##CAS REGISTRY NO=71732-70-2
##MP= -300
##BP= -300
##MW= 240
##$RETENTION INDEX=0
##$CONDENSED SPECTRUM=NO
##NPOINTS= 179
##XYDATA=(XY..XY) 1 
    41        124
    42         66
    46          0
    47          1
    50          1
    53         42
    55        108
    56         31
    57        156
    58         16
    60          1
    61          1
    62          0
    63          2
    64          1
    65          8
    66          1
    67         28
    68         10
    69        113
    70         56
    71        622
    72         86
    73          4
    74          1
    75          0
    76          0
    77          9
    78          1
    79          7
    80          6
    81         30
    82         10
    83         26
    85        270
    86         19
    87          4
    89          0
    90          0
    91         16
    93         11
    94          4
    95        149
    96          6
    97         43
    98         38
    99        530
   100         37
   101         17
   102          1
   103          0
   104          0
   105          3
   106          0
   107         30
   108          7
   109        165
   110         17
   111         12
   112         73
   113        410
   114        999
   115         57
   116          2
   117          0
   118          0
   119         14
   120          0
   122          2
   123         16
   124          3
   125          2
   126         98
   127        814
   128        132
   129          5
   132          2
   133         42
   134          2
   135          1
   136          0
   137         24
   138          3
   140          7
   141        285
   142         36
   143          2
   144          1
   145          1
   147          0
   148          0
   149          0
   151         13
   152          2
   153          0
   154          1
   155        351
   156         29
   157          0
   158          0
   159          1
   160          0
   161          0
   163          0
   164          1
   165          4
   166          3
   167          3
   168          2
   169        120
   170        404
   171         35
   172          4
   173          1
   174          0
   175          0
   177          0
   178          0
   180          1
   181          1
   182          3
   183         72
   184        331
   185         43
   186          3
   187          0
   188          0
   189          0
   190          0
   191          0
   192          0
   193          1
   194          0
   195          1
   196          1
   197         67
   198         16
   199          1
   200          0
   201          0
   202          0
   203          1
   204          0
   205          1
   206          0
   207          0
   208          1
   209          0
   210          0
   211         19
   212          3
   213          1
   214          0
   215          0
   216          1
   217          1
   218          0
   220          2
   221          1
   223          2
   224          0
   225          3
   226          1
   227          0
   228          0
   229          0
   231          0
   232          1
   233          0
   234          0
   235          0
   236          1
   237          1
   238          1
   239          4
   240         93
   241         17
   242          5
   243          1