##TITLE=Library Entry 68059
##JCAMP-DX=Revision 4.10 
##DATA TYPE=MASS SPECTRUM
##SAMPLE DESCRIPTION=NIST Mass Spectrometry Data Center, 2010
##NAMES=HP
##CAS NAME=1H-Imidazole, 1-(2,2,3,3,3-pentafluoro-1-oxopropyl)-
##MOLFORM=C6H3F5N2O
##CAS REGISTRY NO=71735-32-5
##MP= -300
##BP= -300
##MW= 214
##$RETENTION INDEX=0
##$CONDENSED SPECTRUM=NO
##NPOINTS= 51
##XYDATA=(XY..XY) 1 
    28         40
    31         30
    38         18
    39         55
    40        275
    41         35
    50         22
    52         10
    53          6
    54          6
    66         26
    67        155
    68        324
    69        170
    70         19
    71          6
    74          6
    81          7
    85          3
    86          2
    88          1
    89          4
    90         18
    91          4
    93          5
    94         20
    95        999
    96         49
   100         23
   102          2
   108          3
   109          6
   117         27
   119         91
   120          4
   128          3
   131          3
   132          1
   138          1
   140          1
   158          4
   160          1
   167         10
   168          1
   186          1
   195         11
   196          1
   213          1
   214        225
   215         14
   216          1