##TITLE=Library Entry 17513
##JCAMP-DX=Revision 4.10 
##DATA TYPE=MASS SPECTRUM
##SAMPLE DESCRIPTION=J. SHAW, BORRISTON RESEARCH, ROCKVILLE, MD, USA
##NAMES=HP
##CAS NAME=Carbophenoxon
##MOLFORM=C11H16ClO3PS2
##CAS REGISTRY NO=7173-84-4
##MP= -300
##BP= -300
##MW= 326
##$RETENTION INDEX=2203
##$CONDENSED SPECTRUM=NO
##NPOINTS= 167
##XYDATA=(XY..XY) 1 
    12          3
    13          3
    14         16
    15         67
    16         11
    17         46
    18        166
    19         18
    25          3
    26         50
    27        325
    28        140
    29        722
    30         28
    31         38
    32         16
    33          5
    34          8
    35          9
    36         13
    37          7
    38         21
    39         46
    40          2
    41         19
    42          8
    43         62
    45        999
    46        116
    47        185
    48         13
    49         12
    50         74
    51         58
    52          4
    53          3
    54          3
    55          7
    56          2
    57         20
    58         23
    59         21
    60         18
    61         23
    62         24
    63         90
    64         14
    65        156
    66          4
    67          2
    69         78
    70          7
    71         10
    72          5
    73         44
    74         35
    75        401
    76         39
    77        102
    78         28
    79         20
    81        486
    82        173
    83         93
    84          8
    85         16
    86          2
    87          5
    88          1
    89         10
    91        144
    92          8
    93         49
    94         13
    95         18
    96         19
    97        142
    98          9
    99         69
   100         15
   101         18
   102          4
   103          2
   105          4
   106          4
   107         25
   108        231
   109        818
   110        107
   111        376
   112         25
   113         39
   114         36
   115         39
   116          3
   117          2
   118          2
   119          1
   120          3
   121         65
   122         32
   123         11
   125         99
   126         24
   127        144
   128          8
   129          7
   130          1
   131          1
   133          1
   135          4
   137        215
   138        157
   139        268
   140         17
   141         31
   142         27
   143        201
   144         86
   145         72
   146         28
   147          5
   148          1
   149          4
   151          1
   153         73
   154         16
   155        174
   157        325
   158         37
   159        105
   160         11
   161          5
   162          1
   169         12
   170         56
   171         66
   172          6
   173          9
   174          2
   175          7
   176          1
   177          2
   183        284
   184         28
   185         18
   186          4
   187          6
   188          5
   189         19
   190          4
   191          7
   197          1
   213          2
   222          1
   223          1
   224          1
   225          1
   280          2
   281          2
   286          6
   288          4
   326         49
   327          7
   328         19
   329          2
   330          1