##TITLE=Library Entry 47499
##JCAMP-DX=Revision 4.10 
##DATA TYPE=MASS SPECTRUM
##SAMPLE DESCRIPTION=B.M. ZOLOTAREV, INST. ORG. CHEM. N.D. ZELINSKI, MOSCOW,
 USSR
##NAMES=HP
##CAS NAME=(3-Methylseleno-2-benzo[b]thienylidene)aniline
##MOLFORM=C16H13NSSe
##CAS REGISTRY NO=71740-03-9
##MP= -300
##BP= -300
##MW= 331
##$RETENTION INDEX=0
##$CONDENSED SPECTRUM=NO
##NPOINTS= 42
##XYDATA=(XY..XY) 1 
    50        150
    51        630
    52        100
    77        999
    78        210
    89        120
    93         80
   132         80
   133         40
   134         70
   145         70
   146         50
   147         60
   157         50
   159        670
   160        100
   161         50
   165         80
   169         70
   208         90
   211         60
   213        110
   234         70
   235        160
   236        510
   237        130
   238        200
   239        150
   240         60
   312         90
   313         90
   314        220
   315         50
   316        430
   317         70
   318        110
   327         10
   328         10
   329         30
   330          8
   331         50
   332         10