##TITLE=Library Entry 97404
##JCAMP-DX=Revision 4.10 
##DATA TYPE=MASS SPECTRUM
##SAMPLE DESCRIPTION=Exported from NIST MS Search
##NAMES=HP
##CAS NAME=Benzene, 1-isocyano-4-methyl-
##MOLFORM=C8H7N
##CAS REGISTRY NO=7175-47-5
##MP= -300
##BP= -300
##MW= 117
##$RETENTION INDEX=0
##$CONDENSED SPECTRUM=NO
##NPOINTS= 14
##XYDATA=(XY..XY) 1 
    50         90
    51        100
    52         50
    61         40
    62         76
    63        157
    64         76
    65         50
    89        281
    90        351
    91        100
   116        839
   117        999
   118         90