##TITLE=Library Entry 59748
##JCAMP-DX=Revision 4.10 
##DATA TYPE=MASS SPECTRUM
##SAMPLE DESCRIPTION=Dr. Jiri Zamecnik, DCIEM, North York, Canada, GP Librar
y
##NAMES=HP
##CAS NAME=4-Benzyloxy.beta.-methyl-.beta.-nitrostyrene
##MOLFORM=C16H15NO3
##CAS REGISTRY NO=7176-38-7
##MP= -300
##BP= -300
##MW= 269
##$RETENTION INDEX=0
##$CONDENSED SPECTRUM=NO
##NPOINTS= 42
##XYDATA=(XY..XY) 1 
    39         32
    41         20
    50          5
    51         20
    52          6
    63         15
    65         91
    66          4
    76          2
    77         19
    78          9
    89         14
    91        999
    92         70
   102          2
   103          8
   104          1
   115          5
   116          1
   131          4
   132          0
   146          5
   148          2
   152          0
   162          0
   165          0
   178          1
   179          0
   181          0
   189          0
   202          0
   207          0
   212          1
   222          0
   223          0
   224          0
   237          1
   238          0
   239          0
   252          0
   269         32
   270          5