##TITLE=Library Entry 50305
##JCAMP-DX=Revision 4.10 
##DATA TYPE=MASS SPECTRUM
##SAMPLE DESCRIPTION=Chemical Concepts
##NAMES=HP
##CAS NAME=Hepta-4,6-dienoic acid, ethyl ester
##MOLFORM=C9H14O2
##CAS REGISTRY NO=71779-51-6
##MP= -300
##BP= -300
##MW= 154
##$RETENTION INDEX=0
##$CONDENSED SPECTRUM=NO
##NPOINTS= 95
##XYDATA=(XY..XY) 1 
    26         13
    27        107
    28         24
    29        211
    30          5
    31          9
    37          2
    38          9
    39        148
    40         26
    41        276
    42         27
    43         45
    44          5
    45         16
    46          1
    47          2
    48          1
    49          1
    50         17
    51         38
    52         30
    53         90
    54         40
    55         63
    56         12
    57         58
    58          4
    59          2
    60         19
    61         25
    62          4
    63         11
    64          3
    65         65
    66         69
    67        746
    68         60
    69         20
    70         11
    71         10
    72          2
    73          6
    74          3
    75          4
    76          3
    77         78
    78         23
    79        567
    80        782
    81        999
    82         69
    83        200
    84         82
    85         14
    86          3
    87          2
    88          6
    89         10
    90          1
    91         19
    92          9
    93         13
    94         12
    95         20
    96          6
    97         38
    98          6
    99          2
   100          0
   101          1
   102          0
   103          2
   104          1
   105         16
   106          3
   107         29
   108         19
   109        257
   110         21
   111         14
   112         45
   113          8
   114          1
   115          3
   116          3
   125         16
   126         24
   127          4
   139          2
   152          1
   153          2
   154        515
   155         44
   156          6