##TITLE=Library Entry 79563
##JCAMP-DX=Revision 4.10 
##DATA TYPE=MASS SPECTRUM
##SAMPLE DESCRIPTION=Insect Chem. Ecol. Lab., USDA, Beltsville, MD 20705
##NAMES=HP
##CAS NAME=1-Benzoyl-1,2,3,6-tetrahydropyridine
##MOLFORM=C12H13NO
##CAS REGISTRY NO=71785-91-6
##MP= -300
##BP= -300
##MW= 187
##$RETENTION INDEX=0
##$CONDENSED SPECTRUM=NO
##NPOINTS= 138
##XYDATA=(XY..XY) 1 
    41         40
    42         25
    43         12
    44         21
    45          4
    47         11
    48          5
    49         46
    50         92
    51        228
    52         37
    53         46
    54         43
    55         49
    56         17
    57          6
    58          1
    59          0
    60          2
    61          2
    62          4
    63          8
    64          3
    65         11
    66         15
    67         33
    68          6
    69          8
    70          3
    71          3
    72          1
    73          4
    74         20
    75         18
    76         41
    77        564
    78         57
    79         14
    80         31
    81          9
    82         79
    83         10
    84         30
    85          4
    86         19
    87          1
    88          3
    89          3
    90          2
    91         12
    92          6
    93          3
    94          1
    95          1
    96          1
    97          2
    98          1
    99          1
   100          1
   101          1
   102          2
   103         20
   104         17
   105        999
   106         95
   107          7
   108          1
   109          1
   110          2
   111          2
   112          1
   113          0
   114          0
   115          3
   116          1
   117          4
   118          2
   119          3
   120          2
   121         29
   122         23
   123          2
   124          0
   125          1
   126          0
   127          1
   128          3
   129          2
   130          3
   131          2
   132          4
   133          5
   134          4
   135          2
   136          0
   137          1
   138          0
   140          0
   141          1
   142          1
   143          2
   144          2
   145          3
   146          6
   147          3
   148          2
   149          2
   151          0
   152          0
   153          0
   154          1
   155          0
   156          1
   157          1
   158          4
   159          3
   160          1
   161          1
   162          1
   163          1
   167          1
   168          2
   169          1
   170          2
   171          1
   172          4
   173          1
   174          0
   175          0
   181          1
   182          0
   184          1
   185          2
   186        138
   187        460
   188         76
   189          7
   190          0