##TITLE=Library Entry 81503
##JCAMP-DX=Revision 4.10 
##DATA TYPE=MASS SPECTRUM
##SAMPLE DESCRIPTION=Japan AIST/NIMC Database- Spectrum MS-IW-2214
##NAMES=HP
##CAS NAME=2,2,2,2',2',2'-Hexafluorocumyl alcohol
##MOLFORM=C9H6F6O
##CAS REGISTRY NO=718-64-9
##MP= -300
##BP= -300
##MW= 244
##$RETENTION INDEX=0
##$CONDENSED SPECTRUM=NO
##NPOINTS= 102
##XYDATA=(XY..XY) 1 
    20          2
    26          2
    27         10
    29          2
    31          5
    36          1
    37          5
    38         12
    39         22
    40          1
    43          1
    44          1
    49          4
    50         61
    51        125
    52         18
    53          9
    54          1
    56          1
    57          7
    61          4
    62          9
    63         14
    64          1
    66          1
    67          1
    68          2
    69        217
    70          4
    73          4
    74         18
    75         22
    76         18
    77        305
    78         81
    79          6
    80          2
    81          6
    83          2
    85          1
    86          2
    87          6
    88          4
    89          4
    92          1
    93          2
    94          1
    95          9
    96         10
    97         23
    98          1
    99          7
   100          2
   101          3
   103          1
   104          7
   105        999
   106         79
   107         13
   108          5
   109          2
   111          1
   112          1
   114          2
   119          7
   120          1
   123          8
   125         10
   126          4
   127        146
   128         10
   132          1
   136          2
   137          5
   138          6
   139         12
   140          1
   145         19
   146          1
   154          1
   155          2
   156          4
   157          8
   158          5
   169          1
   173          1
   174          2
   175        748
   176         66
   177         37
   178          3
   185          2
   187          3
   195          2
   205         72
   206          7
   207          4
   208          5
   223          1
   244        366
   245         36
   246          2