##TITLE=Library Entry 24954
##JCAMP-DX=Revision 4.10 
##DATA TYPE=MASS SPECTRUM
##SAMPLE DESCRIPTION=A.A.Kutin, Moscow, Russia
##NAMES=HP
##CAS NAME=p-Nitrobenzylidene tert-butylamine
##MOLFORM=C11H14N2O2
##CAS REGISTRY NO=718-36-5
##MP= -300
##BP= -300
##MW= 206
##$RETENTION INDEX=0
##$CONDENSED SPECTRUM=NO
##NPOINTS= 101
##XYDATA=(XY..XY) 1 
    54        120
    55        173
    56        995
    57        999
    58        306
    59         20
    60          7
    62         50
    63        156
    64         26
    65         68
    66         14
    67         16
    68         17
    69         11
    70         10
    71          6
    72         12
    73         46
    74         34
    75        164
    76        225
    77         53
    78          7
    79          2
    80          2
    81          2
    82         11
    86         21
    87         14
    89        120
    90         40
    91         96
    92         77
    93         17
    94         23
    96          3
    97         11
    99          4
   101         26
   102         46
   103        173
   104        114
   105         85
   106         29
   109          2
   110          2
   114         25
   116         19
   117         31
   118         47
   119         86
   120         61
   121         23
   122          5
   127          5
   128         11
   129         17
   130         85
   131         21
   132         15
   133         35
   134         23
   135          4
   139          2
   141          4
   142          2
   143         18
   144         90
   145        517
   146        104
   147         11
   148         24
   149         71
   150        186
   151          8
   153          3
   154          4
   156          2
   158          3
   159         19
   160          7
   161        208
   162         21
   163          4
   166          3
   173          2
   175         25
   176         52
   177          8
   178          2
   180          2
   181          5
   187          3
   190         13
   191        784
   192        249
   193         20
   205          8
   206         45
   207         19