##TITLE=Library Entry 107918
##JCAMP-DX=Revision 4.10 
##DATA TYPE=MASS SPECTRUM
##SAMPLE DESCRIPTION=D.H.WILLIAMS CHEMISTRY DEPT., UNIVERSITY OF CAMBRIDGE
##NAMES=HP
##CAS NAME=Piperidine, 1-(1-butenyl)-
##MOLFORM=C9H17N
##CAS REGISTRY NO=7182-10-7
##MP= -300
##BP= -300
##MW= 139
##$RETENTION INDEX=0
##$CONDENSED SPECTRUM=NO
##NPOINTS= 59
##XYDATA=(XY..XY) 1 
    15         15
    26         10
    27         50
    28         35
    29         40
    30         20
    39         45
    40         20
    41        120
    42         60
    43         25
    44         30
    50         10
    51         10
    52         10
    53         30
    54         35
    55         80
    56         40
    57         20
    65         10
    66          5
    67         25
    68        500
    69         30
    70         30
    72         10
    77         10
    79         10
    80         30
    81         20
    82         40
    83         20
    84         90
    85         40
    93          5
    94         20
    95         10
    96         40
    97         10
    98         30
   106         10
   108         15
   109          8
   110        150
   111         20
   120         10
   122         55
   123         10
   124        999
   125        100
   126         15
   134         10
   135         10
   136         15
   137         30
   138         90
   139        270
   140         30