##TITLE=Library Entry 158
##JCAMP-DX=Revision 4.10 
##DATA TYPE=MASS SPECTRUM
##SAMPLE DESCRIPTION=D.H.WILLIAMS CHEMISTRY DEPT., UNIVERSITY OF CAMBRIDGE
##NAMES=HP
##CAS NAME=Piperidine, 1-(1-propenyl)-
##MOLFORM=C8H15N
##CAS REGISTRY NO=7182-09-4
##MP= -300
##BP= -300
##MW= 125
##$RETENTION INDEX=0
##$CONDENSED SPECTRUM=NO
##NPOINTS= 71
##XYDATA=(XY..XY) 1 
    15        100
    16        390
    17        140
    18        290
    25         10
    26        140
    27        550
    28        999
    29         40
    30        275
    31         15
    34         15
    37         25
    38         55
    39        530
    40        200
    41        755
    42        460
    43        180
    44        270
    45         15
    48         10
    49         10
    50         55
    51         55
    52         60
    53        100
    54        198
    55        440
    56        340
    57         80
    62         10
    63         10
    65         30
    66         20
    67        100
    68        400
    69        240
    70        140
    71         30
    77         20
    78         10
    79         40
    80         70
    81         48
    82        220
    83         65
    84        385
    85        165
    86         10
    91         20
    93         10
    94         56
    95         30
    96        265
    97         40
    98         35
   100         10
   101         10
   105         10
   106         10
   107         10
   108         35
   109         20
   110         20
   119         10
   120         10
   122         30
   123         20
   124        235
   125        250