##TITLE=Library Entry 68972
##JCAMP-DX=Revision 4.10 
##DATA TYPE=MASS SPECTRUM
##SAMPLE DESCRIPTION=ORMSBG, 14(5)254(1979); K. JAKOPCIC ET AL.
##NAMES=HP
##CAS NAME=3a,6-Epoxy-3aH-isoindole, 1,2,3,6,7,7a-hexahydro-6-methyl-2-pheny
l-
##MOLFORM=C15H17NO
##CAS REGISTRY NO=71840-20-5
##MP= -300
##BP= -300
##MW= 227
##$RETENTION INDEX=0
##$CONDENSED SPECTRUM=NO
##NPOINTS= 16
##XYDATA=(XY..XY) 1 
    41         60
    43         90
    65         40
    67         30
    77        140
    79         30
    91         80
    95        999
    96         90
   104         60
   105         30
   106         40
   132         30
   133        170
   227        220
   228         40