##TITLE=Library Entry 80045
##JCAMP-DX=Revision 4.10 
##DATA TYPE=MASS SPECTRUM
##SAMPLE DESCRIPTION=ORMSBG, 14(5)286(1979); T. L. FOLK ET AL.
##NAMES=HP
##CAS NAME=Phenol, 2,2'-methylenebis-, dibenzoate
##MOLFORM=C27H20O4
##CAS REGISTRY NO=71840-29-4
##MP= -300
##BP= -300
##MW= 408
##$RETENTION INDEX=0
##$CONDENSED SPECTRUM=NO
##NPOINTS= 10
##XYDATA=(XY..XY) 1 
    51         50
    77        350
    78         30
   105        999
   106         80
   286         50
   303        130
   304         30
   390         70
   408         10