##TITLE=Library Entry 13178
##JCAMP-DX=Revision 4.10 
##DATA TYPE=MASS SPECTRUM
##SAMPLE DESCRIPTION=ORMSBG, 14(5)286(1979); T. L. FOLK ET AL.
##NAMES=HP
##CAS NAME=Propanoic acid, 2-methyl-, 2-(1,1-dimethylethyl)-6-[[3-(1,1-dimet
hylethyl)-2-hydroxy-5-methylphenyl]methyl]-4-methylphenyl ester
##MOLFORM=C27H38O3
##CAS REGISTRY NO=71840-27-2
##MP= -300
##BP= -300
##MW= 410
##$RETENTION INDEX=0
##$CONDENSED SPECTRUM=NO
##NPOINTS= 68
##XYDATA=(XY..XY) 1 
    39         80
    41        300
    42         60
    43        999
    44         40
    55         90
    56         30
    57        450
    69         30
    71        410
    77         60
    79         50
    91        160
    93         50
   105        210
   106         30
   107         40
   115         70
   116         40
   117         60
   118         40
   119        140
   121        210
   127         30
   128         50
   129         30
   131         40
   133        190
   134         30
   135         90
   137         60
   145         70
   146         40
   147         90
   148         50
   149        200
   159         60
   161        630
   162        120
   163         30
   164        340
   165         60
   173         30
   175        100
   176         40
   177        690
   178         90
   191         40
   192         30
   227         40
   265        100
   266         30
   267         40
   280         50
   282         70
   283        120
   284         30
   323         40
   324         30
   339        180
   340        390
   341         90
   377         30
   392        550
   393        160
   394         30
   410        340
   411        100