##TITLE=Library Entry 90764
##JCAMP-DX=Revision 4.10 
##DATA TYPE=MASS SPECTRUM
##SAMPLE DESCRIPTION=Dennis Rohrbaugh, CBDCOM/ERDEC, Edgewood, MD
##NAMES=HP
##CAS NAME=Phosphonothioic acid, methyl-, O-[2-[bis(1-methylethyl)amino]ethy
l]-, O-ethyl ester
##MOLFORM=C11H26NO2PS
##CAS REGISTRY NO=71840-25-0
##MP= -300
##BP= -300
##MW= 267
##$RETENTION INDEX=0
##$CONDENSED SPECTRUM=NO
##NPOINTS= 41
##XYDATA=(XY..XY) 1 
    41        385
    42        360
    43        606
    44        430
    56        148
    70        540
    72        398
    84        252
    85        106
    86         70
    95        139
    98         44
   112        165
   114        999
   115         78
   123         20
   127        344
   128        141
   136          9
   137         14
   139         74
   148         10
   154          8
   163          8
   166          7
   167         42
   180          9
   182         10
   192          8
   196          9
   210          8
   218          5
   222          5
   224         17
   226          4
   238          5
   252         36
   253          5
   254          5
   266          8
   268         17