##TITLE=Library Entry 68801
##JCAMP-DX=Revision 4.10 
##DATA TYPE=MASS SPECTRUM
##SAMPLE DESCRIPTION=ORMSBG, 14(5)254(1979); K. JAKOPCIC ET AL.
##NAMES=HP
##CAS NAME=3a,6-Epoxy-3aH-isoindole, 1,2,3,6,7,7a-hexahydro-2-(4-methoxyphen
yl)-6-methyl-
##MOLFORM=C16H19NO2
##CAS REGISTRY NO=71840-22-7
##MP= -300
##BP= -300
##MW= 257
##$RETENTION INDEX=0
##$CONDENSED SPECTRUM=NO
##NPOINTS= 20
##XYDATA=(XY..XY) 1 
    65         40
    67         30
    77         60
    79         30
    91         40
    92         40
    95        999
    96         70
   118         30
   119         40
   120         80
   134         60
   135         50
   147         50
   148         40
   162         30
   163        210
   164         30
   241         50
   257        190