##TITLE=Library Entry 71076
##JCAMP-DX=Revision 4.10 
##DATA TYPE=MASS SPECTRUM
##SAMPLE DESCRIPTION=Chemical Concepts
##NAMES=HP
##CAS NAME=(2,2,6,6-Tetramethylpiperid-4-yl-amino)acetic acid, ethyl ester
##MOLFORM=C13H26N2O2
##CAS REGISTRY NO=71866-09-6
##MP= -300
##BP= -300
##MW= 242
##$RETENTION INDEX=0
##$CONDENSED SPECTRUM=NO
##NPOINTS= 63
##XYDATA=(XY..XY) 1 
    39         62
    40         39
    41        223
    42        257
    43        120
    44         75
    45         24
    49         17
    53         28
    54         34
    55        151
    56        147
    57        202
    58        618
    59         28
    67         53
    68         30
    69         62
    70         64
    71         55
    72         17
    77         83
    79         20
    80         14
    81         39
    82         72
    83         81
    84         57
    85         50
    94         20
    95         24
    96         44
    98        999
    99         95
   100         13
   107         36
   108         22
   109         20
   110         45
   111         18
   112         35
   113         15
   122         18
   124        495
   125         50
   130         14
   139         16
   140         70
   141         29
   142         14
   143         31
   149         17
   155        138
   156         24
   169        101
   170         53
   171         11
   184         12
   185         26
   225         21
   227         60
   241         12
   242         12