##TITLE=Library Entry 3256
##JCAMP-DX=Revision 4.10 
##DATA TYPE=MASS SPECTRUM
##SAMPLE DESCRIPTION=NIST Mass Spectrometry Data Center, 1994
##NAMES=HP
##CAS NAME=Propane, 2-isocyano-2-methyl-
##MOLFORM=C5H9N
##CAS REGISTRY NO=7188-38-7
##MP= -300
##BP= -300
##MW= 83
##$RETENTION INDEX=0
##$CONDENSED SPECTRUM=NO
##NPOINTS= 36
##XYDATA=(XY..XY) 1 
    12         13
    13         14
    14         50
    15        196
    16          2
    26        104
    27        277
    28         73
    29        158
    30          4
    37         52
    38        106
    39        418
    40        220
    41        999
    42        366
    43          8
    48          1
    49          9
    50         31
    51         66
    52        107
    53         28
    54         16
    55         32
    56          1
    57        740
    58         35
    64         18
    66         71
    67        178
    68        809
    69         39
    82          4
    83         16
    84          1