##TITLE=Library Entry 50112
##JCAMP-DX=Revision 4.10 
##DATA TYPE=MASS SPECTRUM
##SAMPLE DESCRIPTION=D.HENNEBERG, MAX-PLANCK INSTITUTE, MULHEIM, WEST GERMAN
Y
##NAMES=HP
##CAS NAME=9-Eicosyne
##MOLFORM=C20H38
##CAS REGISTRY NO=71899-38-2
##MP= -300
##BP= -300
##MW= 278
##$RETENTION INDEX=0
##$CONDENSED SPECTRUM=NO
##NPOINTS= 153
##XYDATA=(XY..XY) 1 
    23          0
    24          0
    25          3
    26         11
    27        146
    28         34
    29        375
    30          8
    31          0
    33          1
    34          1
    35          3
    36          3
    37          7
    38          5
    39        110
    40         23
    41        713
    42         96
    43        813
    44         29
    45          1
    46          0
    47          2
    48          3
    49          2
    50          6
    51         17
    52         29
    53        111
    54        535
    55        860
    56        174
    57        558
    58         24
    59          0
    60          1
    61          1
    62          1
    63          6
    64          3
    65         49
    66         65
    67        961
    68        348
    69        538
    70         98
    71        205
    72         12
    73          1
    74          1
    75          4
    76          3
    77         70
    78         41
    79        178
    80        112
    81        999
    82        718
    83        486
    84         60
    85        111
    86          6
    87          0
    89          1
    91         60
    92         15
    93         78
    94         47
    95        721
    96        457
    97        241
    98         37
    99         23
   100          2
   102          0
   103          3
   104          4
   105         28
   106          9
   107         29
   108         15
   109        303
   110        116
   111         64
   112         14
   113         13
   114          0
   115          3
   116          1
   117         10
   118          3
   119          6
   120          1
   121         21
   122          6
   123        139
   124         92
   125         27
   126          8
   127          8
   128          6
   129          4
   130          0
   131          4
   133          3
   134          0
   135         12
   136          4
   137         82
   138         40
   139          8
   140          3
   141          6
   142          0
   143          1
   145          1
   147          1
   149          3
   150          1
   151         29
   152         34
   153          6
   154          2
   155          3
   163          2
   164          0
   165         30
   166         15
   167          2
   168          0
   169          2
   177          1
   178          1
   179          9
   180          7
   181          0
   182          1
   183          1
   191          0
   193         14
   194         13
   195          0
   197          0
   205          0
   207          4
   208          3
   221          6
   222          4
   235          0
   237          2
   274          1
   278          3