##TITLE=Library Entry 83337
##JCAMP-DX=Revision 4.10 
##DATA TYPE=MASS SPECTRUM
##SAMPLE DESCRIPTION=Chemical Concepts
##NAMES=HP
##CAS NAME=N,N'-Sulfuryldiimidazole
##MOLFORM=C6H6N4O2S
##CAS REGISTRY NO=7189-69-7
##MP= -300
##BP= -300
##MW= 198
##$RETENTION INDEX=0
##$CONDENSED SPECTRUM=NO
##NPOINTS= 87
##XYDATA=(XY..XY) 1 
    24          0
    25          1
    26         42
    27          9
    28         35
    29          5
    30          0
    31          1
    33          2
    34          0
    36          0
    37          0
    38         18
    39         66
    40        860
    41         90
    42          5
    43          0
    44          2
    45          3
    46          4
    47          0
    48         20
    49          1
    50          0
    51          3
    52         21
    53        162
    54          6
    55          1
    56          0
    57          0
    59          0
    60         14
    61          0
    62          0
    64         10
    65          1
    66         15
    67        411
    68        805
    69         30
    70          0
    71          0
    72          0
    74          0
    75          1
    76          9
    77          0
    78          0
    79          8
    80        316
    81         16
    82          0
    83          0
    87          1
    88          0
    89          0
    91          0
    94          6
    95          0
    99          0
   102          0
   103          0
   104          0
   106          8
   107        999
   108         58
   109          1
   114          0
   115          2
   120          0
   121          0
   129          0
   131          7
   133          3
   134        227
   135         16
   136          0
   141          0
   165          0
   174          0
   198        545
   199         52
   200         26
   201          3
   202          0