##TITLE=Library Entry 79618
##JCAMP-DX=Revision 4.10 
##DATA TYPE=MASS SPECTRUM
##SAMPLE DESCRIPTION=ORMSBG, 14(5)286(1979); T. L. FOLK ET AL.
##NAMES=HP
##CAS NAME=Phenol, 2-[[2-(benzoyloxy)phenyl]methyl]-
##MOLFORM=C20H16O3
##CAS REGISTRY NO=71893-14-6
##MP= -300
##BP= -300
##MW= 304
##$RETENTION INDEX=0
##$CONDENSED SPECTRUM=NO
##NPOINTS= 14
##XYDATA=(XY..XY) 1 
    51         60
    77        310
    78         30
   105        999
   106         80
   107         40
   115         30
   152         50
   153         30
   181         30
   199        140
   200         40
   286         90
   304         90