##TITLE=Library Entry 50100
##JCAMP-DX=Revision 4.10 
##DATA TYPE=MASS SPECTRUM
##SAMPLE DESCRIPTION=D.HENNEBERG, MAX-PLANCK INSTITUTE, MULHEIM, WEST GERMAN
Y
##NAMES=HP
##CAS NAME=5-Octadecyne
##MOLFORM=C18H34
##CAS REGISTRY NO=71899-42-8
##MP= -300
##BP= -300
##MW= 250
##$RETENTION INDEX=0
##$CONDENSED SPECTRUM=NO
##NPOINTS= 133
##XYDATA=(XY..XY) 1 
    23          0
    24          0
    25          3
    26          8
    27        142
    28         23
    29        274
    30          6
    31          0
    32          0
    33          1
    34          0
    35          1
    36          1
    37          4
    38          3
    39        101
    40         21
    41        570
    42         67
    43        473
    44         10
    46          0
    47          2
    48          3
    49          2
    50          5
    51         15
    52         34
    53        115
    54        745
    55        672
    56         87
    57        195
    58          7
    60          0
    61          1
    62          2
    63          7
    64          2
    65         44
    66         53
    67        861
    68        288
    69        301
    70         48
    71         52
    72          3
    73          1
    74          0
    75          4
    76          3
    77         67
    78         25
    79        153
    80         78
    81        999
    82        469
    83        213
    84         21
    85         16
    86          1
    87          0
    88          0
    89          2
    90          1
    91         50
    92         17
    93         69
    94         37
    95        590
    96        352
    97        131
    98         13
    99          1
   103          1
   104          5
   105         17
   106          6
   107         22
   108         12
   109        173
   110        102
   111         31
   112          3
   115          3
   116          0
   117          7
   118          1
   119          4
   120          2
   121         14
   122          4
   123        102
   124         36
   125          6
   126          0
   127          0
   128          1
   129          3
   131          2
   132          0
   133          2
   134          0
   135         10
   136          4
   137         90
   138         55
   139          5
   140          0
   141          0
   145          0
   147          0
   149          3
   150          1
   151         17
   152         15
   153          1
   163          2
   165          3
   166          6
   167          0
   179          7
   180          8
   181          0
   193         42
   194          3
   207          0
   208          0
   221          0
   246          1
   248          2
   250          3