##TITLE=Library Entry 76702
##JCAMP-DX=Revision 4.10 
##DATA TYPE=MASS SPECTRUM
##SAMPLE DESCRIPTION=O.S.Anisimova
##NAMES=HP
##CAS NAME=Bis-S-triazolo[4,3-b,3',4'-f]pyridazine, 3-phenyl-
##MOLFORM=C12H8N6
##CAS REGISTRY NO=7190-97-8
##MP= -300
##BP= -300
##MW= 236
##$RETENTION INDEX=0
##$CONDENSED SPECTRUM=NO
##NPOINTS= 11
##XYDATA=(XY..XY) 1 
    50        138
    51        175
    52         88
    63         62
    76        181
    77        156
    78        250
   103        999
   104        100
   236        750
   237        120