##TITLE=Library Entry 33195
##JCAMP-DX=Revision 4.10 
##DATA TYPE=MASS SPECTRUM
##SAMPLE DESCRIPTION=D.HENNEBERG, MAX-PLANCK INSTITUTE, MULHEIM, WEST GERMAN
Y
##NAMES=HP
##CAS NAME=Nickel, [(1,4,5-.eta.)-4-cycloocten-1-yl](1,1,1,5,5,5-hexafluoro-
2,4-pentanedionato-O,O')-, stereoisomer
##MOLFORM=C13H14F6NiO2
##CAS REGISTRY NO=71900-00-0
##MP= -300
##BP= -300
##MW= 374
##$RETENTION INDEX=0
##$CONDENSED SPECTRUM=NO
##NPOINTS= 254
##XYDATA=(XY..XY) 1 
    26         46
    27         95
    28        176
    29        114
    30          3
    31          4
    33          1
    36          1
    37          1
    38          4
    39        171
    40         30
    41        435
    42         24
    43         64
    44         13
    45          8
    47          4
    48          0
    49          2
    50         13
    51         29
    52         26
    53        109
    54         83
    55        309
    56         14
    58         97
    59          1
    60         34
    61          2
    62          5
    63          9
    65         89
    66        146
    67        999
    68         67
    69        196
    70          5
    71          2
    72          1
    73          3
    74          1
    75         20
    76          4
    77        162
    78         72
    79        621
    80        380
    81        185
    82         37
    83          2
    84         27
    85         20
    86         15
    87          6
    88          5
    89          6
    90          2
    91        115
    92         18
    93        166
    94         22
    95         11
    96          1
    97         26
    98         52
    99         77
   100         50
   101         29
   102         15
   103          9
   104          5
   105         32
   106          8
   107         51
   108        164
   109        775
   110         78
   111         19
   112        386
   113         86
   114        163
   115         35
   116         25
   117          6
   118          9
   119         20
   120          4
   121          2
   122          8
   123        117
   124        342
   125        119
   126        173
   127         42
   128         34
   129          8
   130          7
   131          2
   132          1
   133          1
   134          3
   135          5
   136        156
   137         41
   138        209
   139        114
   140         86
   141         14
   142         16
   143          3
   144          3
   145          5
   146          0
   147          0
   148          0
   149         11
   150         49
   151         11
   152         18
   153          5
   154          3
   155          2
   156          1
   157          1
   159          1
   160          1
   161         13
   162         33
   163         40
   164        243
   165         62
   166        989
   167        134
   168        367
   169         63
   170         58
   171          7
   172         12
   173          2
   174          0
   175          0
   177          0
   178          1
   179          0
   180          0
   181          0
   183          0
   185          0
   186          0
   187          0
   188          0
   189          1
   191          2
   195          2
   196         14
   197          2
   198          4
   199          0
   200          0
   201          0
   203          0
   205          0
   207          1
   208          5
   209          1
   210          0
   211          0
   213          0
   214          1
   215         68
   216          2
   217         25
   218          2
   219          4
   220          0
   221          1
   225          0
   231          0
   233          0
   235          0
   236          0
   237         10
   238          0
   239          4
   240          0
   241          0
   243          0
   246          2
   248          2
   250          0
   251          0
   252          0
   253          0
   259          0
   265         27
   266          4
   267         11
   268          2
   269          1
   271          0
   276          0
   277          0
   278          1
   279          0
   280          0
   281          0
   282          0
   291          0
   293          0
   301          0
   303          0
   305          6
   306         64
   307          7
   308         26
   309          3
   310          4
   312          1
   313          0
   319          3
   320          3
   321          1
   322          1
   329          0
   331          0
   332          9
   333          1
   334          4
   335          1
   336          1
   345          0
   346          7
   347          0
   348          2
   349          0
   350          0
   353          0
   355         10
   356          1
   357          3
   358          1
   370          0
   372          2
   373          2
   374        266
   375         39
   376        102
   377         20
   378         15
   379          2
   380          3
   381          0