##TITLE=Library Entry 6898
##JCAMP-DX=Revision 4.10 
##DATA TYPE=MASS SPECTRUM
##SAMPLE DESCRIPTION=R. ALIBAUD, LAB. HYDROL. HYG., FAC. PHARM., MONTPELLIER
, FR.
##NAMES=HP
##CAS NAME=N-(Methoxycarbonylmethyl)-N-ethylnitrosamine
##MOLFORM=C5H10N2O3
##CAS REGISTRY NO=71922-05-9
##MP= -300
##BP= -300
##MW= 146
##$RETENTION INDEX=0
##$CONDENSED SPECTRUM=NO
##NPOINTS= 28
##XYDATA=(XY..XY) 1 
    28        180
    29        290
    30        370
    31        480
    41        290
    42        430
    43        999
    44        560
    45        710
    55        120
    56        500
    59        250
    60         80
    68         80
    69         80
    70        330
    71        140
    74         80
    85        330
    86        250
    87        600
    88        330
   101        250
   102        520
   111         50
   116        130
   118        120
   146        230