##TITLE=Library Entry 63788
##JCAMP-DX=Revision 4.10 
##DATA TYPE=MASS SPECTRUM
##SAMPLE DESCRIPTION=A.A.Kutin, Moscow, Russia
##NAMES=HP
##CAS NAME=Benzimidazole, 1-benzyl-2-chloromethyl-
##MOLFORM=C15H13ClN2
##CAS REGISTRY NO=7192-00-9
##MP= -300
##BP= -300
##MW= 256
##$RETENTION INDEX=0
##$CONDENSED SPECTRUM=NO
##NPOINTS= 95
##XYDATA=(XY..XY) 1 
    33          0
    34          7
    35          7
    36         45
    37          5
    38         26
    39         61
    40        145
    41         18
    42          3
    43          6
    44         52
    45          1
    48          0
    49          5
    50         25
    51         51
    52         14
    53          1
    55          1
    57          2
    58          4
    61          2
    62          8
    63         39
    64         23
    65        134
    66          6
    69          0
    74          5
    75         13
    76         31
    77         37
    78         10
    79          1
    87          1
    88          7
    89         33
    91        999
    92         71
    93          2
    96          1
    97          1
   102         21
   103         22
   104          4
   105          1
   109         12
   110         38
   114          0
   115          1
   116          2
   117          2
   118          1
   119          2
   125          2
   126          0
   127          2
   128          8
   129         13
   130          9
   131          2
   132          2
   143          6
   144          1
   147          2
   150          0
   151          6
   152         10
   153          2
   165          1
   166          0
   177          0
   178          4
   179          7
   180          4
   193          0
   204          0
   205          3
   206          5
   207          3
   217          0
   218          5
   219         33
   220         19
   221        195
   222         37
   223          2
   238          2
   253          1
   254          2
   256        148
   257         26
   258         45
   259          5