##TITLE=Library Entry 23599
##JCAMP-DX=Revision 4.10 
##DATA TYPE=MASS SPECTRUM
##SAMPLE DESCRIPTION=A.Pleshkova, Nesmeyanov Inst.Org.Elem.Cpds, Moscow
##NAMES=HP
##CAS NAME=Hex-4-yn-3-one, 2,2-dimethyl-
##MOLFORM=C8H12O
##CAS REGISTRY NO=71932-99-5
##MP= -300
##BP= -300
##MW= 124
##$RETENTION INDEX=0
##$CONDENSED SPECTRUM=NO
##NPOINTS= 26
##XYDATA=(XY..XY) 1 
    27         70
    28         30
    29        330
    30          8
    39         40
    40         50
    41        480
    42         16
    53         40
    55         50
    56         60
    57        999
    58         60
    67        370
    68         70
    69         50
    81        200
    82         18
    83          1
    96        110
    97         10
    98          1
   109         90
   110          8
   111          1
   124         10