##TITLE=Library Entry 32882
##JCAMP-DX=Revision 4.10 
##DATA TYPE=MASS SPECTRUM
##SAMPLE DESCRIPTION=A.Pleshkova, Nesmeyanov Inst.Org.Elem.Cpds, Moscow
##NAMES=HP
##CAS NAME=2-Heptyne-4-one
##MOLFORM=C7H10O
##CAS REGISTRY NO=71932-98-4
##MP= -300
##BP= -300
##MW= 110
##$RETENTION INDEX=0
##$CONDENSED SPECTRUM=NO
##NPOINTS= 22
##XYDATA=(XY..XY) 1 
    27         90
    28          2
    38         50
    39        200
    40         40
    41         80
    42         30
    43         50
    53         20
    54         20
    55         20
    60         40
    66         50
    67        999
    68         70
    82        230
    83         18
    84          1
    95        130
    96         10
    97          1
   110         10