##TITLE=Library Entry 67944
##JCAMP-DX=Revision 4.10 
##DATA TYPE=MASS SPECTRUM
##SAMPLE DESCRIPTION=A.Pleshkova, Nesmeyanov Inst.Org.Elem.Cpds, Moscow
##NAMES=HP
##CAS NAME=4-Ethyl-2-hexynal
##MOLFORM=C8H12O
##CAS REGISTRY NO=71932-97-3
##MP= -300
##BP= -300
##MW= 124
##$RETENTION INDEX=0
##$CONDENSED SPECTRUM=NO
##NPOINTS= 51
##XYDATA=(XY..XY) 1 
    26         50
    27        350
    28         70
    29        290
    30          7
    31        110
    37         40
    38        480
    39        480
    40        120
    41        720
    42         90
    43         90
    45         20
    50        100
    51        150
    52         50
    53        320
    54         90
    55        350
    56         60
    57         30
    59        140
    62         50
    63         80
    64         20
    65        280
    66        170
    67        830
    68         90
    69         20
    70         30
    76         66
    77        140
    78         40
    79        260
    80         70
    81        630
    82         60
    83         30
    91         90
    93        120
    94         50
    95        999
    96        170
    97         40
   109        500
   110         50
   123         60
   124         20
   125          1