##TITLE=Library Entry 53852
##JCAMP-DX=Revision 4.10 
##DATA TYPE=MASS SPECTRUM
##SAMPLE DESCRIPTION=Japan AIST/NIMC Database- Spectrum MS-NW-7592
##NAMES=HP
##CAS NAME=Ethyl nipecotate
##MOLFORM=C8H15NO2
##CAS REGISTRY NO=71962-74-8
##MP= -300
##BP= -300
##MW= 157
##$RETENTION INDEX=0
##$CONDENSED SPECTRUM=NO
##NPOINTS= 101
##XYDATA=(XY..XY) 1 
    14          2
    15         18
    26         17
    27        144
    28        147
    29        183
    30        165
    31         33
    32          2
    37          1
    38          4
    39         66
    40         11
    41         83
    42        186
    43        105
    44        180
    45         28
    46          9
    47          3
    50          5
    51         11
    52         10
    53         44
    54         69
    55        234
    56        676
    57        851
    58         51
    59          9
    60          2
    61          1
    63          1
    64          1
    65          5
    66          3
    67         31
    68         96
    69         41
    70         82
    71         10
    72          6
    73        223
    74         10
    75          3
    76          1
    77          3
    78          5
    79          2
    80         31
    81         20
    82        238
    83        263
    84        999
    85         70
    86          9
    87          6
    88          2
    89          1
    91          1
    93          2
    94          2
    95          1
    96          7
    97          2
    98          9
    99         12
   100         79
   101        147
   102          9
   103          1
   105          3
   106          7
   107          1
   108          2
   109          1
   110         93
   111         11
   112        393
   113         40
   114         15
   115          3
   116          2
   121          1
   123          3
   124          2
   126          7
   127          5
   128        605
   129         70
   130          7
   138          1
   140         13
   141          1
   142          9
   143          1
   155          5
   156         83
   157        291
   158         32
   159          3