##TITLE=Library Entry 55070
##JCAMP-DX=Revision 4.10 
##DATA TYPE=MASS SPECTRUM
##SAMPLE DESCRIPTION=J.VOTH UNIV. OF CALIFORNIA, DAVIS, CALIFORNIA, 95616, U
SA
##NAMES=HP
##CAS NAME=1,4-Benzodioxin, 4a,5,6,7,8,8a-hexahydro-2-methyl-, trans-
##MOLFORM=C9H14O2
##CAS REGISTRY NO=7196-96-5
##MP= -300
##BP= -300
##MW= 154
##$RETENTION INDEX=0
##$CONDENSED SPECTRUM=NO
##NPOINTS= 85
##XYDATA=(XY..XY) 1 
    12          2
    13          5
    14         27
    15        147
    16          3
    17          1
    18          3
    19          5
    25          3
    26         49
    27        328
    28         99
    29        210
    30          6
    31         27
    32          0
    37          7
    38         22
    39        296
    40         38
    41        347
    42         46
    43        292
    44         12
    45         21
    49          1
    50         13
    51         31
    52         22
    53        117
    54        460
    55        133
    56         15
    57         38
    58         10
    59          1
    61          1
    63          8
    64          2
    65         29
    66         25
    67        759
    68         47
    69         22
    70          4
    71          6
    72          1
    73         10
    74         72
    75          5
    76          1
    77         40
    78         12
    79         93
    80         30
    81        345
    82        148
    83         22
    84          5
    85        999
    86         48
    87          5
    91          2
    93          7
    94          1
    95          3
    96          1
    97         17
    98         29
    99          2
   107          1
   109          1
   110          1
   111        147
   112         13
   113          2
   124          1
   125          8
   126          1
   137          2
   152          1
   153          5
   154        438
   155         44
   156          3