##TITLE=Library Entry 4126
##JCAMP-DX=Revision 4.10 
##DATA TYPE=MASS SPECTRUM
##SAMPLE DESCRIPTION=Chemical Concepts
##NAMES=HP
##CAS NAME=2-Methyl-2-(2,2,6,6-tetramethylpiperidin-1-yloxy)propionitrile
##MOLFORM=C13H24N2O
##CAS REGISTRY NO=71983-04-5
##MP= -300
##BP= -300
##MW= 224
##$RETENTION INDEX=0
##$CONDENSED SPECTRUM=NO
##NPOINTS= 115
##XYDATA=(XY..XY) 1 
    35          0
    36          8
    37         23
    38         28
    39        296
    40         73
    41        999
    42        421
    43        245
    44         22
    45          5
    46          9
    47          1
    48          1
    49          1
    50          5
    51         20
    52         36
    53         70
    54         34
    55        499
    56        348
    57        115
    58        106
    59         17
    60         13
    62          1
    63          5
    64          5
    65         10
    66         14
    67         84
    68         98
    69        644
    70        139
    71         30
    72         47
    73         29
    74        156
    75          6
    76          1
    77          6
    78          1
    79         18
    80          5
    81        224
    82         60
    83        182
    84         71
    85         12
    86         26
    87          3
    88         11
    89          1
    91          4
    92          1
    93         12
    94          7
    95         29
    96         53
    97         36
    98         34
    99          5
   100         15
   101          2
   105          3
   106          1
   107         13
   108          6
   109         33
   110         13
   111          9
   112          3
   113          7
   114        106
   115          7
   116          0
   119          1
   120          0
   121          6
   122          3
   123        360
   124         63
   125         23
   126         21
   127          3
   128          3
   135          1
   136          2
   137          0
   138         26
   139          6
   140         11
   141         43
   142         33
   143          3
   151          0
   152          0
   153          1
   154          1
   155          1
   156        792
   157         85
   158          5
   159          0
   177          0
   181          0
   192          1
   193          0
   207          0
   209          5
   210          1
   221          0
   224          1
   225          1