##TITLE=Library Entry 27740
##JCAMP-DX=Revision 4.10 
##DATA TYPE=MASS SPECTRUM
##SAMPLE DESCRIPTION=A.A.Kutin, Moscow, Russia
##NAMES=HP
##CAS NAME=1-(Isochroman-1-yl)propylamine
##MOLFORM=C12H17NO
##CAS REGISTRY NO=71999-32-1
##MP= -300
##BP= -300
##MW= 191
##$RETENTION INDEX=0
##$CONDENSED SPECTRUM=NO
##NPOINTS= 107
##XYDATA=(XY..XY) 1 
    39         49
    41        231
    42         36
    43         38
    44         12
    45          1
    46          0
    50         29
    51         52
    52         16
    53         14
    54         11
    55         40
    58        999
    62         12
    63         21
    64         10
    65         43
    67          1
    68          0
    69          2
    70          2
    71          2
    72          2
    73          3
    74          9
    75         11
    76         35
    77        117
    78         44
    79         66
    80          6
    81          3
    82          0
    83          0
    84          0
    85          0
    86          1
    87          1
    89         17
    90         14
    91         34
    92          3
    93          0
    94          0
    97          0
    98          0
    99          0
   101          5
   102         23
   103         57
   104         37
   105         65
   106          9
   107          0
   112          0
   115         50
   116         14
   117         32
   118          8
   119          1
   120          0
   126          0
   127          4
   128          7
   129          6
   130         12
   131         15
   132         34
   133        107
   134         14
   135          1
   141          0
   142          1
   143          5
   144          7
   145          4
   146          1
   147          0
   148          0
   149          1
   151          0
   152          0
   153          0
   154          0
   155          0
   156          0
   157          0
   158          0
   159          2
   160          1
   161          4
   162         12
   163          1
   165          0
   167          0
   171          0
   172          0
   173          0
   174          0
   178          0
   180          0
   181          0
   189          0
   190          0
   191          0
   192          1