##TITLE=Library Entry 3350
##JCAMP-DX=Revision 4.10 
##DATA TYPE=MASS SPECTRUM
##SAMPLE DESCRIPTION=R.T.HOLMAN,UNIVERSITY OF MINNESOTA
##NAMES=HP
##CAS NAME=Cholesta-8,24-dien-3-ol, 4-methyl-, (3.beta.,4.alpha.)-
##MOLFORM=C28H46O
##CAS REGISTRY NO=7199-92-0
##MP= -300
##BP= -300
##MW= 398
##$RETENTION INDEX=0
##$CONDENSED SPECTRUM=NO
##NPOINTS= 332
##XYDATA=(XY..XY) 1 
    26         29
    27        190
    28        120
    29        280
    30         10
    31         23
    32         29
    33          4
    34          8
    35          3
    36          3
    37          8
    38         13
    39        180
    40         41
    41        999
    42        130
    43        580
    44        110
    45         18
    46          2
    47          4
    48          4
    49          3
    50         13
    51         27
    52         12
    53        130
    54         38
    55        580
    56        130
    57        310
    58         18
    59          9
    60          9
    61          4
    62          6
    63         11
    64          4
    65         40
    66         19
    67        180
    68         51
    69        660
    70         87
    71        120
    72          9
    73          7
    74          6
    75          3
    76          4
    77         85
    78         28
    79        160
    80         24
    81        160
    82         55
    83         92
    84         24
    85         58
    86          4
    87          5
    89          5
    90          3
    91        200
    92         40
    93        150
    94         34
    95        120
    96         19
    97         47
    98         12
    99         17
   100          2
   101          2
   102          4
   103         21
   104         17
   105        200
   106         33
   107        120
   108         29
   109         72
   110         12
   111         23
   112          8
   113         12
   114          2
   115         38
   116         22
   117         79
   118         25
   119        120
   120         39
   121         90
   122         30
   123         34
   124          9
   125         14
   126          7
   127         16
   128         37
   129         58
   130         27
   131         92
   132         30
   133         79
   134         30
   135         47
   136         18
   137         21
   138          9
   139          9
   140          6
   141         32
   142         25
   143         52
   144         22
   145         79
   146         30
   147         70
   148         17
   149         26
   150          9
   151          9
   152          9
   153         13
   154         14
   155         32
   156         16
   157         44
   158         21
   159         63
   160         24
   161         51
   162         12
   163         14
   164          5
   165         14
   166          7
   167         10
   168          7
   169         22
   170         10
   171         34
   172         14
   173         37
   174         14
   175         19
   176          8
   177          7
   178          6
   179         10
   180          5
   181          9
   182          6
   183         20
   184          7
   185         32
   186         11
   187         21
   188          8
   189         12
   190          5
   191          6
   192          4
   193          6
   194          3
   195          6
   196          5
   197         16
   198          8
   199         22
   200          9
   201         13
   202          6
   203          9
   204          6
   205          9
   206          3
   207          3
   208          2
   209          6
   210          4
   211         15
   212         10
   213         25
   214         12
   215         14
   216          5
   217          8
   218          3
   219          3
   220          2
   221          2
   222          1
   223          4
   224          4
   225         13
   226          6
   227         41
   228         12
   229         11
   230          4
   231         12
   232          7
   233          5
   234          1
   235          2
   236          2
   237          4
   238          2
   239         12
   240          5
   241         11
   242          8
   243         22
   244          6
   245         18
   246          7
   247          5
   248          2
   249          1
   250          2
   251          5
   252          6
   253         14
   254          7
   255          8
   256          4
   257          9
   258          8
   259          8
   260         12
   261          5
   262          2
   263          2
   264          1
   265          4
   266          3
   267         10
   268          4
   269         12
   270          5
   271         10
   272          6
   273          6
   274          4
   275          6
   276          2
   277          2
   278          1
   279          2
   280          1
   281          6
   282          4
   283          9
   284          7
   285         20
   286          7
   287          6
   288          2
   293          3
   294          2
   295          8
   296          6
   297          4
   298          3
   299          5
   300          3
   301          4
   302          2
   303          1
   307          1
   308          2
   309          5
   310          4
   311          9
   312          6
   313          6
   314          8
   315          3
   316          4
   317          1
   322          1
   323          2
   324          3
   325          2
   326          2
   327          3
   328          2
   329          2
   337          2
   338          2
   339          2
   340          1
   341          1
   351          2
   352          2
   353          4
   354          1
   355          2
   356          1
   361          1
   362          1
   363          5
   364          2
   365         12
   366          4
   367          2
   368          6
   369          2
   370          1
   371          3
   372          1
   378          4
   379          3
   380         13
   381         10
   382          4
   383         33
   384         12
   385          2
   386         11
   387          4
   394          3
   395          1
   396         16
   397          7
   398         94
   399         26
   400          6