##TITLE=Library Entry 25665
##JCAMP-DX=Revision 4.10 
##DATA TYPE=MASS SPECTRUM
##SAMPLE DESCRIPTION=H.FR.GRUTZMACHER HAMBURG UNIV., HAMBURG, GERMANY, F.R.G
.
##NAMES=HP
##CAS NAME=Threonine
##MOLFORM=C4H9NO3
##CAS REGISTRY NO=72-19-5
##MP= -300
##BP= -300
##MW= 119
##$RETENTION INDEX=0
##$CONDENSED SPECTRUM=NO
##NPOINTS= 36
##XYDATA=(XY..XY) 1 
    26         19
    27        118
    29         48
    30        237
    31         25
    38          5
    39         22
    40          8
    41         36
    42         62
    43        107
    44         51
    45        298
    46         50
    52          7
    53          4
    54         20
    55         19
    56        190
    57        999
    58        112
    59         29
    60         31
    69         11
    70          8
    71          4
    72         25
    73          7
    74        305
    75        950
    76         29
    77          5
    84          7
   101         14
   104         30
   119          3