##TITLE=Library Entry 65571
##JCAMP-DX=Revision 4.10 
##DATA TYPE=MASS SPECTRUM
##SAMPLE DESCRIPTION=Japan AIST/NIMC Database- Spectrum MS-NW-3355
##NAMES=HP
##CAS NAME=Sulfathiazole
##MOLFORM=C9H9N3O2S2
##CAS REGISTRY NO=72-14-0
##MP= -300
##BP= -300
##MW= 255
##$RETENTION INDEX=0
##$CONDENSED SPECTRUM=NO
##NPOINTS= 157
##XYDATA=(XY..XY) 1 
    12          2
    13          2
    14          3
    15          7
    16          2
    17          5
    18         22
    25          2
    26         12
    27         44
    28         49
    29          7
    30          6
    32          4
    33          5
    34          7
    36          2
    37          9
    38         37
    39        184
    40         31
    41         69
    42         25
    43         12
    44         17
    45        200
    46         21
    47         12
    48         22
    49          3
    50         18
    51         23
    52         56
    53         34
    54         28
    55        205
    56          9
    57         23
    58         74
    59         13
    60         10
    61         10
    62         23
    63         67
    64         61
    65        581
    66        101
    67         13
    68          5
    69         13
    70         15
    71         22
    72         11
    73         17
    74          9
    75          9
    76          8
    77          6
    78         10
    79          8
    80         55
    81         13
    82          3
    83          4
    84          4
    85          6
    86          3
    87          2
    88          2
    89          4
    90         13
    91         50
    92        999
    93        217
    94         14
    95         11
    96          9
    97          9
    98          8
    99         47
   100         50
   101          8
   102          3
   103          2
   104          6
   105          6
   106          5
   107          6
   108        573
   109         56
   110          5
   111          3
   112          6
   113          2
   114          1
   115          1
   116          1
   117          4
   118         11
   119         19
   120          2
   121          2
   122          3
   123         13
   124         23
   125         29
   126          4
   127          2
   128          1
   129          2
   130          1
   131          8
   132          8
   133          4
   134          1
   135          1
   136         12
   137          3
   138          2
   139          1
   140        156
   141         16
   142          9
   143          1
   145          1
   146          3
   147          9
   148          2
   149          5
   150          2
   151          1
   154          1
   155          1
   156        629
   157         70
   158         36
   159          4
   161          1
   163          8
   164         14
   165          3
   166          1
   167          1
   170          1
   172          1
   173          1
   174          1
   189          3
   190         58
   191        653
   192         77
   193         35
   194          4
   255         61
   256          8
   257          7
   258          1