##TITLE=Library Entry 50289
##JCAMP-DX=Revision 4.10 
##DATA TYPE=MASS SPECTRUM
##SAMPLE DESCRIPTION=Japan AIST/NIMC Database- Spectrum MS-NW- 517
##NAMES=HP
##CAS NAME=Endrin
##MOLFORM=C12H8Cl6O
##CAS REGISTRY NO=72-20-8
##MP= -300
##BP= -300
##MW= 378
##$RETENTION INDEX=2211
##$CONDENSED SPECTRUM=NO
##NPOINTS= 332
##XYDATA=(XY..XY) 1 
    14          4
    15          9
    17          2
    18          7
    25          2
    26         36
    27        306
    28         56
    29        146
    30          5
    31         28
    32          1
    35         15
    36         38
    37         31
    38         47
    39        427
    40         54
    41        115
    42          8
    43         15
    44          5
    45          1
    47         23
    48          3
    49         28
    50         96
    51        192
    52         64
    53        338
    54        234
    55        133
    56         13
    57         44
    58          1
    59          1
    60         16
    61         67
    62         78
    63        119
    64         14
    65        124
    66        199
    67        569
    68         45
    69         43
    70         10
    71         13
    72         33
    73        139
    74        100
    75        129
    76         14
    77        336
    78         69
    79        613
    80         80
    81        999
    82        565
    83         50
    84         56
    85         81
    86         82
    87         63
    88         15
    89         49
    90          8
    91         42
    92          6
    93         14
    94         20
    95         71
    96         43
    97         77
    98         56
    99        110
   100         36
   101        159
   102         31
   103         50
   104         14
   105         10
   106         14
   107         84
   108         82
   109         94
   110         38
   111         79
   112         22
   113        281
   114         32
   115         97
   116          9
   117         42
   118         13
   119         38
   120         36
   121         53
   122         22
   123         42
   124          9
   125         29
   126         22
   127         19
   128          9
   129         34
   130         20
   131         32
   132         24
   133         78
   134         32
   135        107
   136         38
   137         77
   138         48
   139        112
   140         22
   141         43
   142          7
   143         65
   144         14
   145         50
   146         35
   147        243
   148         51
   149        193
   150         28
   151         52
   152          7
   153          7
   154          4
   155         15
   156          9
   157         32
   158         11
   159         61
   160         29
   161         45
   162         52
   163         37
   164         19
   165         28
   166          5
   167         60
   168         18
   169         74
   170         58
   171         57
   172         49
   173        177
   174         55
   175        122
   176         21
   177         36
   178          9
   179         22
   180         39
   181        115
   182         61
   183        161
   184         44
   185         89
   186         18
   187         23
   188          5
   189          5
   190          4
   191         99
   192         14
   193        168
   194         44
   195        115
   196         80
   197         56
   198         49
   199         26
   200         14
   201         31
   202         18
   203         47
   204         51
   205         49
   206         54
   207        115
   208         62
   209        221
   210         65
   211        120
   212         29
   213         25
   214         50
   215         41
   216         73
   217        123
   218         51
   219        121
   220         32
   221         53
   222         12
   223         13
   224          5
   225         13
   226         25
   227         58
   228         38
   229         65
   230         56
   231         43
   232         44
   233         26
   234         18
   235         72
   236         46
   237        116
   238         38
   239         89
   240         32
   241         53
   242         32
   243        318
   244        152
   245        326
   246        146
   247        127
   248         66
   249         43
   250         60
   251         89
   252         47
   253         93
   254         31
   255         58
   256         18
   257         24
   258          9
   259          8
   260          4
   261        386
   262         33
   263        606
   264         57
   265        399
   266         44
   267        139
   268         20
   269         32
   270          8
   271         75
   272         34
   273         77
   274         35
   275         48
   276         21
   277         79
   278         29
   279        360
   280         72
   281        401
   282         66
   283        186
   284         29
   285         41
   286          7
   287         13
   288          3
   289         19
   290         10
   291         19
   292         11
   293          9
   294          5
   295          3
   296          2
   297          1
   298          2
   299          3
   300          3
   301          7
   302          3
   303          8
   304          1
   305          6
   306          3
   307         72
   308         15
   309         96
   310         17
   311         50
   312          9
   313         26
   314          8
   315        103
   316         16
   317        140
   318         19
   319         87
   320         10
   321         26
   322          4
   323          6
   324          1
   325          8
   326          2
   327         12
   328          2
   329          9
   330          1
   331          3
   333          1
   341          2
   342          2
   343        116
   344         18
   345        182
   346         24
   347        116
   348         15
   349         40
   350          7
   351          8
   352          3
   353          2
   354          2
   356          1
   378          7
   379          1
   380         13
   381          2
   382         10
   383          1
   384          5
   386          1