##TITLE=Library Entry 16495
##JCAMP-DX=Revision 4.10 
##DATA TYPE=MASS SPECTRUM
##SAMPLE DESCRIPTION=Tox21 Consortium/NIST Mass Spectrometry Data Center, 20
12
##NAMES=HP
##CAS NAME=Nortriptyline
##MOLFORM=C19H21N
##CAS REGISTRY NO=72-69-5
##MP= -300
##BP= -300
##MW= 263
##$RETENTION INDEX=2207
##$CONDENSED SPECTRUM=NO
##NPOINTS= 120
##XYDATA=(XY..XY) 1 
    15          1
    18          2
    27          2
    28          6
    29          1
    30          2
    39          4
    40          1
    41          2
    42         12
    44        999
    45         26
    50          1
    51          4
    52          1
    53          1
    56          2
    57          3
    58          1
    62          1
    63          5
    64          1
    65          5
    68          1
    70          5
    74          1
    75          3
    76          3
    77          6
    78          2
    81          1
    82          1
    86          1
    87          2
    88          2
    89          6
    90          1
    91         24
    92          2
    95          3
    96          1
    98          1
    99          1
   100          2
   101          6
   102          4
   103          3
   104          1
   105          1
   107          2
   108          2
   113          2
   114          2
   115         20
   116          3
   117          2
   126          3
   127          5
   128          9
   129          3
   130          1
   137          1
   139          6
   140          1
   141          7
   142          1
   150          3
   151          5
   152         11
   153          3
   154          1
   155          1
   161          1
   162          1
   163          6
   164          4
   165         15
   166          3
   174          1
   175          1
   176          6
   177          3
   178         17
   179          5
   180          1
   187          4
   188          3
   189         24
   190          9
   191         14
   192          4
   193          2
   200          5
   201          6
   202         54
   203         44
   204         22
   205          7
   206          1
   211          1
   213          6
   214          2
   215         24
   216          8
   217         17
   218         12
   219         16
   220         22
   221          4
   226          1
   227          1
   228          1
   229          1
   230          1
   231          1
   232          1
   233          1
   261          1
   263          6
   264          1