##TITLE=Library Entry 9145
##JCAMP-DX=Revision 4.10 
##DATA TYPE=MASS SPECTRUM
##SAMPLE DESCRIPTION=LAC, NIDDK, NIH, Bethesda, MD 20892
##NAMES=HP
##CAS NAME=N-Acetyl-d-glucosamine
##MOLFORM=C8H15NO6
##CAS REGISTRY NO=72-87-7
##MP= -300
##BP= -300
##MW= 221
##$RETENTION INDEX=0
##$CONDENSED SPECTRUM=NO
##NPOINTS= 84
##XYDATA=(XY..XY) 1 
    41         14
    43        999
    44         98
    45         69
    46          1
    47         22
    49          1
    51          1
    52          8
    53          9
    54         28
    55         76
    56         83
    57         30
    58         26
    59        111
    60        191
    61         74
    62          1
    66          0
    67          4
    68         10
    69         14
    70         18
    72        264
    73        122
    74         18
    75          1
    78          0
    80          2
    81          5
    83         74
    84         32
    85         16
    86          8
    88         21
    89          1
    90          1
    91          4
    95          1
    96         18
    97          9
    98         10
   100        113
   101         49
   102         42
   103         14
   104          0
   108          1
   109          1
   110          0
   112          8
   114         55
   115          6
   116          0
   118          2
   125         27
   126         46
   127          3
   128          0
   130         12
   132          2
   138          2
   139          1
   142         36
   143         24
   144          4
   148          2
   154          1
   155          0
   156          1
   157          1
   160          2
   162          1
   166          1
   167          1
   168          1
   172          1
   174          1
   185          1
   186          4
   204          9
   205          0
   221          1