##TITLE=Library Entry 35637
##JCAMP-DX=Revision 4.10 
##DATA TYPE=MASS SPECTRUM
##SAMPLE DESCRIPTION=A.A.Kutin, Moscow, Russia
##NAMES=HP
##CAS NAME=1,3-Butanedione, 4,4,4-trifluoro-1-p-tolyl-
##MOLFORM=C11H9F3O2
##CAS REGISTRY NO=720-94-5
##MP= -300
##BP= -300
##MW= 230
##$RETENTION INDEX=0
##$CONDENSED SPECTRUM=NO
##NPOINTS= 61
##XYDATA=(XY..XY) 1 
    37         16
    38         36
    39        217
    40         15
    41        179
    42        173
    43        224
    44         95
    45         31
    50         76
    51        141
    52         18
    53         36
    54         12
    55         72
    56         25
    57         82
    60          6
    61         17
    62         48
    63        195
    64         63
    65        223
    66         25
    67          9
    69        999
    70         70
    71         27
    74         27
    75         29
    76         31
    77        126
    78         52
    79         26
    81         15
    83         38
    84         19
    85         20
    86         19
    89        107
    90         24
    91        354
    92         49
    93         21
    97          6
   102         23
   103         18
   105          8
   111          5
   115         52
   119        306
   120         30
   131         29
   161        314
   162         29
   165         40
   167         14
   171         19
   215         31
   230        181
   231         27