##TITLE=Library Entry 87424
##JCAMP-DX=Revision 4.10 
##DATA TYPE=MASS SPECTRUM
##SAMPLE DESCRIPTION=ASES Database, Dalian Institute, P.R. China
##NAMES=HP
##CAS NAME=S-Phenyl thiobenzoate oxime
##MOLFORM=C13H11NOS
##CAS REGISTRY NO=720-57-0
##MP= -300
##BP= -300
##MW= 229
##$RETENTION INDEX=0
##$CONDENSED SPECTRUM=NO
##NPOINTS= 17
##XYDATA=(XY..XY) 1 
    39         80
    64         30
    65         39
    66         80
    77        181
    78         29
    84         70
   109         89
   110        999
   111         60
   112         30
   121        297
   122         40
   123         40
   124         19
   229         89
   230         30