##TITLE=Library Entry 80664
##JCAMP-DX=Revision 4.10 
##DATA TYPE=MASS SPECTRUM
##SAMPLE DESCRIPTION=Exported from NIST MS Search
##NAMES=HP
##CAS NAME=2,4-Heptadien-6-ynal, (E,E)-
##MOLFORM=C7H6O
##CAS REGISTRY NO=7200-04-6
##MP= -300
##BP= -300
##MW= 106
##$RETENTION INDEX=0
##$CONDENSED SPECTRUM=NO
##NPOINTS= 19
##XYDATA=(XY..XY) 1 
    49         13
    50        119
    51        179
    52        119
    53          2
    55          2
    61          7
    62         13
    63         29
    73          7
    74         34
    75         12
    76         15
    77        123
    78        197
    79         15
   105        999
   106        199
   107         14