##TITLE=Library Entry 35410
##JCAMP-DX=Revision 4.10 
##DATA TYPE=MASS SPECTRUM
##SAMPLE DESCRIPTION=Chemical Concepts
##NAMES=HP
##CAS NAME=Oxirane, 2,2-dimethyl-3-(3,7,12,16,20-pentamethyl-3,7,11,15,19-he
neicosapentaenyl)-, (all-E)-
##MOLFORM=C30H50O
##CAS REGISTRY NO=7200-26-2
##MP= -300
##BP= -300
##MW= 426
##$RETENTION INDEX=2963
##$CONDENSED SPECTRUM=NO
##NPOINTS= 258
##XYDATA=(XY..XY) 1 
    26          1
    27         30
    29         53
    30          0
    31         19
    37          0
    38          1
    39         32
    41        429
    42         22
    43        490
    44         16
    45         11
    46          1
    50          1
    51          3
    52          2
    53         59
    54          6
    55        155
    56         10
    57         73
    58         13
    59        110
    60          3
    61          0
    63          0
    65         13
    66          7
    67        156
    68        161
    69        999
    70         53
    71        526
    72         34
    73         19
    74          1
    75          0
    77         31
    78          5
    79        105
    80         50
    81        846
    82         93
    83         64
    84         24
    85         96
    86          9
    87          3
    91         44
    92         27
    93        225
    94        102
    95        236
    96         28
    97         34
    98          6
    99         15
   100          2
   101          2
   103          1
   104          0
   105         54
   106         17
   107        156
   108         60
   109        149
   110         23
   111         31
   112          3
   113          5
   115          1
   116          0
   117          4
   118          2
   119         66
   120         24
   121        137
   122         46
   123        110
   124         16
   125         25
   126         15
   127         52
   128          4
   129          2
   130          0
   131          7
   132          6
   133         55
   134         42
   135        183
   136        114
   137        101
   138         13
   139         12
   140          3
   141          3
   142          0
   143          4
   144          1
   145         15
   146          7
   147         66
   148         37
   149         83
   150         19
   151         10
   152          4
   153         56
   154          7
   155          2
   157          3
   158          1
   159         15
   160          6
   161         37
   162         15
   163         30
   164          4
   165          5
   166          4
   167          2
   168          1
   169          1
   170          0
   171          3
   172          0
   173         10
   174          4
   175         27
   176          8
   177         19
   178          5
   179          4
   180          0
   181          0
   183          0
   185          2
   186          0
   187         13
   188          4
   189         26
   190         14
   191         25
   192         12
   193          6
   194          0
   195          1
   197          0
   199          2
   200          0
   201         11
   202          3
   203         37
   204         10
   205         12
   206          4
   207          6
   208          3
   209          0
   213          2
   215          7
   216          5
   217         10
   218          6
   219          4
   220          1
   221          4
   222          0
   225          0
   227          2
   228          0
   229          8
   230          2
   231          9
   232          2
   233          1
   234          1
   235          0
   241          1
   243          2
   244          0
   245          1
   246          2
   247          3
   248          0
   249          0
   253          0
   255          1
   256          1
   257          4
   258          2
   259          2
   260          1
   261          0
   263          0
   267          0
   268          0
   269          1
   270          0
   271         11
   272          4
   273          5
   274          1
   275          1
   276          1
   277          0
   283          0
   284          0
   285          1
   286          0
   287          1
   288          0
   289          4
   290          0
   297          2
   298          0
   299          3
   300          1
   301          0
   302          1
   303          0
   313          0
   315          2
   316          0
   317          0
   325          1
   326          0
   327          0
   329          0
   339          3
   340          1
   341          1
   342          0
   343          1
   344          2
   345          0
   355          0
   356          0
   357          9
   358          2
   359          0
   365          1
   368          0
   383          4
   384          1
   393          0
   408          3
   409          1
   410          0
   411          1
   412          0
   424          0
   425          0
   426         14
   427          5
   428          1