##TITLE=Library Entry 67945
##JCAMP-DX=Revision 4.10 
##DATA TYPE=MASS SPECTRUM
##SAMPLE DESCRIPTION=D.HENNEBERG, MAX-PLANCK INSTITUTE, MULHEIM, WEST GERMAN
Y
##NAMES=HP
##CAS NAME=1,4-Pentadiene, 2,3,4-trimethyl-
##MOLFORM=C8H14
##CAS REGISTRY NO=72014-90-5
##MP= -300
##BP= -300
##MW= 110
##$RETENTION INDEX=0
##$CONDENSED SPECTRUM=NO
##NPOINTS= 71
##XYDATA=(XY..XY) 1 
    26          6
    27         61
    28         14
    29         60
    30          1
    31         10
    32          0
    36          0
    37          0
    38          1
    39        143
    40         29
    41        365
    42         48
    43         35
    45          4
    47          2
    48          0
    49          0
    50          2
    51         12
    52         11
    53        111
    54         34
    55        267
    56         54
    57         15
    58          1
    59          6
    63          2
    64          1
    65         23
    66          9
    67        367
    68         45
    69         61
    70         30
    71          2
    72          0
    73          0
    74          2
    75          0
    76          0
    77         44
    78         10
    79         48
    80         23
    81         39
    82          6
    83          4
    84         10
    85          1
    86          0
    89          0
    90          0
    91         21
    92          2
    93         53
    94          8
    95        999
    96         77
    97          4
    98          0
   103          0
   105          0
   107          1
   108          1
   109         14
   110         22
   111          6
   112          1