##TITLE=Library Entry 42236
##JCAMP-DX=Revision 4.10 
##DATA TYPE=MASS SPECTRUM
##SAMPLE DESCRIPTION=Chemical Concepts
##NAMES=HP
##CAS NAME=.beta.-d-Fructopyranose, 1-deoxy-1-[(4-methylphenyl)amino]-2,3,4,
5-tetrakis-O-(trimethylsilyl)-
##MOLFORM=C25H51NO5Si4
##CAS REGISTRY NO=72021-30-8
##MP= -300
##BP= -300
##MW= 557
##$RETENTION INDEX=0
##$CONDENSED SPECTRUM=NO
##NPOINTS= 372
##XYDATA=(XY..XY) 1 
    26         12
    27         21
    28         42
    29         24
    30        168
    31          2
    32          3
    35          9
    36         86
    37          3
    38         27
    39          5
    40          1
    41         19
    42         18
    43          9
    44        132
    45          9
    46          1
    47         10
    48          0
    50          3
    51          9
    52          6
    53          2
    54          2
    55          8
    56          8
    57         10
    58        121
    59         11
    60          1
    61          2
    63          0
    65          4
    66          0
    67          3
    68          2
    69         38
    70          5
    71          1
    72        111
    73        999
    74         81
    75        127
    76          9
    77         11
    78          4
    79         12
    80          1
    81          3
    82          0
    83          3
    84          1
    85          3
    86         17
    87          4
    88          1
    89         10
    90          2
    91         24
    92          8
    93          7
    94          2
    95          4
    97          1
    98          1
    99          2
   100          3
   101         25
   102         12
   103         91
   104         14
   105         11
   106         20
   107         31
   108          3
   109          1
   111          1
   112          1
   113          4
   114          1
   115          4
   116         13
   117        111
   118         44
   119         64
   120        786
   121        734
   122         64
   123          3
   125          1
   127          4
   128          1
   129        109
   130         19
   131         15
   132         17
   133         35
   134          6
   135          3
   136          0
   137          0
   139          0
   140          1
   141         28
   142         18
   143         34
   144         15
   145         10
   146          5
   147        233
   148         40
   149         32
   150          3
   151          2
   152          0
   153          0
   154          1
   155          4
   156          2
   157         68
   158         29
   159          9
   160         17
   161          7
   162          3
   163          8
   164          8
   165          4
   166          1
   167          1
   168          1
   169          9
   170          6
   171          3
   172          5
   173          2
   174          4
   175          4
   176          3
   177          4
   178          4
   179          7
   180          2
   181          1
   182          0
   183          1
   185         10
   186          5
   187          3
   188          2
   189         41
   190         22
   191         59
   192         21
   193         12
   194          7
   195          1
   198          4
   199          2
   201          3
   202          2
   203          7
   204         59
   205        174
   206         50
   207         86
   208         27
   209          7
   210          2
   211          1
   212          0
   213          2
   214          1
   215         24
   216          9
   217        275
   218         67
   219         38
   220         12
   221         30
   222         13
   223          4
   224          1
   227          0
   228          0
   229         19
   230         21
   231         35
   232         16
   233         13
   234         68
   235         19
   236          8
   237         12
   238          5
   239          2
   240          1
   241          0
   242          1
   243          8
   244          3
   245          5
   246         17
   247         58
   248         18
   249        182
   250        480
   251        100
   252         26
   253          3
   254          0
   255          1
   256          1
   257         56
   258         21
   259         12
   260          8
   261          9
   262         34
   263        191
   264         41
   265         13
   266          2
   270          1
   271          1
   272          5
   273          2
   274         14
   275         11
   276          5
   277         16
   278          5
   279          4
   280          2
   281          0
   286          2
   287          1
   288         11
   289          3
   290          3
   291         12
   292          6
   293          4
   294          1
   295          1
   301          0
   302          1
   303         54
   304         17
   305         49
   306         20
   307         10
   308          6
   309          3
   310          1
   311          1
   316          1
   317          1
   318          2
   319         91
   320         34
   321         18
   322         64
   323         25
   324         26
   325          6
   326          2
   331          3
   332          2
   333          6
   334          6
   335         20
   336         15
   337          5
   338          3
   339          1
   340          0
   343          1
   344          0
   345          2
   346          3
   347         35
   348         14
   349          8
   350          2
   351          3
   352          2
   353          0
   360          2
   361          2
   362         19
   363          5
   364          8
   365         47
   366         15
   367          6
   368          1
   376          2
   377          7
   378         12
   379          5
   380          7
   381          3
   382          0
   391          1
   392          1
   393          1
   394          1
   395         13
   396          4
   397          2
   398          0
   409          0
   410          0
   413          0
   421          0
   422          0
   423          2
   424          1
   425          0
   434          1
   435          2
   436          2
   437        309
   438        121
   439         65
   440         18
   441          4
   442          1
   450          0
   451          0
   452         18
   453          7
   454          8
   455          5
   456          2
   457          0
   465          0
   466          4
   467         26
   468         11
   469          5
   470         10
   471          3
   472          1
   483          1
   484          1
   485        108
   486         43
   487         19
   488          5
   489          1
   497          0
   511          2
   512          6
   513          2
   514          1
   515          0
   541          1
   542         19
   543          9
   544          5
   545          1
   555          1
   556          2
   557        106
   558         50
   559         23
   560          7
   561          2