##TITLE=Library Entry 71166
##JCAMP-DX=Revision 4.10 
##DATA TYPE=MASS SPECTRUM
##SAMPLE DESCRIPTION=D.HENNEBERG, MAX-PLANCK INSTITUTE, MULHEIM, WEST GERMAN
Y
##NAMES=HP
##CAS NAME=.beta.-d-Fructose, 1-deoxy-1-piperidino-tetrakis-O-(trimethylsily
l)-
##MOLFORM=C23H53NO5Si4
##CAS REGISTRY NO=72021-27-3
##MP= -300
##BP= -300
##MW= 535
##$RETENTION INDEX=0
##$CONDENSED SPECTRUM=NO
##NPOINTS= 345
##XYDATA=(XY..XY) 1 
     3          0
    27          4
    28         36
    29          1
    30          2
    32          3
    38          0
    39          1
    40          3
    41          8
    42          7
    43          2
    44          8
    45          5
    47          3
    49          0
    50          1
    51          2
    52          3
    53          1
    54          1
    55         14
    56          3
    57          2
    58          1
    59          5
    60          0
    61          1
    65          0
    66          0
    67          2
    68          2
    69         19
    70          8
    71          1
    72          3
    73        653
    74         53
    75         57
    76          3
    77          4
    78          0
    79          4
    80          0
    81          1
    82          2
    83          5
    84         13
    85          4
    86          1
    87          0
    88          0
    89          2
    90          0
    91          0
    93          1
    94          0
    95          1
    96         18
    97         17
    98        999
    99         73
   100          2
   101         15
   102          3
   103         31
   104          3
   105          1
   106          0
   107          0
   108          0
   109          0
   110          3
   111          1
   112          1
   113          2
   114          0
   115          3
   116         11
   117         31
   118          4
   119          2
   120          1
   121          0
   122          1
   123          0
   124          6
   125          2
   126         13
   127          2
   128          1
   129         39
   130          5
   131          5
   132          2
   133         11
   134          1
   135          0
   136          0
   137          0
   138          0
   139          0
   140          1
   141         29
   142         10
   143         13
   144          2
   145          2
   146          0
   147        138
   148         22
   149         15
   150          3
   151          1
   152          1
   153          0
   154          1
   155          1
   156          4
   157         21
   158          4
   159          2
   160          0
   161          1
   162          0
   163          2
   164          0
   165          0
   167          0
   168          0
   169          2
   170          2
   171          3
   172          1
   173          1
   174          0
   175          4
   176          0
   177          1
   178          0
   179          0
   181          0
   182          0
   183          1
   184         12
   185          3
   186          8
   187          2
   188          1
   189         26
   190          6
   191         62
   192         12
   193          5
   194          1
   195          0
   196          0
   197          0
   198          3
   199          4
   200          6
   201          3
   202          1
   203          6
   204         66
   205        138
   206         29
   207         12
   208          1
   209          1
   210          2
   211          2
   212          9
   213          6
   214         11
   215         18
   216         14
   217         60
   218         14
   219         17
   220          3
   221         14
   222          2
   223          2
   224          1
   225          1
   226          2
   227          2
   228          8
   229         26
   230          7
   231         12
   232          3
   233          3
   235          1
   236          0
   237          0
   238          1
   239          1
   240          6
   241          5
   242          2
   243          4
   244          1
   245          2
   246          1
   247          1
   248          0
   249          0
   252          0
   253          0
   254          0
   255          0
   257         83
   258         21
   259          8
   260          1
   261          0
   262          0
   263          0
   265          2
   266          2
   267          1
   270          0
   271          0
   272          1
   273          1
   274          1
   275          3
   277         21
   278          7
   279          3
   280          1
   281          0
   282          0
   284          0
   285          0
   286          2
   287          1
   288          3
   289          1
   290          1
   291          7
   292          6
   293          4
   294          1
   295          0
   296          0
   297          0
   298          0
   299          1
   300         12
   301          6
   302          4
   303         80
   304         26
   305         55
   306         15
   307          7
   308          2
   309          0
   312          0
   313          1
   314          1
   315          1
   316          6
   317          2
   318          3
   319        118
   320         39
   321         18
   322          4
   323          0
   324          0
   326          1
   327          4
   328          1
   329          0
   330          0
   331          3
   332          2
   333          2
   334          0
   335          0
   340          1
   342          0
   343          0
   344          0
   345          2
   346          1
   347         46
   348         15
   349          7
   350          1
   354          0
   355          1
   356          5
   357          2
   358          0
   360          0
   361          0
   362          1
   363          0
   371          0
   379          1
   388          0
   393          0
   400          0
   406          0
   416          0
   418          1
   419          0
   421          0
   422          0
   430          8
   431          3
   432          3
   433          1
   435          1
   436          9
   437        552
   438        214
   439        122
   440         31
   441          8
   442          1
   443          0
   444          0
   445          4
   446          4
   447          1
   448          1
   506          0
   511          0
   512          0
   520         60
   521         27
   522         14
   523          4
   524          1
   534          6
   535         17
   536          9
   537          4
   538          1