##TITLE=Library Entry 41834
##JCAMP-DX=Revision 4.10 
##DATA TYPE=MASS SPECTRUM
##SAMPLE DESCRIPTION=Chemical Concepts
##NAMES=HP
##CAS NAME=.beta.-d-Fructopyranose, 1-deoxy-1-(4-morpholinyl)-2,3,4,5-tetrak
is-O-(trimethylsilyl)-
##MOLFORM=C22H51NO6Si4
##CAS REGISTRY NO=72021-28-4
##MP= -300
##BP= -300
##MW= 537
##$RETENTION INDEX=0
##$CONDENSED SPECTRUM=NO
##NPOINTS= 331
##XYDATA=(XY..XY) 1 
    26         14
    27          7
    28         56
    29          5
    30          1
    32          5
    36          0
    38          0
    39          1
    40          5
    41          7
    42          8
    43          9
    44          3
    45          6
    47          3
    50          1
    51          1
    52          2
    53          2
    54          2
    55          6
    56         27
    57          6
    58          1
    59          8
    60          0
    61          1
    65          0
    66          1
    67          2
    68          1
    69         30
    70         11
    71         10
    72          7
    73        999
    74         84
    75         77
    76          5
    77          5
    78          1
    79          4
    80          1
    81          1
    82          0
    83          2
    84          2
    85          3
    86          4
    87          3
    88          1
    89          2
    90          0
    91          0
    93          2
    94          0
    95          1
    96          0
    97          0
    98         23
    99         10
   100        998
   101         83
   102          9
   103         44
   104          4
   105          2
   106          0
   111          1
   112          2
   113          3
   114          2
   115          6
   116         15
   117         48
   118          6
   119          2
   124          2
   125          2
   126          6
   127          4
   128         17
   129         74
   130         12
   131          9
   132          1
   133         19
   134          2
   135          2
   139          0
   140          2
   141         38
   142         10
   143         22
   144          9
   145          3
   146          2
   147        235
   148         38
   149         28
   150          3
   151          3
   152          1
   153          1
   154          2
   155          3
   156          1
   157         36
   158          7
   159          4
   160          2
   161          4
   162          1
   163          4
   164          1
   165          0
   167          1
   168          0
   169          2
   170          1
   171          1
   172          3
   173          1
   174          1
   175          8
   176          1
   177          2
   178          2
   179          0
   182          1
   183          1
   184          1
   185          3
   186         13
   187          3
   188         11
   189         43
   190         11
   191         86
   192         17
   193          7
   194          1
   195          0
   198          1
   199          0
   200          4
   201          6
   202         10
   203         11
   204        129
   205        223
   206         46
   207         21
   208          4
   209          1
   210          2
   211          2
   212          3
   213          5
   214         14
   215         30
   216         24
   217        101
   218         31
   219         26
   220          7
   221         23
   222          5
   223          2
   224          0
   226          1
   227          0
   228          2
   229         41
   230         33
   231         25
   232          7
   233          5
   234          3
   236          1
   237          0
   238          1
   239          1
   240          2
   241          1
   242          8
   243         30
   244          6
   245          4
   246          3
   247          2
   248          0
   251          0
   252          0
   254          0
   255          1
   256          1
   257        116
   258         24
   259         12
   260          4
   261          0
   262          1
   263          0
   264          1
   265          5
   266          2
   267          0
   268          2
   269          0
   270          0
   271          1
   272          1
   273          1
   274          2
   275          4
   276          5
   277         30
   278         10
   279          5
   280          1
   281          0
   282          0
   285          0
   286          1
   288          3
   289          3
   290          4
   291         14
   292          7
   293          5
   294          1
   296          0
   297          0
   298          0
   299          0
   300          1
   301          1
   302          7
   303        108
   304         37
   305         87
   306         27
   307         11
   308          2
   309          1
   313          0
   314          1
   315          1
   316          2
   317          2
   318          9
   319        206
   320         64
   321         33
   322          6
   323          1
   324          0
   328          1
   329          4
   330          2
   331          4
   332          5
   333          3
   334          1
   335          0
   339          0
   341          1
   342          2
   343          1
   344          1
   345          4
   346          2
   347         65
   348         18
   349          9
   350          2
   356          1
   357          1
   358          6
   359          2
   360          1
   361          0
   362          0
   363          0
   364          1
   365          0
   372          0
   377          0
   379          0
   405          0
   406          0
   407          0
   419          0
   420          0
   421          0
   422          0
   429          0
   430          0
   431          0
   432         15
   433          6
   434          5
   435          5
   436          8
   437        724
   438        291
   439        160
   440         43
   441         12
   442          2
   443          0
   446          1
   447          5
   448          4
   449          1
   450          0
   512          0
   520          0
   521          1
   522         57
   523         24
   524         12
   525          3
   526          1
   536          3
   537         19
   538          9
   539          4
   540          1