##TITLE=Library Entry 17294
##JCAMP-DX=Revision 4.10 
##DATA TYPE=MASS SPECTRUM
##SAMPLE DESCRIPTION=Exported from NIST MS Search
##NAMES=HP
##CAS NAME=Ethanol, 2-[2-(2-phenoxyethoxy)ethoxy]-
##MOLFORM=C12H18O4
##CAS REGISTRY NO=7204-16-2
##MP= -300
##BP= -300
##MW= 226
##$RETENTION INDEX=0
##$CONDENSED SPECTRUM=NO
##NPOINTS= 98
##XYDATA=(XY..XY) 1 
    15          4
    17          6
    18         22
    19         19
    26          3
    27         36
    28         71
    29         30
    30          4
    31         33
    32         14
    36          2
    38          6
    39         41
    40          6
    41          9
    42          6
    43         56
    44         37
    45        999
    46         23
    47          2
    50         10
    51         55
    52          5
    53          3
    55          7
    57          8
    58         14
    59         58
    60          3
    61          3
    62          2
    63         10
    64          6
    65         72
    66         21
    67          2
    69          2
    70          5
    71          8
    72          2
    73         14
    74          3
    75         21
    76          8
    77        290
    78         27
    79         15
    83          4
    86          4
    87         25
    88         11
    89        257
    90         12
    91         40
    92          8
    93         59
    94        169
    95         24
    96          2
   101         10
   102          3
   103         44
   104          4
   105          2
   106          2
   107         28
   108          5
   109          2
   115          4
   117          1
   119         25
   120        289
   121        230
   122         20
   123          1
   132          2
   133        134
   134         10
   135         15
   136          2
   137          1
   138         41
   139          4
   147          1
   149          5
   151         13
   152          2
   164         10
   165         10
   166          1
   182          6
   191          2
   196          3
   226        114
   227         15
   228          2