##TITLE=Library Entry 41267
##JCAMP-DX=Revision 4.10 
##DATA TYPE=MASS SPECTRUM
##SAMPLE DESCRIPTION=Chemical Concepts
##NAMES=HP
##CAS NAME=2-Propen-1-ol, 2-(trimethylsilyl)methyl-, acetate
##MOLFORM=C9H18O2Si
##CAS REGISTRY NO=72047-94-0
##MP= -300
##BP= -300
##MW= 186
##$RETENTION INDEX=0
##$CONDENSED SPECTRUM=NO
##NPOINTS= 104
##XYDATA=(XY..XY) 1 
    29         81
    30         23
    31          1
    33         20
    40         36
    41         15
    42          9
    43        393
    44         35
    45        136
    46          8
    47         29
    48          1
    49          1
    50          1
    51          3
    52          2
    53         35
    54        297
    55         33
    56          5
    57         20
    58         15
    59         32
    60          6
    61         40
    62          2
    63          1
    64          1
    65          1
    66          1
    67          5
    68         15
    69          8
    70          4
    71         12
    72         16
    73        999
    74         83
    75        625
    76         42
    77         24
    78          0
    79          4
    81          6
    82          2
    83          9
    84          2
    85          7
    86          1
    87          8
    88          1
    89          4
    91         27
    92          3
    93          1
    95          6
    96          8
    97          7
    98          2
    99         10
   100          1
   101         25
   102          2
   103          4
   105          0
   108          0
   109          2
   110          2
   111         27
   112          5
   113          8
   114          1
   115          5
   116          7
   117        325
   118         31
   119         13
   125          0
   126          2
   127          8
   128          3
   129        118
   130         18
   131          7
   132          0
   133          8
   134          0
   141          1
   142          2
   143        187
   144         88
   145         16
   146          4
   153          2
   155          0
   157          3
   170          3
   171         27
   172          3
   173          0
   186         93
   187         14
   188          4