##TITLE=Library Entry 44078
##JCAMP-DX=Revision 4.10 
##DATA TYPE=MASS SPECTRUM
##SAMPLE DESCRIPTION=L. DUSOLD, FDA, WASHINGTON, D.C., USA
##NAMES=HP
##CAS NAME=8'-epi-Hydroxyzearalenone, 3TMS derivative
##MOLFORM=C27H46O6Si3
##CAS REGISTRY NO=72060-12-9
##MP= -300
##BP= -300
##MW= 550
##$RETENTION INDEX=0
##$CONDENSED SPECTRUM=NO
##NPOINTS= 45
##XYDATA=(XY..XY) 1 
    73        999
   147        474
   260        466
   261        193
   291        227
   292        118
   305        862
   306        362
   307        460
   308        184
   317        302
   318        144
   321        250
   322         95
   323        259
   324         95
   331        253
   332        144
   333        999
   334        371
   335        190
   350        138
   351         98
   359        115
   360         52
   375        132
   376         55
   377        408
   378        132
   379         66
   401         43
   427        138
   428         49
   442        287
   443        167
   444         80
   445        181
   446         72
   460        126
   461         63
   493         52
   535         49
   550        138
   551         63
   552         34