##TITLE=Library Entry 19645
##JCAMP-DX=Revision 4.10 
##DATA TYPE=MASS SPECTRUM
##SAMPLE DESCRIPTION=D.HENNEBERG, MAX-PLANCK INSTITUTE, MULHEIM, WEST GERMAN
Y
##NAMES=HP
##CAS NAME=2-Dodecene, (Z)-
##MOLFORM=C12H24
##CAS REGISTRY NO=7206-26-0
##MP= -300
##BP= -300
##MW= 168
##$RETENTION INDEX=1202
##$CONDENSED SPECTRUM=NO
##NPOINTS= 86
##XYDATA=(XY..XY) 1 
    24          2
    25          5
    26         11
    27        180
    28          6
    29        369
    30         11
    31          0
    35          0
    37          1
    38          7
    39        146
    40         28
    41        685
    42        278
    43        882
    44         11
    45          2
    46          1
    48          0
    49          1
    50          2
    51          7
    52          6
    53         63
    54        106
    55        999
    56        856
    57        605
    58         23
    59          5
    60          0
    62          0
    63          2
    64          2
    65         11
    66         11
    67         95
    68        101
    69        720
    70        627
    71        215
    72         10
    73          1
    74          1
    75          0
    76          0
    77          7
    78          1
    79          9
    80          1
    81         29
    82         83
    83        420
    84        277
    85         60
    86          3
    88          1
    89          0
    91          1
    93          0
    94          0
    95          7
    96         31
    97        236
    98        100
    99          9
   108          0
   109          1
   110          9
   111         82
   112         41
   113          3
   117          1
   124          3
   125         29
   126         15
   137          0
   138          0
   139          7
   140         13
   156          0
   166          0
   168        100
   169         12
   170          1