##TITLE=Library Entry 97335
##JCAMP-DX=Revision 4.10 
##DATA TYPE=MASS SPECTRUM
##SAMPLE DESCRIPTION=P.A. Leclercq, Lab. Instrum. Anal., Eindhoven Univ. Tec
hnol., Netherlands
##NAMES=HP
##CAS NAME=Bicyclo[4.2.1]nona-2,4,7-triene, 9-(phenylseleno)-, (anti-)
##MOLFORM=C15H14Se
##CAS REGISTRY NO=72065-50-0
##MP= -300
##BP= -300
##MW= 274
##$RETENTION INDEX=0
##$CONDENSED SPECTRUM=NO
##NPOINTS= 53
##XYDATA=(XY..XY) 1 
    41         50
    43          6
    44          6
    50        107
    51        299
    52         50
    53         20
    57          6
    58          3
    62         37
    63        151
    64         26
    65        272
    66         20
    74         23
    75         37
    76         33
    77        188
    78         97
    79          6
    86          6
    87          6
    88          6
    89        107
    90         16
    91        430
    92         37
    93         10
    97          3
   101          6
   102         30
   103          6
   105          6
   113         10
   114         10
   115        848
   116        265
   117        999
   118        117
   119         10
   127          3
   128          6
   130          3
   153          6
   154          6
   155         16
   156         10
   157         30
   158         10
   159          6
   165          3
   272          3
   274         10