##TITLE=Library Entry 19935
##JCAMP-DX=Revision 4.10 
##DATA TYPE=MASS SPECTRUM
##SAMPLE DESCRIPTION=D.HENNEBERG, MAX-PLANCK INSTITUTE, MULHEIM, WEST GERMAN
Y
##NAMES=HP
##CAS NAME=9-Octadecene, (E)-
##MOLFORM=C18H36
##CAS REGISTRY NO=7206-25-9
##MP= -300
##BP= -300
##MW= 252
##$RETENTION INDEX=1803
##$CONDENSED SPECTRUM=NO
##NPOINTS= 105
##XYDATA=(XY..XY) 1 
    23          1
    24          1
    25          3
    26         11
    27        128
    28         19
    29        350
    30          8
    31          2
    32          1
    33          0
    34          0
    35          1
    36          0
    37          5
    38          4
    39         96
    40         15
    41        701
    42        165
    43        865
    44          9
    45          0
    47          0
    48          0
    49          1
    50          4
    51          5
    52          4
    53         49
    54        226
    55        999
    56        634
    57        887
    58         32
    59          0
    60          0
    62          0
    63          2
    64          0
    65         12
    66         17
    67        206
    68        124
    69        840
    70        540
    71        345
    72         16
    73          0
    74          1
    75          1
    76          0
    77         11
    78          5
    79         27
    80         12
    81         94
    82        164
    83        772
    84        291
    85        167
    86          8
    91          4
    92          0
    93          5
    94          1
    95         38
    96         88
    97        533
    98        150
    99         29
   100          0
   105          1
   109         15
   110         36
   111        225
   112         76
   113         15
   123          6
   124         19
   125         88
   126         38
   127          7
   137          2
   138         10
   139         32
   140         24
   141          2
   152          4
   153         11
   154         11
   155          1
   166          1
   167          5
   168          7
   169          0
   180          0
   181          2
   182          3
   195          1
   196          1
   224          2
   250          0
   252         32
   253          5