##TITLE=Library Entry 19932
##JCAMP-DX=Revision 4.10 
##DATA TYPE=MASS SPECTRUM
##SAMPLE DESCRIPTION=D.HENNEBERG, MAX-PLANCK INSTITUTE, MULHEIM, WEST GERMAN
Y
##NAMES=HP
##CAS NAME=5-Octadecene, (E)-
##MOLFORM=C18H36
##CAS REGISTRY NO=7206-21-5
##MP= -300
##BP= -300
##MW= 252
##$RETENTION INDEX=1811
##$CONDENSED SPECTRUM=NO
##NPOINTS= 104
##XYDATA=(XY..XY) 1 
    23          0
    24          0
    25          1
    26          7
    27         94
    28         18
    29        233
    30          6
    31          2
    32          1
    33          1
    34          0
    35          2
    36          1
    37          4
    38          3
    39         68
    40         15
    41        557
    42        127
    43        637
    44         12
    47          0
    48          0
    49          1
    50          3
    51          5
    52          4
    53         40
    54        158
    55        999
    56        500
    57        674
    58         27
    59          0
    60          0
    61          0
    62          0
    63          1
    64          0
    65         10
    66         13
    67        147
    68         99
    69        614
    70        417
    71        291
    72         14
    74          0
    75          0
    77          8
    78          4
    79         18
    80          9
    81         74
    82        133
    83        548
    84        215
    85        144
    86          8
    91          3
    92          1
    93          3
    94          2
    95         28
    96         70
    97        419
    98        122
    99         28
   100          1
   105          1
   106          0
   109          9
   110         28
   111        175
   112         66
   113         13
   123          4
   124         13
   125         70
   126         32
   127          5
   137          1
   138          6
   139         22
   140         19
   141          2
   152          4
   153          9
   154          9
   155          1
   166          2
   167          4
   168          5
   169          0
   180          1
   181          2
   182          2
   195          1
   196          1
   224          2
   250          0
   252         26
   253          4