##TITLE=Library Entry 35120
##JCAMP-DX=Revision 4.10 
##DATA TYPE=MASS SPECTRUM
##SAMPLE DESCRIPTION=D.HENNEBERG, MAX-PLANCK INSTITUTE, MULHEIM, WEST GERMAN
Y
##NAMES=HP
##CAS NAME=3-Octadecene, (E)-
##MOLFORM=C18H36
##CAS REGISTRY NO=7206-19-1
##MP= -300
##BP= -300
##MW= 252
##$RETENTION INDEX=1785
##$CONDENSED SPECTRUM=NO
##NPOINTS= 112
##XYDATA=(XY..XY) 1 
    22          1
    23          0
    24          0
    25          2
    26          9
    27        101
    28         18
    29        304
    30          8
    31          2
    32          1
    33          1
    34          0
    35          2
    36          1
    37          6
    38          4
    39         88
    40         21
    41        963
    42        191
    43        910
    44         20
    45          1
    46          0
    47          1
    48          0
    49          1
    50          5
    51          5
    52          5
    53         53
    54        134
    55        967
    56        602
    57        981
    58         38
    60          0
    62          0
    63          2
    64          0
    65         10
    66         20
    67        198
    68        174
    69        999
    70        568
    71        422
    72         20
    73          0
    74          0
    75          0
    76          0
    77          8
    78          3
    79         18
    80          8
    81         90
    82        191
    83        730
    84        316
    85        217
    86         12
    91          4
    92          1
    93          3
    94          1
    95         37
    96         97
    97        580
    98        169
    99         40
   100          1
   105          0
   107          0
   108          0
   109         11
   110         40
   111        271
   112         94
   113         19
   123          5
   124         20
   125        105
   126         47
   127         10
   128          0
   137          2
   138          9
   139         33
   140         28
   141          4
   152          5
   153         14
   154         16
   155          1
   166          2
   167          7
   168         10
   169          1
   180          2
   181          2
   182          5
   183          0
   195          1
   196          2
   209          0
   210          0
   224          4
   250          0
   252         36
   253          6