##TITLE=Library Entry 19283
##JCAMP-DX=Revision 4.10 
##DATA TYPE=MASS SPECTRUM
##SAMPLE DESCRIPTION=NIST Mass Spectrometry Data Center
##NAMES=HP
##CAS NAME=6-Dodecene, (Z)-
##MOLFORM=C12H24
##CAS REGISTRY NO=7206-29-3
##MP= -300
##BP= -300
##MW= 168
##$RETENTION INDEX=1176
##$CONDENSED SPECTRUM=NO
##NPOINTS= 59
##XYDATA=(XY..XY) 1 
    11          4
    12          5
    14          1
    15         11
    16          6
    17          1
    18         11
    27        304
    28        123
    29        492
    30         12
    32         19
    37          4
    39        310
    40         50
    41        946
    42        210
    43        382
    44         17
    50          9
    51         27
    52         23
    53        117
    54        249
    55        999
    56        620
    57        366
    58         20
    63          6
    65         35
    66         20
    67        184
    68        102
    69        915
    70        574
    71        121
    72          6
    77         28
    79         34
    81         54
    82         97
    83        419
    84        248
    85         60
    91          7
    95         11
    96         41
    97        244
    98         97
    99          9
   110         18
   111         95
   112         36
   124          6
   125         23
   126          9
   140         17
   168        207
   169         22