##TITLE=Library Entry 20082
##JCAMP-DX=Revision 4.10 
##DATA TYPE=MASS SPECTRUM
##SAMPLE DESCRIPTION=D.HENNEBERG, MAX-PLANCK INSTITUTE, MULHEIM, WEST GERMAN
Y
##NAMES=HP
##CAS NAME=6-Dodecene, (E)-
##MOLFORM=C12H24
##CAS REGISTRY NO=7206-17-9
##MP= -300
##BP= -300
##MW= 168
##$RETENTION INDEX=1180
##$CONDENSED SPECTRUM=NO
##NPOINTS= 66
##XYDATA=(XY..XY) 1 
    25          3
    26         11
    27        146
    29        291
    30         10
    31          2
    32         12
    35          5
    36          2
    38          6
    39        124
    40         16
    41        648
    42        203
    43        407
    45          1
    46          2
    47          0
    48          0
    49          2
    50          3
    51         10
    52          4
    53         58
    54        143
    55        999
    56        608
    57        307
    58          7
    63          4
    64          1
    65         12
    66          9
    67         94
    68         61
    69        859
    70        439
    71         91
    72          6
    73          1
    77          7
    78          1
    79         13
    80          3
    81         31
    82         50
    83        285
    84        208
    85         35
    86          2
    91          4
    95         13
    96         17
    97        149
    98         68
    99          3
   110          7
   111         50
   112         23
   113          3
   125          9
   126          6
   139          5
   140          6
   168         97
   169         16