##TITLE=Library Entry 20168
##JCAMP-DX=Revision 4.10 
##DATA TYPE=MASS SPECTRUM
##SAMPLE DESCRIPTION=D.HENNEBERG, MAX-PLANCK INSTITUTE, MULHEIM, WEST GERMAN
Y
##NAMES=HP
##CAS NAME=5-Dodecene, (Z)-
##MOLFORM=C12H24
##CAS REGISTRY NO=7206-28-2
##MP= -300
##BP= -300
##MW= 168
##$RETENTION INDEX=1176
##$CONDENSED SPECTRUM=NO
##NPOINTS= 75
##XYDATA=(XY..XY) 1 
    22          1
    23          0
    25          2
    26          8
    27        169
    28         21
    29        231
    30          7
    32          0
    34          0
    35          2
    36          0
    37          5
    38          4
    39        126
    40         24
    41        564
    42        241
    43        529
    44          7
    47          1
    49          1
    50          4
    51         10
    52          6
    53         56
    54        134
    55        999
    56        658
    57        330
    58         12
    63          3
    64          1
    65         14
    66         10
    67        114
    68         64
    69        702
    70        461
    71        105
    72          4
    75          1
    77         11
    78          3
    79         17
    80          3
    81         44
    82         60
    83        311
    84        186
    85         43
    86          2
    91          4
    92          0
    93          2
    95         11
    96         23
    97        154
    98         73
    99          6
   105          0
   109          2
   110          7
   111         54
   112         21
   113          1
   124          3
   125         14
   126          7
   138          1
   139          3
   140          7
   166          2
   168         83
   169         11