##TITLE=Library Entry 19073
##JCAMP-DX=Revision 4.10 
##DATA TYPE=MASS SPECTRUM
##SAMPLE DESCRIPTION=S.A. Rang et al., IR & MS of Unsatd. Hydrocarbons, 1977
##NAMES=HP
##CAS NAME=4-Dodecene, (Z)-
##MOLFORM=C12H24
##CAS REGISTRY NO=7206-27-1
##MP= -300
##BP= -300
##MW= 168
##$RETENTION INDEX=1180
##$CONDENSED SPECTRUM=NO
##NPOINTS= 76
##XYDATA=(XY..XY) 1 
    15          3
    16          0
    25          1
    26         11
    27        198
    28         41
    29        319
    30          7
    31          0
    37          1
    38          3
    39        154
    40         29
    41        826
    42        276
    43        673
    44         21
    45          0
    50          2
    51          8
    52          7
    53         74
    54        166
    55        999
    56        673
    57        371
    58         15
    59          0
    63          1
    64          0
    65         14
    66         12
    67        134
    68         74
    69        630
    70        500
    71        122
    72          6
    77         11
    78          2
    79         16
    80          4
    81         41
    82         65
    83        354
    84        250
    85         68
    86          4
    91          3
    92          0
    93          1
    94          0
    95          9
    96         25
    97        184
    98        101
    99          9
   100          0
   109          1
   110          9
   111         74
   112         35
   113          3
   123          0
   124          3
   125         22
   126         14
   127          1
   138          1
   139          4
   140         15
   141          2
   166          0
   168        163
   169         21
   170          1