##TITLE=Library Entry 19777
##JCAMP-DX=Revision 4.10 
##DATA TYPE=MASS SPECTRUM
##SAMPLE DESCRIPTION=NIST Mass Spectrometry Data Center
##NAMES=HP
##CAS NAME=N-Acryloylsarcosine methyl ester
##MOLFORM=C7H11NO3
##CAS REGISTRY NO=72065-23-7
##MP= -300
##BP= -300
##MW= 157
##$RETENTION INDEX=0
##$CONDENSED SPECTRUM=NO
##NPOINTS= 55
##XYDATA=(XY..XY) 1 
    12          1
    14          9
    15        153
    16          2
    18         10
    25          6
    26         52
    27        296
    28         34
    29         47
    30         23
    31         10
    33          1
    37          1
    38          5
    39          8
    40         12
    41         47
    42        306
    43         92
    44        600
    45         37
    46          1
    51          1
    52          2
    53         16
    55        999
    56         44
    57          5
    58         17
    59         36
    66          1
    67          1
    68          9
    69         48
    70          7
    71          1
    72          3
    73          2
    74          6
    84          4
    85          1
    86          1
    88          1
    98        502
    99         30
   100          4
   102        116
   103          5
   116          1
   125         74
   126         19
   127          2
   157         49
   158          3