##TITLE=Library Entry 19114
##JCAMP-DX=Revision 4.10 
##DATA TYPE=MASS SPECTRUM
##SAMPLE DESCRIPTION=D.HENNEBERG, MAX-PLANCK INSTITUTE, MULHEIM, WEST GERMAN
Y
##NAMES=HP
##CAS NAME=4-Dodecene, (E)-
##MOLFORM=C12H24
##CAS REGISTRY NO=7206-15-7
##MP= -300
##BP= -300
##MW= 168
##$RETENTION INDEX=1181
##$CONDENSED SPECTRUM=NO
##NPOINTS= 63
##XYDATA=(XY..XY) 1 
    22          3
    24          8
    25          7
    26          4
    27        240
    28         62
    29        312
    30          6
    33          3
    35          2
    36         10
    39        212
    40         36
    41        816
    42        223
    43        553
    44         34
    45          1
    49          5
    50          6
    51         13
    52          9
    53         89
    54        174
    55        999
    56        595
    57        329
    58          8
    62          7
    63          0
    64          1
    65         26
    66         23
    67        157
    68         80
    69        544
    70        354
    71         96
    77          5
    78         12
    79         24
    80         12
    81         33
    82         59
    83        282
    84        183
    85         50
    86          3
    91          4
    95         20
    96         33
    97        123
    98         56
    99          7
   110          9
   111         32
   112         35
   125         11
   126          4
   140          8
   167          2
   168         58
   169          1