##TITLE=Library Entry 3361
##JCAMP-DX=Revision 4.10 
##DATA TYPE=MASS SPECTRUM
##SAMPLE DESCRIPTION=NIST Mass Spectrometry Data Center, 1990.
##NAMES=HP
##CAS NAME=3-Dodecene, (E)-
##MOLFORM=C12H24
##CAS REGISTRY NO=7206-14-6
##MP= -300
##BP= -300
##MW= 168
##$RETENTION INDEX=1185
##$CONDENSED SPECTRUM=NO
##NPOINTS= 43
##XYDATA=(XY..XY) 1 
    27        207
    28        101
    29        287
    32         14
    39        261
    41        999
    42        224
    43        423
    44         21
    51         22
    52         19
    53        117
    54        144
    55        781
    56        610
    57        415
    58         17
    65         30
    66         24
    67        210
    68        121
    69        829
    70        579
    71        129
    77         19
    79         27
    81         51
    82        107
    83        404
    84        244
    85         59
    95         12
    96         52
    97        236
    98         99
   110         17
   111        109
   112         37
   125         33
   126         14
   140         23
   168        226
   169         28