##TITLE=Library Entry 21336
##JCAMP-DX=Revision 4.10 
##DATA TYPE=MASS SPECTRUM
##SAMPLE DESCRIPTION=DR. C. C. VAN DE SANDE, STATE UNIVERSITY OF GENT, BELGI
UM
##NAMES=HP
##CAS NAME=2-Hexenoic acid, 5-methyl-, 4-methylphenyl ester
##MOLFORM=C14H18O2
##CAS REGISTRY NO=72060-09-4
##MP= -300
##BP= -300
##MW= 218
##$RETENTION INDEX=0
##$CONDENSED SPECTRUM=NO
##NPOINTS= 51
##XYDATA=(XY..XY) 1 
    38         12
    39        210
    40         75
    41        310
    42         30
    43        370
    44         15
    50         22
    51         73
    52         50
    53        110
    54         25
    55        999
    56         60
    57         10
    63         20
    64          5
    65         40
    66         10
    67         50
    68        190
    69        152
    70          9
    77        160
    78         48
    79         80
    80         16
    81         40
    82         20
    83         40
    91         40
    92          4
    93         15
    95        120
    96         10
   107        140
   108        150
   109         25
   110        225
   111        890
   112        100
   119         13
   130          8
   147         12
   161          8
   175         22
   176          7
   189          8
   203          9
   218        260
   219         52