##TITLE=Library Entry 26411
##JCAMP-DX=Revision 4.10 
##DATA TYPE=MASS SPECTRUM
##SAMPLE DESCRIPTION=Drug Lab
##NAMES=HP
##CAS NAME=Estr-4-en-3-one, 17-(1-oxopropoxy)-, (17.beta.)-
##MOLFORM=C21H30O3
##CAS REGISTRY NO=7207-92-3
##MP= -300
##BP= -300
##MW= 330
##$RETENTION INDEX=0
##$CONDENSED SPECTRUM=NO
##NPOINTS= 212
##XYDATA=(XY..XY) 1 
    40          8
    41        116
    42         11
    43         46
    44          1
    45          3
    50          2
    51         11
    52          9
    53         58
    54         10
    55        166
    56         17
    57        999
    58         34
    59          2
    63          3
    64          3
    65         39
    66         15
    67         91
    68         12
    69         26
    70          2
    71          9
    72          1
    74          1
    75          2
    77        119
    78         35
    79        169
    80         30
    81         98
    82         15
    83         27
    84          3
    85          4
    86          5
    89          3
    90          1
    91        241
    92         44
    93        120
    94         57
    95         88
    96         16
    97         44
    98          5
    99          2
   100          2
   101          1
   102          3
   103         25
   104         24
   105        155
   106         46
   107        134
   108         64
   109        100
   110        539
   111         61
   112          4
   113          3
   115         40
   116         18
   117         83
   118         38
   119        117
   120         84
   121         72
   122         64
   123         77
   124         25
   125          3
   126          1
   127          8
   128         30
   129         52
   130         23
   131        123
   132         46
   133        125
   134         69
   135        104
   136         26
   137         14
   138          2
   139          1
   141         20
   142         20
   143         43
   144         46
   145        102
   146        164
   147        268
   148        129
   149         68
   150         14
   151          7
   152          5
   153          6
   154          4
   155         16
   156         14
   157         38
   158         29
   159         76
   160         95
   161         70
   162         78
   163         44
   164         20
   165         20
   166          5
   167          6
   168          4
   169         14
   170         12
   171         36
   172         34
   173         49
   174         46
   175         36
   176          9
   177          3
   178          2
   179          1
   180          1
   181         11
   182          9
   183         19
   184         15
   185         53
   186         36
   187         34
   188         14
   189         14
   190          4
   195         17
   196         10
   197         31
   198         18
   199         62
   200         38
   201         25
   202         14
   203          9
   204          3
   209          6
   210         12
   211          8
   212         28
   213         52
   214         62
   215         90
   216         48
   217         35
   218         11
   219          2
   220          7
   221          2
   222          1
   223         17
   224          3
   225          2
   226          1
   227         14
   228         37
   229         20
   230         14
   231         83
   232         19
   233          2
   234          1
   237         12
   238         50
   239         19
   240          3
   241         54
   242         10
   243          1
   245         10
   246         46
   247          8
   248          1
   254          1
   255         22
   256        305
   257         77
   258         10
   259         14
   260          4
   270          2
   272          2
   273         26
   274        296
   275         59
   276          7
   286          2
   287          1
   288         13
   289          2
   301          2
   302         17
   303          3
   312          5
   313          1
   315          2
   329          1
   330        189
   331         45
   332          6