##TITLE=Library Entry 81139
##JCAMP-DX=Revision 4.10 
##DATA TYPE=MASS SPECTRUM
##SAMPLE DESCRIPTION=A.A.Kutin, Moscow, Russia
##NAMES=HP
##CAS NAME=Benzoic acid, 4-(1,3-dioxo-3-phenylpropylamino)-
##MOLFORM=C16H13NO4
##CAS REGISTRY NO=7207-10-5
##MP= -300
##BP= -300
##MW= 283
##$RETENTION INDEX=0
##$CONDENSED SPECTRUM=NO
##NPOINTS= 162
##XYDATA=(XY..XY) 1 
    33          3
    34          0
    35          3
    36         12
    37          8
    38         29
    39         67
    40         14
    41         16
    42         20
    43         18
    44          9
    45         17
    46          1
    50         75
    51        174
    52         31
    53         22
    54          5
    55          8
    56          5
    57          2
    58          0
    59          0
    61          8
    62         25
    63         76
    64         54
    65        128
    66         12
    67          3
    69        128
    71          4
    74         27
    75         29
    77        807
    78        104
    79         14
    80          9
    81         26
    82          2
    83          1
    84          1
    85          3
    86          1
    87          2
    89         26
    90         46
    91         76
    92         51
    93         10
    95         14
    96          0
    97          0
    98          0
    99          0
   101          4
   102          8
   105        999
   106         68
   108         30
   109          4
   110          0
   111          0
   112          1
   113          0
   114          0
   115          1
   116          1
   117          3
   118         16
   120        470
   121         32
   122          2
   124          1
   125          1
   126          0
   127          0
   128          0
   129          0
   130          0
   131          0
   132          3
   133          3
   134          4
   137        852
   138         56
   139          5
   140          0
   141          0
   142          0
   143          0
   144          1
   146         41
   147         52
   148          5
   149          1
   150          8
   151          1
   152          0
   153          0
   159          1
   160          3
   161          3
   162          2
   163          4
   164          1
   165          1
   166          1
   167          1
   168          0
   169          0
   170          0
   171          0
   176          0
   177          0
   178          1
   179          1
   180          1
   181          0
   182          0
   185          0
   186          0
   187          0
   188          0
   190          0
   191          0
   192          0
   193          0
   194          0
   195          0
   196          0
   203          0
   204          0
   208          0
   210          0
   212          0
   214          0
   220          0
   221          0
   222          0
   233          0
   236          0
   238          4
   239          0
   240          0
   241          0
   254          0
   255          0
   256          0
   262          0
   263          0
   264          0
   266          5
   267          0
   268          0
   278          0
   280          4
   283        270
   284         40
   285          5
   286          0