##TITLE=Library Entry 21245
##JCAMP-DX=Revision 4.10 
##DATA TYPE=MASS SPECTRUM
##SAMPLE DESCRIPTION=INST.OF CLINICAL BIOCHEM,RIKSHOSP,UNIV.OF OSLO,E.JELLUM
,ET.A
##NAMES=HP
##CAS NAME=Pentanedioic acid, 2-methyl-, monomethyl ester
##MOLFORM=C7H12O4
##CAS REGISTRY NO=72088-36-9
##MP= -300
##BP= -300
##MW= 160
##$RETENTION INDEX=0
##$CONDENSED SPECTRUM=NO
##NPOINTS= 32
##XYDATA=(XY..XY) 1 
    27        350
    29        340
    39        200
    41        370
    42        180
    43        390
    45        230
    53         80
    54         90
    55        999
    56        410
    57        170
    58         80
    59        630
    60         90
    69        210
    73        130
    74         80
    82         60
    83        400
    84         60
    85         50
    87        100
    88        360
    99        200
   100        610
   101        660
   114        490
   115         60
   128        340
   129        410
   142        110