##TITLE=Library Entry 48882
##JCAMP-DX=Revision 4.10 
##DATA TYPE=MASS SPECTRUM
##SAMPLE DESCRIPTION=O. VOSTROWSKY,INST. ORG. CHEM.,ERLANGEN-NUERNBERG UNIV.
,W.GER.
##NAMES=HP
##CAS NAME=1,3,5-Dodecatriene
##MOLFORM=C12H20
##CAS REGISTRY NO=72084-21-0
##MP= -300
##BP= -300
##MW= 164
##$RETENTION INDEX=0
##$CONDENSED SPECTRUM=NO
##NPOINTS= 41
##XYDATA=(XY..XY) 1 
    40         51
    41        257
    42         20
    43        154
    51         61
    52         20
    53         82
    55         41
    56         20
    65        103
    66        144
    67        144
    68         51
    69         30
    71         20
    77        443
    78        257
    79        999
    80        814
    81        134
    82         30
    83         20
    91        381
    92         88
    93        268
    94        103
    95         41
   103         20
   105         30
   107         41
   110         51
   121         16
   122          4
   130          4
   135          8
   149          8
   150          4
   163        164
   164        288
   165         41
   166          3