##TITLE=Library Entry 33724
##JCAMP-DX=Revision 4.10 
##DATA TYPE=MASS SPECTRUM
##SAMPLE DESCRIPTION=Chemical Concepts
##NAMES=HP
##CAS NAME=7-Oxabicyclo[2.2.1]hept-5-ene-2,3-dicarboxylic acid, monomethyl e
ster
##MOLFORM=C9H10O5
##CAS REGISTRY NO=72081-01-7
##MP= -300
##BP= -300
##MW= 198
##$RETENTION INDEX=0
##$CONDENSED SPECTRUM=NO
##NPOINTS= 124
##XYDATA=(XY..XY) 1 
    23          6
    25         32
    26        208
    27        130
    29        158
    30         12
    31         54
    33          3
    34          4
    36          9
    37         53
    38         86
    39        473
    41         31
    42         37
    43         19
    45        123
    46          2
    47          1
    48          1
    49          4
    50         14
    51         21
    52          7
    53         49
    54         77
    55         43
    56          4
    57          3
    58          6
    59         49
    60          3
    61          2
    62          6
    63         17
    64          6
    65         81
    66         43
    67         14
    68        999
    69        126
    70          6
    71         50
    72          8
    73          2
    74          2
    75          1
    76          0
    77         15
    78          6
    79          9
    80          1
    81         23
    82         15
    83          3
    84          2
    85         48
    86         30
    87          1
    88          0
    89          0
    90          0
    91          0
    92          5
    93         23
    94         26
    95         21
    96          3
    97          8
    98          8
    99        491
   100         34
   101          3
   102          0
   103          0
   104          0
   105          1
   106          0
   107          0
   108          1
   109          4
   110          9
   111          5
   112          1
   113         22
   114          2
   115          0
   116          0
   117          0
   119          0
   120          0
   121        220
   122         21
   123          2
   124          3
   125          3
   126          0
   127          0
   128          0
   129          0
   130          1
   131          3
   132          0
   133          0
   134          0
   136          0
   137          1
   138         16
   139        129
   140          9
   141          1
   142          0
   147          0
   149          0
   151          0
   152         10
   153         92
   154         11
   155          1
   165          0
   166          4
   167          1
   180          6
   181          0