##TITLE=Library Entry 11378
##JCAMP-DX=Revision 4.10 
##DATA TYPE=MASS SPECTRUM
##SAMPLE DESCRIPTION=Japan AIST/NIMC Database- Spectrum MS-NW-6890
##NAMES=HP
##CAS NAME=D-Glucitol, hexaacetate
##MOLFORM=C18H26O12
##CAS REGISTRY NO=7208-47-1
##MP= -300
##BP= -300
##MW= 434
##$RETENTION INDEX=0
##$CONDENSED SPECTRUM=NO
##NPOINTS= 113
##XYDATA=(XY..XY) 1 
    14          2
    15         25
    17          1
    18          3
    27          2
    28          4
    29          3
    31          1
    39          2
    41          3
    42          9
    43        999
    44         23
    45          4
    53          1
    55          9
    56          2
    57          5
    60          5
    61         10
    68         14
    69         21
    70          5
    71          4
    73         25
    74          3
    80          1
    81          6
    82          3
    83          3
    84          2
    85         45
    86         33
    87          3
    93          1
    94          1
    95          1
    97         38
    98         18
    99          7
   100          4
   101          3
   102          6
   103         96
   104          5
   109          3
   110         32
   111         17
   112          6
   113          2
   114          1
   115        186
   116         37
   117          3
   126          1
   127         59
   128         97
   129          9
   130          1
   133          1
   139         93
   140         12
   141          3
   142          2
   143          1
   144          2
   145        176
   146         11
   147          2
   152         29
   153         30
   154          3
   157         91
   158         30
   159          3
   169          5
   170         98
   171         12
   172          2
   175         20
   176          2
   184          1
   187        126
   188         11
   189          2
   199          6
   200          5
   201          1
   211          3
   212         18
   213          6
   217        102
   218         10
   219          2
   229          5
   230         11
   231          2
   242          4
   247          1
   254          1
   259         57
   260          8
   261          1
   272         11
   273          4
   289         81
   290         11
   291          2
   314          1
   361         28
   362          5
   363          1
   375          4