##TITLE=Library Entry 69718
##JCAMP-DX=Revision 4.10 
##DATA TYPE=MASS SPECTRUM
##SAMPLE DESCRIPTION=Exported from NIST MS Search
##NAMES=HP
##CAS NAME=Oxazole, 2,4-dimethyl-
##MOLFORM=C5H7NO
##CAS REGISTRY NO=7208-05-1
##MP= -300
##BP= -300
##MW= 97
##$RETENTION INDEX=730
##$CONDENSED SPECTRUM=NO
##NPOINTS= 21
##XYDATA=(XY..XY) 1 
    29         60
    31        270
    32         30
    38         20
    39         40
    40         40
    41         90
    42        400
    43         40
    52         20
    53         20
    54         50
    55        200
    56         80
    66         30
    68        340
    69        220
    70         20
    96         20
    97        999
    98         60