##TITLE=Library Entry 38926
##JCAMP-DX=Revision 4.10 
##DATA TYPE=MASS SPECTRUM
##SAMPLE DESCRIPTION=Chuck Anderson, Aldrich Chemical Co.
##NAMES=HP
##CAS NAME=1,4-Bis(3-aminopropyl)piperazine
##MOLFORM=C10H24N4
##CAS REGISTRY NO=7209-38-3
##MP= -300
##BP= -300
##MW= 200
##$RETENTION INDEX=0
##$CONDENSED SPECTRUM=NO
##NPOINTS= 57
##XYDATA=(XY..XY) 1 
    15         20
    17         20
    18         29
    26         16
    27         57
    28        227
    29         76
    30        520
    31         16
    39         11
    41        111
    42        235
    43        215
    44        690
    45         22
    54         50
    55         72
    56        345
    57        248
    58        345
    59         24
    68         56
    69         61
    70        816
    71        999
    72        141
    75         28
    82         66
    83         70
    84        317
    85        142
    86         16
    87        239
    96         40
    97        143
    98        154
    99        254
   100         74
   101        192
   109         16
   111         59
   112         68
   113        204
   114        205
   115         54
   118         16
   125         32
   126        104
   127        382
   128         80
   139          9
   140         30
   141         79
   142         25
   156         16
   170        117
   171          4