##TITLE=Library Entry 1239
##JCAMP-DX=Revision 4.10 
##DATA TYPE=MASS SPECTRUM
##SAMPLE DESCRIPTION=Japan AIST/NIMC Database- Spectrum MS-NW-2490
##NAMES=HP
##CAS NAME=DL-Phenylalanine, N-glycyl-
##MOLFORM=C11H14N2O3
##CAS REGISTRY NO=721-66-4
##MP= -300
##BP= -300
##MW= 222
##$RETENTION INDEX=0
##$CONDENSED SPECTRUM=NO
##NPOINTS= 158
##XYDATA=(XY..XY) 1 
    12          2
    14          1
    15          6
    16          5
    17         11
    18         29
    26          7
    27         49
    28         96
    29         26
    30        999
    31         56
    32          5
    35          1
    36         16
    37          3
    38          9
    39         43
    40          6
    41         20
    42         13
    43         21
    44         90
    45          4
    46          3
    49          3
    50         22
    51         50
    52         12
    53          4
    54          2
    55          6
    56          8
    57         18
    58          9
    59          9
    60          3
    61          2
    62         11
    63         26
    64          8
    65         90
    66          6
    67          4
    68          2
    69          6
    70          2
    71          1
    72          2
    73          4
    74         74
    75         27
    76         11
    77         54
    78         30
    79         16
    80          2
    81          2
    82          1
    83          2
    84          3
    85         89
    86          5
    87          3
    88          3
    89         25
    90         28
    91        844
    92        129
    93         10
    94          3
    97          2
    98          3
    99          1
   100          1
   101          5
   102         17
   103         59
   104         35
   105         15
   106          4
   107         12
   112          4
   113         26
   114          3
   115          7
   116         13
   117         60
   118         41
   119         38
   120        107
   121         13
   122          1
   126          1
   127          3
   128         15
   129         17
   130         22
   131         36
   132         21
   133         14
   134          1
   136          1
   139          1
   140          1
   141          2
   142          4
   143          5
   144          5
   145          7
   146         11
   147         49
   148         91
   149         13
   150          3
   154          2
   155          2
   156          3
   157          7
   158          6
   159          5
   160          4
   161         22
   162          3
   163          2
   164          1
   166          3
   168          1
   169          1
   170          1
   172          4
   173          4
   174          7
   175          5
   176         11
   177          7
   178        100
   179         13
   180          1
   184          1
   185          3
   186          5
   187          5
   188          3
   189          2
   192         11
   193         25
   194          2
   200          2
   201          2
   202          9
   203          2
   204        122
   205         20
   206          2
   220          1
   222          7
   223          1