##TITLE=Library Entry 60566
##JCAMP-DX=Revision 4.10 
##DATA TYPE=MASS SPECTRUM
##SAMPLE DESCRIPTION=R D. KOOB
##NAMES=HP
##CAS NAME=2,4-Pentanedione, 1,1,1-trifluoro-5-phenyl-
##MOLFORM=C11H9F3O2
##CAS REGISTRY NO=721-96-0
##MP= -300
##BP= -300
##MW= 230
##$RETENTION INDEX=0
##$CONDENSED SPECTRUM=NO
##NPOINTS= 14
##XYDATA=(XY..XY) 1 
    63        110
    65        370
    69        600
    77         60
    89         70
    90         20
    91        999
    92        910
    93         60
   115         60
   119        120
   139        520
   161         30
   230        150