##TITLE=Library Entry 96609
##JCAMP-DX=Revision 4.10 
##DATA TYPE=MASS SPECTRUM
##SAMPLE DESCRIPTION=P-M. BELANGER, ECOLE PHARM., UNIV. LAVAL, STE-FOY, QUE.
, CANl
##NAMES=HP
##CAS NAME=2,2,2-Trifluoro-N-(2-phenylcyclopropyl)acetamide, trans-
##MOLFORM=C11H10F3NO
##CAS REGISTRY NO=721-60-8
##MP= -300
##BP= -300
##MW= 229
##$RETENTION INDEX=0
##$CONDENSED SPECTRUM=NO
##NPOINTS= 19
##XYDATA=(XY..XY) 1 
    39         80
    51         80
    63         60
    69        120
    77        120
    78         80
    79         60
    89         50
    91        120
   103         90
   104         70
   105         80
   115        440
   116        999
   117         70
   132         90
   138         50
   160         60
   229         80