##TITLE=Library Entry 43193
##JCAMP-DX=Revision 4.10 
##DATA TYPE=MASS SPECTRUM
##SAMPLE DESCRIPTION=S. MARKEY UNIV. OF COLO. MED. CTR., DENVER, COLORADO, U
SA
##NAMES=HP
##CAS NAME=3-Indolylacetamide, 2TMS derivative
##MOLFORM=C16H26N2OSi2
##CAS REGISTRY NO=72101-39-4
##MP= -300
##BP= -300
##MW= 318
##$RETENTION INDEX=2066
##$CONDENSED SPECTRUM=NO
##NPOINTS= 61
##XYDATA=(XY..XY) 1 
    40         40
    42          2
    43        102
    44         59
    45        250
    46         19
    47         39
    53          5
    55         12
    56          7
    57         20
    58         31
    59         32
    61         11
    70          9
    72         42
    73        999
    74        100
    75        149
    76          6
    77         31
    84         20
    89          2
   100         25
   101         13
   102         27
   103          7
   105          3
   116         16
   128          9
   129         47
   130         94
   131         18
   143          2
   144          5
   145         28
   146          5
   147         13
   155         14
   156         16
   160         11
   170         11
   172         18
   184          3
   186         27
   187         14
   188         29
   189          3
   200         24
   201         29
   202        303
   203        269
   204         49
   205         10
   213          3
   228          7
   229          8
   230         21
   303         12
   318         43
   319         14