##TITLE=Library Entry 42435
##JCAMP-DX=Revision 4.10 
##DATA TYPE=MASS SPECTRUM
##SAMPLE DESCRIPTION=S. MARKEY UNIV. OF COLO. MED. CTR., DENVER, COLORADO, U
SA
##NAMES=HP
##CAS NAME=Pentenoic acid, 4-[(trimethylsilyl)oxy]-, trimethylsilyl ester
##MOLFORM=C11H24O3Si2
##CAS REGISTRY NO=72101-11-2
##MP= -300
##BP= -300
##MW= 260
##$RETENTION INDEX=1279
##$CONDENSED SPECTRUM=NO
##NPOINTS= 44
##XYDATA=(XY..XY) 1 
    40         78
    41          4
    42          4
    43         62
    44         69
    45        158
    47         42
    53         20
    55         25
    57          6
    58         22
    59         42
    61         19
    69          4
    72         23
    73        999
    74         91
    75        202
    76         12
    77         42
    85         15
    99          6
   101         23
   113         51
   115          4
   117          8
   127         39
   128         43
   131         12
   133         28
   143        786
   144        112
   145         36
   147        289
   148         42
   149         30
   173          5
   216         32
   217         73
   218         19
   245         37
   246          6
   260         84
   261         16