##TITLE=Library Entry 89936
##JCAMP-DX=Revision 4.10 
##DATA TYPE=MASS SPECTRUM
##SAMPLE DESCRIPTION=A.Pleshkova, Nesmeyanov Inst.Org.Elem.Cpds, Moscow
##NAMES=HP
##CAS NAME=N-Isopropoxy-2,2-dicarbomethoxyaziridine
##MOLFORM=C9H15NO5
##CAS REGISTRY NO=72109-43-4
##MP= -300
##BP= -300
##MW= 217
##$RETENTION INDEX=0
##$CONDENSED SPECTRUM=NO
##NPOINTS= 37
##XYDATA=(XY..XY) 1 
    40         27
    41        231
    42         63
    43        684
    44         53
    45        225
    46         19
    54        116
    55         74
    56         23
    57         48
    58         21
    59        356
    60         17
    84         25
    85         86
    86         74
    87         21
    99         42
   100         46
   101         19
   111         63
   112        158
   113        999
   114        143
   115        164
   116         13
   143        545
   144        158
   145        263
   146         25
   175        137
   176         17
   185         61
   186         38
   187         19
   217          4