##TITLE=Library Entry 42209
##JCAMP-DX=Revision 4.10 
##DATA TYPE=MASS SPECTRUM
##SAMPLE DESCRIPTION=O A MAMER, MCGILL UNIVERSITY, MONTRE
##NAMES=HP
##CAS NAME=4-Trimethylsiloxy(trimethylsilyl)valerate
##MOLFORM=C11H26O3Si2
##CAS REGISTRY NO=72101-10-1
##MP= -300
##BP= -300
##MW= 262
##$RETENTION INDEX=1265
##$CONDENSED SPECTRUM=NO
##NPOINTS= 72
##XYDATA=(XY..XY) 1 
    29         34
    31          8
    42          2
    43         54
    44         25
    45        152
    46         13
    47         80
    53         11
    54          7
    55        292
    56         51
    57         20
    58         43
    59         71
    60         16
    61         69
    71         11
    72         46
    73        999
    74        103
    75        547
    76         41
    77         27
    82          7
    83        185
    84         12
    85         26
    86          9
    87         22
    88          7
    89         10
    99         24
   101         25
   102         15
   113         50
   114          9
   115         44
   116         46
   117        828
   118         94
   119         40
   129        150
   130         32
   131        179
   132         29
   133         69
   134         12
   135          7
   143         15
   144         12
   145         13
   147        725
   148        126
   149        139
   150         19
   151          9
   157        427
   158         58
   159         23
   172          7
   173         13
   204         33
   205         10
   218        183
   219         50
   220         17
   231         49
   232         10
   247        341
   248         92
   249         44