##TITLE=Library Entry 2839
##JCAMP-DX=Revision 4.10 
##DATA TYPE=MASS SPECTRUM
##SAMPLE DESCRIPTION=Exported from NIST MS Search
##NAMES=HP
##CAS NAME=Diphosphoric acid, diisooctyl ester
##MOLFORM=C16H36O7P2
##CAS REGISTRY NO=72101-07-6
##MP= -300
##BP= -300
##MW= 402
##$RETENTION INDEX=0
##$CONDENSED SPECTRUM=NO
##NPOINTS= 93
##XYDATA=(XY..XY) 1 
    39        490
    40         83
    41        999
    42        147
    43        324
    44         15
    45          3
    46          2
    47          1
    48          1
    49          3
    50         30
    51         62
    52         28
    53        149
    54         52
    55        938
    56        354
    57        228
    58         11
    59          1
    60          1
    61          2
    62          6
    63         14
    64          3
    65         27
    66         13
    67         92
    68         55
    69        527
    70        318
    71         62
    72          4
    73          1
    74          2
    75          1
    76          1
    77         19
    78          5
    79         19
    80          4
    81         30
    82         15
    83        405
    84         70
    85          9
    86          1
    87          1
    89          1
    91          5
    92          1
    93          2
    94          1
    95         10
    96          4
    97         72
    98         35
    99          3
   100          1
   102          1
   103          1
   104          1
   105          1
   106          1
   107          1
   108          1
   109          2
   110          2
   111          4
   112        170
   113         15
   114          1
   115          1
   119          1
   120          1
   121          1
   122          1
   123          1
   124          1
   125          1
   126          8
   127          1
   128          1
   133          1
   135          1
   137          1
   145          1
   151          1
   165          1
   179          1
   193          1
   209          1