##TITLE=Library Entry 57442
##JCAMP-DX=Revision 4.10 
##DATA TYPE=MASS SPECTRUM
##SAMPLE DESCRIPTION=J. Little, Eastman chemical company.
##NAMES=HP
##CAS NAME=2,5-Cyclohexadiene-1,4-dione, 2,5-dichloro-3,6-dimethoxy-
##MOLFORM=C8H6Cl2O4
##CAS REGISTRY NO=7210-71-1
##MP= -300
##BP= -300
##MW= 236
##$RETENTION INDEX=0
##$CONDENSED SPECTRUM=NO
##NPOINTS= 65
##XYDATA=(XY..XY) 1 
    27        736
    29        212
    36        127
    40        102
    43        184
    47        565
    49        254
    52        169
    53        116
    59        229
    68        136
    71        246
    72         92
    73        140
    75        360
    77        125
    83        369
    87        999
    89        447
    90        151
   100        102
   103        944
   105        332
   106        121
   107        102
   109         90
   115         92
   118        204
   119        150
   120         93
   121         87
   137        801
   139        505
   143        257
   144        197
   145        155
   149        144
   151         91
   157         67
   163        537
   165        667
   167        277
   172         93
   173        207
   177        130
   178        105
   179        141
   181         61
   188         56
   190         89
   193        179
   195        115
   201        215
   206        267
   207        806
   208        293
   209        536
   210        117
   223         56
   235         68
   236        546
   237        106
   238        373
   239         54
   240         77