##TITLE=Library Entry 62205
##JCAMP-DX=Revision 4.10 
##DATA TYPE=MASS SPECTRUM
##SAMPLE DESCRIPTION=Zaikin V.G., TIPS RAS, Moscow, Russia
##NAMES=HP
##CAS NAME=Benzeneacetic acid, nonyl ester
##MOLFORM=C17H26O2
##CAS REGISTRY NO=72109-82-1
##MP= -300
##BP= -300
##MW= 262
##$RETENTION INDEX=1935
##$CONDENSED SPECTRUM=NO
##NPOINTS= 122
##XYDATA=(XY..XY) 1 
    25          1
    26          6
    27         21
    29         48
    30          1
    31          1
    36          3
    37          1
    38          4
    39         36
    40          8
    41        157
    42         41
    43        512
    44         29
    45          2
    50          5
    51         12
    52          5
    53         10
    54         10
    55        134
    56         70
    57        388
    58         15
    61          1
    62          4
    63         17
    64          6
    65         89
    66          6
    67         17
    68         17
    69         82
    70         62
    71        406
    72         19
    73          3
    74          1
    75          2
    76          1
    77          9
    78          5
    79          9
    80          3
    81          9
    82         19
    83         56
    84         50
    85        244
    86         15
    87          1
    89         39
    90         41
    91        999
    92        346
    93         23
    94          2
    95          7
    96         10
    97         60
    98         45
    99          4
   103          1
   104          2
   105          9
   106          6
   107          4
   108          1
   109          2
   110          1
   111          5
   115          2
   117          2
   118         30
   119         58
   120          6
   121          2
   123          1
   124          3
   125          3
   126         94
   127         10
   128          1
   129          1
   131          1
   132          1
   133          3
   134          3
   135          6
   136        944
   137        593
   138         43
   139          4
   141          4
   143          4
   145          1
   147          1
   149         10
   150          2
   151          1
   153          1
   163          2
   165          1
   169          1
   171        605
   172         53
   173          5
   177          2
   178          1
   179          1
   191          2
   192          1
   193          1
   202          1
   203          1
   210          3
   211          1
   223          1
   262         44
   263          9
   264          1