##TITLE=Library Entry 91032
##JCAMP-DX=Revision 4.10 
##DATA TYPE=MASS SPECTRUM
##SAMPLE DESCRIPTION=Exported from NIST MS Search
##NAMES=HP
##CAS NAME=2(5H)-Thiophenone, 5-methyl-
##MOLFORM=C5H6OS
##CAS REGISTRY NO=7210-64-2
##MP= -300
##BP= -300
##MW= 114
##$RETENTION INDEX=826
##$CONDENSED SPECTRUM=NO
##NPOINTS= 43
##XYDATA=(XY..XY) 1 
    37         20
    38         30
    39        110
    40         20
    41         30
    42         15
    43         20
    44         40
    45        150
    46         20
    47         15
    49         20
    50         60
    51         50
    52         30
    53        170
    54         30
    55        110
    56         15
    57         30
    58         70
    59        330
    60        150
    61         20
    68         15
    69         50
    70         20
    71        390
    72         40
    73         30
    76         30
    81         15
    82         15
    85        120
    86        430
    87         50
    88         30
    99         60
   112         20
   113         20
   114        999
   115        110
   116         50