##TITLE=Library Entry 73175
##JCAMP-DX=Revision 4.10 
##DATA TYPE=MASS SPECTRUM
##SAMPLE DESCRIPTION=Exported from NIST MS Search
##NAMES=HP
##CAS NAME=2-Thiophenecarboxylic acid, 5-hydroxy-, ethyl ester
##MOLFORM=C7H8O3S
##CAS REGISTRY NO=7210-60-8
##MP= -300
##BP= -300
##MW= 172
##$RETENTION INDEX=0
##$CONDENSED SPECTRUM=NO
##NPOINTS= 57
##XYDATA=(XY..XY) 1 
    34         21
    37         24
    38         63
    39        141
    40         48
    41         17
    42         24
    43         31
    44        148
    45        282
    46         41
    47          9
    53         12
    55        285
    56         39
    57         26
    58         24
    59         17
    60         17
    61         12
    66         19
    67         21
    68         24
    69        121
    70         97
    71        731
    72        204
    73         48
    74         12
    76          9
    83         21
    84         43
    86         21
    87         24
    95         21
    98        195
    99        395
   100        999
   101        170
   102         70
   103         14
   115         24
   116        143
   117         24
   118         17
   126        243
   127        463
   128        109
   129         41
   141         19
   144        173
   145         29
   146         12
   157          9
   158          9
   172        553
   173        121