##TITLE=Library Entry 6579
##JCAMP-DX=Revision 4.10 
##DATA TYPE=MASS SPECTRUM
##SAMPLE DESCRIPTION=Div. of Experiment Therapeutics WRAIR, WRAMC, Washingto
n DC 20307
##NAMES=HP
##CAS NAME=3-[3,4-Dichlorophenyl]-6-[4-methyl-1-piperazinyl]-1,2,4,5-tetrazi
ne
##MOLFORM=C13H14Cl2N6
##CAS REGISTRY NO=72115-58-3
##MP= -300
##BP= -300
##MW= 324
##$RETENTION INDEX=0
##$CONDENSED SPECTRUM=NO
##NPOINTS= 147
##XYDATA=(XY..XY) 1 
    42        682
    43        999
    44          2
    45         10
    47         43
    48         20
    49          2
    50         51
    51          1
    53         36
    54         63
    55         66
    56         96
    57        107
    58         31
    59          2
    60          5
    61         10
    62         34
    64          3
    65          1
    67         14
    68         13
    70        251
    71        668
    72         46
    73         14
    74         18
    75         24
    76         10
    77          2
    78          2
    79          1
    80          1
    81          8
    82         46
    83         97
    84         11
    85         34
    86          9
    87         12
    88         16
    89          0
    91          4
    92          0
    94          2
    95          5
    96         14
    97        206
    98         36
    99         54
   100         80
   101          7
   102          0
   105          0
   106          1
   107          5
   109         25
   110         11
   111          7
   112          3
   113          1
   119          0
   120          1
   121          1
   122          4
   124        136
   125         74
   126          4
   127          1
   128          0
   129          0
   131          0
   133          1
   134          2
   135          1
   136         61
   137          5
   138         13
   139          1
   144          3
   145          7
   146          1
   147          4
   148          0
   149          2
   151         16
   152          1
   153          0
   154          0
   157          0
   159          0
   162         10
   163          7
   169          0
   171        113
   173         66
   175         17
   176          1
   177          0
   185          0
   189          0
   190          0
   197          3
   199          2
   204          1
   206          1
   213          0
   218          1
   219          0
   220          0
   221          0
   226          0
   227          0
   240          0
   241          0
   242          0
   243          1
   252          2
   253          3
   254          1
   255          2
   256          0
   257          0
   267          1
   268          0
   269          1
   270          0
   271          0
   281          0
   283          0
   289          0
   295         20
   296          3
   297         13
   298          1
   299          1
   309          0
   311          0
   322          2
   323          0
   324        321
   325         53
   326        215
   327         35
   328         37
   329          5