##TITLE=Library Entry 12613
##JCAMP-DX=Revision 4.10 
##DATA TYPE=MASS SPECTRUM
##SAMPLE DESCRIPTION=Div. of Experiment Therapeutics WRAIR, WRAMC, Washingto
n DC 20307
##NAMES=HP
##CAS NAME=3-[4-Methyl-1-piperazinyl]-6-[2-naphthalenyl]-1,2,4,5-tetrazine
##MOLFORM=C17H18N6
##CAS REGISTRY NO=72115-50-5
##MP= -300
##BP= -300
##MW= 306
##$RETENTION INDEX=0
##$CONDENSED SPECTRUM=NO
##NPOINTS= 99
##XYDATA=(XY..XY) 1 
    42        645
    43        999
    44         56
    45          1
    47          5
    48          0
    49         24
    50         20
    51         34
    52         13
    53         26
    54         53
    55         63
    56        101
    57         94
    58         25
    59          1
    61          3
    62         12
    63         37
    64          4
    65          2
    67          9
    68         11
    70        167
    71        739
    72         32
    74         18
    75         23
    76         27
    77         22
    78          8
    79          0
    80          1
    81          8
    82         26
    83         84
    84         16
    85         21
    86         12
    87         10
    88          6
    89          5
    90          0
    91          0
    94          1
    95          3
    96          9
    97         88
    98         39
    99         60
   100         17
   101         11
   102         16
   103          7
   108          1
   109          1
   110          8
   111          4
   112          2
   113          2
   114          2
   115          1
   122          1
   123          3
   124        108
   125        148
   126        140
   127         57
   128          3
   137          1
   138          4
   139          2
   151         23
   152         29
   153        774
   154         78
   155          6
   156          0
   172          0
   179          6
   180          0
   181          0
   187          0
   225          1
   231         15
   233         18
   234          3
   235          2
   249          0
   251          0
   277          7
   278          1
   291          3
   292          0
   305          1
   306        228
   307         48
   308          4