##TITLE=Library Entry 35533
##JCAMP-DX=Revision 4.10 
##DATA TYPE=MASS SPECTRUM
##SAMPLE DESCRIPTION=Div. of Experiment Therapeutics WRAIR, WRAMC, Washingto
n DC 20307
##NAMES=HP
##CAS NAME=6-[3,4-Dichlorophenyl]-N-ethyl-N-methyl-1,2,4,5-tetrazin-3-amine
##MOLFORM=C11H11Cl2N5
##CAS REGISTRY NO=72115-63-0
##MP= -300
##BP= -300
##MW= 283
##$RETENTION INDEX=0
##$CONDENSED SPECTRUM=NO
##NPOINTS= 79
##XYDATA=(XY..XY) 1 
    42         96
    43         12
    44          2
    45          1
    47          4
    48          1
    49         16
    50         33
    51         10
    52          4
    53         20
    54          8
    55         53
    56         32
    57         17
    58          2
    60          3
    61          8
    62          8
    63          4
    64          3
    66          0
    67          6
    69        999
    70         37
    71          2
    72          4
    73         13
    74         20
    75         27
    76         11
    77          1
    81          1
    82          2
    83         22
    84        444
    85         32
    86         17
    87         11
    88          3
    91          0
    96          2
    97          4
    98          2
    99         14
   100         66
   101          7
   102          0
   107          3
   108          0
   109         17
   110          9
   111          8
   112          3
   120          1
   121          0
   122          2
   133          0
   134          2
   135          5
   136         42
   137          5
   138         14
   139          0
   144          1
   145          4
   146          1
   147          2
   171         80
   172          9
   173         51
   174          5
   175          8
   176          0
   283         45
   284          6
   285         29
   286          4
   287          5