##TITLE=Library Entry 37510
##JCAMP-DX=Revision 4.10 
##DATA TYPE=MASS SPECTRUM
##SAMPLE DESCRIPTION=Div. of Experiment Therapeutics WRAIR, WRAMC, Washingto
n DC 20307
##NAMES=HP
##CAS NAME=6-[4-Bromophenyl]-N,N-dimethyl-1,2,4,5-tetrazin-3-amine
##MOLFORM=C10H10BrN5
##CAS REGISTRY NO=72115-65-2
##MP= -300
##BP= -300
##MW= 279
##$RETENTION INDEX=0
##$CONDENSED SPECTRUM=NO
##NPOINTS= 66
##XYDATA=(XY..XY) 1 
    41         23
    42        101
    43         34
    44          4
    45          0
    47          1
    48          0
    49         14
    50         76
    51         86
    52         16
    53         42
    54         11
    55         13
    56          3
    57          2
    61          6
    62         18
    63          7
    64          4
    67          4
    69        832
    70        999
    71         53
    72          7
    73          6
    74         32
    75        133
    76         81
    77          5
    79          2
    81          1
    82          1
    83          0
    84          5
    85          3
    86         10
    87          6
    88          7
    89          0
    91          1
    99         10
   100         11
   101         11
   102        303
   103         28
   104          2
   106          1
   116          1
   117          2
   119          2
   129          1
   155          3
   156          1
   157          4
   179          1
   181        139
   182         19
   183        135
   184         16
   185          2
   279         57
   280          8
   281         52
   282          6
   283          0