##TITLE=Library Entry 56173
##JCAMP-DX=Revision 4.10 
##DATA TYPE=MASS SPECTRUM
##SAMPLE DESCRIPTION=Div. of Experiment Therapeutics WRAIR, WRAMC, Washingto
n DC 20307
##NAMES=HP
##CAS NAME=3,4-Dichlorobenzoic acid, 2-[[2,2-dimethylhydrazino]carbonyl]hydr
azide
##MOLFORM=C10H12Cl2N4O2
##CAS REGISTRY NO=72116-03-1
##MP= -300
##BP= -300
##MW= 290
##$RETENTION INDEX=0
##$CONDENSED SPECTRUM=NO
##NPOINTS= 104
##XYDATA=(XY..XY) 1 
    42        102
    43        205
    44        147
    45        124
    46         10
    47          1
    49          9
    50         15
    51          7
    52          0
    53          2
    54          0
    55          5
    56          3
    57         13
    58        236
    59        559
    60        506
    61         16
    62          3
    63          3
    69          4
    70          1
    71          3
    72          3
    73          9
    74         48
    75         55
    76          4
    77          1
    78          1
    79          0
    81          0
    82          0
    83          3
    84         19
    85         55
    86        999
    87         99
    88          6
    89          1
    90          0
    95          0
    97          4
    98          1
    99          2
   100          4
   103          2
   107          0
   108          3
   109         71
   110         25
   111         30
   112          9
   113          3
   117          1
   119          2
   121          1
   124          3
   125          2
   126          0
   133          2
   135          2
   138          6
   139          4
   140          2
   141          1
   144          3
   145        111
   146          1
   147         78
   148          5
   149         12
   150          0
   160          5
   162          3
   171          2
   173        193
   174         13
   175        123
   176          8
   177         20
   178          0
   186          1
   187          0
   188          1
   189          0
   190          0
   204          6
   205          5
   206          4
   207          3
   230          3
   231         12
   232          0
   233          8
   235          1
   248          0
   250          0
   290         13
   291          2
   292          8
   293          1
   294          0