##TITLE=Library Entry 97409
##JCAMP-DX=Revision 4.10 
##DATA TYPE=MASS SPECTRUM
##SAMPLE DESCRIPTION=Div. of Experiment Therapeutics WRAIR, WRAMC, Washingto
n DC 20307
##NAMES=HP
##CAS NAME=N-Methyl-6-[4-methylphenyl]-1,2,4,5-tetrazinamine
##MOLFORM=C10H11N5
##CAS REGISTRY NO=72115-69-6
##MP= -300
##BP= -300
##MW= 201
##$RETENTION INDEX=0
##$CONDENSED SPECTRUM=NO
##NPOINTS= 68
##XYDATA=(XY..XY) 1 
    41         17
    42          4
    43          5
    44          1
    45          0
    47          3
    48          1
    49         20
    50         32
    51         58
    52         18
    53         21
    55        182
    56        105
    57         30
    58          1
    60          0
    61          7
    62         30
    63         82
    64         46
    65         33
    66          7
    67          1
    68          0
    69          6
    70          4
    71          1
    73          1
    74          9
    75         21
    76         21
    77         20
    78          4
    79          1
    81          0
    82          1
    83          2
    84         16
    85          2
    86         14
    87          8
    88         19
    89        211
    90        270
    91         49
    92          1
    97          2
    98          1
    99          1
   100          1
   102          9
   103          3
   111          1
   114          9
   115          7
   116        429
   117        999
   118        203
   119         11
   131          1
   172          3
   173          1
   199          1
   200          0
   201        150
   202         18
   203          1