##TITLE=Library Entry 11047
##JCAMP-DX=Revision 4.10 
##DATA TYPE=MASS SPECTRUM
##SAMPLE DESCRIPTION=TNO Volatile Compounds in Food - Chemical Concepts
##NAMES=HP
##CAS NAME=2-Cyclohexen-1-ol, 1-methyl-4-(1-methylethenyl)-, trans-
##MOLFORM=C10H16O
##CAS REGISTRY NO=7212-40-0
##MP= -300
##BP= -300
##MW= 152
##$RETENTION INDEX=1123
##$CONDENSED SPECTRUM=NO
##NPOINTS= 96
##XYDATA=(XY..XY) 1 
    26         15
    27        242
    29         51
    30          5
    31         26
    37          6
    38         25
    39        420
    41        464
    42         41
    43        999
    44         13
    45         70
    46          5
    49          2
    50         32
    51        106
    52         49
    53        171
    54         30
    55        220
    56         23
    57         39
    58         75
    59         15
    60          8
    61          7
    62         11
    63         40
    64         13
    65        128
    66         56
    67        296
    68         41
    69        239
    70         17
    71        135
    72          8
    73          3
    74          4
    75          4
    76          4
    77        280
    78         57
    79        701
    80        102
    81        275
    82         55
    83         41
    84        161
    85         19
    86          4
    89         12
    90          3
    91        351
    92        100
    93        255
    94        109
    95        290
    96         49
    97         61
    98          4
   102          4
   103         23
   104         13
   105        111
   106         44
   107         82
   108         36
   109        723
   110         84
   111         27
   115         20
   116          6
   117         40
   118          6
   119        315
   120         32
   121         23
   122         12
   123        156
   124         49
   125          5
   128          2
   131          5
   132         15
   133         10
   134        700
   135         89
   136          7
   137        517
   138         44
   139          2
   151          5
   152         43
   153          6