##TITLE=Library Entry 3348
##JCAMP-DX=Revision 4.10 
##DATA TYPE=MASS SPECTRUM
##SAMPLE DESCRIPTION=NIST Mass Spectrometry Data Center, 1994
##NAMES=HP
##CAS NAME=1,6,10-Dodecatrien-3-ol, 3,7,11-trimethyl-
##MOLFORM=C15H26O
##CAS REGISTRY NO=7212-44-4
##MP= -300
##BP= -300
##MW= 222
##$RETENTION INDEX=1564
##$CONDENSED SPECTRUM=NO
##NPOINTS= 84
##XYDATA=(XY..XY) 1 
    18          4
    27        135
    28         13
    29         35
    37          2
    39        197
    41        999
    42         78
    43        638
    44         13
    50          6
    51         29
    53        170
    54         30
    55        297
    56         24
    57         42
    58         18
    63          6
    65         44
    67        256
    68        112
    69        818
    70         85
    71        431
    72         27
    77         73
    78         17
    79        155
    80         93
    81        210
    82         75
    83         45
    84         10
    85          8
    91         91
    93        403
    94         62
    95         93
    96         21
    97         28
    98          5
   103          5
   105         57
   107        214
   108         41
   109         85
   110         13
   111         16
   115          2
   117          3
   119         58
   120         23
   121         75
   122         33
   123         65
   124          9
   125          4
   127          2
   133         32
   134         26
   135         43
   136         78
   137         19
   138          3
   139          4
   140          3
   147         16
   148         22
   149          9
   150          3
   151          3
   152          3
   161         67
   162         17
   163          2
   175          5
   176          4
   177          5
   179          5
   189         19
   190          3
   204          6
   207          2