##TITLE=Library Entry 13100
##JCAMP-DX=Revision 4.10 
##DATA TYPE=MASS SPECTRUM
##SAMPLE DESCRIPTION=NIST Mass Spectrometry Data Center, 1994
##NAMES=HP
##CAS NAME=3',6'-Diacetoxybenzonorbornadiene
##MOLFORM=C15H14O4
##CAS REGISTRY NO=7213-65-2
##MP= -300
##BP= -300
##MW= 258
##$RETENTION INDEX=0
##$CONDENSED SPECTRUM=NO
##NPOINTS= 99
##XYDATA=(XY..XY) 1 
    12          2
    13          3
    14         29
    15        264
    16          5
    17          1
    18          3
    26          7
    27          5
    28         15
    37          2
    38         11
    39         55
    40          8
    41          6
    42          2
    43        999
    44         22
    50         19
    51         35
    52          8
    53         21
    54         11
    55         16
    61          3
    62         21
    63         69
    64         27
    65         53
    66         10
    67          2
    69          2
    74          9
    75         19
    76         14
    77         34
    78          8
    79          2
    80          0
    82         22
    85          1
    86          6
    87          8
    88          8
    89         71
    90         34
    91        100
    92         21
    93          3
    98          2
    99          1
   100          1
   101          9
   102         24
   103         22
   104          4
   105          7
   106          1
   113          4
   115        142
   116         34
   117         43
   118         25
   119         84
   120         10
   126          9
   127         43
   128         39
   129         17
   130          4
   131        203
   132         20
   133          2
   139          1
   143          6
   144         16
   145         62
   146         37
   147         33
   148         64
   149          5
   155          5
   156          6
   157         25
   158          5
   159         55
   160          6
   171         12
   174        961
   175        121
   176          9
   199          1
   214          0
   216        149
   217         21
   218          2
   258         72
   259         12
   260          0