##TITLE=Library Entry 13460
##JCAMP-DX=Revision 4.10 
##DATA TYPE=MASS SPECTRUM
##SAMPLE DESCRIPTION=D.HENNEBERG, MAX-PLANCK INSTITUTE, MULHEIM, WEST GERMAN
Y
##NAMES=HP
##CAS NAME=Iron, carbonyl[(1,2,3,4-.eta.)-2,3-dimethyl-1,3-butadiene][N,N'-1
,2-ethanediylidenebis[2-propanamine]-N,N']-, stereoisomer
##MOLFORM=C15H26FeN2O
##CAS REGISTRY NO=72142-41-7
##MP= -300
##BP= -300
##MW= 306
##$RETENTION INDEX=0
##$CONDENSED SPECTRUM=NO
##NPOINTS= 149
##XYDATA=(XY..XY) 1 
    26         63
    27        249
    28        619
    29         42
    30         69
    31          1
    32          1
    37          3
    38         14
    39        392
    40        106
    41        603
    42        263
    43        999
    44         71
    45          2
    49          1
    50         12
    51         39
    52         27
    53        104
    54        202
    55        121
    56        287
    57         34
    58         20
    59          0
    62          2
    63         11
    64          4
    65         78
    66         25
    67        535
    68         64
    69         32
    70        204
    71         70
    72         19
    73          1
    75          1
    77         16
    78          7
    79         34
    80         16
    81         84
    82        429
    83        585
    84         55
    85         12
    86          2
    91          2
    93          2
    94          3
    95         12
    96         11
    97         63
    98         30
    99         19
   100          1
   106          1
   107          3
   108         24
   109         19
   110         30
   111         19
   112         56
   113         56
   114         10
   118          1
   119          2
   120          2
   121          8
   122         12
   123         14
   124         29
   125        600
   126         71
   127         21
   128         25
   129          2
   135          4
   136          6
   137         20
   138         42
   139        104
   140         60
   141          5
   142          2
   146          1
   149          2
   150          5
   151          8
   152         30
   153         55
   154        220
   155         19
   156          3
   161          1
   162          1
   163          7
   164         12
   165         33
   166         20
   167          3
   168         25
   169          4
   170          4
   171          2
   175          2
   176          2
   177         14
   178         14
   179         79
   180         90
   181        138
   182         18
   190          3
   191          3
   192         64
   193         25
   194        361
   195         57
   196        687
   197         94
   198          5
   204          2
   206          6
   207          1
   208          4
   209          1
   211          1
   222          3
   223          1
   224         57
   225          7
   252          1
   253          3
   263          1
   275          1
   276         20
   277          9
   278        314
   279         61
   280          6
   281          1
   293          1
   304          3
   306         41
   307          7