##TITLE=Library Entry 26670
##JCAMP-DX=Revision 4.10 
##DATA TYPE=MASS SPECTRUM
##SAMPLE DESCRIPTION=A.A.Kutin, Moscow, Russia
##NAMES=HP
##CAS NAME=Carbamic acid, N-(2-chlorophenyl)-, oxiranylmethyl ester
##MOLFORM=C10H10ClNO3
##CAS REGISTRY NO=72157-82-5
##MP= -300
##BP= -300
##MW= 227
##$RETENTION INDEX=0
##$CONDENSED SPECTRUM=NO
##NPOINTS= 136
##XYDATA=(XY..XY) 1 
    33         45
    34         30
    35         33
    36        124
    37        245
    38        466
    39        809
    40        381
    41        289
    42        225
    43        378
    44        335
    45        164
    47         30
    49         96
    50        249
    51        210
    52        243
    53         39
    54         23
    55         70
    57        999
    58         32
    59         20
    61        149
    62        269
    63        763
    64        443
    65        300
    66         38
    67         11
    68          4
    69          9
    70          8
    71         20
    73        426
    74        166
    75        369
    76         77
    77        292
    78         53
    79         30
    80         28
    81          5
    82          2
    83          5
    84         17
    85         35
    86         18
    87         29
    88         41
    90        682
    91        284
    92        182
    93         49
    94         11
    95          4
    97         28
    99        816
   100        101
   101        228
   102         34
   103          7
   104         37
   105         34
   106         30
   107          8
   108         26
   111        123
   112         23
   113         40
   114         10
   115          4
   117         73
   118        108
   119         50
   120        218
   121         20
   122          6
   123         14
   125        200
   126        485
   127        971
   128        208
   129        290
   130         26
   132         18
   133          8
   134         20
   136        484
   137         38
   138         32
   140        712
   142        266
   143         16
   144          1
   146          1
   148         12
   149         15
   150          7
   153        860
   154        239
   155        242
   156         65
   157          5
   162          1
   163          0
   164          1
   166          3
   167          1
   168          2
   169          0
   170          5
   171         22
   172          4
   173          6
   174          0
   176          2
   182          0
   190          4
   192        450
   193         55
   194          5
   196         20
   197          2
   198          6
   207          2
   211          4
   213          0
   223         12
   224          5
   225         13
   227        666
   229        270
   230         20
   231          1