##TITLE=Library Entry 46203
##JCAMP-DX=Revision 4.10 
##DATA TYPE=MASS SPECTRUM
##SAMPLE DESCRIPTION=Chemical Concepts
##NAMES=HP
##CAS NAME=2'H-Androst-16-eno[17,16-e][1,2]oxazine-3'-carbonitrile, 2'-cyclo
hexyl-4'-[[[(1,1-dimethylethyl)dimethylsilyl]oxy]methyl]-3',4',16,17-tetrahy
dro-3-methoxy-, (3.
##MOLFORM=C36H62N2O3Si
##CAS REGISTRY NO=72166-07-5
##MP= -300
##BP= -300
##MW= 598
##$RETENTION INDEX=0
##$CONDENSED SPECTRUM=NO
##NPOINTS= 489
##XYDATA=(XY..XY) 1 
    25         20
    27         94
    28         45
    29         90
    30         18
    31         16
    36          4
    38          5
    39          6
    40         11
    41        468
    42         47
    43        144
    44         36
    45        108
    46         24
    47         31
    48          2
    50          4
    51          4
    52          5
    53         25
    54         21
    55        429
    56         91
    57        115
    58         28
    59         51
    60         23
    61         35
    62          2
    63          5
    64          3
    65         13
    66          9
    67        109
    68         36
    69         75
    70         33
    71        175
    72         27
    73        615
    74         53
    75        999
    76         62
    77         71
    78         12
    79         95
    80         39
    81        175
    82         50
    83        241
    84         69
    85         35
    86          8
    87          6
    88          7
    89        143
    90         18
    91        111
    92         23
    93        163
    94         51
    95        120
    96         49
    97        108
    98         64
    99         55
   100         33
   101         39
   102         13
   103         20
   104         18
   105        124
   106         37
   107        182
   108         46
   109         72
   110         40
   111         33
   112         50
   113         17
   114         14
   115        113
   116         17
   117         48
   118         20
   119        110
   120         45
   121         80
   122         31
   123         32
   124         11
   125         14
   126         18
   127         17
   128         31
   129         26
   130         19
   131         54
   132         58
   133         74
   134         31
   135         60
   136         51
   137         76
   138         37
   139         14
   140         28
   141         17
   142         26
   143         34
   144         38
   145         71
   146         30
   147         87
   148         32
   149        110
   150         32
   151         19
   152         12
   153         12
   154         11
   155         26
   156         14
   157         28
   158         17
   159         56
   160         20
   161         71
   162         35
   163         90
   164         28
   165         17
   166         14
   167         20
   168         30
   169         18
   170         12
   171         58
   172         19
   173         39
   174         13
   175         65
   176         68
   177         29
   178         67
   179         34
   180         11
   181         10
   182          9
   183         12
   184         12
   185         24
   186         17
   187         37
   188         13
   189         29
   190        106
   191         42
   192         14
   193         27
   194          9
   195         11
   196         96
   197         31
   198         14
   199         18
   200         15
   201         20
   202         10
   203         15
   204         79
   205         18
   206          8
   207          7
   208          3
   209          7
   210         21
   211         13
   212          7
   213         15
   214          9
   215         45
   216         12
   217          8
   218          4
   219          6
   220          1
   221          2
   223          1
   224          7
   225         15
   226         15
   227         11
   228         13
   229          5
   230          8
   231         34
   232          9
   233          2
   234          0
   235          0
   236          3
   237        143
   238         36
   239         14
   240          5
   241         22
   242          6
   243          6
   244          1
   246          0
   247         11
   248          1
   249          3
   250          2
   251         12
   252          7
   253         70
   254         15
   255         37
   256          9
   257          5
   258          0
   259          8
   260          5
   261          3
   262          3
   264          3
   265          4
   266          3
   267          2
   268          9
   269          7
   270          8
   271          4
   272          1
   273          3
   277          0
   278          4
   279          7
   280         10
   281         12
   282         16
   283          7
   284          6
   285          6
   286         30
   287         44
   288         11
   289          4
   290          5
   291          9
   292          3
   293         21
   294         14
   295          9
   296          4
   297          8
   298          2
   299         12
   300          3
   301          1
   302          3
   303          2
   304          2
   305          2
   306          2
   307        123
   308         73
   309         17
   310         30
   311         11
   312         25
   313         26
   314         30
   315          5
   320          4
   321          2
   322          1
   323          5
   324          4
   325          0
   326          1
   327          0
   328          4
   329          2
   330          6
   332          0
   334          0
   335          4
   336          9
   337          2
   338          6
   339          4
   340         17
   341          4
   342          3
   343          2
   344          7
   345          1
   346          2
   349          1
   350          2
   351          1
   352          1
   353          1
   354          2
   355          3
   356          9
   357          3
   358          2
   359          0
   363          8
   364          2
   365          0
   366          0
   367          1
   369          4
   370          5
   371          8
   372          1
   380          3
   382          5
   383          9
   384          3
   385          4
   386          1
   387          4
   388          1
   389          1
   390          2
   395          2
   396          9
   397          8
   398         15
   399          6
   400          8
   401          3
   402          2
   403          0
   404          4
   405          5
   406         12
   407          3
   408          6
   409          2
   410         11
   411          7
   412         11
   413          6
   414         33
   415         18
   416          6
   417          2
   419          1
   420          6
   421         17
   422          8
   423         15
   424         13
   425          7
   426         10
   427          5
   428          4
   429          2
   430          4
   432         23
   433          7
   434          3
   435         18
   436          8
   437          7
   438         27
   439        165
   440         66
   441         66
   442         46
   443         19
   444          9
   445          6
   446          2
   447          0
   448          1
   449          5
   450          3
   451          3
   452          3
   453        377
   454        106
   455         33
   456          8
   457          2
   458          2
   459          4
   460          5
   461          6
   462          4
   463          2
   464          0
   465          0
   466         32
   467         13
   468          4
   469          6
   470        205
   471         75
   472         27
   473          6
   474          3
   475          0
   483          1
   484          6
   485          2
   486          3
   487         26
   488         15
   489         10
   490          8
   496          2
   497          5
   498          3
   499          1
   500          2
   501          0
   502          1
   509          2
   510          1
   511          4
   512          3
   513         37
   514         70
   515         58
   516         23
   517          6
   520          0
   521          0
   522          1
   523          4
   524          0
   525          5
   526          1
   527         11
   528          7
   529          3
   530          7
   538         29
   539         17
   540         23
   541        876
   542        393
   543         99
   544         22
   545          5
   550          2
   551          4
   552          8
   553         65
   554         31
   555         56
   556         36
   557         13
   558          4
   565          5
   566          4
   567          6
   568          6
   569         31
   570         43
   571        105
   572         53
   573         20
   574          4
   575          1
   580         10
   581         61
   582         32
   583         85
   584         37
   585         10
   586          3
   596          7
   597         49
   598        999
   599        672
   600        115
   601         28
   602          8