##TITLE=Library Entry 48200
##JCAMP-DX=Revision 4.10 
##DATA TYPE=MASS SPECTRUM
##SAMPLE DESCRIPTION=Chemical Concepts
##NAMES=HP
##CAS NAME=2-Pyridinecarboxaldehyde, N-oxide
##MOLFORM=C6H5NO2
##CAS REGISTRY NO=7216-40-2
##MP= -300
##BP= -300
##MW= 123
##$RETENTION INDEX=0
##$CONDENSED SPECTRUM=NO
##NPOINTS= 65
##XYDATA=(XY..XY) 1 
    26         20
    27         41
    28         29
    29         24
    30          8
    31          1
    36          2
    37         21
    38         44
    39         94
    40          7
    41          6
    42          2
    43          4
    44          8
    45          0
    48          2
    49         15
    50         67
    51        262
    52        151
    53         26
    54          1
    55          3
    56          1
    57          4
    58          0
    60          2
    61         14
    62         24
    63         49
    64          9
    65          2
    66          4
    67          3
    68          1
    69          2
    70          1
    71          2
    72          1
    73          1
    74          4
    75         12
    76         15
    77         15
    78        999
    79        192
    80         10
    81          1
    82          0
    83          1
    91          2
    92          1
    93          0
    94          2
    95        388
    96         23
    97          2
   105          1
   106        214
   107         44
   108          4
   109          1
   123        101
   124          8