##TITLE=Library Entry 16914
##JCAMP-DX=Revision 4.10 
##DATA TYPE=MASS SPECTRUM
##SAMPLE DESCRIPTION=LAC, NIDDK, NIH, Bethesda, MD 20892
##NAMES=HP
##CAS NAME=4-Pregnene-3.beta.,20.beta.-diol
##MOLFORM=C21H34O2
##CAS REGISTRY NO=7217-07-4
##MP= -300
##BP= -300
##MW= 318
##$RETENTION INDEX=0
##$CONDENSED SPECTRUM=NO
##NPOINTS= 221
##XYDATA=(XY..XY) 1 
    41        426
    43        548
    45        999
    46         11
    51         14
    52          9
    53        139
    55        417
    56          6
    57        148
    58         11
    59          8
    61          4
    63          4
    65         62
    66         16
    67        322
    68         37
    69        124
    71         87
    72          3
    73          2
    77        191
    78         49
    79        433
    80         17
    81        396
    82         30
    83         63
    84          9
    85         52
    86          3
    89          4
    91        401
    92         78
    93        322
    94        105
    95        340
    96         40
    97         41
    98          5
    99          6
   103         33
   104         10
   105        439
   106         95
   107        431
   108        115
   109        185
   110         20
   111         21
   112          9
   113          6
   115         55
   116         26
   117        127
   118         50
   119        228
   120        157
   121        195
   122         48
   123         68
   124         40
   125         48
   126          5
   127         13
   128         35
   129         69
   130         35
   131        160
   132         52
   133        232
   134         76
   135        232
   136         35
   137         26
   138         22
   139          9
   141         27
   142         23
   143        131
   144         51
   145        237
   146         52
   147        168
   148         48
   149         91
   150         18
   151         18
   152         10
   153          9
   154          2
   155         21
   156         13
   157         78
   158         78
   159        201
   160        125
   161        220
   162         83
   163        151
   164         26
   165         23
   166          6
   167          7
   168          4
   169         26
   170         11
   171         83
   172         28
   173         81
   174         44
   175         66
   176         30
   177         25
   178         76
   179         38
   180          6
   181          6
   182          2
   183         24
   184          8
   185         53
   186         21
   187         55
   188         30
   189        386
   190         55
   191         14
   192         15
   193          9
   194          8
   195          6
   196          1
   197         40
   198         11
   199         51
   200         15
   201         30
   202         11
   203         12
   204          5
   205          9
   206         53
   207         90
   208         11
   209          4
   210          4
   211         34
   212         13
   213         76
   214         41
   215        118
   216         21
   217         28
   218         12
   219          6
   220          4
   223          4
   225         21
   226          8
   227         29
   228         15
   229         19
   230         10
   231         34
   232         32
   233        184
   234         30
   235          3
   238          2
   239         18
   240          9
   241        147
   242         35
   243         23
   244          7
   245         16
   246         15
   247          5
   251          1
   253         34
   254         10
   255         71
   256         39
   257         28
   258         44
   259         91
   260         24
   261         10
   265         12
   266          1
   267        141
   268         30
   269          7
   271         35
   272         19
   273         66
   274         53
   275         17
   276          4
   281          5
   282         26
   283         36
   284          5
   285        112
   286         24
   287          2
   289          1
   298         34
   299         14
   300        198
   301         56
   302         10
   303         72
   304         15
   316         28
   317         11
   318        398
   319         89
   320         12