##TITLE=Library Entry 66850
##JCAMP-DX=Revision 4.10 
##DATA TYPE=MASS SPECTRUM
##SAMPLE DESCRIPTION=ORMSBG,10(9)761(1975); D. V. RAMANA
##NAMES=HP
##CAS NAME=2'-Hydroxy-5'-bromodihydro-2-stilbazole
##MOLFORM=C13H12BrNO
##CAS REGISTRY NO=72175-06-5
##MP= -300
##BP= -300
##MW= 277
##$RETENTION INDEX=0
##$CONDENSED SPECTRUM=NO
##NPOINTS= 17
##XYDATA=(XY..XY) 1 
    39         30
    52         30
    65         30
    66         30
    77         30
    78         60
    79         40
    93        999
    94         70
   106         60
   180         30
   260         30
   262         30
   277         90
   278         30
   279         70
   280         10