##TITLE=Library Entry 42981
##JCAMP-DX=Revision 4.10 
##DATA TYPE=MASS SPECTRUM
##SAMPLE DESCRIPTION=A.Pleshkova, Nesmeyanov Inst.Org.Elem.Cpds, Moscow
##NAMES=HP
##CAS NAME=(Adamant-1-yl-carbonyl)-tris(trimethylsilyl)silane
##MOLFORM=C20H42OSi4
##CAS REGISTRY NO=72189-53-8
##MP= -300
##BP= -300
##MW= 410
##$RETENTION INDEX=0
##$CONDENSED SPECTRUM=NO
##NPOINTS= 79
##XYDATA=(XY..XY) 1 
    57        154
    58         12
    73        999
    74         85
    75         36
    76          1
    79        122
    80          8
    81          1
    93         84
    94          7
    95          1
   117        108
   118         16
   119          8
   120          1
   129         84
   130         13
   131        156
   132         18
   133        181
   134         20
   135        194
   136         22
   137          1
   147        396
   148         63
   149         31
   150          3
   151          1
   173        422
   174         93
   175         51
   176          8
   177          2
   189        122
   190         27
   191         15
   192          2
   247        384
   248        118
   249         68
   250         15
   251          4
   252          1
   263        144
   264         40
   265         15
   266          3
   267          1
   275        145
   276         46
   277         26
   278          6
   279         66
   280         18
   281          7
   282          1
   337        252
   338         87
   339         40
   340          9
   341          2
   353        102
   354         39
   355         21
   356          5
   357          2
   395         92
   396         39
   397         20
   398          6
   399          2
   410        156
   411         67
   412         35
   413         10
   414          3
   415          1