##TITLE=Library Entry 63880
##JCAMP-DX=Revision 4.10 
##DATA TYPE=MASS SPECTRUM
##SAMPLE DESCRIPTION=Chemical Concepts
##NAMES=HP
##CAS NAME=Phenol, 2-methoxy-4-(phenylmethoxy)-
##MOLFORM=C14H14O3
##CAS REGISTRY NO=72187-11-2
##MP= -300
##BP= -300
##MW= 230
##$RETENTION INDEX=0
##$CONDENSED SPECTRUM=NO
##NPOINTS= 85
##XYDATA=(XY..XY) 1 
    26          2
    27          6
    28          3
    29          2
    31          1
    38          4
    39         31
    40          3
    41         14
    42          3
    43          3
    50          7
    51         27
    52         15
    53         19
    54          6
    55         11
    56          2
    57          4
    61          1
    62          4
    63         15
    64          5
    65         80
    66          4
    67          2
    68         10
    69         10
    70          2
    71          2
    74          1
    75          2
    76          1
    77          7
    78          1
    79         18
    80          3
    81          2
    82          2
    83          2
    84          1
    85          2
    89         12
    90          7
    91        999
    92         87
    93          5
    95          2
    96         13
    97          3
   105          3
   107         10
   108          5
   109          1
   110          1
   111         28
   112          2
   115          5
   116          1
   117          1
   123          1
   125          2
   127          1
   128          2
   129          2
   130          1
   131          1
   135          1
   139         80
   140          9
   141          5
   142          1
   152          3
   153          2
   166          1
   167          1
   168          1
   169          2
   170          1
   171          0
   197          1
   213          1
   230        188
   231         31
   232          4