##TITLE=Library Entry 43763
##JCAMP-DX=Revision 4.10 
##DATA TYPE=MASS SPECTRUM
##SAMPLE DESCRIPTION=K. KURODA, DEPT. APPL. CHEM., WASEDA UNIV., TOKYO, J
##NAMES=HP
##CAS NAME=3-Isopropoxy-1,1,1,5,5,5-hexamethyl-3-(trimethylsiloxy)trisiloxan
e
##MOLFORM=C12H34O4Si4
##CAS REGISTRY NO=72182-11-7
##MP= -300
##BP= -300
##MW= 354
##$RETENTION INDEX=0
##$CONDENSED SPECTRUM=NO
##NPOINTS= 35
##XYDATA=(XY..XY) 1 
    41        138
    43        547
    44         31
    45        189
    59         81
    73        999
    74         94
    75         81
   119         24
   133         58
   163         22
   177         38
   179         28
   189         23
   190        128
   192         42
   193        113
   205         49
   207        431
   208        106
   209         50
   249         98
   250         26
   251         29
   265         85
   266         24
   267         23
   281        789
   282        211
   283        125
   284         26
   297         25
   339        308
   340         94
   341         48