##TITLE=Library Entry 6167
##JCAMP-DX=Revision 4.10 
##DATA TYPE=MASS SPECTRUM
##SAMPLE DESCRIPTION=Chemical Concepts
##NAMES=HP
##CAS NAME=4-Hexen-2-one, 3-methyl-
##MOLFORM=C7H12O
##CAS REGISTRY NO=72189-24-3
##MP= -300
##BP= -300
##MW= 112
##$RETENTION INDEX=1260
##$CONDENSED SPECTRUM=NO
##NPOINTS= 56
##XYDATA=(XY..XY) 1 
    27        142
    29         40
    30          0
    31          2
    37          9
    38         21
    39        202
    40         31
    41        913
    42         57
    43        999
    44         21
    45          3
    49          2
    50         15
    51         23
    52          9
    53         63
    54         10
    55         28
    56          2
    57          1
    58          0
    59          0
    60          0
    61          2
    62          5
    63          7
    64          1
    65         11
    66          5
    67         53
    68         69
    69        519
    70         35
    71          1
    72          0
    74          0
    77          2
    78          0
    79          3
    80          0
    81          2
    82          0
    83          1
    84          0
    92          0
    94         12
    95          3
    96          0
    97         70
    98          5
   109          0
   111          0
   112         80
   113          6