##TITLE=Library Entry 54819
##JCAMP-DX=Revision 4.10 
##DATA TYPE=MASS SPECTRUM
##SAMPLE DESCRIPTION=Chemical Concepts
##NAMES=HP
##CAS NAME=1,4-Bis(3-tert-butyl-2-hydroxy-5-methylbenzyl)piperazine
##MOLFORM=C28H42N2O2
##CAS REGISTRY NO=72198-72-2
##MP= -300
##BP= -300
##MW= 438
##$RETENTION INDEX=0
##$CONDENSED SPECTRUM=NO
##NPOINTS= 204
##XYDATA=(XY..XY) 1 
    34          9
    36          4
    37          7
    38          9
    39        138
    41        563
    42        200
    44        946
    45         25
    46          8
    48          1
    49          1
    50         11
    51         41
    53         80
    55        195
    56        588
    57        267
    58        261
    59         36
    60          7
    62          5
    63         18
    64          9
    65         67
    67         56
    69         78
    70         58
    71         61
    73         78
    74         13
    75          5
    77        128
    78         30
    79         95
    80         15
    81         19
    82         12
    83         70
    85        999
    86        217
    87        126
    89         24
    91        299
    92         35
    93         61
    94         11
    95          9
    97         42
    99         73
   100          8
   101          5
   102          8
   103         45
   105        264
   106         44
   107         48
   108         13
   109         12
   110          3
   111          3
   112          7
   113          5
   115         89
   116         37
   117         97
   119        308
   120         42
   121         84
   122         38
   123          9
   124          1
   125          1
   126          3
   127         12
   128         50
   129         32
   131         48
   133        305
   134        100
   135         97
   137        167
   138         13
   139          2
   140          1
   141          9
   142          9
   143         23
   144         15
   145         65
   146         45
   147         89
   148         27
   149         51
   150          7
   151          1
   152          1
   153          1
   155          1
   156          3
   157          6
   158          9
   159         54
   161        487
   162         92
   163         30
   164         10
   165          1
   170          2
   171          9
   172          8
   173         12
   174         34
   175        108
   176        190
   177        933
   178        117
   179         10
   180          1
   183          1
   184          1
   185          3
   186          3
   187          4
   188         19
   189         14
   190         58
   191         33
   192         78
   193         37
   194          5
   199          2
   200          5
   201         13
   202         30
   203         14
   204         45
   205        115
   206        124
   207         24
   208          2
   214          2
   215          3
   216         41
   217         87
   218         81
   219        196
   220        196
   221         69
   222         15
   223          3
   229          3
   230          8
   231         12
   232         80
   233        174
   234        207
   235         36
   236          5
   243          1
   244          2
   245         10
   246          8
   247         43
   248          7
   249          2
   257          3
   258          6
   259         19
   261        494
   262        208
   263         35
   264          3
   273         11
   274         11
   275          8
   276          3
   283          1
   350          8
   351          3
   366          1
   367          2
   368          3
   369          1
   380          2
   409          3
   410          1
   418          1
   419          3
   420          4
   421          4
   422          6
   423        177
   424         48
   425          9
   433          3
   434          6
   435          7
   436         14
   437         27
   438        278
   439         87
   440         14
   441          1