##TITLE=Library Entry 66801
##JCAMP-DX=Revision 4.10 
##DATA TYPE=MASS SPECTRUM
##SAMPLE DESCRIPTION=DC-15-7
##NAMES=HP
##CAS NAME=Thiourea, N-cyclohexyl-N'-phenyl-
##MOLFORM=C13H18N2S
##CAS REGISTRY NO=722-03-2
##MP= -300
##BP= -300
##MW= 234
##$RETENTION INDEX=0
##$CONDENSED SPECTRUM=NO
##NPOINTS= 72
##XYDATA=(XY..XY) 1 
    41        150
    42         30
    43         70
    44         30
    45         30
    50         20
    51         60
    52         20
    53         30
    54         30
    55        150
    56         70
    57         40
    60         40
    63         20
    64         20
    65         60
    66         50
    67         40
    68         20
    69         80
    70         30
    71         20
    73         20
    76         20
    77        190
    78         30
    79         30
    80         20
    81         90
    82         30
    83         50
    84         30
    85         30
    91         30
    92         50
    93        999
    94        100
    95         30
    96         20
    97         20
    98        100
    99         20
   104         10
   109         50
   110         30
   111         20
   119         50
   120        150
   121         20
   122         20
   124         20
   125         20
   126         30
   135         20
   136         60
   137         20
   142         30
   149         30
   150         30
   151        420
   152        100
   153         60
   154         20
   158         30
   177         30
   201         40
   232         10
   233         70
   234        530
   235         80
   236         30