##TITLE=Library Entry 49834
##JCAMP-DX=Revision 4.10 
##DATA TYPE=MASS SPECTRUM
##SAMPLE DESCRIPTION=R RYHAGE MS-LAB KAROLINSKA INSTITUTET STOCKHOLM SWEDEN
##NAMES=HP
##CAS NAME=4,8,13-Cyclotetradecatriene-1,3-diol, 1,5,9-trimethyl-12-(1-methy
lethyl)-
##MOLFORM=C20H34O2
##CAS REGISTRY NO=7220-78-2
##MP= -300
##BP= -300
##MW= 306
##$RETENTION INDEX=2955
##$CONDENSED SPECTRUM=NO
##NPOINTS= 195
##XYDATA=(XY..XY) 1 
    15          8
    17         13
    18         54
    26         13
    27         94
    28         20
    29        114
    31         11
    38          6
    39        123
    40         37
    41        627
    42         43
    43        941
    44         25
    45         31
    50         12
    51         29
    52         21
    53        214
    54         40
    55        513
    56         60
    57         91
    58         16
    59         30
    61          7
    63          9
    64          5
    65         80
    66         43
    67        291
    68        108
    69        436
    70         43
    71        311
    72         24
    73          6
    77        205
    78         51
    79        405
    80        120
    81        999
    82        211
    83        251
    84        151
    85         63
    86          5
    87         46
    89          6
    91        259
    92         71
    93        428
    94        202
    95        542
    96         94
    97        274
    98         60
    99         18
   100          7
   102          5
   103         26
   104         15
   105        248
   106         80
   107        570
   108        162
   109        396
   110         88
   111        105
   112         17
   113         20
   115         38
   116         18
   117         60
   118         26
   119        194
   120         74
   121        402
   122        123
   123        365
   124        105
   125         88
   126         46
   127         20
   128         30
   129         40
   130         19
   131         88
   132         37
   133        165
   134         74
   135        262
   136        365
   137        265
   138         63
   139         88
   140         23
   141         18
   142         13
   143         40
   144         19
   145        100
   146         43
   147        228
   148         80
   149        208
   150         83
   151        100
   152         25
   153         24
   154          6
   155          8
   156          8
   157         40
   158         15
   159         86
   160         38
   161        157
   162         66
   163        162
   164         60
   165         57
   166         15
   167          9
   169          5
   171         43
   172         14
   173         40
   174         16
   175         91
   176         31
   177         80
   178         31
   179         25
   180         17
   181         16
   185         34
   186         16
   187         71
   188         21
   189         97
   190         46
   191         60
   192         25
   193         21
   194         11
   199         20
   200          8
   201         31
   202         15
   203         46
   204         37
   205         80
   206         26
   207         25
   208          8
   213          9
   214          7
   215         23
   216          7
   217         80
   218         30
   219         25
   220         10
   221          6
   227         91
   228         22
   229         13
   230         23
   231         25
   232         13
   233         15
   241          6
   243          8
   244          8
   245        185
   246         43
   247          9
   248          5
   255         35
   256          8
   259          7
   260         19
   261          5
   263         19
   270         60
   271         16
   272          6
   273         48
   274         11
   278         10
   288         94
   289         25
   290          5