##TITLE=Library Entry 25529
##JCAMP-DX=Revision 4.10 
##DATA TYPE=MASS SPECTRUM
##SAMPLE DESCRIPTION=NIST Mass Spectrometry Data Center
##NAMES=HP
##CAS NAME=3-Methyltriacontane
##MOLFORM=C31H64
##CAS REGISTRY NO=72227-01-1
##MP= -300
##BP= -300
##MW= 436
##$RETENTION INDEX=3078
##$CONDENSED SPECTRUM=NO
##NPOINTS= 83
##XYDATA=(XY..XY) 1 
    29         25
    39          9
    41        137
    42         36
    43        367
    44         10
    53          7
    54         14
    55        201
    56        393
    57        999
    58         38
    67         35
    68         22
    69        215
    70        123
    71        738
    72         39
    81         23
    82         39
    83        184
    84         63
    85        495
    86         28
    95         13
    98         29
    99        218
   100         15
   111         80
   112         25
   113        164
   114         10
   124         16
   125         47
   126         13
   127        111
   128         11
   138          7
   139         24
   140         11
   141         97
   142          9
   153         14
   154          8
   155         67
   156          9
   167         11
   168          8
   169         52
   170          7
   181          6
   182          6
   183         47
   184          4
   195          6
   197         40
   198          5
   211         34
   212          7
   225         29
   226          4
   239         24
   253         18
   254          4
   267         20
   281         15
   295         14
   296          5
   309         14
   310          4
   323          7
   337          9
   351          4
   365          4
   378         20
   379         27
   380          8
   406         79
   407        266
   408         81
   409         11
   421          9
   422          2