##TITLE=Library Entry 32534
##JCAMP-DX=Revision 4.10 
##DATA TYPE=MASS SPECTRUM
##SAMPLE DESCRIPTION=Chemical Concepts
##NAMES=HP
##CAS NAME=4-Hexen-1-ol, acetate
##MOLFORM=C8H14O2
##CAS REGISTRY NO=72237-36-6
##MP= -300
##BP= -300
##MW= 142
##$RETENTION INDEX=1020
##$CONDENSED SPECTRUM=NO
##NPOINTS= 54
##XYDATA=(XY..XY) 1 
    26         10
    27         92
    28         27
    29         87
    30          3
    31         10
    37          3
    38          8
    39        132
    40         22
    41        159
    42         48
    43        658
    44         20
    45          6
    49          0
    50          6
    51         12
    52          8
    53         55
    54        122
    55        141
    56         14
    57         10
    58          3
    60          1
    61         15
    62          1
    63          2
    65         20
    67        999
    68         60
    69         27
    70          5
    71          4
    72          2
    73          9
    74          1
    75          0
    77          4
    78          1
    79         28
    80          7
    81         97
    82        457
    83         34
    84          2
    86          2
    87          2
    91          0
    97          2
    98          0
    99          2
   100          0