##TITLE=Library Entry 5017
##JCAMP-DX=Revision 4.10 
##DATA TYPE=MASS SPECTRUM
##SAMPLE DESCRIPTION=LAC, NIDDK, NIH, Bethesda, MD 20892
##NAMES=HP
##CAS NAME=3,9-Dimethyl-4,8-diaza-3,8-undecadiene-2,10-dione dioxime
##MOLFORM=C11H20N4O2
##CAS REGISTRY NO=7223-54-3
##MP= -300
##BP= -300
##MW= 240
##$RETENTION INDEX=0
##$CONDENSED SPECTRUM=NO
##NPOINTS= 170
##XYDATA=(XY..XY) 1 
    42        999
    43        439
    44        456
    45         74
    46          5
    47          0
    48          1
    49          4
    50          5
    51         14
    52         26
    53         42
    54        108
    55        115
    56        285
    57        359
    58        186
    59         10
    60         12
    62         20
    64          2
    65          5
    66         11
    67         21
    68        125
    69         48
    70        193
    71         26
    72         14
    73          7
    74          4
    75          4
    77          5
    78          5
    79          4
    80         15
    81         26
    82         42
    83         20
    84         37
    85        184
    86         26
    87          6
    88          0
    89          0
    91          2
    92          2
    93          4
    94         19
    95         72
    96         90
    97        482
    98         53
    99        282
   100         23
   101         56
   102          4
   103          1
   104          1
   105          1
   106          5
   107          4
   108          7
   109        120
   110        112
   111        150
   112         15
   113         38
   114          4
   115          4
   116         26
   117          2
   118          1
   119          1
   120          2
   121         10
   122         13
   123        238
   124         50
   125         11
   126         13
   127         35
   128          3
   129          1
   131          0
   132          1
   133          2
   134          2
   135          7
   136          8
   137          9
   138          5
   139         36
   140        149
   141         28
   142         79
   143          6
   144          1
   145          1
   146          1
   147          3
   148          3
   149          9
   150          6
   151         13
   152          4
   153          5
   154          4
   155          1
   156          1
   157         55
   158         11
   159          2
   160          1
   161          4
   162          6
   163          4
   164          7
   165          4
   166          4
   167          8
   168          3
   169          1
   170          5
   171          1
   173          1
   174          2
   175          3
   176          2
   177          2
   178          2
   179          1
   180          8
   181          1
   182         11
   183          4
   184          1
   187          0
   188          1
   189          1
   190          3
   191          2
   192          3
   193          1
   194          1
   195          0
   196          0
   197          1
   199          1
   200          0
   203          0
   204          0
   205          4
   206          6
   207          3
   208          1
   209          2
   210          1
   211          0
   219          0
   221          0
   222          1
   223         62
   224          9
   225          3
   226          1
   239          0
   240          3
   241          2
   242          0