##TITLE=Library Entry 45720
##JCAMP-DX=Revision 4.10 
##DATA TYPE=MASS SPECTRUM
##SAMPLE DESCRIPTION=Chemical Concepts
##NAMES=HP
##CAS NAME=1,3-Pentadiene, 4-(trimethylsilyloxy)-
##MOLFORM=C8H16OSi
##CAS REGISTRY NO=72237-32-2
##MP= -300
##BP= -300
##MW= 156
##$RETENTION INDEX=0
##$CONDENSED SPECTRUM=NO
##NPOINTS= 80
##XYDATA=(XY..XY) 1 
    25          4
    27         30
    29         21
    31          9
    38          4
    39         79
    40         11
    41         85
    42         11
    43         66
    44         34
    45        137
    46         12
    47         94
    48          4
    49          5
    50          7
    51          9
    52          3
    53         12
    54          5
    55         19
    56          7
    57         24
    58         12
    59         65
    60         17
    61         55
    62         18
    63         74
    64          5
    65         19
    66         13
    67         36
    69         12
    70         19
    71         18
    72         42
    73        344
    74         40
    75        999
    76         78
    77         48
    78          2
    79          3
    81          5
    82          9
    83         11
    84          1
    85         29
    86          4
    87          9
    91          1
    97         38
    98          7
    99        222
   100         23
   101         22
   111         21
   112          3
   113         16
   115         12
   123         11
   124          2
   125         16
   126          3
   127         13
   128          5
   137          2
   138          3
   139          5
   140          3
   141        743
   142         96
   143         33
   144          2
   155         27
   156        108
   157         18
   158          4