##TITLE=Library Entry 63498
##JCAMP-DX=Revision 4.10 
##DATA TYPE=MASS SPECTRUM
##SAMPLE DESCRIPTION=A.A.Kutin, Moscow, Russia
##NAMES=HP
##CAS NAME=Carbazol-1-one, 1,2,3,4-tetrahydro-6-benzyloxy-
##MOLFORM=C19H17NO2
##CAS REGISTRY NO=72237-70-8
##MP= -300
##BP= -300
##MW= 291
##$RETENTION INDEX=0
##$CONDENSED SPECTRUM=NO
##NPOINTS= 165
##XYDATA=(XY..XY) 1 
    37          3
    38          9
    39         62
    40         10
    41         31
    42          7
    43          5
    44          3
    45          2
    49          1
    50         19
    51         46
    52         23
    53         11
    54          2
    55         11
    57         27
    58          4
    61          2
    62         16
    63         75
    64         22
    65        211
    66         15
    67          1
    69          1
    71          2
    72          0
    73          2
    74          8
    75         15
    76         14
    77         38
    78         18
    79          4
    80         10
    81          1
    82          0
    83          0
    85          0
    86          2
    87          6
    88         16
    89        120
    90         41
    91        999
    92         83
    93          4
    94          1
    95          0
    97          0
    98          1
    99          1
   100          3
   101         14
   102         14
   103         29
   104          7
   105          9
   106          1
   111          0
   112          0
   113          5
   114         15
   115         79
   116         65
   117         51
   118         10
   119          1
   121          0
   123          0
   125          1
   126          4
   127         25
   128         23
   129         10
   130         41
   131         10
   132          1
   139          1
   140          8
   141         10
   142         36
   143         61
   144         96
   145         16
   146          3
   149          0
   151          1
   152          3
   153          3
   154         11
   155          4
   156          5
   157          2
   158          7
   159         17
   160          2
   163          0
   165          0
   166          0
   167          1
   168          0
   169          0
   170          6
   171         15
   172        155
   173         20
   174          1
   176          0
   177          0
   178          2
   179          1
   180          0
   181          0
   182          0
   183          1
   184          1
   185          2
   186          2
   187          0
   189          1
   190          0
   191          1
   192          0
   193          0
   198          0
   199          6
   200        774
   201        106
   202         11
   203          1
   204          3
   205          1
   206          4
   207          1
   212          0
   213          4
   214         15
   215          2
   216          0
   217          0
   218          0
   219          0
   220          1
   232          1
   233          1
   234          3
   235          2
   236          0
   242          2
   243          0
   244          1
   246          0
   262          3
   263          2
   264          0
   270          0
   274          0
   284          0
   290          7
   291        404
   292         81
   293         10
   294          0