##TITLE=Library Entry 89733
##JCAMP-DX=Revision 4.10 
##DATA TYPE=MASS SPECTRUM
##SAMPLE DESCRIPTION=Exported from NIST MS Search
##NAMES=HP
##CAS NAME=3-Oxa-9-azabicyclo[3.3.1]nonan-7-ol, 9-methyl-, endo-
##MOLFORM=C8H15NO2
##CAS REGISTRY NO=7224-84-2
##MP= -300
##BP= -300
##MW= 157
##$RETENTION INDEX=0
##$CONDENSED SPECTRUM=NO
##NPOINTS= 47
##XYDATA=(XY..XY) 1 
    31         57
    32         86
    41        286
    42        714
    43        343
    44        571
    45        214
    46         57
    55        129
    56        214
    57        571
    58        321
    59         71
    60        286
    67         57
    68        107
    69         36
    70        143
    71         57
    72         57
    77         57
    78         21
    79         21
    81         21
    82        157
    83        107
    84        107
    85        157
    95        129
    96         71
    98        179
    99         57
   100         57
   105         86
   106         57
   108         57
   110        657
   111         57
   112        999
   113        179
   126        214
   127         86
   128         21
   140         36
   156         57
   157        929
   158         57