##TITLE=Library Entry 27306
##JCAMP-DX=Revision 4.10 
##DATA TYPE=MASS SPECTRUM
##SAMPLE DESCRIPTION=H. KECK, INST. ANORG. CHEM., UNIV. DUSSELDORF, WEST GER
M
##NAMES=HP
##CAS NAME=1,2-Dimethyl-1,2-di-n-butyldiphosphane disulfide
##MOLFORM=C10H24P2S2
##CAS REGISTRY NO=72242-36-5
##MP= -300
##BP= -300
##MW= 270
##$RETENTION INDEX=0
##$CONDENSED SPECTRUM=NO
##NPOINTS= 22
##XYDATA=(XY..XY) 1 
    55         22
    57        999
    58         42
    63         57
    78         17
    79         74
   101         34
   104         31
   125         39
   135        195
   136         42
   137         11
   157        298
   158         11
   159         23
   181         40
   213        922
   214         82
   215         84
   270        299
   271         38
   272         30