##TITLE=Library Entry 85959
##JCAMP-DX=Revision 4.10 
##DATA TYPE=MASS SPECTRUM
##SAMPLE DESCRIPTION=Institute of Organic Chemistry, Novosibirsk, USSR 1988
##NAMES=HP
##CAS NAME=Silane, 1,2-ethanediylbis[triethenyl-
##MOLFORM=C14H22Si2
##CAS REGISTRY NO=72259-77-9
##MP= -300
##BP= -300
##MW= 246
##$RETENTION INDEX=0
##$CONDENSED SPECTRUM=NO
##NPOINTS= 52
##XYDATA=(XY..XY) 1 
    31        108
    43        100
    55        206
    56         50
    57        298
    58         17
    81        156
    82        131
    83        952
    84         68
    85         49
    93        371
    94         35
    95         90
    96         27
    97        122
    98         17
   107         81
   108         39
   109        999
   110        117
   111         56
   123        274
   124         49
   125         36
   135         41
   136         87
   137         70
   138         69
   139         48
   149         67
   150         70
   151        135
   152         37
   153         52
   162         41
   163        130
   164        378
   165        149
   166         76
   167         33
   177        101
   178         50
   179         36
   190         27
   191        138
   192         57
   193         40
   219         58
   220         10
   221          7
   246         11