##TITLE=Library Entry 16317
##JCAMP-DX=Revision 4.10 
##DATA TYPE=MASS SPECTRUM
##SAMPLE DESCRIPTION=Japan AIST/NIMC Database- Spectrum MS-IW-1552
##NAMES=HP
##CAS NAME=N-Acetyl-l-alanyl-l-alanine ethylamide
##MOLFORM=C10H19N3O3
##CAS REGISTRY NO=72252-80-3
##MP= -300
##BP= -300
##MW= 229
##$RETENTION INDEX=0
##$CONDENSED SPECTRUM=NO
##NPOINTS= 99
##XYDATA=(XY..XY) 1 
    15         15
    17          5
    18         50
    26          3
    27         24
    28         49
    29         51
    30         44
    31          1
    32          1
    36          1
    39          2
    40          3
    41         11
    42         55
    43        123
    44        999
    45         50
    46         37
    47          1
    53          1
    54          5
    55         24
    56         24
    57         13
    58          4
    59          3
    60         12
    67          2
    68          5
    69         10
    70         27
    71         59
    72        127
    73          9
    74          1
    79          1
    81          2
    82          2
    83          5
    84          8
    85          7
    86        319
    87        250
    88         14
    89          1
    95          3
    96          2
    97         15
    98          7
    99         99
   100         28
   101        114
   102          7
   109          2
   110          1
   111          7
   112          1
   113          9
   114        262
   115         23
   116          7
   117          8
   123          1
   124          1
   125          2
   126          1
   127          3
   129          1
   130         20
   131          2
   137          1
   138          2
   139          4
   140          7
   141         15
   142          5
   143         87
   144          7
   145          1
   149          2
   151          1
   152          1
   155          3
   156          1
   157        295
   158        399
   159         33
   160          3
   168          1
   169          1
   172          2
   184          2
   185          9
   186          1
   211          2
   229          7
   230         20
   231          2