##TITLE=Library Entry 24252
##JCAMP-DX=Revision 4.10 
##DATA TYPE=MASS SPECTRUM
##SAMPLE DESCRIPTION=Exported from NIST MS Search
##NAMES=HP
##CAS NAME=Heptadecane, 9-octyl-
##MOLFORM=C25H52
##CAS REGISTRY NO=7225-64-1
##MP= -300
##BP= -300
##MW= 352
##$RETENTION INDEX=0
##$CONDENSED SPECTRUM=NO
##NPOINTS= 194
##XYDATA=(XY..XY) 1 
    37          2
    38          3
    39         48
    40         12
    41        415
    42         85
    43        917
    44         31
    45          1
    46          1
    48          1
    49          1
    50          2
    51          3
    52          2
    53         19
    54         32
    55        310
    56        135
    57        999
    58         46
    59          1
    60          1
    61          1
    62          1
    63          1
    65          4
    66          3
    67         37
    68         29
    69        167
    70         82
    71        628
    72         35
    73          1
    74          1
    75          1
    76          1
    77          6
    78          1
    79          8
    80          3
    81         17
    82         25
    83        112
    84         45
    85        427
    86         29
    87          1
    89          1
    90          1
    91          5
    92          3
    93         14
    94          3
    95          7
    96         15
    97         78
    98         27
    99        137
   100         11
   101          1
   102          1
   103          1
   104          1
   105          2
   106          1
   107          2
   108          1
   109          2
   110          9
   111         43
   112         21
   113         89
   114          8
   115          1
   116          1
   117          1
   118          1
   119          1
   120          1
   121          3
   122          1
   123          1
   124          6
   125         25
   126         14
   127         64
   128          6
   129          1
   130          1
   131          1
   132          1
   133          1
   134          1
   135          1
   136          1
   137          1
   138          5
   139         14
   140         10
   141         48
   142          5
   143          1
   144          1
   145          1
   146          1
   147          1
   148          1
   149          1
   151          1
   152          3
   153          7
   154          8
   155         39
   156          5
   157          1
   158          1
   159          1
   160          1
   161          1
   163          1
   164          1
   165          1
   166          2
   167          5
   168          5
   169         29
   170          4
   171          1
   179          1
   180          1
   181          4
   182          4
   183         19
   184          3
   185          1
   186          1
   187          1
   192          1
   193          1
   194          1
   195          2
   196          3
   197          9
   198          1
   199          1
   200          1
   201          1
   202          1
   204          1
   205          1
   207          1
   208          1
   209          1
   210          7
   211          3
   212          1
   213          1
   223          1
   224          3
   225          3
   226          1
   227          1
   234          1
   235          1
   236          1
   237          1
   238         74
   239         77
   240         14
   241          1
   242          1
   251          1
   252          3
   253          4
   254          1
   255          1
   265          1
   266          1
   267          2
   268          1
   269          1
   280          1
   281          1
   282          1
   294          1
   295          1
   296          1
   308          1
   309          1
   310          1
   323          1
   352          1