##TITLE=Library Entry 10996
##JCAMP-DX=Revision 4.10 
##DATA TYPE=MASS SPECTRUM
##SAMPLE DESCRIPTION=NIST Mass Spectrometry Data Center
##NAMES=HP
##CAS NAME=2-Oxabicyclo[2.2.2]octan-6-ol, 1,3,3-trimethyl-, acetate
##MOLFORM=C12H20O3
##CAS REGISTRY NO=72257-53-5
##MP= -300
##BP= -300
##MW= 212
##$RETENTION INDEX=1345
##$CONDENSED SPECTRUM=NO
##NPOINTS= 51
##XYDATA=(XY..XY) 1 
    15          1
    27         19
    29         24
    39         32
    43        999
    44         24
    45         23
    53         16
    54          9
    55        110
    56         35
    57         15
    58         84
    65         10
    66          6
    67         71
    71        355
    72         23
    74          6
    77         17
    79         43
    81         26
    82        251
    83        144
    84         26
    91         12
    93        133
    94         36
    95         29
    97         29
    98          6
   108        485
   109        178
   110         26
   111        202
   112         60
   113         35
   114          3
   124         10
   125         12
   126        259
   127         22
   134          6
   152         11
   155         23
   156          2
   170          5
   197          5
   212         93
   213         10
   214          1