##TITLE=Library Entry 52927
##JCAMP-DX=Revision 4.10 
##DATA TYPE=MASS SPECTRUM
##SAMPLE DESCRIPTION=GULF R. ' D. CO., PITTSBURGH, PA, USA
##NAMES=HP
##CAS NAME=Undecane, 1-cyclohexyl-3-(2-cyclohexylethyl)-
##MOLFORM=C25H48
##CAS REGISTRY NO=7225-69-6
##MP= -300
##BP= -300
##MW= 348
##$RETENTION INDEX=0
##$CONDENSED SPECTRUM=NO
##NPOINTS= 212
##XYDATA=(XY..XY) 1 
    15          3
    16          0
    17          3
    18         11
    20          0
    24          0
    25          0
    26          3
    27         46
    28         51
    29        111
    30          2
    31          0
    37          0
    38          0
    39         29
    40          6
    41        308
    42         30
    43        198
    44          6
    45          0
    50          0
    51          1
    52          1
    53         19
    54         45
    55        516
    56         51
    57        172
    58          8
    59          0
    60          0
    65          3
    66          5
    67        104
    68         32
    69        202
    70         26
    71         88
    72          8
    73          0
    74          0
    75          0
    76          0
    77         13
    78          4
    79         31
    80         16
    81        182
    82        156
    83        999
    84         80
    85         98
    86          6
    87          0
    89          0
    90          0
    91          8
    92          2
    93          9
    94          7
    95         81
    96        241
    97        581
    98         52
    99         23
   100          2
   101          0
   102          0
   103          0
   104          0
   105          1
   106          0
   107          3
   108          6
   109         70
   110         34
   111        234
   112         24
   113         10
   114          0
   115          0
   116          0
   117          0
   118          0
   119          0
   120          0
   121          2
   122          1
   123         19
   124          8
   125        107
   126         13
   127          6
   128          1
   129          0
   130          0
   131          0
   132          0
   133          0
   134          0
   135          2
   136          3
   137         16
   138         13
   139         79
   140         11
   141          7
   142          1
   143          0
   144          0
   145          0
   146          0
   147          0
   148          0
   149          0
   150          1
   151         12
   152          8
   153         45
   154         13
   155         10
   156          1
   157          0
   158          0
   159          0
   160          0
   161          0
   162          0
   163          0
   164          0
   165          7
   166          2
   167         17
   168          3
   169          1
   170          0
   171          0
   175          0
   176          0
   177          0
   178          0
   179          6
   180          2
   181         11
   182          1
   183          0
   189          0
   190          0
   191          0
   192          1
   193          1
   194          3
   195          5
   196          0
   197          0
   198          0
   199          0
   200          0
   201          0
   202          1
   203          0
   204          0
   205          0
   206          4
   207          2
   208          7
   209          3
   210          0
   220          2
   221          4
   222          5
   223          5
   224          0
   231          0
   232          0
   233          0
   234        109
   235        184
   236        224
   237        227
   238         38
   239          3
   245          0
   246          0
   247          0
   248          2
   249          3
   250          5
   251          5
   252          1
   253          0
   261          0
   262          0
   263          1
   264          4
   265          3
   266          0
   276          0
   277          0
   278          0
   279          0
   280          0
   291          0
   292          0
   344          0
   345          0
   346          0
   347          0
   348          1
   349          0