##TITLE=Library Entry 23932
##JCAMP-DX=Revision 4.10 
##DATA TYPE=MASS SPECTRUM
##SAMPLE DESCRIPTION=Exported from NIST MS Search
##NAMES=HP
##CAS NAME=Tridecane, 7-hexyl-
##MOLFORM=C19H40
##CAS REGISTRY NO=7225-66-3
##MP= -300
##BP= -300
##MW= 268
##$RETENTION INDEX=0
##$CONDENSED SPECTRUM=NO
##NPOINTS= 105
##XYDATA=(XY..XY) 1 
    29        655
    30          9
    31          1
    32          1
    37          1
    38          1
    39         61
    40          7
    41        493
    42         98
    43        995
    44         30
    45          1
    50          1
    51          2
    52          1
    53         24
    54         31
    55        332
    56        164
    57        999
    58         45
    59          2
    65          3
    66          2
    67         29
    68         21
    69        158
    70         95
    71        644
    72         33
    73          1
    77          3
    78          1
    79          6
    80          2
    81         13
    82         17
    83         76
    84         50
    85        439
    86         27
    87          1
    91          1
    92          1
    93          1
    94          1
    95          4
    96          9
    97         50
    98         26
    99        109
   100          8
   109          1
   110          6
   111         30
   112         18
   113         78
   114          6
   115          1
   123          1
   124          3
   125         15
   126         12
   127         52
   128          5
   129          1
   137          1
   138          2
   139          6
   140          8
   141         25
   142          3
   151          1
   152          1
   153          3
   154         13
   155          4
   156          1
   168          8
   169          5
   170          1
   179          1
   180          1
   181          1
   182        238
   183        187
   184         21
   185          2
   196          5
   197          7
   198          2
   210          2
   211          3
   212          1
   224          1
   225          1
   226          1
   238          1
   239          1
   240          1
   266          1
   267          1
   268          1
   269          1