##TITLE=Library Entry 51928
##JCAMP-DX=Revision 4.10 
##DATA TYPE=MASS SPECTRUM
##SAMPLE DESCRIPTION=Exported from NIST MS Search
##NAMES=HP
##CAS NAME=Dodecane, 1-cyclopentyl-4-(3-cyclopentylpropyl)-
##MOLFORM=C25H48
##CAS REGISTRY NO=7225-68-5
##MP= -300
##BP= -300
##MW= 348
##$RETENTION INDEX=0
##$CONDENSED SPECTRUM=NO
##NPOINTS= 223
##XYDATA=(XY..XY) 1 
    37          3
    38          6
    39        116
    40         31
    41        953
    42        130
    43        568
    44         23
    45          1
    46          1
    47          1
    48          1
    49          1
    50          4
    51          8
    52          6
    53         63
    54        100
    55        942
    56        146
    57        507
    58         30
    59          3
    60          1
    61          1
    62          1
    63          3
    64          2
    65         16
    66         39
    67        362
    68        151
    69        863
    70         96
    71        263
    72         16
    73          1
    74          1
    75          1
    76          1
    77         18
    78          5
    79         40
    80         25
    81        152
    82        321
    83        999
    84         87
    85        164
    86         12
    87          1
    88          1
    89          1
    90          1
    91         14
    92          8
    93         34
    94         24
    95        164
    96         86
    97        777
    98         70
    99         43
   100          5
   101          2
   102          1
   103          1
   104          1
   105          4
   106          2
   107          6
   108          7
   109         66
   110         33
   111        351
   112         38
   113         22
   114          2
   115          1
   116          1
   117          1
   118          1
   119          2
   120          1
   121         12
   122         11
   123         59
   124         39
   125        176
   126         22
   127         13
   128          2
   129          1
   130          1
   131          1
   132          1
   133          1
   134          1
   135          5
   136         11
   137         59
   138         28
   139        133
   140         17
   141         14
   142          2
   143          1
   144          1
   145          1
   146          1
   147          1
   148          1
   149          3
   150          3
   151         18
   152         13
   153         72
   154         18
   155         14
   156          2
   157          1
   158          1
   159          1
   160          1
   161          1
   162          1
   163          1
   164          1
   165         11
   166          5
   167         30
   168          6
   169          3
   170          1
   171          1
   172          1
   173          1
   174          1
   175          1
   176          1
   177          2
   178          3
   179         12
   180          9
   181         17
   182          3
   183          1
   184          1
   185          1
   186          1
   187          1
   189          1
   190          1
   191          1
   192          2
   193          5
   194          4
   195          6
   196          1
   197          1
   198          1
   199          1
   200          1
   201          1
   202          1
   203          1
   204          1
   205          1
   206          3
   207          2
   208          8
   209          2
   210          1
   211          1
   219          1
   220          2
   221          1
   222          3
   223          2
   224          1
   225          1
   226          1
   231          1
   232          1
   233          1
   234         45
   235         27
   236         96
   237         61
   238         10
   239          1
   240          1
   241          1
   245          1
   246          1
   247          1
   248          1
   249          1
   250          3
   251          2
   252          1
   253          1
   261          1
   262          1
   263          1
   264          1
   265          1
   266          1
   267          1
   275          1
   276          1
   277          1
   278          1
   279          1
   280          1
   281          1
   289          1
   290          1
   291          1
   346          1
   347          1
   348          1
   349          1