##TITLE=Library Entry 99233
##JCAMP-DX=Revision 4.10 
##DATA TYPE=MASS SPECTRUM
##SAMPLE DESCRIPTION=A.A.Kutin, Moscow, Russia
##NAMES=HP
##CAS NAME=Benzoic acid, 4-(4-methylbenzoylamino)-
##MOLFORM=C15H13NO3
##CAS REGISTRY NO=72269-17-1
##MP= -300
##BP= -300
##MW= 255
##$RETENTION INDEX=0
##$CONDENSED SPECTRUM=NO
##NPOINTS= 89
##XYDATA=(XY..XY) 1 
    33          3
    34          3
    35          0
    36          5
    37          4
    38         20
    39         71
    40         41
    41         26
    42          6
    43         21
    44         25
    45         12
    48          0
    50         18
    51         27
    52         17
    53         12
    55         10
    56          2
    57          7
    58          5
    59          1
    60          2
    61          3
    62         15
    63         51
    64         41
    65        141
    66         11
    67          3
    68          1
    69          2
    70          1
    71          1
    72          0
    73          1
    74          2
    75          4
    76          6
    77         10
    78          7
    79         16
    80          3
    81         10
    82          0
    83          1
    84          0
    85          0
    86          0
    87          2
    88         11
    89         37
    90         78
    91        337
    92         32
    93         10
    94          0
    95          0
    97          0
   103          0
   104          1
   105          3
   106          0
   107          3
   108          5
   109          0
   112          0
   115          0
   116          2
   119        999
   120         80
   121          5
   127          0
   135         30
   136         11
   137          5
   139          0
   149          1
   167          1
   178          0
   180          1
   210          1
   238          1
   253          0
   254         12
   255        120
   256         15
   257          0