##TITLE=Library Entry 11343
##JCAMP-DX=Revision 4.10 
##DATA TYPE=MASS SPECTRUM
##SAMPLE DESCRIPTION=Exported from NIST MS Search
##NAMES=HP
##CAS NAME=.beta.-D-Glucopyranose, 3-deoxy-3-fluoro-, tetracetate
##MOLFORM=C14H19FO9
##CAS REGISTRY NO=7226-43-9
##MP= -300
##BP= -300
##MW= 350
##$RETENTION INDEX=0
##$CONDENSED SPECTRUM=NO
##NPOINTS= 75
##XYDATA=(XY..XY) 1 
    41          6
    42         10
    43        999
    44         19
    45         10
    53          5
    54          1
    55          4
    56          3
    57          4
    60         10
    69          5
    70          6
    72         24
    73         26
    81         10
    82          3
    83          4
    84          4
    85          3
    97         15
    98         95
    99         23
   100          5
   101          4
   102          8
   103         26
   104          4
   109          9
   112          6
   114         10
   115        125
   116         13
   117         10
   119         10
   126          9
   127          6
   128         15
   129          4
   131          9
   140         38
   141          5
   143          1
   144          4
   145         23
   146          4
   147          3
   157         70
   158         19
   159          4
   160          4
   169          8
   170          5
   171         10
   175         15
   176          3
   177          3
   182          6
   188          5
   189          4
   199         13
   200         29
   201          5
   202          6
   203          3
   204          3
   205          5
   219          4
   242         15
   243          3
   246          3
   248          3
   277          3
   291          3
   307          3