##TITLE=Library Entry 33336
##JCAMP-DX=Revision 4.10 
##DATA TYPE=MASS SPECTRUM
##SAMPLE DESCRIPTION=NIST Mass Spectrometry Data Center, 1998.
##NAMES=HP
##CAS NAME=4-Tridecen-1-ol, acetate, (E)-
##MOLFORM=C15H28O2
##CAS REGISTRY NO=72269-48-8
##MP= -300
##BP= -300
##MW= 240
##$RETENTION INDEX=0
##$CONDENSED SPECTRUM=NO
##NPOINTS= 89
##XYDATA=(XY..XY) 1 
    14          1
    15          8
    26          2
    27         49
    28         10
    29         99
    30          3
    31          4
    38          2
    39         77
    40         17
    41        350
    42         60
    43        718
    44         21
    45          5
    50          2
    51          8
    52          7
    53        103
    54        310
    55        361
    56         70
    57        123
    58          7
    59          1
    60          2
    61         21
    62          1
    63          1
    64          1
    65         32
    66         80
    67        688
    68        999
    69        233
    70         43
    71         34
    72          2
    73          8
    74          1
    77         34
    78          7
    79        201
    80         62
    81        700
    82        546
    83        179
    84         24
    85          6
    86          5
    87          4
    88          1
    91         16
    92          2
    93         25
    94         19
    95        281
    96        302
    97         81
    98         13
    99          2
   105          2
   107          5
   108          5
   109        127
   110        109
   111         19
   112          4
   113          1
   121          2
   122          3
   123         61
   124         62
   125          7
   126          2
   127          1
   135          1
   136          1
   137         25
   138         48
   139          6
   151         13
   152         35
   153          4
   165          2
   180        204
   181         29
   182          2