##TITLE=Library Entry 11401
##JCAMP-DX=Revision 4.10 
##DATA TYPE=MASS SPECTRUM
##SAMPLE DESCRIPTION=E. Zissis, LC, NIDDK, NIH, Bethesda, MD 20892
##NAMES=HP
##CAS NAME=1-Deoxy-2,3,4,5-tetraacetyl-d-xylitol
##MOLFORM=C13H20O8
##CAS REGISTRY NO=7226-55-3
##MP= -300
##BP= -300
##MW= 304
##$RETENTION INDEX=0
##$CONDENSED SPECTRUM=NO
##NPOINTS= 124
##XYDATA=(XY..XY) 1 
    42         51
    43        999
    44         12
    45         60
    46          1
    47         11
    48          5
    49         40
    50          2
    51         13
    52          0
    53          2
    54          1
    55         11
    56         10
    57         14
    58         14
    59          1
    60         18
    61         26
    62          0
    63          0
    65          0
    66          0
    67          0
    68          0
    69         23
    70          8
    71         10
    72          2
    73         19
    74          5
    75          4
    76          0
    77          0
    78          2
    79          0
    81          1
    82          7
    83         30
    84         26
    85          9
    86         23
    87         24
    88          5
    89          0
    91          0
    95          0
    96          0
    97          1
    98          4
    99          8
   100         57
   101         13
   102          6
   103        103
   104          5
   105          1
   106          0
   107          0
   109          0
   111          0
   112          1
   113          2
   114          0
   115        164
   116         85
   117         56
   118          4
   119          0
   121          0
   124          1
   125          1
   127          3
   128          0
   129         62
   130         11
   131          1
   132          0
   133          2
   140          5
   141          2
   142         34
   143         16
   144          2
   145         93
   146          6
   147          2
   157         22
   158        146
   159         59
   160          5
   161          1
   171         11
   172          1
   173          0
   175          4
   176          0
   184          7
   185          1
   187          3
   188          0
   189          2
   200          0
   201          0
   202          2
   203          1
   211          0
   212          0
   217         15
   218          1
   219          0
   226          2
   227          0
   231         14
   232          1
   241          1
   245         16
   246          2
   247          0
   256          0
   260          0
   270          1
   304          0