##TITLE=Library Entry 2217
##JCAMP-DX=Revision 4.10 
##DATA TYPE=MASS SPECTRUM
##SAMPLE DESCRIPTION=J.VOTH UNIV. OF CALIFORNIA, DAVIS, CALIFORNIA, 95616, U
SA
##NAMES=HP
##CAS NAME=Cyclohexanol, 2-(2-propynyloxy)-, trans-
##MOLFORM=C9H14O2
##CAS REGISTRY NO=7229-32-5
##MP= -300
##BP= -300
##MW= 154
##$RETENTION INDEX=1685
##$CONDENSED SPECTRUM=NO
##NPOINTS= 99
##XYDATA=(XY..XY) 1 
    12          5
    13          6
    14         19
    15         95
    16          4
    17          5
    18         17
    19         47
    24          2
    25         13
    26         80
    27        564
    28        119
    29        613
    30         34
    31        320
    32          3
    36          3
    37         39
    38         97
    39        953
    40        109
    41        999
    42        163
    43        363
    44        103
    45         46
    46          1
    47         18
    49          2
    50         12
    51         26
    52         29
    53        238
    54        158
    55        433
    56         93
    57        512
    58         44
    59         15
    60          3
    61          2
    62          4
    63         10
    64          3
    65         42
    66         33
    67        515
    68         89
    69        396
    70        603
    71        106
    72         11
    73         19
    74          7
    75          3
    77         44
    78         15
    79        286
    80        100
    81        316
    82        663
    83        163
    84         24
    85         94
    86         12
    87          3
    91         17
    92          9
    93         45
    94         61
    95        138
    96         50
    97        321
    98        169
    99         96
   100          7
   105          7
   107         74
   108        115
   109         29
   110         19
   111         22
   112         45
   113          9
   114          2
   115         52
   116          4
   117          3
   121         15
   123         16
   124          1
   125          3
   135         14
   136          5
   137          2
   153          3
   154         13
   155          2