##TITLE=Library Entry 49611
##JCAMP-DX=Revision 4.10 
##DATA TYPE=MASS SPECTRUM
##SAMPLE DESCRIPTION=Exported from NIST MS Search
##NAMES=HP
##CAS NAME=2-Butenoic acid, 2-methyl-, 2,3,5,7a-tetrahydro-7-(hydroxymethyl)
-1H-pyrrolizin-1-yl ester, [1S-[1.alpha.(Z),7a.alpha.]]-
##MOLFORM=C13H19NO3
##CAS REGISTRY NO=723-78-4
##MP= -300
##BP= -300
##MW= 237
##$RETENTION INDEX=1819
##$CONDENSED SPECTRUM=NO
##NPOINTS= 81
##XYDATA=(XY..XY) 1 
    39         60
    40         20
    41         80
    42         30
    43         20
    44         40
    51         20
    52         20
    53         80
    54         40
    55        200
    56         20
    57         20
    65         20
    66         10
    67         40
    68        100
    69         20
    77         30
    78         30
    79         40
    80        999
    81        130
    82         70
    83        110
    84         10
    85         10
    86         20
    89         10
    90         10
    91         10
    92         20
    93         50
    94        300
    95         90
    96         20
   100         20
   104         20
   105         10
   106        850
   107        120
   108         70
   109         20
   110         50
   111        460
   112         30
   117         20
   118         30
   119         50
   120         80
   121         30
   122         10
   124        320
   125         40
   126         10
   132         10
   133         10
   134         20
   135         20
   136        350
   137        550
   138         80
   139         10
   141         20
   146         10
   147         20
   148         10
   149         14
   153        434
   154        410
   155        410
   160          0
   175         25
   190         32
   191         29
   204         85
   218         10
   219         32
   220         32
   237         39
   238          1