##TITLE=Library Entry 65522
##JCAMP-DX=Revision 4.10 
##DATA TYPE=MASS SPECTRUM
##SAMPLE DESCRIPTION=Japan AIST/NIMC Database- Spectrum MS-NW-9489
##NAMES=HP
##CAS NAME=Sulfamethoxazole
##MOLFORM=C10H11N3O3S
##CAS REGISTRY NO=723-46-6
##MP= -300
##BP= -300
##MW= 253
##$RETENTION INDEX=2396
##$CONDENSED SPECTRUM=NO
##NPOINTS= 122
##XYDATA=(XY..XY) 1 
    14          1
    15          9
    17          2
    18         14
    26          2
    27          9
    28          3
    29          2
    30          5
    37          3
    38         13
    39        102
    40         14
    41         41
    42         18
    43         81
    44          5
    45          3
    46          1
    48          3
    50          6
    51          9
    52         31
    53         19
    54         14
    55         14
    56          2
    57          2
    58          1
    60          1
    61          2
    62          9
    63         35
    64         45
    65        439
    66         62
    67         15
    68         10
    69         14
    70          2
    71          1
    73          1
    74          3
    75          3
    76          4
    77          3
    78          7
    79         17
    80         33
    81          6
    82          2
    83          3
    84          2
    85          2
    89          2
    90         10
    91         40
    92        999
    93        120
    94          6
    95          2
    96          3
    97         15
    98          9
    99          3
   104          1
   105         10
   106         48
   107         20
   108        678
   109         53
   110          3
   112          3
   117          2
   118         22
   119        276
   120         24
   121          2
   123          7
   124          9
   125          9
   126          1
   130          1
   131          3
   132          6
   133          3
   134          1
   140        147
   141         13
   142          7
   143          1
   144          1
   145          5
   146         22
   147         21
   148          4
   149          4
   155          1
   156        829
   157        108
   158         45
   159          6
   160          8
   161          2
   162        273
   163         29
   164          2
   171          2
   172         27
   173          4
   174        175
   175         18
   176          1
   188         39
   189        152
   190         18
   191          6
   198          1
   253        198
   254         45
   255         26
   256          4