##TITLE=Library Entry 51860
##JCAMP-DX=Revision 4.10 
##DATA TYPE=MASS SPECTRUM
##SAMPLE DESCRIPTION=NIST Mass Spectrometry Data Center, 1998.
##NAMES=HP
##CAS NAME=1H-Imidazole-1-octanoic acid, methyl ester
##MOLFORM=C12H20N2O2
##CAS REGISTRY NO=72338-73-9
##MP= -300
##BP= -300
##MW= 224
##$RETENTION INDEX=0
##$CONDENSED SPECTRUM=NO
##NPOINTS= 124
##XYDATA=(XY..XY) 1 
    15         23
    26         11
    27         72
    28         68
    29         81
    30          8
    31          8
    33          1
    38          3
    39         94
    40         56
    41        324
    42        105
    43         79
    44          9
    45         21
    46          1
    50          2
    51          8
    52         33
    53         69
    54        237
    55        591
    56         47
    57         14
    58          3
    59        146
    60          5
    61          3
    63          1
    64          1
    65         10
    66         11
    67         69
    68        217
    69        421
    70         32
    71          9
    72          2
    73         11
    74         33
    75          2
    77          7
    78          4
    79         21
    80         21
    81        531
    82        999
    83        154
    84         13
    85          5
    87         12
    88          1
    91          3
    92          2
    93          8
    94         35
    95        326
    96        349
    97         51
    98          4
    99          3
   101          2
   104          1
   105          2
   106          5
   107         34
   108         29
   109        146
   110         65
   111         11
   112          1
   113          2
   115          1
   118          1
   119          3
   120          3
   121         59
   122         26
   123        246
   124         75
   125          7
   128          1
   133          2
   134          2
   135         29
   136          9
   137        167
   138         32
   139          4
   140          1
   147          3
   148          2
   149          5
   150          1
   151        255
   152         30
   153          2
   154          1
   156          1
   163         10
   164          2
   165         53
   166         15
   167          2
   168          2
   169          1
   181          2
   182          6
   183          1
   184          2
   191         52
   192          8
   193        302
   194         39
   195          5
   196          4
   197         26
   198          3
   209          2
   223        847
   224        159
   225         21
   226          2