##TITLE=Library Entry 44803
##JCAMP-DX=Revision 4.10 
##DATA TYPE=MASS SPECTRUM
##SAMPLE DESCRIPTION=E.Stenhagen,Z.Anal.Chem, 8,109(1964)
##NAMES=HP
##CAS NAME=Methyl 17-bromoheptadecanoate
##MOLFORM=C18H35BrO2
##CAS REGISTRY NO=72338-49-9
##MP= -300
##BP= -300
##MW= 362
##$RETENTION INDEX=0
##$CONDENSED SPECTRUM=NO
##NPOINTS= 112
##XYDATA=(XY..XY) 1 
    15         22
    27         52
    28         21
    29        119
    39         59
    41        395
    42         79
    43        352
    44          8
    45          9
    53         27
    54         32
    55         46
    56         69
    57        156
    58          5
    59        133
    67         69
    68         24
    69        297
    70         29
    71         58
    73         29
    74        999
    75        216
    76          5
    79          8
    81         51
    82         14
    83        147
    84         35
    85         15
    87        559
    88         58
    93          5
    95         41
    96         12
    97        108
    98         29
    99          5
   101         59
   107         28
   109         41
   110          2
   111         39
   112          2
   113          1
   115         19
   116          4
   121         12
   123         14
   125         17
   129         55
   130          7
   135         28
   137         24
   139          8
   143        149
   144         11
   149          8
   151          4
   153          5
   157         12
   163          7
   165          1
   167          5
   171          9
   177          4
   179          2
   185         41
   186          1
   199         58
   200          2
   207          2
   209          2
   213          2
   221          5
   223          5
   233         27
   241          1
   250         15
   251         96
   252         11
   255          7
   263         32
   265         32
   277         17
   279         17
   282          5
   283        485
   284         92
   285          5
   288         15
   290         11
   303         11
   305         17
   307          7
   319         92
   320         12
   321         91
   322          9
   331         82
   332         12
   333         92
   334         14
   335         11
   361         14
   362        486
   363        328
   364        522
   365        315
   366         48