##TITLE=Library Entry 97128
##JCAMP-DX=Revision 4.10 
##DATA TYPE=MASS SPECTRUM
##SAMPLE DESCRIPTION=VERN REINHOLD,A.D.LITTLE INC.,CAMBRIDGE,MASS.
##NAMES=HP
##CAS NAME=.alpha.-D-Galactopyranose, 6-O-(trimethylsilyl)-, cyclic 1,2:3,4-
bis(butylboronate)
##MOLFORM=C17H34B2O6Si
##CAS REGISTRY NO=72347-47-8
##MP= -300
##BP= -300
##MW= 384
##$RETENTION INDEX=0
##$CONDENSED SPECTRUM=NO
##NPOINTS= 239
##XYDATA=(XY..XY) 1 
    30         20
    31         34
    35         16
    36         33
    37         13
    38         25
    39        103
    40         41
    41        229
    42         66
    43        289
    44        345
    45        217
    46         28
    47        112
    48         24
    49         20
    50         25
    51         39
    52         24
    53         55
    54         52
    55        356
    56        175
    57        108
    58         43
    59        112
    60         30
    61         52
    63         28
    64         24
    65         28
    66         31
    67         45
    68         38
    69        170
    70        221
    71         63
    72         40
    73        839
    74         99
    75        890
    76         53
    77        105
    78         31
    79         39
    80         30
    81        164
    82         72
    83        221
    84         47
    85         63
    87         30
    88         15
    89        114
    90         19
    91         32
    92         17
    93         38
    94         28
    95         45
    96         80
    97        221
    98         57
    99         80
   100         26
   101        164
   102         34
   103        507
   104         76
   105         80
   106         24
   107         29
   108         36
   109         91
   110         48
   111        108
   112         35
   113         50
   114         26
   115         40
   116         40
   117        999
   118        229
   119        115
   120         27
   121         26
   122         19
   123         34
   124         35
   125         58
   126        121
   127        185
   128         44
   129        328
   130         54
   131        127
   132         31
   133         37
   134         14
   135         29
   136         18
   137         32
   138         69
   139        215
   140         32
   141         44
   142         33
   143        110
   144         35
   145        101
   146         21
   147         40
   148         15
   149         24
   150         16
   151         29
   152         42
   153         73
   154         32
   155        120
   156         56
   157         86
   158         48
   159        271
   160         45
   161         30
   162         15
   163         16
   164         29
   165         57
   166         35
   167         57
   168         54
   169         64
   170         28
   171         53
   172         11
   173         23
   175         25
   177         14
   178         17
   179         27
   180         41
   181        103
   182         57
   183         85
   184         39
   185         77
   186         58
   187        101
   188         23
   189         31
   190         17
   191         20
   192         38
   193        157
   194         45
   195         36
   196         12
   197         33
   198         37
   199         30
   200         39
   201         82
   202         32
   203         32
   204         12
   205         15
   207         17
   208         28
   209         68
   210        113
   211         47
   212         49
   213        171
   214         36
   215         30
   217         12
   218         17
   220         12
   221         23
   222         42
   223         64
   224         22
   225         63
   226         38
   227         49
   228         32
   229         51
   230         14
   231         22
   236         21
   237         26
   238         22
   239         43
   240         70
   241         31
   242         41
   243        122
   244         35
   249         17
   250         13
   251         19
   253         26
   254         23
   255         36
   256         17
   257         25
   265         12
   266         29
   267         86
   268         13
   269         29
   270         18
   271         11
   276         18
   277         24
   278         15
   281         11
   283         18
   284         29
   285         59
   286         22
   296         13
   297         23
   312         17
   313         25
   315         20
   325         11
   327         12
   339         21
   341         12
   354         11
   367         14
   368         47
   369         94
   370         26
   371         15