##TITLE=Library Entry 69940
##JCAMP-DX=Revision 4.10 
##DATA TYPE=MASS SPECTRUM
##SAMPLE DESCRIPTION=V.A.KOPTYUG, ATLAS OF MASS SPECTRA OF ORGANIC COMPOUNDS
##NAMES=HP
##CAS NAME=1-Hydroxy-4-isopropyl-2,2,5,5-tetramethyl-3-imidazoline-3-oxide
##MOLFORM=C10H20N2O2
##CAS REGISTRY NO=72342-92-8
##MP= -300
##BP= -300
##MW= 200
##$RETENTION INDEX=0
##$CONDENSED SPECTRUM=NO
##NPOINTS= 113
##XYDATA=(XY..XY) 1 
    27         92
    28         41
    29         50
    30         16
    31         30
    35         19
    36         29
    37         13
    38         28
    39        169
    40         62
    41        349
    42        349
    43        248
    44         39
    45          6
    46          3
    47         47
    48         20
    49         16
    50          5
    51         16
    52         39
    53         45
    54         67
    55        690
    56        117
    57        155
    58        127
    59         58
    60          4
    61          2
    62          2
    63          4
    64          8
    65         15
    66         23
    67        116
    68        122
    69        206
    70        107
    71         23
    72          7
    73        109
    74        237
    75         10
    76          3
    77         15
    78          4
    79         24
    80         12
    81         47
    82         56
    83         67
    84         33
    85        138
    86          7
    87         25
    91          6
    92          2
    93          9
    94         25
    95         22
    96         95
    97        999
    98        116
    99         13
   100          7
   106          2
   107          3
   108         14
   109         18
   110         49
   111        108
   112         24
   113          6
   114          2
   117          7
   118          8
   120          8
   121          3
   122          8
   123          8
   124          3
   125          6
   126         27
   127        513
   128         53
   129          3
   134          2
   135          5
   136          6
   137          9
   138         18
   139          4
   150          2
   151         14
   152          4
   153         34
   154          7
   156          6
   157          7
   167          4
   168         19
   169         21
   170          3
   184         29
   185         17
   186          2
   199         25
   200        136
   201         19
   202          2