##TITLE=Library Entry 41660
##JCAMP-DX=Revision 4.10 
##DATA TYPE=MASS SPECTRUM
##SAMPLE DESCRIPTION=Exported from NIST MS Search
##NAMES=HP
##CAS NAME=1-Propanol, 3-(1-octadecenyloxy)-
##MOLFORM=C21H42O2
##CAS REGISTRY NO=72347-46-7
##MP= -300
##BP= -300
##MW= 326
##$RETENTION INDEX=0
##$CONDENSED SPECTRUM=NO
##NPOINTS= 63
##XYDATA=(XY..XY) 1 
    40         19
    41        168
    42         50
    43        275
    44         25
    45         19
    53         22
    54         28
    55        182
    56         42
    57        140
    58         25
    59         75
    66         42
    67         19
    68        126
    69         36
    70         56
    72         47
    73        999
    74        219
    75         16
    76          5
    81         36
    82         11
    83         78
    84         44
    85         36
    87        415
    88         70
    89         14
    95         19
    96         25
    97         73
    98         39
    99         19
   101         61
   102         19
   142        162
   143         19
   157         39
   158         19
   200         56
   201         19
   239         78
   240         22
   241         42
   242         14
   281         33
   282         11
   295          6
   296          2
   297          2
   298          1
   323          1
   324          0
   325          7
   326          2
   328          4
   329          2
   330          9
   331          2
   332          2