##TITLE=Library Entry 41508
##JCAMP-DX=Revision 4.10 
##DATA TYPE=MASS SPECTRUM
##SAMPLE DESCRIPTION=VERN REINHOLD,A.D.LITTLE INC.,CAMBRIDGE,MASS.
##NAMES=HP
##CAS NAME=D-Glucose, 6-O-.alpha.-D-galactopyranosyl-, bis-O-(trimethylsilyl
) deriv., cyclic tris(methylboronate)
##MOLFORM=C21H41B3O11Si2
##CAS REGISTRY NO=72347-76-3
##MP= -300
##BP= -300
##MW= 558
##$RETENTION INDEX=0
##$CONDENSED SPECTRUM=NO
##NPOINTS= 295
##XYDATA=(XY..XY) 1 
    30         32
    31         50
    36         37
    37         15
    38         30
    39         58
    40         49
    41        152
    42        148
    43        753
    44        331
    45        448
    46         37
    47        266
    48         20
    49         28
    50         22
    51         41
    52         39
    53         65
    54         48
    55        184
    56        105
    57        196
    58         33
    59        243
    60         38
    61         72
    62         13
    63         22
    64         20
    65         40
    66         33
    67         35
    68         74
    69        215
    70         43
    71         46
    72         76
    73        999
    74        276
    75        913
    76        104
    77        167
    78         31
    79         34
    80         24
    81        180
    82         38
    83        124
    84        245
    85        336
    86         28
    87         40
    88         18
    89        108
    90         23
    91         32
    92         17
    93         25
    94         29
    95         27
    96        145
    97        564
    98        102
    99        110
   100         35
   101        247
   102         34
   103        503
   104         47
   105         37
   107         17
   108         21
   109         99
   110         92
   111        150
   112        123
   113        385
   114        134
   115        441
   116        448
   117        670
   118         76
   119         76
   120         19
   121         20
   122         34
   123         82
   124         49
   125         94
   126        113
   127        292
   128         41
   129        606
   130        102
   131        164
   132         63
   133        194
   134         34
   135         49
   136         28
   137         31
   138         44
   139        149
   140         33
   141         47
   142         58
   143        207
   144         51
   145        167
   146         40
   147        730
   148        122
   149        121
   150         62
   151        131
   152         28
   153         38
   154         28
   155        191
   156         54
   157        189
   158         44
   159         83
   160         31
   161         63
   162         20
   163         48
   164         23
   165         34
   166         23
   167         35
   168         51
   169        309
   170        130
   171        251
   172         45
   173         76
   174         27
   175         54
   176         21
   177         38
   178         13
   179         25
   180         28
   181         40
   182         23
   183        105
   184         37
   185         77
   186         32
   187         47
   188         36
   189        257
   190         67
   191        303
   192         67
   193         67
   195         37
   196         29
   197         83
   198         60
   199        215
   200         67
   201         88
   202         29
   203         89
   204        889
   205        258
   206         94
   207         46
   208         29
   209         29
   210         71
   211        205
   212        137
   213        140
   214         36
   215         46
   216         24
   217        281
   218        275
   219         94
   220         35
   221         33
   222         16
   223         28
   224         32
   225         74
   226         28
   227         36
   228         27
   229         46
   230         65
   231        101
   232         23
   233         33
   234         20
   235         17
   239         19
   240         66
   241        224
   242         50
   243         96
   244         28
   245        100
   246        239
   247         49
   248         27
   251         15
   252         15
   253         28
   254         19
   255         23
   256         17
   257         25
   258         27
   259         60
   260         21
   261         15
   267         17
   268         16
   269         23
   270         24
   271         39
   272         26
   273         50
   274         11
   275         14
   276         13
   277         16
   281         17
   282         21
   283         31
   284         32
   285         58
   286         46
   287         85
   288         28
   289         31
   290         16
   295         12
   299         33
   300         35
   301         66
   302        139
   303         32
   304         26
   307         11
   309         12
   312         12
   313         33
   314         28
   315         88
   316         29
   317         21
   327         30
   328        117
   329        235
   330         58
   331         71
   332         24
   333         11
   341         22
   342         30
   343         18
   344         13
   345         20
   346         13
   351         12
   355         13
   368         15
   369         29
   370         20
   371         15
   373         20
   379         18
   389         20
   393         14
   395         11
   402         11
   403         23
   404         12
   405         13
   415         15
   416         40
   417        101
   418         35
   419         21
   448         11
   449         17
   451         27
   452         23
   453         20