##TITLE=Library Entry 78413
##JCAMP-DX=Revision 4.10 
##DATA TYPE=MASS SPECTRUM
##SAMPLE DESCRIPTION=G.S. KING, CHEM. PATHOL. DEP., QUEEN CHARLOTTE'S HOSP.,
 LONDON
##NAMES=HP
##CAS NAME=Glycine, N-benzoyl-N-(2,2,3,3,3-pentafluoro-1-oxopropyl)-, methyl
 ester
##MOLFORM=C13H10F5NO4
##CAS REGISTRY NO=72347-42-3
##MP= -300
##BP= -300
##MW= 339
##$RETENTION INDEX=0
##$CONDENSED SPECTRUM=NO
##NPOINTS= 17
##XYDATA=(XY..XY) 1 
    43         12
    44         12
    49         24
    50         84
    59         12
    69         12
    76         24
    77        264
    78         24
   105        999
   106         84
   119         12
   130         24
   159         12
   175         24
   176         12
   339         32