##TITLE=Library Entry 55271
##JCAMP-DX=Revision 4.10 
##DATA TYPE=MASS SPECTRUM
##SAMPLE DESCRIPTION=ASES Database, Dalian Institute, P.R. China
##NAMES=HP
##CAS NAME=2-(1-Methylcyclohexyloxy)-tetrahydropyran
##MOLFORM=C12H22O2
##CAS REGISTRY NO=72347-38-7
##MP= -300
##BP= -300
##MW= 198
##$RETENTION INDEX=0
##$CONDENSED SPECTRUM=NO
##NPOINTS= 16
##XYDATA=(XY..XY) 1 
    29         58
    41         89
    43        109
    55        347
    56         60
    57         79
    67        101
    71         59
    81         59
    84         89
    85        999
    86         60
    96        199
    97        699
    98         69
   198         19