##TITLE=Library Entry 15074
##JCAMP-DX=Revision 4.10 
##DATA TYPE=MASS SPECTRUM
##SAMPLE DESCRIPTION=S.KUSHWAHA DEPT. BIOCHEM., UNIV. OF OTTAWA, OTTAWA, CAN
ADA
##NAMES=HP
##CAS NAME=.beta. Carotene
##MOLFORM=C40H56
##CAS REGISTRY NO=7235-40-7
##MP= -300
##BP= -300
##MW= 536
##$RETENTION INDEX=0
##$CONDENSED SPECTRUM=NO
##NPOINTS= 235
##XYDATA=(XY..XY) 1 
    35         30
    36        190
    37         40
    38         80
    39        220
    40         70
    41        580
    42        160
    43        999
    45        130
    46         40
    50        100
    51        120
    52         40
    53        140
    54         70
    55        600
    56        140
    57        320
    58        170
    59         30
    60         50
    61         30
    62         30
    63         40
    64         30
    65        100
    66         60
    67        240
    68         90
    69        660
    70        130
    71        170
    72         30
    73         50
    74         50
    75         30
    76         80
    77        300
    78        110
    79        240
    80         70
    81        360
    82        110
    83        250
    84        100
    85        100
    86         30
    87         30
    89         30
    90         20
    91        470
    92        130
    93        260
    94         70
    95        360
    96        100
    97        140
    98         70
    99         50
   100         30
   101         30
   103         50
   104        120
   105        580
   106        160
   107        270
   108         80
   109        210
   110         80
   111        100
   112         50
   113         30
   115        100
   116         50
   117        110
   118         40
   119        410
   120        100
   121        240
   122        120
   123        160
   124         60
   125         90
   126         60
   127         70
   128        120
   129        160
   130         70
   131        170
   132         60
   133        220
   134         60
   135        120
   136         40
   137        110
   138         40
   139         40
   140         20
   141        120
   142        100
   143        190
   144        100
   145        240
   146         70
   147        130
   148         60
   149        100
   150         40
   151         40
   152        100
   153         60
   154         40
   155        130
   156         90
   157        210
   158         70
   159        200
   160         50
   161         90
   162         30
   163         30
   164         20
   165         90
   166         50
   167         70
   168         40
   169        110
   170         50
   171        140
   172         50
   173        100
   174         30
   175         80
   176         30
   177        100
   178         40
   179         60
   180         40
   181         70
   182         40
   183        100
   184         40
   185        100
   186         30
   187         70
   189         50
   190         30
   191         30
   192         30
   193         60
   194         40
   195         90
   196         50
   197        100
   198         40
   199         80
   200         30
   201         40
   202         30
   203         70
   204         30
   205         50
   206         30
   207         70
   208         40
   209        100
   210         30
   211         60
   212         30
   213         40
   215         40
   217         30
   219         30
   221         40
   222         30
   223         50
   225         40
   227         30
   233         30
   235         30
   236         40
   237         50
   239         40
   241         40
   243         40
   253         30
   254         30
   255         60
   256         40
   257         30
   258         30
   267         40
   268        100
   269         40
   279         30
   281         40
   282         20
   283         20
   293         20
   333         30
   334         20
   346         20
   347         20
   359         20
   364         20
   365         20
   366         20
   367         20
   368         50
   369         30
   370         20
   371         20
   376         30
   378         70
   380         20
   390         20
   397         30
   399         20
   416         20
   430         70
   431         30
   442         20
   444        220
   445         90
   446         20
   457         20
   532         30
   533         20
   534         70
   535         50
   536        860
   537        400
   538        110
   539         20