##TITLE=Library Entry 43021
##JCAMP-DX=Revision 4.10 
##DATA TYPE=MASS SPECTRUM
##SAMPLE DESCRIPTION=W.T.RAINEY OAK RIDGE NATIONAL LABORATORY,OAK RIDGE,TN.U
SA
##NAMES=HP
##CAS NAME=2-(4-Hydroxy-3-methoxyphenyl)acetamide, 2TMS derivative
##MOLFORM=C15H27NO3Si2
##CAS REGISTRY NO=72361-06-9
##MP= -300
##BP= -300
##MW= 325
##$RETENTION INDEX=0
##$CONDENSED SPECTRUM=NO
##NPOINTS= 33
##XYDATA=(XY..XY) 1 
    73        999
    75        631
    89         39
    93         17
   100         19
   116         27
   135         22
   137         12
   149         39
   162         39
   163         32
   164         25
   165         31
   179        671
   190        123
   193         79
   195         95
   205         87
   209        319
   210        439
   211         93
   223        379
   235        239
   238        191
   253        579
   254        105
   255         31
   310         63
   311         21
   312         15
   325         67
   326         25
   327          8