##TITLE=Library Entry 71571
##JCAMP-DX=Revision 4.10 
##DATA TYPE=MASS SPECTRUM
##SAMPLE DESCRIPTION=Exported from NIST MS Search
##NAMES=HP
##CAS NAME=2-Furanone, 3-amino-4-chloro-
##MOLFORM=C4H4ClNO2
##CAS REGISTRY NO=72361-12-7
##MP= -300
##BP= -300
##MW= 133
##$RETENTION INDEX=0
##$CONDENSED SPECTRUM=NO
##NPOINTS= 36
##XYDATA=(XY..XY) 1 
    38         31
    39         39
    40        128
    41        118
    42         92
    43         32
    44        274
    47         29
    48         39
    49         57
    51         69
    52        139
    53         60
    54        243
    61         59
    63         29
    68         28
    70        296
    75         69
    76        208
    77         39
    78         97
    88        406
    89         32
    90        128
    98        999
    99         59
   104         52
   105         13
   106         19
   107         11
   132         28
   133        726
   134         44
   135        269
   136         13