##TITLE=Library Entry 35317
##JCAMP-DX=Revision 4.10 
##DATA TYPE=MASS SPECTRUM
##SAMPLE DESCRIPTION=CARL DJERASSI DEPT OF CHEM STANFORD UNIV STANFORD CALIF
 94305
##NAMES=HP
##CAS NAME=4,25-Secoobscurinervan-4-ol, 6,7-didehydro-15,16-dimethoxy-22-met
hyl-, (4.beta.,22.alpha.)-
##MOLFORM=C24H32N2O5
##CAS REGISTRY NO=7236-84-2
##MP= -300
##BP= -300
##MW= 428
##$RETENTION INDEX=0
##$CONDENSED SPECTRUM=NO
##NPOINTS= 217
##XYDATA=(XY..XY) 1 
    60        272
    61         75
    63         30
    65         45
    66         30
    67        318
    68        212
    69        999
    70        272
    71        727
    72         45
    73        181
    74         30
    76         15
    77        181
    78         45
    79        166
    80         75
    81        393
    82        196
    83        424
    84        166
    85        363
    86         30
    87         75
    89         30
    90         15
    91        106
    92         60
    93        181
    94        106
    95        181
    96        121
    97        287
    98         75
    99         90
   100         15
   101         25
   102         25
   103         40
   104         45
   105         95
   106         65
   107         70
   108         70
   109        101
   110         50
   111         95
   112         30
   113         40
   114         20
   115         50
   116         40
   117         60
   118         60
   119         65
   120         80
   121         60
   122         40
   123        171
   124        186
   125         55
   126         30
   127         40
   128         35
   129         45
   130         60
   131         50
   132         65
   133         70
   134         70
   135         30
   136         30
   137        318
   138        318
   139         60
   140        111
   141         45
   142         30
   143         35
   144         45
   145         45
   146         80
   147         40
   148         30
   149         25
   150         50
   151        186
   152         50
   153         20
   154         45
   155         35
   156         50
   157         35
   158         50
   159         35
   160         60
   161        121
   162         55
   163         20
   164         15
   165         15
   166         15
   167         30
   168         40
   169         65
   170         45
   171         25
   172         35
   173         35
   174         65
   175        106
   176        101
   177         35
   178         15
   179          5
   180         15
   181         20
   182         60
   183         80
   184        111
   185         25
   186         30
   187         30
   188         45
   189         25
   190         45
   191         50
   192         45
   193         10
   194         15
   195         15
   196         15
   197         15
   198         25
   199         30
   200         35
   201         25
   202         60
   203         30
   204         35
   205         25
   206         30
   207         10
   208         10
   209          5
   210          5
   211          5
   212         15
   213         15
   214         90
   215         25
   216         55
   217         25
   218         75
   219         20
   220         45
   221         15
   222          5
   225          5
   226         10
   227          5
   228         15
   229         25
   230         65
   231         20
   232         40
   233         50
   234         20
   242          5
   243          5
   244         50
   245         20
   246        237
   247         60
   248         10
   256          5
   258         15
   259         15
   260        146
   261         70
   262         25
   272          5
   273          5
   274         25
   275         10
   276         15
   288         15
   290         30
   291         10
   295          5
   302         10
   304          5
   305          5
   323          5
   325          5
   353          5
   355          5
   369         15
   370          5
   383         10
   384          5
   385          5
   395         10
   397          5
   409          5
   410         10
   411         15
   412          5
   413        232
   414         60
   415         10
   426         20
   427         25
   428        505
   429        136
   430         25