##TITLE=Library Entry 100595
##JCAMP-DX=Revision 4.10 
##DATA TYPE=MASS SPECTRUM
##SAMPLE DESCRIPTION=Japan AIST/NIMC Database- Spectrum MS-IW-5065
##NAMES=HP
##CAS NAME=Ethyl o-formamidobenzoate
##MOLFORM=C10H11NO3
##CAS REGISTRY NO=72368-50-4
##MP= -300
##BP= -300
##MW= 193
##$RETENTION INDEX=0
##$CONDENSED SPECTRUM=NO
##NPOINTS= 84
##XYDATA=(XY..XY) 1 
    14          1
    15          2
    26          4
    27         25
    28          6
    29         31
    30          2
    31         30
    37          7
    38         16
    39         54
    40          6
    41         11
    42          4
    43          5
    44          4
    45         22
    46         10
    49          1
    50         18
    51         14
    52         22
    53          8
    54          2
    59          1
    60          3
    61          4
    62         11
    63         53
    64         65
    65        142
    66         20
    67          2
    73          2
    74          8
    75          7
    76         16
    77         35
    78          5
    79          2
    80          3
    81          2
    88          1
    89          3
    90         81
    91         59
    92        262
    93         63
    94          4
   102          4
   103          4
   104          5
   105          6
   106          1
   108          1
   109          1
   117          1
   118         17
   119        999
   120        200
   121         24
   122          2
   130          9
   131          1
   132         10
   133          1
   136          1
   137         35
   138          3
   146        147
   147         95
   148        115
   149         10
   150          1
   151         10
   152          1
   164          2
   165        407
   166         41
   167          4
   178          1
   193        145
   194         16
   195          2