##TITLE=Library Entry 41847
##JCAMP-DX=Revision 4.10 
##DATA TYPE=MASS SPECTRUM
##SAMPLE DESCRIPTION=S. MARKEY UNIV. OF COLO. MED. CTR., DENVER, COLORADO, U
SA
##NAMES=HP
##CAS NAME=L-5-Hydroxylysine, 4TMS derivative
##MOLFORM=C18H46N2O3Si4
##CAS REGISTRY NO=72361-02-5
##MP= -300
##BP= -300
##MW= 450
##$RETENTION INDEX=0
##$CONDENSED SPECTRUM=NO
##NPOINTS= 270
##XYDATA=(XY..XY) 1 
    36         19
    38          8
    39         12
    40         14
    41         22
    42         25
    43         92
    44         55
    45        131
    46         13
    47        114
    48          9
    49         43
    50          5
    51          5
    52         19
    53         15
    54         15
    55         33
    56         56
    57         22
    58         22
    59        112
    60         22
    61         34
    62         12
    63         31
    64          3
    65         14
    66         14
    67         19
    68        116
    69         19
    70         35
    71         13
    72         39
    73        999
    74        176
    75        457
    76         47
    77        471
    78         44
    79         42
    80         23
    81         83
    82        105
    83         22
    84         34
    85         93
    86         37
    87         33
    88         26
    89         24
    90          7
    91          5
    92         18
    93         61
    94         11
    95         26
    96         18
    97         16
    98         22
    99         28
   100        144
   101         89
   102        895
   103        117
   104         43
   105          8
   106          3
   107          4
   108          4
   109         12
   110          7
   111          3
   112         16
   113         37
   114         27
   115        151
   116         71
   117         37
   118         10
   119         12
   120          3
   121          4
   122          3
   123          8
   124          7
   125          4
   126         17
   127         14
   128        161
   129         73
   130         44
   131         40
   132         36
   133         63
   134         12
   135         10
   136          2
   137         10
   138          8
   139          8
   140         22
   141         24
   142         71
   143         23
   144         21
   145         10
   146         35
   147        279
   148         58
   149         34
   150          9
   151         29
   152         17
   153         14
   154         68
   155         51
   156         51
   157         15
   158         17
   159         19
   160         66
   161         19
   162          7
   163          5
   164          5
   165          3
   166          7
   167          8
   168          8
   169          4
   170         29
   171         60
   172        281
   173         53
   174         36
   175          9
   176         14
   177          7
   178          7
   179          4
   180          5
   181          8
   182         12
   183          7
   184         12
   185          4
   186        116
   187         21
   188         19
   189         12
   190         10
   191         20
   192          5
   193          4
   195          1
   196          2
   197          4
   198          8
   199         19
   200         24
   201          7
   202         16
   203         13
   204         32
   205         12
   206          9
   207          7
   208          1
   209          1
   211          2
   212          3
   213          3
   214          5
   215          7
   216         37
   217         22
   218         49
   219        154
   220         37
   221         24
   222          5
   223          2
   225          2
   226          2
   227          8
   228         13
   229          8
   230         12
   231         13
   232        384
   233         89
   234         38
   235          7
   236          3
   238          1
   240          2
   241          1
   242         10
   243        148
   244        101
   245         47
   246         14
   247          4
   248          2
   249          1
   254          2
   255          8
   256          9
   257          8
   258        118
   259         54
   260         19
   261         21
   262          7
   263          3
   270          8
   271         24
   272         20
   273         24
   274         15
   275          8
   276          4
   277          7
   278          2
   287          5
   288         25
   289          7
   290          4
   291          4
   292          2
   293          1
   306          1
   307          3
   309          5
   316          1
   317         17
   318          6
   319          3
   331          1
   332          6
   333          9
   334          3
   335          1
   343          1
   344          1
   345         13
   346         21
   347          7
   348          5
   349         32
   350         11
   351          5
   359          3
   360         37
   361         14
   362          6
   363          6
   364          2
   378          6
   379          3
   380          1
   435         12
   436          4
   437          4
   450         16
   451          8
   452          3