##TITLE=Library Entry 10727
##JCAMP-DX=Revision 4.10 
##DATA TYPE=MASS SPECTRUM
##SAMPLE DESCRIPTION=ORVAL A. MAMER, ROYAL VICTORIA HOSPITAL, MONTREAL, CANA
DA
##NAMES=HP
##CAS NAME=.beta.-D-Mannopyranose, 1,2:3,4-bis-O-(1-methylethylidene)-
##MOLFORM=C12H20O6
##CAS REGISTRY NO=72361-04-7
##MP= -300
##BP= -300
##MW= 260
##$RETENTION INDEX=0
##$CONDENSED SPECTRUM=NO
##NPOINTS= 103
##XYDATA=(XY..XY) 1 
    14          6
    15         67
    16          2
    18          4
    19         13
    26         10
    27         54
    28         45
    29         70
    30          4
    31         76
    32          3
    38          3
    39         61
    40         15
    41        132
    42         84
    43        999
    44         35
    45         23
    47          7
    51          3
    52          3
    53         21
    54         12
    55        155
    56         13
    57         63
    58         24
    59        426
    60         33
    61         50
    67          3
    68         81
    69         70
    70         35
    71         77
    72        127
    73        157
    74          9
    75          8
    80          5
    81         83
    82          7
    83         67
    84         15
    85        156
    86         14
    87          9
    89          3
    95          9
    97         34
    98         51
    99         87
   100         28
   101        623
   102         38
   103         17
   107          3
   109         24
   110          2
   111          7
   113         14
   114          5
   115         47
   116          4
   117          5
   123          2
   125         13
   126         29
   127        106
   128          8
   129         95
   130          9
   131         14
   141         52
   142          7
   143         10
   144          9
   145         29
   146          2
   149          7
   155          2
   156          3
   157          2
   159         13
   167         18
   168          2
   169          3
   173          5
   174          4
   185         16
   187        119
   188         11
   189          2
   201          2
   202          7
   203          2
   229          2
   243          7
   245        374
   246         50
   247          8