##TITLE=Library Entry 86021
##JCAMP-DX=Revision 4.10 
##DATA TYPE=MASS SPECTRUM
##SAMPLE DESCRIPTION=V.A.Korolev, Moscow, Russia
##NAMES=HP
##CAS NAME=Dyphylline
##MOLFORM=C10H14N4O4
##CAS REGISTRY NO=72376-78-4
##MP= -300
##BP= -300
##MW= 254
##$RETENTION INDEX=0
##$CONDENSED SPECTRUM=NO
##NPOINTS= 107
##XYDATA=(XY..XY) 1 
    30         93
    31        123
    38         23
    39         70
    40        319
    41        515
    42        840
    43        445
    44        211
    45         93
    51         23
    52        127
    53        304
    54        328
    55        346
    56        207
    57        205
    58        113
    59          4
    60          9
    61        120
    64          8
    65         31
    66        174
    67        505
    68        643
    69        191
    70        212
    71         17
    72          5
    73          7
    75          2
    77         16
    78         14
    79         61
    80        111
    81        549
    82        298
    83         94
    84         18
    85          3
    91          4
    92          4
    93         40
    94        179
    95        888
    96        179
    97         47
    98          6
   100          2
   106          3
   107         22
   108        138
   109        999
   110        120
   111        134
   112         16
   120         12
   121         22
   122        105
   123        356
   124        166
   125         25
   126          8
   134         12
   135         36
   136        115
   137        206
   138        144
   139         12
   140          5
   141          2
   142          7
   148          5
   149         17
   150         19
   151        108
   152         39
   153          5
   162          4
   163          6
   164          4
   165         50
   166        383
   167         32
   168          6
   179          9
   180        831
   181        116
   182          6
   193        390
   194        617
   195         68
   196          7
   207         12
   208          3
   210          7
   223        562
   224        124
   225         10
   235          5
   236         72
   237          6
   238          1
   254        234
   255         31
   256          2