##TITLE=Library Entry 72211
##JCAMP-DX=Revision 4.10 
##DATA TYPE=MASS SPECTRUM
##SAMPLE DESCRIPTION=Exported from NIST MS Search
##NAMES=HP
##CAS NAME=2(5H)-Thiophenone, 5-(2-propenyl)-
##MOLFORM=C7H8OS
##CAS REGISTRY NO=7238-59-7
##MP= -300
##BP= -300
##MW= 140
##$RETENTION INDEX=0
##$CONDENSED SPECTRUM=NO
##NPOINTS= 61
##XYDATA=(XY..XY) 1 
    38         60
    39        240
    40         40
    41        180
    42         20
    43         20
    44         60
    45        300
    46         30
    47         30
    50         70
    51        100
    52         50
    53         80
    54         20
    55        400
    56         40
    57         30
    58         80
    59         40
    63         30
    65         30
    66         40
    67         40
    69         80
    70         50
    71        539
    72         90
    73         40
    74         20
    76         30
    77        120
    78         60
    79        140
    80         50
    81         30
    82         20
    84        100
    85        140
    86         30
    87         15
    94         40
    97        240
    98        100
    99        999
   100        150
   101         60
   106         15
   107         30
   109         20
   110         20
   111        110
   112        360
   113         60
   114         40
   125         30
   138         40
   139         20
   140        519
   141         80
   142         30