##TITLE=Library Entry 19121
##JCAMP-DX=Revision 4.10 
##DATA TYPE=MASS SPECTRUM
##SAMPLE DESCRIPTION=D.HENNEBERG, MAX-PLANCK INSTITUTE, MULHEIM, WEST GERMAN
Y
##NAMES=HP
##CAS NAME=3-Dodecene, (Z)-
##MOLFORM=C12H24
##CAS REGISTRY NO=7239-23-8
##MP= -300
##BP= -300
##MW= 168
##$RETENTION INDEX=1185
##$CONDENSED SPECTRUM=NO
##NPOINTS= 84
##XYDATA=(XY..XY) 1 
    25          4
    26          7
    27        175
    28          1
    29        287
    30         10
    31          3
    32          2
    34          0
    35          2
    37          3
    38          1
    39        139
    40         33
    41        949
    42        331
    43        715
    45          3
    46          1
    47          1
    48          0
    49          1
    50          3
    51         11
    52          9
    53         65
    54        112
    55        999
    56        898
    57        582
    58         25
    59          1
    62          1
    63          3
    64          2
    65         13
    66         13
    67        119
    68         86
    69        881
    70        650
    71        155
    72          6
    77          6
    78          2
    79         12
    80          4
    81         38
    82         80
    83        396
    84        251
    85         60
    86          2
    88          0
    91          2
    92          0
    93          3
    94          0
    95          8
    96         23
    97        203
    98         99
    99          7
   105          0
   109          2
   110         10
   111         73
   112         33
   113          2
   114          0
   115          0
   117          1
   120          0
   124          3
   125         24
   126         11
   133          0
   138          0
   139          5
   140         14
   141          1
   167          0
   168        107
   169         13