##TITLE=Library Entry 86101
##JCAMP-DX=Revision 4.10 
##DATA TYPE=MASS SPECTRUM
##SAMPLE DESCRIPTION=Chemical Concepts
##NAMES=HP
##CAS NAME=4,6-Heptadienoic acid, 3,3,6-trimethyl-, methyl ester
##MOLFORM=C11H18O2
##CAS REGISTRY NO=72410-97-0
##MP= -300
##BP= -300
##MW= 182
##$RETENTION INDEX=0
##$CONDENSED SPECTRUM=NO
##NPOINTS= 111
##XYDATA=(XY..XY) 1 
    26          2
    27         55
    28         13
    29         58
    30          2
    31          4
    38          5
    39        110
    40         20
    41        187
    42         23
    43        145
    44          6
    45         12
    50          9
    51         35
    52         17
    53         83
    54         10
    55        156
    56         17
    57         44
    58          2
    59         58
    60          2
    61          2
    62          3
    63         13
    64          4
    65         58
    66         18
    67        323
    68         50
    69         73
    70         11
    71         15
    72          2
    73         22
    74         13
    75          6
    76          2
    77        131
    78         30
    79        132
    80         25
    81        266
    82         28
    83         19
    84          5
    85         30
    86          2
    87          2
    89          4
    91        202
    92         33
    93        301
    94         58
    95         46
    96          9
    97          9
    98          7
    99         12
   101          2
   103          5
   104          2
   105         41
   106         10
   107        542
   108        316
   109        999
   110         96
   111         16
   112          5
   113          3
   114          2
   115          3
   117          2
   119          4
   120          2
   121         24
   122         90
   123        258
   124         30
   125         32
   126         15
   127          8
   131          2
   133          2
   135         77
   136          8
   137          2
   138          5
   139        113
   140         15
   141          4
   149         15
   150         34
   151         14
   152          2
   153          7
   165          8
   166          2
   167        162
   168         18
   169          2
   170          1
   181          2
   182        351
   183         53
   184          5
   185          0