##TITLE=Library Entry 85148
##JCAMP-DX=Revision 4.10 
##DATA TYPE=MASS SPECTRUM
##SAMPLE DESCRIPTION=NIST Mass Spectrometry Data Center
##NAMES=HP
##CAS NAME=3-Tridecylphenol
##MOLFORM=C19H32O
##CAS REGISTRY NO=72424-02-3
##MP= -300
##BP= -300
##MW= 276
##$RETENTION INDEX=2290
##$CONDENSED SPECTRUM=NO
##NPOINTS= 97
##XYDATA=(XY..XY) 1 
    27          5
    28          1
    29         17
    39         11
    40          2
    41         57
    42          7
    43         60
    44          2
    50          1
    51          3
    52          2
    53          8
    54          2
    55         37
    56          4
    57         23
    63          2
    64          1
    65          9
    66          3
    67          6
    68          1
    69         11
    70          1
    71          6
    72          1
    77         56
    78         12
    79         21
    80          7
    81          4
    82          1
    83          3
    85          2
    89          1
    90          5
    91         21
    92          3
    93          5
    94         10
    95         13
    96          1
    97          1
   102          1
   103         12
   104          2
   105          6
   106          1
   107        315
   108        999
   109         80
   110          7
   111          1
   115          3
   116          1
   117          2
   118          1
   119          4
   120         53
   121         94
   122         12
   123          2
   127          1
   128          1
   131          2
   132          1
   133         10
   134          6
   135          6
   136          3
   137          1
   145          1
   147          3
   148          2
   149         29
   150         20
   151          2
   161          1
   162          1
   163          2
   164          3
   177          1
   178          1
   191          1
   192          3
   205          1
   206          1
   218          1
   219          1
   220          1
   233          3
   234          4
   235          1
   276        105
   277         22
   278          2