##TITLE=Library Entry 51086
##JCAMP-DX=Revision 4.10 
##DATA TYPE=MASS SPECTRUM
##SAMPLE DESCRIPTION=Chuck Anderson, Aldrich Chemical Co.
##NAMES=HP
##CAS NAME=exo-2-Aminonorbornane
##MOLFORM=C7H13N
##CAS REGISTRY NO=7242-92-4
##MP= -300
##BP= -300
##MW= 111
##$RETENTION INDEX=0
##$CONDENSED SPECTRUM=NO
##NPOINTS= 59
##XYDATA=(XY..XY) 1 
    15         17
    17          3
    18         54
    26         13
    27        113
    28        259
    29         63
    30        448
    31          9
    32          1
    37          4
    38         17
    39        191
    40         41
    41        202
    42        162
    43        528
    44        109
    45        205
    46          8
    47          1
    48          2
    50         14
    51         29
    52         18
    53         57
    54         53
    55         31
    56        511
    57        130
    58          4
    62          2
    63          7
    64          0
    65         56
    66        153
    67        153
    68         51
    69        120
    70        249
    71         12
    77         49
    78          5
    79        429
    80         59
    82        999
    83        144
    84          7
    91         24
    92          2
    93         30
    94        261
    95         24
    96         79
    97          4
   108          2
   110         90
   111        363
   112         27