##TITLE=Library Entry 5564
##JCAMP-DX=Revision 4.10 
##DATA TYPE=MASS SPECTRUM
##SAMPLE DESCRIPTION=H.J. MOECKEL & J. WEISS, HAHN-MEITNER-INST. BERLIN, W.
 G
##NAMES=HP
##CAS NAME=Disulfide, ethyl pentyl
##MOLFORM=C7H16S2
##CAS REGISTRY NO=72437-59-3
##MP= -300
##BP= -300
##MW= 164
##$RETENTION INDEX=1218
##$CONDENSED SPECTRUM=NO
##NPOINTS= 92
##XYDATA=(XY..XY) 1 
    15          7
    24          0
    25          1
    26         20
    27        268
    29        428
    30         14
    33          2
    34          3
    35         26
    36          0
    37          2
    38          6
    39         97
    40          9
    41        301
    42         68
    43        999
    44         42
    45         62
    46         29
    47         34
    48          1
    49          1
    50          1
    51          2
    52          1
    53         11
    54          4
    55         74
    56          6
    57          4
    58         12
    59         35
    60         19
    61         22
    62          3
    63          2
    64         13
    65         11
    66         76
    67         11
    68         22
    69         24
    70          8
    71         71
    72          5
    73          6
    74          3
    75          1
    76          0
    77          0
    78          3
    79         27
    80          1
    81          2
    82          0
    84          0
    85          0
    86          0
    87          8
    88          0
    89          0
    91          0
    92          1
    93         27
    94        274
    95         15
    96         25
    97          1
    98          0
    99          0
   101          3
   102          4
   103          4
   104          0
   105          0
   106          0
   107          4
   108          0
   109          0
   121          0
   131          0
   135          0
   136          0
   162          0
   163          5
   164        134
   165         16
   166         12
   167          1
   168          0