##TITLE=Library Entry 42504
##JCAMP-DX=Revision 4.10 
##DATA TYPE=MASS SPECTRUM
##SAMPLE DESCRIPTION=K. KURODA, DEP. APPL. CHEM., WASEDA UNIV., TOKYO, JA
##NAMES=HP
##CAS NAME=3-Butoxy-1,1,1,7,7,7-hexamethyl-3,5,5-tris(trimethylsiloxy)tetras
iloxane
##MOLFORM=C19H54O7Si7
##CAS REGISTRY NO=72439-84-0
##MP= -300
##BP= -300
##MW= 590
##$RETENTION INDEX=0
##$CONDENSED SPECTRUM=NO
##NPOINTS= 38
##XYDATA=(XY..XY) 1 
    41        215
    45         55
    55         21
    57        217
    58         15
    59         36
    73        999
    74         92
    75         43
    87         10
   133         15
   147        334
   148         49
   149         27
   207         10
   221         69
   222         15
   281        121
   282         37
   283         22
   325         13
   327         73
   328         22
   329         15
   341         48
   342         18
   343         11
   399         11
   415         84
   416         36
   417         24
   503         15
   517         23
   518         13
   519         13
   575         37
   576         20
   577         13