##TITLE=Library Entry 5800
##JCAMP-DX=Revision 4.10 
##DATA TYPE=MASS SPECTRUM
##SAMPLE DESCRIPTION=H.J. MOECKEL & J. WEISS, HAHN-MEITNER-INST. BERLIN, W.
 G
##NAMES=HP
##CAS NAME=Methyl pentyl disulfide
##MOLFORM=C6H14S2
##CAS REGISTRY NO=72437-68-4
##MP= -300
##BP= -300
##MW= 150
##$RETENTION INDEX=1142
##$CONDENSED SPECTRUM=NO
##NPOINTS= 89
##XYDATA=(XY..XY) 1 
    15         44
    24          0
    25          2
    26         57
    27        578
    29        781
    30         19
    33          3
    34          2
    35         10
    37          6
    38         51
    39        315
    40         63
    41        874
    42        251
    43        999
    44        138
    45        357
    46        143
    47        161
    48         14
    49         18
    50          7
    51         12
    52          6
    53         39
    54         20
    55        223
    56         18
    57         12
    58         28
    59         51
    60         30
    61         25
    62          3
    63         14
    64         79
    65         16
    66          8
    67         21
    68         12
    69         52
    70         31
    71        184
    72         15
    73         21
    74          7
    75          2
    76          1
    77          4
    78         32
    79        207
    80        638
    81         42
    82         59
    83          1
    84          2
    85          2
    86          0
    87         15
    88          1
    89          0
    91          0
    92          6
    93         54
    95          3
    97          0
    99          0
   100          0
   101          6
   102          5
   103         10
   104          1
   105          0
   106          1
   107          2
   109          0
   117          0
   119          0
   120          0
   121          0
   148          1
   149         27
   150        422
   151         46
   152         41
   153          3
   154          1