##TITLE=Library Entry 8769
##JCAMP-DX=Revision 4.10 
##DATA TYPE=MASS SPECTRUM
##SAMPLE DESCRIPTION=H.J. MOECKEL & J. WEISS. HAHN-MEITNER-INST. BERLIN, W.
 G
##NAMES=HP
##CAS NAME=Disulfide, 1-methylethyl isopentyl
##MOLFORM=C8H18S2
##CAS REGISTRY NO=72437-50-4
##MP= -300
##BP= -300
##MW= 178
##$RETENTION INDEX=1218
##$CONDENSED SPECTRUM=NO
##NPOINTS= 98
##XYDATA=(XY..XY) 1 
    15         13
    19          0
    24          0
    25          0
    26         17
    27        320
    29        183
    30          4
    33          1
    34          1
    35          5
    36          0
    37          2
    38         11
    39        152
    40         21
    41        467
    42        102
    43        999
    44         64
    45         55
    46         21
    47         49
    48          2
    49          6
    50          1
    51          4
    52          2
    53         18
    54          6
    55        101
    56         13
    58         13
    59         47
    60         15
    61         12
    62          1
    63          1
    64         13
    65          6
    66         12
    67          6
    68          4
    69         36
    70         65
    71        567
    72         33
    73          7
    74          7
    75          7
    76          1
    77          0
    78          3
    79         27
    80          1
    81          2
    82          0
    84          0
    85          1
    86          0
    87         18
    88          0
    89          1
    91          0
    92          1
    93          3
    94          0
    95          0
    97          0
    99          0
   100          0
   101          9
   102          7
   103         64
   104          4
   105          2
   106          0
   107          6
   108          2
   109          1
   110          0
   120          0
   121          3
   123          0
   134          0
   135          5
   136        125
   137         10
   138         11
   139          0
   140          0
   176          0
   177          7
   178        148
   179         18
   180         14
   181          1
   182          0