##TITLE=Library Entry 6205
##JCAMP-DX=Revision 4.10 
##DATA TYPE=MASS SPECTRUM
##SAMPLE DESCRIPTION=H.J. MOECKEL & J. WEISS, HAHN-MEITNER-INST. BERLIN, W.
 G
##NAMES=HP
##CAS NAME=Disulfide, propyl isopentyl
##MOLFORM=C8H18S2
##CAS REGISTRY NO=72437-66-2
##MP= -300
##BP= -300
##MW= 178
##$RETENTION INDEX=1264
##$CONDENSED SPECTRUM=NO
##NPOINTS= 84
##XYDATA=(XY..XY) 1 
    15         19
    24          0
    25          1
    26         22
    27        298
    29        146
    30          8
    35          4
    37          2
    38         11
    39        185
    41        552
    42        108
    43        999
    44         74
    45        102
    46         52
    47         80
    48          3
    49          3
    50          2
    51          5
    52          2
    53         21
    54          9
    55        118
    56         17
    58         13
    59         30
    60         14
    61         13
    62          1
    63          1
    64         14
    65          6
    66         21
    67          7
    68          7
    69         31
    70         37
    71        375
    72         25
    73         33
    74         14
    75          6
    76          1
    77          0
    78          5
    79         23
    80          1
    81          1
    85          1
    86          0
    87         17
    88          0
    89          1
    91          0
    92          0
    93          2
    99          0
   100          0
   101          8
   102         13
   103         13
   104          1
   105          0
   106          0
   107          8
   108         60
   109          4
   110          5
   120          0
   121          1
   135          1
   136         12
   137          1
   138          1
   176          0
   177          5
   178        122
   179         17
   180         12
   181          1
   182          0