##TITLE=Library Entry 5565
##JCAMP-DX=Revision 4.10 
##DATA TYPE=MASS SPECTRUM
##SAMPLE DESCRIPTION=H.J. MOECKEL & J. WEISS, HAHN-MEITNER-INST. BERLIN, W.
 G
##NAMES=HP
##CAS NAME=Disulfide, ethyl isopentyl
##MOLFORM=C7H16S2
##CAS REGISTRY NO=72437-60-6
##MP= -300
##BP= -300
##MW= 164
##$RETENTION INDEX=1177
##$CONDENSED SPECTRUM=NO
##NPOINTS= 93
##XYDATA=(XY..XY) 1 
    15         10
    24          0
    25          1
    26         22
    27        282
    29        365
    30         12
    33          2
    34          3
    35         23
    36          0
    37          2
    38          6
    39        100
    40         10
    41        291
    42         67
    43        999
    44         54
    45         59
    46         26
    47         38
    48          1
    49          1
    50          2
    51          4
    52          2
    53         19
    54          7
    55        120
    56         23
    57         11
    58         14
    59         37
    60         17
    61         20
    62          3
    63          2
    64         13
    65         10
    66         46
    67          8
    68          8
    69         22
    70         21
    71        243
    72         14
    73          1
    74          3
    75          2
    76          0
    77          0
    78          3
    79         25
    80          1
    81          2
    82          0
    84          0
    85          2
    86          0
    87         18
    88          1
    89          3
    90          1
    91          0
    92          1
    93         23
    94        100
    95          6
    96          8
    97          0
    98          0
    99          0
   100          0
   101          5
   102          8
   103          3
   104          0
   105          0
   106          0
   107          5
   108          0
   109          0
   120          0
   121          1
   146          0
   162          0
   163          5
   164        136
   165         15
   166         12
   167          1
   168          0