##TITLE=Library Entry 5796
##JCAMP-DX=Revision 4.10 
##DATA TYPE=MASS SPECTRUM
##SAMPLE DESCRIPTION=H.J. MOECKEL & J. WEISS, HAHN-MEITNER-INST. BERLIN, W.
 G
##NAMES=HP
##CAS NAME=Propyl n-butyl disulfide
##MOLFORM=C7H16S2
##CAS REGISTRY NO=72437-64-0
##MP= -300
##BP= -300
##MW= 164
##$RETENTION INDEX=1207
##$CONDENSED SPECTRUM=NO
##NPOINTS= 89
##XYDATA=(XY..XY) 1 
    15         13
    24          0
    25          1
    26         25
    27        363
    29        687
    30         16
    33          2
    34          4
    35          6
    36          0
    37          2
    38         10
    39        141
    40         19
    41        722
    42         71
    43        999
    44         38
    45         86
    46         48
    47         83
    48          4
    49          4
    50          1
    51          3
    52          1
    53         13
    54         15
    55         65
    56         57
    57        667
    58         39
    59         20
    60         20
    61          6
    62          1
    63          1
    64         13
    65          6
    66         61
    67          2
    68          5
    69          1
    70          0
    71          2
    72          2
    73         34
    74         18
    75          8
    76          3
    77          1
    78          4
    79         28
    80          2
    81          2
    82          0
    85          1
    86          0
    87         19
    88         17
    89         10
    90          2
    91          0
    92          0
    93          2
    94          0
    95          0
   105          0
   106          0
   107         11
   108        196
   109         11
   110         16
   111          0
   112          0
   121          1
   122         49
   123          3
   124          4
   125          0
   135          0
   162          0
   163          7
   164        214
   165         22
   166         20
   167          1
   168          0