##TITLE=Library Entry 5574
##JCAMP-DX=Revision 4.10 
##DATA TYPE=MASS SPECTRUM
##SAMPLE DESCRIPTION=H.J. MOECKEL & J. WEISS, HAHN-MEITNER-INST. BERLIN, W.
 G
##NAMES=HP
##CAS NAME=n-Butyl n-pentyl disulfide
##MOLFORM=C9H20S2
##CAS REGISTRY NO=72437-52-6
##MP= -300
##BP= -300
##MW= 192
##$RETENTION INDEX=1397
##$CONDENSED SPECTRUM=NO
##NPOINTS= 98
##XYDATA=(XY..XY) 1 
    15         18
    19          2
    21          0
    24          0
    25          0
    26         22
    27        319
    29        853
    30        153
    33          4
    35         10
    36          2
    37          1
    38          4
    39        117
    40         33
    41        549
    42        397
    43        999
    44        493
    45         99
    46         53
    47         88
    48          8
    49          3
    50          1
    51          3
    52          1
    53         22
    54         15
    55        130
    56         49
    57        698
    58        108
    59         43
    60         31
    61         20
    62          2
    63          1
    64         15
    65          7
    66         21
    67         20
    68         14
    69         70
    70         44
    71        463
    72         31
    73         19
    74          7
    75          2
    76          0
    77          0
    78          7
    79         55
    80          2
    81          4
    85          1
    86          2
    87         68
    88         30
    89         20
    90          3
    91          1
    92          1
    93          7
    94          1
    95          0
    99          0
   101         16
   102         20
   103         82
   104          7
   105          3
   106          1
   107          1
   120          0
   121         12
   122        269
   123         17
   124         23
   125          1
   126          0
   135          3
   136         79
   137          7
   138          7
   139          0
   140          0
   149          0
   159          0
   163          0
   191         10
   192        250
   193         34
   194         23
   195          2
   196          0