##TITLE=Library Entry 23109
##JCAMP-DX=Revision 4.10 
##DATA TYPE=MASS SPECTRUM
##SAMPLE DESCRIPTION=H.J. MOECKEL & J. WEISS, HAHN-MEITNER INST. BERLIN, W.
 G
##NAMES=HP
##CAS NAME=Disulfide, (1,1-dimethylethyl)(1-methylpropyl)
##MOLFORM=C8H18S2
##CAS REGISTRY NO=72437-46-8
##MP= -300
##BP= -300
##MW= 178
##$RETENTION INDEX=1153
##$CONDENSED SPECTRUM=NO
##NPOINTS= 77
##XYDATA=(XY..XY) 1 
    15          4
    19          8
    21          0
    26          2
    27         32
    29        238
    30         15
    33          2
    35          2
    37          0
    38          1
    39         39
    41        182
    42         17
    43          4
    45         12
    46          2
    47          6
    48          0
    49          5
    50          1
    51          2
    52          0
    53          7
    54          4
    55         26
    56         44
    57        999
    58         48
    59         22
    60          4
    61          6
    62          0
    63          0
    64          3
    65          1
    66          5
    67          0
    68          0
    71          0
    72          0
    73          5
    74          1
    75          0
    79          1
    85          0
    86          0
    87          4
    88          5
    89          3
    90          0
    91          0
    92          0
    93          2
    94          0
    95          0
   107          3
   108          5
   109          0
   110          0
   120          0
   121          2
   122         63
   123          4
   124          6
   125          0
   126          0
   163          0
   164          2
   165          0
   166          0
   177          1
   178         49
   179          5
   180          4
   181          0
   182          0