##TITLE=Library Entry 23990
##JCAMP-DX=Revision 4.10 
##DATA TYPE=MASS SPECTRUM
##SAMPLE DESCRIPTION=H.J. MOECKEL & J. WEISS, HAHN-MEITNER-INST. BERLIN, W.
 GER
##NAMES=HP
##CAS NAME=Disulfide, butyl (1-methylethyl)
##MOLFORM=C7H16S2
##CAS REGISTRY NO=72437-53-7
##MP= -300
##BP= -300
##MW= 164
##$RETENTION INDEX=1165
##$CONDENSED SPECTRUM=NO
##NPOINTS= 92
##XYDATA=(XY..XY) 1 
    15          7
    19          0
    24          0
    25          0
    26         12
    27        224
    29        381
    30          8
    31          3
    33          1
    34          2
    35          4
    36          0
    37          1
    38          6
    39         93
    40         10
    41        454
    42         39
    43        565
    44         21
    45         41
    46         18
    47         41
    48          1
    49          4
    50          1
    51          2
    52          0
    53          8
    54          5
    55         42
    56         72
    57        999
    58         52
    59         31
    60         12
    61          6
    62          0
    63          0
    64          9
    65          4
    66         31
    67          1
    68          2
    69          0
    70          0
    71          1
    72          0
    73          7
    74          9
    75          6
    76          2
    77          0
    78          1
    79         20
    80          1
    81          1
    82          0
    85          1
    86          0
    87         12
    88          4
    89          9
    90          1
    91          0
    92          0
    93          3
    94          0
    95          0
   103          0
   105          0
   106          0
   107          3
   108         13
   109          1
   110          1
   120          0
   121          4
   122        178
   123         11
   124         15
   125          0
   126          0
   135          0
   162          0
   163          3
   164        167
   165         16
   166         14
   167          1
   168          0