##TITLE=Library Entry 40544
##JCAMP-DX=Revision 4.10 
##DATA TYPE=MASS SPECTRUM
##SAMPLE DESCRIPTION=K. KURODA, DEP. APPL. CHEM., WASEDA UNIV., TOKYO, JA
##NAMES=HP
##CAS NAME=3,3,5-Tributoxy-1,1,1,7,7,7-hexamethyl-5-(trimethylsiloxy)tetrasi
loxane
##MOLFORM=C21H54O7Si5
##CAS REGISTRY NO=72439-86-2
##MP= -300
##BP= -300
##MW= 558
##$RETENTION INDEX=0
##$CONDENSED SPECTRUM=NO
##NPOINTS= 47
##XYDATA=(XY..XY) 1 
    41        628
    42         40
    43         14
    44         54
    45         31
    55        102
    57        565
    58         27
    59         41
    73        999
    74         89
    75         73
    87         20
    89         28
   147         62
   148         13
   193         10
   221         12
   251         12
   253         15
   267         40
   268         10
   269         14
   325         56
   327        294
   328         81
   329         62
   330         10
   341        199
   342         80
   343        275
   344         80
   345         49
   346         13
   355         10
   371         16
   375         19
   399         15
   401         11
   429         18
   475         13
   485        113
   486         52
   487         40
   488         13
   543         26
   544         10