##TITLE=Library Entry 17195
##JCAMP-DX=Revision 4.10 
##DATA TYPE=MASS SPECTRUM
##SAMPLE DESCRIPTION=V.A.Korolev, Moscow, Russia
##NAMES=HP
##CAS NAME=4-Amino-3-(methylsulfanyl)thieno[3,2-d][1,2]thiazole-5-carbonitri
le
##MOLFORM=C7H5N3S3
##CAS REGISTRY NO=72436-92-1
##MP= -300
##BP= -300
##MW= 227
##$RETENTION INDEX=0
##$CONDENSED SPECTRUM=NO
##NPOINTS= 143
##XYDATA=(XY..XY) 1 
    33         40
    34         40
    36         27
    37         19
    38        201
    39        122
    40        198
    41         38
    42        124
    43         60
    44        550
    45        999
    46        266
    47        219
    48        106
    49         32
    50         18
    51         41
    52         59
    53         62
    54         24
    55         15
    56         78
    57        187
    58         77
    59         83
    60        172
    61          7
    62         57
    63         15
    64        178
    65         39
    66        138
    67         23
    68         71
    69        100
    70        746
    71        181
    72        105
    73        123
    74         31
    76         90
    77        176
    78         42
    79         24
    80         23
    81         13
    82        258
    83        221
    84        592
    85         38
    86         26
    88         67
    89         12
    90         20
    91        138
    92         17
    93         16
    94        239
    95         61
    96         37
    97         51
    98         35
   100         64
   101         10
   102         26
   103         16
   104         29
   105         12
   106         38
   107         14
   108         16
   109        265
   110         23
   111         18
   112          5
   114         89
   115         17
   116         15
   117          3
   118          8
   119          2
   120          8
   121         67
   122         16
   123          9
   124         33
   125          3
   126         26
   127          5
   128          5
   129          8
   130          6
   132          2
   135          8
   136         54
   137          3
   138         20
   139          2
   140          4
   141         16
   142          6
   143          5
   146          2
   147          1
   148         19
   149          9
   150          4
   153         28
   154         36
   155         12
   156          7
   157          4
   158          7
   162          8
   163         14
   164          2
   166          4
   167         14
   168        230
   169         24
   170         20
   180        204
   181         89
   182         32
   183          7
   185         27
   187          5
   193          2
   194         74
   195         15
   196          6
   200          2
   201          5
   212        176
   213         15
   214         22
   226          2
   227        435
   228         55
   229         63
   230          7
   231          3