##TITLE=Library Entry 2341
##JCAMP-DX=Revision 4.10 
##DATA TYPE=MASS SPECTRUM
##SAMPLE DESCRIPTION=H.J. MOECKEL & J. WEISS, HAHN-MEITNER-INST. BERLIN, W.
 GER
##NAMES=HP
##CAS NAME=Disulfide, isopentyl methyl
##MOLFORM=C6H14S2
##CAS REGISTRY NO=72437-56-0
##MP= -300
##BP= -300
##MW= 150
##$RETENTION INDEX=1102
##$CONDENSED SPECTRUM=NO
##NPOINTS= 86
##XYDATA=(XY..XY) 1 
    15         60
    24          0
    25          3
    26         68
    27        611
    29        627
    30         13
    33          6
    34          5
    35         11
    37          9
    38         57
    39        380
    40         93
    41        999
    42        294
    43        999
    44        183
    45        405
    46        152
    47        174
    48         16
    49         18
    50         13
    51         23
    52         11
    53         71
    54         37
    55        325
    56         49
    58         37
    59         71
    60         35
    61         31
    62          3
    63         16
    64         83
    65         16
    66         10
    67         18
    68         13
    69         57
    70         85
    71        549
    72         31
    73          6
    74          7
    75          2
    76          1
    77          4
    78         39
    79        211
    80        329
    81         31
    82         29
    83          1
    84          2
    85          7
    86          5
    87         58
    88          3
    89          1
    91          0
    92          8
    93         60
    95          3
    97          0
    99          0
   100          0
   101         10
   102         11
   103          5
   104          1
   105          0
   106          2
   107          7
   108          0
   109          0
   117          0
   148          1
   149         31
   150        467
   151         52
   152         43
   153          4
   154          1