##TITLE=Library Entry 81249
##JCAMP-DX=Revision 4.10 
##DATA TYPE=MASS SPECTRUM
##SAMPLE DESCRIPTION=Chemical Concepts
##NAMES=HP
##CAS NAME=L-Alanine, N-benzoyl-, methyl ester
##MOLFORM=C11H13NO3
##CAS REGISTRY NO=7244-67-9
##MP= -300
##BP= -300
##MW= 207
##$RETENTION INDEX=0
##$CONDENSED SPECTRUM=NO
##NPOINTS= 64
##XYDATA=(XY..XY) 1 
    26          1
    27          5
    28          9
    29          2
    30          0
    31          1
    38          0
    39          3
    40          0
    41          1
    42          8
    43          2
    44          2
    45          0
    49          0
    50         14
    51         50
    52          0
    53          0
    56          0
    57          1
    58          0
    59          6
    60          0
    61          0
    62          0
    63          0
    64          0
    65          1
    70          1
    71          0
    72          0
    73          0
    74          5
    75          5
    76         10
    77        218
    78         17
    79          1
    86          1
    91          1
    92          0
   102          3
   103          1
   104          3
   105        999
   106         78
   107          2
   118          0
   119          0
   120          0
   121          0
   132          0
   141          0
   142          0
   146          1
   147          1
   148        261
   149         26
   150          1
   175          0
   176          2
   207         10
   208          1