##TITLE=Library Entry 485
##JCAMP-DX=Revision 4.10 
##DATA TYPE=MASS SPECTRUM
##SAMPLE DESCRIPTION=NIST Mass Spectrometry Data Center, 1994
##NAMES=HP
##CAS NAME=Butyl 4-nitrophenyl ether
##MOLFORM=C10H13NO3
##CAS REGISTRY NO=7244-78-2
##MP= -300
##BP= -300
##MW= 195
##$RETENTION INDEX=0
##$CONDENSED SPECTRUM=NO
##NPOINTS= 91
##XYDATA=(XY..XY) 1 
    12          2
    14          3
    15         31
    16          3
    17          2
    18          5
    26         49
    27        329
    28        119
    29        999
    30        306
    37         16
    38         93
    39        336
    40         16
    41        823
    42         35
    43         10
    44          2
    46         16
    50        141
    51         58
    52         33
    53         66
    54         23
    55         90
    56        448
    57        416
    58         16
    61         11
    62         50
    63        198
    64        136
    65        201
    66         19
    67          3
    68         10
    69          2
    73          1
    74         24
    75         84
    76        104
    77         22
    78         21
    79         18
    80         13
    81         86
    82         12
    89          4
    90          2
    91         22
    92         40
    93        102
    94         22
    95          2
    96          2
   103          1
   105          3
   106         14
   107         28
   108          1
   109        415
   110         30
   111          3
   115          1
   118          2
   119          5
   120          5
   121          1
   122         30
   123        142
   124         28
   125          3
   131          2
   133          3
   134          2
   135          1
   139        487
   140        364
   141         27
   142          3
   148          3
   149          3
   152         21
   153          1
   165          3
   166          3
   179          4
   195        193
   196         23
   197          2