##TITLE=Library Entry 13173
##JCAMP-DX=Revision 4.10 
##DATA TYPE=MASS SPECTRUM
##SAMPLE DESCRIPTION=MASS SPECTRA OF ORGANIC COMPOUNDS, CSIRO, B.H. KENNETT
 ET AL
##NAMES=HP
##CAS NAME=2H-1-Benzopyran, 3,5,8,8a-tetrahydro-2,5,5,8a-tetramethyl-
##MOLFORM=C13H20O
##CAS REGISTRY NO=72468-40-7
##MP= -300
##BP= -300
##MW= 192
##$RETENTION INDEX=0
##$CONDENSED SPECTRUM=NO
##NPOINTS= 89
##XYDATA=(XY..XY) 1 
    26         10
    27        140
    29        150
    30         10
    38         10
    39        170
    41        280
    42         40
    43        999
    45         30
    50         10
    51         60
    52         20
    53         90
    54         20
    55        140
    56         20
    57        100
    58         10
    59         10
    63         30
    64         20
    65         80
    66         20
    67         80
    68         10
    69         80
    70         10
    71         20
    72         10
    75         20
    77        130
    78         40
    79        110
    80         40
    81         60
    82         20
    83         20
    89         20
    91        200
    92         30
    93         90
    94         20
    95         60
   103         30
   104         10
   105        120
   106         30
   107        170
   108         30
   109         40
   110         10
   111         10
   115         60
   116         30
   117         80
   118         30
   119         70
   120         20
   121         60
   122         20
   123         60
   124         60
   125         10
   127         10
   128         20
   129         20
   130         10
   131         50
   132         30
   133        360
   134         50
   141         10
   142         10
   143         20
   144         20
   145         20
   146         20
   147         20
   148         20
   149         70
   150         40
   151         40
   152         10
   177        620
   178         90
   179         10
   192        170
   193         30