##TITLE=Library Entry 51958
##JCAMP-DX=Revision 4.10 
##DATA TYPE=MASS SPECTRUM
##SAMPLE DESCRIPTION=NIST Mass Spectrometry Data Center, 1994
##NAMES=HP
##CAS NAME=Propanenitrile, 3-(propylamino)-
##MOLFORM=C6H12N2
##CAS REGISTRY NO=7249-87-8
##MP= -300
##BP= -300
##MW= 112
##$RETENTION INDEX=0
##$CONDENSED SPECTRUM=NO
##NPOINTS= 46
##XYDATA=(XY..XY) 1 
     4          0
    14         12
    15         55
    16          1
    18          8
    25          3
    26         44
    27        218
    28        305
    29         79
    30        530
    31          8
    32          1
    34          2
    37          5
    38         16
    39        106
    40         52
    41        223
    42        894
    43        211
    44         73
    45          2
    50          2
    51         12
    52         36
    53          2
    54        352
    55         28
    56        106
    57         17
    58          3
    66          3
    67          6
    68         16
    69         14
    70         89
    71          3
    72        419
    73         20
    81          8
    83        999
    84         50
   111          8
   112         35
   113          2