##TITLE=Library Entry 99574
##JCAMP-DX=Revision 4.10 
##DATA TYPE=MASS SPECTRUM
##SAMPLE DESCRIPTION=V.Zaikin,Inst.Petrochem.Synth.,RAS,Moscow
##NAMES=HP
##CAS NAME=m-Toluic acid, allyl ester
##MOLFORM=C11H12O2
##CAS REGISTRY NO=7250-12-6
##MP= -300
##BP= -300
##MW= 176
##$RETENTION INDEX=0
##$CONDENSED SPECTRUM=NO
##NPOINTS= 93
##XYDATA=(XY..XY) 1 
    25          2
    26         16
    27         35
    28          3
    29         21
    30          3
    38         32
    39        165
    40         32
    41        123
    42          7
    43         24
    44          5
    49          4
    50         38
    51         58
    52         30
    53         17
    54          3
    55         12
    56          5
    57         16
    58          6
    59         12
    60          3
    61         12
    62         31
    63         76
    64         26
    65        180
    66         10
    67          4
    68          3
    69         16
    70          3
    71          3
    73          3
    74         11
    75         10
    76          6
    77         29
    78          9
    79         33
    80          6
    81          6
    82          2
    83          4
    84          3
    85          7
    86          8
    87          6
    88          5
    89         68
    90         52
    91        730
    92         96
    93         11
    95          5
    97          3
   103          4
   104          2
   105         18
   106          3
   107         10
   108          5
   109          4
   113          3
   115         13
   116          9
   117         25
   118         25
   119        999
   120        142
   121         11
   123          3
   127          2
   128          2
   129          4
   130          4
   131         48
   132          8
   133          7
   134          4
   135         21
   136        204
   137         19
   148          4
   158          3
   161         18
   162          2
   175          5
   176        143
   177         18