##TITLE=Library Entry 556
##JCAMP-DX=Revision 4.10 
##DATA TYPE=MASS SPECTRUM
##SAMPLE DESCRIPTION=TNO Volatile Compounds in Food - Chemical Concepts
##NAMES=HP
##CAS NAME=2-Butene, 1,4-diethoxy-
##MOLFORM=C8H16O2
##CAS REGISTRY NO=7250-85-3
##MP= -300
##BP= -300
##MW= 144
##$RETENTION INDEX=0
##$CONDENSED SPECTRUM=NO
##NPOINTS= 53
##XYDATA=(XY..XY) 1 
    20          7
    21          6
    24          2
    25         20
    26         93
    27        713
    29        999
    30         40
    31        702
    34          3
    36          4
    37         17
    38         34
    39        305
    40          9
    41        436
    42        258
    43        536
    44        188
    45         70
    47         61
    49         11
    50          2
    51         20
    52         14
    53         57
    54        131
    55         42
    56          8
    57        820
    58         31
    59         88
    60          5
    66          1
    67          5
    68         10
    69        273
    70        653
    71        186
    72         62
    73          7
    75          9
    79          5
    80          2
    83         56
    85        158
    86         12
    87          4
    98        336
    99         34
   100          4
   101          0
   103          3