##TITLE=Library Entry 71864
##JCAMP-DX=Revision 4.10 
##DATA TYPE=MASS SPECTRUM
##SAMPLE DESCRIPTION=Insect Chem. Ecol. Lab., USDA, Beltsville, MD 20705
##NAMES=HP
##CAS NAME=Chloroethyl hexyl ether
##MOLFORM=C8H17ClO
##CAS REGISTRY NO=72504-92-8
##MP= -300
##BP= -300
##MW= 164
##$RETENTION INDEX=0
##$CONDENSED SPECTRUM=NO
##NPOINTS= 101
##XYDATA=(XY..XY) 1 
    41        469
    42        371
    43        860
    44         55
    45         58
    46          1
    47          5
    48          6
    49         51
    50         15
    51         28
    52          8
    53         34
    54         19
    55        271
    56         68
    57         65
    58          7
    59         16
    60        204
    61         54
    62        602
    63        470
    64        206
    65        156
    66          6
    67         18
    68         19
    69        134
    70        111
    71        276
    72         19
    73        143
    74         21
    75          6
    76          2
    77          8
    78          3
    79          9
    80         11
    81         18
    82          7
    83         25
    84          7
    85         14
    86        193
    87        139
    88          9
    89          5
    91          7
    93          5
    94          1
    95         10
    96          8
    97        103
    98         33
    99        999
   100         69
   101         14
   105          6
   106          1
   107         32
   108          3
   109         15
   110          1
   111          8
   112          1
   113          4
   114         20
   115         51
   116         10
   117         36
   118          4
   119          3
   120          1
   121          7
   122        310
   123         28
   124        105
   125         11
   126          1
   128          1
   129         59
   130          5
   131          3
   133          5
   135        168
   136         13
   137         55
   138          7
   139          1
   148          2
   149         47
   150          7
   151         17
   152          3
   163          1
   164         15
   165          1
   166          5
   167          2