##TITLE=Library Entry 12246
##JCAMP-DX=Revision 4.10 
##DATA TYPE=MASS SPECTRUM
##SAMPLE DESCRIPTION=Chemical Concepts
##NAMES=HP
##CAS NAME=3-Buten-1-ol, 3-(bromomethyl)-2-methylene-, acetate
##MOLFORM=C8H11BrO2
##CAS REGISTRY NO=72525-26-9
##MP= -300
##BP= -300
##MW= 218
##$RETENTION INDEX=0
##$CONDENSED SPECTRUM=NO
##NPOINTS= 114
##XYDATA=(XY..XY) 1 
    26         11
    27         59
    28          7
    29         23
    30          2
    31         10
    36          3
    37          9
    38         33
    39        267
    40        110
    41        207
    42         32
    43        999
    44         67
    45         11
    49          2
    50         24
    51         64
    52         72
    53         68
    54         10
    55         34
    56          4
    57         20
    58          1
    60          2
    61         11
    62          7
    63         18
    64          6
    65         79
    66         40
    67        128
    68         46
    69         51
    70          4
    71          3
    73          6
    74          2
    75          2
    76          2
    77        252
    78         58
    79        185
    80         30
    81         46
    82          5
    83          9
    84          1
    85          2
    89          0
    91          7
    92          1
    93          6
    94          3
    95        107
    96         47
    97        738
    98         57
    99          5
   103          1
   104          1
   105          4
   107          1
   108          1
   109          6
   110          2
   111          9
   112          1
   113          1
   115          2
   116          1
   117          3
   118          1
   119          6
   120          1
   121          7
   122          1
   123          1
   124          0
   125          1
   126          0
   127          1
   128          3
   129          3
   130          2
   131          2
   132          2
   133          1
   134          0
   135          1
   136          1
   137          1
   138          1
   139        830
   140         82
   141         11
   142          3
   155          2
   156          1
   157          2
   158         14
   159          6
   160         13
   161          4
   176         17
   177          1
   178         17
   179          1
   180          0
   218          1
   219          0
   220          0