##TITLE=Library Entry 91235
##JCAMP-DX=Revision 4.10 
##DATA TYPE=MASS SPECTRUM
##SAMPLE DESCRIPTION=LAC, NIDDK, NIH, Bethesda, MD 20892
##NAMES=HP
##CAS NAME=5-Bromoindole-2-carboxylic acid
##MOLFORM=C9H6BrNO2
##CAS REGISTRY NO=7254-19-5
##MP= -300
##BP= -300
##MW= 239
##$RETENTION INDEX=0
##$CONDENSED SPECTRUM=NO
##NPOINTS= 62
##XYDATA=(XY..XY) 1 
    41          8
    43         38
    44         24
    45         38
    49         10
    50         65
    51         45
    52         33
    53          6
    57        158
    58         46
    61         59
    62        183
    63        136
    64         52
    65         18
    71         30
    73          8
    74         31
    75         32
    76         31
    77         15
    85         31
    86         66
    87        162
    88        207
    89         52
    90          3
    91         28
    97         66
    98         12
   103         13
   105         20
   110         33
   111         74
   112        117
   114        999
   115        102
   116          9
   117         17
   119         21
   120          3
   121          3
   133         11
   141         14
   142         60
   143          9
   144          3
   167         86
   169         81
   193         72
   194         24
   195         69
   196         16
   221        929
   222         78
   223        945
   224         88
   239        433
   240         34
   241        445
   242         35