##TITLE=Library Entry 83640
##JCAMP-DX=Revision 4.10 
##DATA TYPE=MASS SPECTRUM
##SAMPLE DESCRIPTION=J.Martin, J.Agr.Food Chem.,36,1257(1988)
##NAMES=HP
##CAS NAME=2-Methyl-2-bornene
##MOLFORM=C11H18
##CAS REGISTRY NO=72540-93-3
##MP= -300
##BP= -300
##MW= 150
##$RETENTION INDEX=994
##$CONDENSED SPECTRUM=NO
##NPOINTS= 33
##XYDATA=(XY..XY) 1 
    42        130
    43        226
    44         90
    49         92
    51        137
    53        188
    54         76
    55        193
    56        121
    57        103
    65        157
    67        289
    68         87
    69        294
    77        260
    78        130
    79        986
    80        130
    81        108
    82         96
    91        534
    92        157
    93        758
    94        592
    95        356
   105        134
   106        184
   107        999
   108        206
   121        244
   122         85
   135        444
   150        215