##TITLE=Library Entry 20471
##JCAMP-DX=Revision 4.10 
##DATA TYPE=MASS SPECTRUM
##SAMPLE DESCRIPTION=Div. of Experiment Therapeutics WRAIR, WRAMC, Washingto
n DC 20307
##NAMES=HP
##CAS NAME=Androst-5-ene-17-carboxylic acid, 3-hydroxy-, methyl ester, (3.be
ta.,17.beta.)-
##MOLFORM=C21H32O3
##CAS REGISTRY NO=7254-03-7
##MP= -300
##BP= -300
##MW= 332
##$RETENTION INDEX=0
##$CONDENSED SPECTRUM=NO
##NPOINTS= 195
##XYDATA=(XY..XY) 1 
    41        883
    43        666
    44         40
    45        134
    47         77
    49         44
    51         20
    53        346
    55        999
    57        276
    59        325
    60         30
    61         21
    65        146
    67        539
    68         40
    69        243
    71        111
    73         57
    74         27
    77        411
    79        896
    81        570
    82         85
    83         59
    84         27
    85          3
    86         12
    87        224
    88         39
    91        742
    93        782
    94         79
    95        371
    96         25
    97        103
    98         12
    99         54
   100         72
   101         13
   103         83
   105        701
   107        793
   108        158
   109        183
   110         47
   111         43
   113         26
   115        146
   117        269
   118         83
   119        326
   120        214
   121        306
   122         78
   123         90
   124        125
   125        110
   127         62
   128         77
   129        118
   131        315
   133        482
   134        124
   135        141
   136         68
   137         63
   138         32
   139         28
   141         74
   142         42
   143        167
   144         31
   145        415
   147        299
   148         30
   149        108
   150         15
   151         41
   152         46
   153         56
   154         12
   155         52
   157        122
   158         26
   159        232
   160         63
   161        643
   163        143
   164         11
   165         40
   166         26
   167         30
   169         49
   171        101
   172         15
   173        139
   174         20
   175         92
   176         23
   177         23
   178         27
   179         31
   181         18
   183         66
   185         88
   186         15
   187        120
   189        191
   190         16
   191         42
   192         22
   193         79
   195         36
   197         70
   198         10
   199         86
   200         19
   201         26
   202         20
   203         27
   204         12
   205         16
   206         45
   207         36
   208         33
   209         29
   210         20
   211         25
   212         11
   213        139
   214         16
   215         98
   217         21
   218         11
   220        107
   221        224
   222         42
   223         11
   225         48
   227         38
   228         33
   229         41
   231         52
   232         12
   233         21
   235         20
   237         25
   239        191
   240         43
   241         12
   243         45
   244         11
   245         43
   246         50
   247        285
   248         49
   249         33
   251         12
   253         42
   254         33
   255         72
   257         69
   259         49
   260         32
   261         26
   267         84
   268         13
   269         27
   271         38
   272         80
   273         55
   275         59
   276         11
   283         12
   285         51
   286         26
   287         13
   288         53
   289         33
   297         24
   299        257
   300         63
   301         77
   313         32
   314        286
   315         86
   317        141
   318         30
   329         29
   330         87
   331         26
   332        370
   333         94
   334         21