##TITLE=Library Entry 77609
##JCAMP-DX=Revision 4.10 
##DATA TYPE=MASS SPECTRUM
##SAMPLE DESCRIPTION=ORMSBG,14(6)299(1979); T. RADFORD ET AL.
##NAMES=HP
##CAS NAME=2H-1-Benzopyran-4,7-diol, 3,4-dihydro-2-phenyl-
##MOLFORM=C15H14O3
##CAS REGISTRY NO=72594-23-1
##MP= -300
##BP= -300
##MW= 242
##$RETENTION INDEX=0
##$CONDENSED SPECTRUM=NO
##NPOINTS= 21
##XYDATA=(XY..XY) 1 
    77        142
    78        140
    91         95
   103        148
   104        999
   105        485
   115         73
   123         68
   136         53
   137        918
   138        670
   139         95
   147        495
   152         91
   165        108
   223        775
   224        860
   225        177
   226         91
   242        652
   243        135