##TITLE=Library Entry 30446
##JCAMP-DX=Revision 4.10 
##DATA TYPE=MASS SPECTRUM
##SAMPLE DESCRIPTION=NIST Mass Spectrometry Data Center, 1994
##NAMES=HP
##CAS NAME=Tetramethyl bicyclo[2.2.2]-7-octene-2,3,5,6-tetracarboxylate
##MOLFORM=C16H20O8
##CAS REGISTRY NO=72598-54-0
##MP= -300
##BP= -300
##MW= 340
##$RETENTION INDEX=0
##$CONDENSED SPECTRUM=NO
##NPOINTS= 151
##XYDATA=(XY..XY) 1 
    15        355
    16         17
    18          0
    26          0
    28         20
    29         18
    30          8
    32          1
    33          8
    38          5
    39         69
    40          7
    41         27
    42         13
    43          1
    44          4
    45         19
    47          9
    50         22
    51         88
    52         58
    53         50
    54         21
    55         67
    56          4
    57         12
    58          1
    59        999
    60         28
    62          5
    63         20
    64          7
    65         50
    66          8
    67          7
    68          7
    69         13
    71          6
    74         49
    75         39
    77        438
    78        342
    79         49
    81         10
    82         13
    83         11
    84          6
    85        146
    86         16
    87         10
    89         15
    91        347
    92         78
    93        412
    94         35
    95         13
    98         15
    99         27
   101         26
   102         47
   103        176
   104         10
   105        287
   106         30
   107          6
   108          8
   109         24
   111         20
   113        570
   114        123
   115         44
   116         15
   117         40
   118         23
   119         25
   120         27
   121         61
   122          8
   123          5
   129         20
   130         22
   131        168
   132         26
   133         44
   134         13
   135         33
   136         84
   137        351
   138         32
   139         25
   145        103
   146         34
   147         17
   148          6
   149         10
   150          6
   151         45
   152          6
   157         23
   158         14
   159         13
   160          6
   161        145
   162         56
   163        340
   164         58
   165          7
   173         13
   175          6
   176          6
   177         41
   178          6
   179        198
   180         19
   181         10
   183          7
   188         68
   189        351
   190         56
   191         10
   193         15
   195         46
   196         32
   197          5
   201          5
   205         15
   216        151
   217         46
   218          6
   219          6
   220        146
   221        199
   222         29
   248        317
   249        329
   250         53
   251          7
   261         35
   276        115
   277         21
   280         20
   281         87
   282         11
   293          9
   308        118
   309        437
   310         75
   311         13
   340         79
   341         14
   342          1