##TITLE=Library Entry 25986
##JCAMP-DX=Revision 4.10 
##DATA TYPE=MASS SPECTRUM
##SAMPLE DESCRIPTION=NIST Mass Spectrometry Data Center, 1998.
##NAMES=HP
##CAS NAME=Serricornin
##MOLFORM=C11H22O2
##CAS REGISTRY NO=72598-35-7
##MP= -300
##BP= -300
##MW= 186
##$RETENTION INDEX=0
##$CONDENSED SPECTRUM=NO
##NPOINTS= 93
##XYDATA=(XY..XY) 1 
    15          4
    26          7
    27        100
    28         40
    29        309
    30         13
    31         94
    38          3
    39         98
    40         21
    41        333
    42         96
    43        290
    44         12
    45         91
    46          2
    50          4
    51          9
    52          4
    53         64
    54         15
    55        466
    56        111
    57        999
    58         80
    59        176
    60          7
    63          3
    65         16
    66          6
    67         72
    68         22
    69        620
    70        538
    71        155
    72          8
    73         16
    74          5
    75        160
    76          5
    77         16
    78          3
    79         23
    80          4
    81         28
    82         28
    83        267
    84         44
    85         71
    86        954
    87        128
    88          6
    91          8
    93         10
    94          1
    95         30
    96          5
    97         57
    98         13
    99        289
   100         21
   101         16
   105          4
   107          6
   108          1
   109         11
   110         12
   111        257
   112         57
   113          6
   115          5
   121         26
   122          4
   123          5
   124          1
   125         63
   126          8
   127         65
   128          6
   135          2
   137          2
   139        146
   140         14
   144         41
   145          4
   150          4
   151          3
   153         16
   157         27
   158          3
   167          3
   168        115
   169         20