##TITLE=Library Entry 14841
##JCAMP-DX=Revision 4.10 
##DATA TYPE=MASS SPECTRUM
##SAMPLE DESCRIPTION=LAC, NIDDK, NIH, Bethesda, MD 20892
##NAMES=HP
##CAS NAME=Allopregnane-3.beta.,11.alpha.-diol-20-one diacetate
##MOLFORM=C25H38O5
##CAS REGISTRY NO=72597-76-3
##MP= -300
##BP= -300
##MW= 418
##$RETENTION INDEX=0
##$CONDENSED SPECTRUM=NO
##NPOINTS= 211
##XYDATA=(XY..XY) 1 
    41         55
    43        999
    44          6
    45         17
    47          4
    48          1
    49         22
    51          9
    53         19
    55         76
    57         13
    58          8
    59          0
    60          0
    61         23
    65          7
    67         58
    69         36
    71         58
    73          2
    77         25
    79         81
    80          5
    81        112
    83         17
    84         27
    85         36
    86          6
    87          0
    88          2
    91         72
    92         11
    93         68
    95         88
    97         17
    98          1
    99          4
   100          1
   103          3
   104          2
   105         79
   106         43
   107         80
   108         38
   109         36
   111          7
   112          0
   113          1
   115          4
   116          1
   117         22
   118         23
   119         36
   120         30
   121         29
   122         23
   123         14
   125         18
   127          1
   128          5
   129          6
   130          8
   131         47
   132         26
   133         42
   134          8
   135         22
   136          8
   137          8
   138          1
   139          1
   141          4
   142          4
   143         20
   144         16
   145         42
   146         12
   147         42
   148          2
   149         33
   151          5
   152          0
   153          1
   154          0
   155          4
   156          1
   157         21
   158          3
   159         35
   160          3
   161         32
   162          5
   163          6
   164          0
   165          1
   166          0
   167          2
   168          0
   169          5
   170          5
   171         15
   172          9
   173         14
   174          2
   175         10
   176          7
   177          8
   178          1
   179          2
   181          2
   183          4
   184          1
   185         11
   186          7
   187          9
   188          2
   189         14
   190         10
   191          5
   192          4
   193          3
   194          3
   195          1
   196          1
   197          9
   198          3
   199          9
   200          2
   201          3
   202          6
   203          5
   204          3
   205          3
   206          0
   207          6
   209          5
   211         10
   213         68
   214         13
   215          9
   216          0
   217          1
   220          0
   223          3
   224          2
   225          5
   226          1
   227          8
   228          6
   229          6
   230          0
   231          0
   237          1
   238          0
   239          3
   240          6
   241          5
   242          2
   243          1
   244          3
   245          0
   251          2
   252          0
   253          5
   254          1
   255         33
   256          9
   257         10
   259          1
   263          2
   265         17
   266          3
   269          2
   270          1
   271          3
   272          3
   273          3
   274          5
   275          1
   280          3
   281          9
   283         35
   284          8
   285         10
   286          0
   287          4
   288          5
   289          1
   296          4
   297          3
   298         21
   299         11
   300          5
   301          1
   312          1
   313          3
   314          4
   315         10
   316          2
   325          3
   331          0
   340          4
   341          1
   343          9
   344          2
   356         10
   358        126
   359         31
   360          4
   374          2
   375          0