##TITLE=Library Entry 90172
##JCAMP-DX=Revision 4.10 
##DATA TYPE=MASS SPECTRUM
##SAMPLE DESCRIPTION=Japan AIST/NIMC Database- Spectrum MS-NW-7631
##NAMES=HP
##CAS NAME=2-Isobutyl-5-methylthiazole
##MOLFORM=C8H13NS
##CAS REGISTRY NO=72611-71-3
##MP= -300
##BP= -300
##MW= 155
##$RETENTION INDEX=0
##$CONDENSED SPECTRUM=NO
##NPOINTS= 91
##XYDATA=(XY..XY) 1 
    15          8
    26          6
    27         57
    28         18
    29         20
    32          3
    37          3
    38          8
    39         84
    40         10
    41         80
    42         33
    43         93
    44          5
    45        108
    46          9
    47          9
    50          2
    51          4
    52          5
    53          9
    54          7
    55          9
    56          6
    57          9
    58          7
    59         14
    60          3
    61          2
    62          1
    63          1
    64          2
    65          3
    66          5
    67          5
    68         63
    69         15
    70          7
    71        166
    72        206
    73         77
    74         12
    75          5
    76          1
    77          2
    78          2
    79          2
    80          3
    81          1
    82          3
    83          1
    84          3
    85         17
    86          2
    87          1
    91          1
    93          1
    94          2
    97          9
    98          5
    99          6
   100          6
   101          1
   106          2
   107          2
   110          2
   111          7
   112        160
   113        999
   114         77
   115         48
   116          3
   117          2
   124          2
   125          2
   126          4
   127          2
   129          1
   131          2
   137          1
   138          6
   139          8
   140        136
   141         13
   142          8
   152          1
   153          1
   154         43
   155         52
   156          9
   157          3