##TITLE=Library Entry 15237
##JCAMP-DX=Revision 4.10 
##DATA TYPE=MASS SPECTRUM
##SAMPLE DESCRIPTION=OGDEN BioServices Corp., NCI, Rockville, MD 20852
##NAMES=HP
##CAS NAME=Bactobolin
##MOLFORM=C14H20Cl2N2O6
##CAS REGISTRY NO=72615-20-4
##MP= -300
##BP= -300
##MW= 382
##$RETENTION INDEX=0
##$CONDENSED SPECTRUM=NO
##NPOINTS= 58
##XYDATA=(XY..XY) 1 
    41         15
    42         41
    44        999
    45         29
    49          9
    51          7
    53         12
    54          2
    55         25
    56          7
    57          9
    60         12
    65          6
    67          2
    68          6
    69          7
    70          5
    71         10
    77          9
    78          3
    79          6
    81          7
    82          7
    83         11
    84          7
    85          3
    89         22
    91          2
    95          4
    96          6
   104         20
   106          8
   109          6
   110         11
   111          8
   123          4
   124          1
   130          3
   137         11
   138          6
   139          7
   140          3
   153          4
   155          4
   184          7
   193          9
   211          8
   213          2
   216          4
   260         23
   261          1
   262          9
   276          8
   304          4
   382         19
   383          9
   384         13
   385          7