##TITLE=Library Entry 32746
##JCAMP-DX=Revision 4.10 
##DATA TYPE=MASS SPECTRUM
##SAMPLE DESCRIPTION=T. ANDO,FAC. AGRIC.,TOKYO UNIV. AGRIC. TECHNOL.,TOKYO,J
APAN
##NAMES=HP
##CAS NAME=(6E,8E)-Dodecadienyl acetate
##MOLFORM=C14H24O2
##CAS REGISTRY NO=72648-90-9
##MP= -300
##BP= -300
##MW= 224
##$RETENTION INDEX=0
##$CONDENSED SPECTRUM=NO
##NPOINTS= 34
##XYDATA=(XY..XY) 1 
    41        100
    43        420
    54        220
    55        240
    67        999
    68        150
    69        110
    79        650
    80        370
    81        500
    82        440
    83        100
    91         80
    92         20
    93        480
    94        220
    95        260
    96        400
    97         80
   107        250
   108         90
   109        160
   110         30
   121        650
   122        170
   123         60
   135        350
   136        120
   137         20
   163         40
   164        420
   165         20
   224        510
   225         60