##TITLE=Library Entry 40143
##JCAMP-DX=Revision 4.10 
##DATA TYPE=MASS SPECTRUM
##SAMPLE DESCRIPTION=Drug Lab
##NAMES=HP
##CAS NAME=N-Ethylamphetamine acetate
##MOLFORM=C13H19NO
##CAS REGISTRY NO=72687-64-0
##MP= -300
##BP= -300
##MW= 205
##$RETENTION INDEX=0
##$CONDENSED SPECTRUM=NO
##NPOINTS= 68
##XYDATA=(XY..XY) 1 
    38          1
    39         22
    40          3
    41         21
    42         42
    43        133
    44        123
    45          3
    50          4
    51         17
    52          5
    53          2
    54          3
    55          2
    56         65
    57          5
    58          2
    62          2
    63         11
    64          3
    65         46
    66          3
    68          2
    69          1
    70         16
    71          9
    72        999
    73         48
    74          2
    75          1
    76          2
    77         18
    78          8
    79          4
    85          2
    86          3
    87          1
    88         11
    89         12
    90          5
    91        147
    92         13
    93          1
   102          3
   103         10
   104          4
   105          3
   113          2
   114        622
   115         69
   116          9
   117         50
   118         47
   119         14
   120          2
   130          2
   131          1
   132          2
   133          1
   134         11
   135          2
   146          2
   147          1
   148         14
   149          1
   160          1
   162          6
   205          1