##TITLE=Library Entry 16260
##JCAMP-DX=Revision 4.10 
##DATA TYPE=MASS SPECTRUM
##SAMPLE DESCRIPTION=Dr. Jiri Zamecnik, DCIEM, North York, Canada, GP Librar
y
##NAMES=HP
##CAS NAME=N-Acetyl-3-methoxyamphetamine
##MOLFORM=C12H17NO2
##CAS REGISTRY NO=72687-67-3
##MP= -300
##BP= -300
##MW= 207
##$RETENTION INDEX=0
##$CONDENSED SPECTRUM=NO
##NPOINTS= 24
##XYDATA=(XY..XY) 1 
    42         34
    43        174
    44        999
    45         25
    52          9
    65         21
    77         30
    78         37
    86        143
    89          7
    91         48
   105          6
   107          4
   117         26
   121         44
   122         10
   133          9
   134          2
   148        389
   149         37
   150          5
   164          3
   207         38
   208          5