##TITLE=Library Entry 16259
##JCAMP-DX=Revision 4.10 
##DATA TYPE=MASS SPECTRUM
##SAMPLE DESCRIPTION=Dr. Jiri Zamecnik, DCIEM, North York, Canada, GP Librar
y
##NAMES=HP
##CAS NAME=N-Acetyl-N-desmethylmethoxyphenamine
##MOLFORM=C12H17NO2
##CAS REGISTRY NO=72687-66-2
##MP= -300
##BP= -300
##MW= 207
##$RETENTION INDEX=0
##$CONDENSED SPECTRUM=NO
##NPOINTS= 20
##XYDATA=(XY..XY) 1 
    43        159
    44        999
    56         14
    65         34
    77         29
    78         23
    86        150
    91        152
    92         12
    93         12
   105         14
   107         14
   115         14
   119         18
   121         41
   122         17
   133         14
   148        407
   149         30
   207         12