##TITLE=Library Entry 79358
##JCAMP-DX=Revision 4.10 
##DATA TYPE=MASS SPECTRUM
##SAMPLE DESCRIPTION=Chuck Anderson, Aldrich Chemical Co.
##NAMES=HP
##CAS NAME=2-(Trifluoromethyl)benzophenone
##MOLFORM=C14H9F3O
##CAS REGISTRY NO=727-99-1
##MP= -300
##BP= -300
##MW= 250
##$RETENTION INDEX=0
##$CONDENSED SPECTRUM=NO
##NPOINTS= 89
##XYDATA=(XY..XY) 1 
    26          1
    27         14
    28          3
    29          0
    31          2
    32          0
    37          1
    38          3
    39         10
    49          1
    50         46
    51        120
    52          7
    53          2
    57          6
    61          1
    62          5
    63          7
    68          1
    69          9
    73          2
    74         24
    75         48
    76         31
    77        443
    78         29
    79          1
    81          4
    85          1
    86          3
    87          3
    88          1
    91          1
    93          1
    94          4
    95         40
    96          3
    98          2
    99          8
   100          4
   101          5
   102          0
   104          6
   105        999
   106         77
   107          8
   110          0
   111          2
   115          2
   119          4
   123          1
   125         31
   126         13
   127          3
   133          0
   143          3
   144          4
   145        183
   146         14
   150          3
   151          6
   152          8
   153          2
   157          1
   163          1
   169          0
   170          1
   173        172
   174         14
   175          2
   180          0
   181          6
   182          2
   183          9
   184          0
   199          0
   201          9
   202          1
   211          6
   212          0
   219          0
   222          0
   229          1
   231          7
   232          0
   249          2
   250        147
   251         22
   252          1