##TITLE=Library Entry 5488
##JCAMP-DX=Revision 4.10 
##DATA TYPE=MASS SPECTRUM
##SAMPLE DESCRIPTION=Humboldt-Universitat zu Berlin, Department of Chemistry
, Analytical Group
##NAMES=HP
##CAS NAME=1,3-Dioxane, 5-diazo-2,2-dimethyl-4,6-dioxo-
##MOLFORM=C6H6N2O4
##CAS REGISTRY NO=7270-63-5
##MP= -300
##BP= -300
##MW= 170
##$RETENTION INDEX=0
##$CONDENSED SPECTRUM=NO
##NPOINTS= 83
##XYDATA=(XY..XY) 1 
    12         26
    13          7
    14         26
    15        163
    16          4
    17          3
    18         10
    19          0
    20          0
    21          1
    24          1
    25          4
    26         30
    27         88
    28         72
    29         42
    30          2
    31          3
    32          1
    34          0
    36          0
    37          7
    38         16
    39         74
    40         96
    41         83
    42        106
    43        999
    44         38
    45          9
    46          0
    48          1
    49          0
    50          0
    51          0
    52          0
    53          2
    54          7
    55          9
    56         10
    58         89
    59          4
    60          0
    63          0
    64          0
    65          0
    66          0
    68         63
    69         59
    70         10
    71          0
    77          0
    78          0
    79          0
    81          0
    83          0
    85          3
    87         12
    88          0
    89          0
    91          1
    93          0
    94          1
    95          0
    97          0
    98          2
    99          0
   101          0
   103          0
   107          0
   108          0
   109          0
   111          2
   112          0
   113          1
   126          0
   149          0
   155        120
   156          7
   157          1
   170         52
   171          4
   172          0