##TITLE=Library Entry 3305
##JCAMP-DX=Revision 4.10 
##DATA TYPE=MASS SPECTRUM
##SAMPLE DESCRIPTION=NIST Mass Spectrometry Data Center, 1990.
##NAMES=HP
##CAS NAME=6-Methyl-1,5-heptadiene
##MOLFORM=C8H14
##CAS REGISTRY NO=7270-50-0
##MP= -300
##BP= -300
##MW= 110
##$RETENTION INDEX=0
##$CONDENSED SPECTRUM=NO
##NPOINTS= 33
##XYDATA=(XY..XY) 1 
    15         15
    26         17
    27        161
    28         19
    29         60
    32          1
    37          7
    38         29
    39        287
    40          1
    41        999
    42         42
    43         34
    50         21
    51         47
    52         19
    53        105
    54         32
    55         44
    56         14
    63         15
    65         32
    66        106
    67        195
    68         73
    69        838
    70         45
    77         31
    79         22
    81         26
    91         16
    95         29
   110         85