##TITLE=Library Entry 54573
##JCAMP-DX=Revision 4.10 
##DATA TYPE=MASS SPECTRUM
##SAMPLE DESCRIPTION=Japan AIST/NIMC Database- Spectrum MS-NW-7115
##NAMES=HP
##CAS NAME=2-(Bromomethyl)acrylic acid
##MOLFORM=C4H5BrO2
##CAS REGISTRY NO=72707-66-5
##MP= -300
##BP= -300
##MW= 164
##$RETENTION INDEX=0
##$CONDENSED SPECTRUM=NO
##NPOINTS= 85
##XYDATA=(XY..XY) 1 
    12          1
    13          2
    14          5
    15          9
    16          1
    24          1
    25          7
    26         17
    27         26
    28         21
    29        110
    30          3
    31         31
    32          1
    34          2
    36          7
    37         42
    38         79
    39        499
    40        168
    41        102
    42          6
    43          9
    44         20
    45        125
    46          3
    47          1
    49          1
    50          2
    51          1
    52          1
    53          9
    54          3
    55         13
    56          3
    57         94
    58          3
    59          1
    60          2
    66          2
    67         16
    68         11
    69          2
    71          1
    73          2
    74          2
    75          2
    77          1
    79         12
    80         16
    81         14
    82         15
    83          3
    84          2
    85        999
    86         50
    87          5
    91          1
    92          1
    93         10
    94          1
    95          9
   101          2
   105          1
   107          1
   117          1
   118          6
   119         23
   120          8
   121         23
   122          1
   123          1
   125          1
   136          1
   138          1
   146          2
   147          9
   148          2
   149          8
   151          1
   164        182
   165          9
   166        183
   167          9
   168          1