##TITLE=Library Entry 57934
##JCAMP-DX=Revision 4.10 
##DATA TYPE=MASS SPECTRUM
##SAMPLE DESCRIPTION=Chemical Concepts
##NAMES=HP
##CAS NAME=Heptanedioic acid, 2,4-dimethyl-, dimethyl ester
##MOLFORM=C11H20O4
##CAS REGISTRY NO=72719-04-1
##MP= -300
##BP= -300
##MW= 216
##$RETENTION INDEX=1380
##$CONDENSED SPECTRUM=NO
##NPOINTS= 124
##XYDATA=(XY..XY) 1 
    38          1
    39         74
    40        127
    41        309
    42         66
    43        187
    44         58
    45         44
    46          1
    47          1
    49          0
    50          2
    51          3
    52          3
    53         37
    54         15
    55        518
    56        122
    57        208
    58         11
    59        282
    60          9
    61          5
    62          0
    63         14
    65          7
    66          2
    67         52
    68         23
    69        476
    70         52
    71         20
    72          8
    73        218
    74        140
    75          9
    76          0
    77          6
    78          0
    79         16
    80          3
    81         72
    82         86
    83        455
    84         33
    85         21
    86          3
    87        125
    88        999
    89         47
    90          5
    91          3
    92          1
    93          6
    94          1
    95         33
    96         73
    97        532
    98         62
    99         22
   100          3
   101         97
   102         11
   103          1
   105          1
   106          3
   107         22
   108          4
   109         38
   110         31
   111        143
   112         12
   113         20
   114         54
   115         52
   116         13
   117          0
   119          0
   121          0
   122          0
   123         10
   124         96
   125        261
   126         25
   127         38
   128         21
   129        506
   130         47
   131          4
   133          0
   134          0
   135          1
   137         38
   138          3
   139          8
   140          1
   141         44
   142         33
   143         64
   144          5
   145         15
   146          2
   147          0
   151         11
   152         99
   153         22
   154          2
   155          5
   156         99
   157        173
   158         19
   159          4
   165          0
   166          6
   167          1
   169         39
   170          3
   173          0
   174          2
   183          1
   184         58
   185        111
   186         12
   187          1