##TITLE=Library Entry 85295
##JCAMP-DX=Revision 4.10 
##DATA TYPE=MASS SPECTRUM
##SAMPLE DESCRIPTION=Philip Morris R&D
##NAMES=HP
##CAS NAME=2-(2-Hydroxy-2-p-methoxyphenylethyl)-3-methylpyrazine
##MOLFORM=C14H16N2O2
##CAS REGISTRY NO=72725-81-6
##MP= -300
##BP= -300
##MW= 244
##$RETENTION INDEX=0
##$CONDENSED SPECTRUM=NO
##NPOINTS= 103
##XYDATA=(XY..XY) 1 
    38         13
    39        112
    40         52
    41        117
    42         86
    43         83
    44         11
    45         29
    50         13
    51         36
    52         30
    53         56
    54         23
    55         60
    56         20
    57         48
    59          2
    60         27
    61          8
    62          5
    63         18
    64         22
    65         42
    66         64
    67         70
    68         29
    69         97
    70         16
    71         24
    73         31
    74          6
    75          5
    76          6
    77        159
    78         30
    79         28
    80         22
    81         55
    82         30
    83         27
    84         16
    85         15
    87          6
    89          5
    91         12
    92         30
    93         24
    94        117
    95        186
    96         24
    97         18
    98         10
    99          4
   101          5
   103          3
   105         11
   106          7
   107        101
   108        999
   109        246
   110         22
   111         11
   112          4
   113         14
   114          2
   115          6
   116          5
   119          7
   120          3
   121         15
   122          6
   123         13
   124          3
   125          4
   127          3
   129         11
   134          4
   135        112
   136         47
   137        552
   138         56
   139          6
   140          2
   149          6
   150        418
   151         45
   152          7
   163          3
   171          4
   179          4
   182          2
   185          3
   194          3
   195          3
   199          2
   211          6
   226         21
   227          8
   228          4
   229          7
   243          3
   244         84
   245         13