##TITLE=Library Entry 78772
##JCAMP-DX=Revision 4.10 
##DATA TYPE=MASS SPECTRUM
##SAMPLE DESCRIPTION=Japan AIST/NIMC Database- Spectrum MS-NW-7306
##NAMES=HP
##CAS NAME=S-Benzoyl-N-(O-hydroxybenzylidene)thiohydroxylamine
##MOLFORM=C14H11NO2S
##CAS REGISTRY NO=72732-11-7
##MP= -300
##BP= -300
##MW= 257
##$RETENTION INDEX=0
##$CONDENSED SPECTRUM=NO
##NPOINTS= 109
##XYDATA=(XY..XY) 1 
    17         14
    18          1
    25          1
    26          8
    27         32
    28         31
    29          5
    32          5
    33          2
    34          1
    37         16
    38         34
    39        124
    40          9
    41          7
    42          2
    43          4
    44          2
    45         17
    46          2
    47          1
    48          2
    49          8
    50         91
    51        245
    52         30
    53         21
    54          6
    55          5
    57          3
    58          2
    59          2
    60          6
    61          9
    62         16
    63         56
    64         42
    65         64
    66         21
    67          5
    69         10
    70          5
    71          6
    72          1
    73          4
    74         23
    75         25
    76         30
    77        570
    78         45
    79          4
    80          6
    81         10
    82          4
    83          3
    84          3
    85          2
    88          2
    89          1
    90         20
    91         49
    92         13
    93         21
    94          3
    95          3
    96          6
    97         16
    98          1
    99          2
   102         11
   103          6
   104          4
   105        999
   106         78
   107          7
   108          8
   109          9
   110          2
   111          2
   112          1
   113          1
   117          1
   118          3
   119         21
   120          9
   121         15
   122          5
   123          2
   124          5
   125          7
   134          3
   135          9
   136         38
   137          6
   138          7
   139          4
   140          1
   151          1
   152         10
   153          2
   180          1
   223          1
   224          3
   225         16
   226          4
   257         40
   258          9
   259          2
   260          1