##TITLE=Library Entry 65838
##JCAMP-DX=Revision 4.10 
##DATA TYPE=MASS SPECTRUM
##SAMPLE DESCRIPTION=NIST Mass Spectrometry Data Center
##NAMES=HP
##CAS NAME=(1R,3R,4S,5S)-1-Isopropyl-4-methylbicyclo[3.1.0]hexan-3-yl acetat
e-rel
##MOLFORM=C12H20O2
##CAS REGISTRY NO=72747-24-1
##MP= -300
##BP= -300
##MW= 196
##$RETENTION INDEX=1294
##$CONDENSED SPECTRUM=NO
##NPOINTS= 75
##XYDATA=(XY..XY) 1 
    27         31
    29         33
    30          1
    38          4
    39         81
    40         13
    41        195
    42         21
    43        877
    44         22
    45          7
    50          7
    51         23
    52         15
    53         84
    54         16
    55        142
    56         10
    57         18
    61         12
    62          2
    63         12
    64          3
    65         60
    66         20
    67         96
    68         22
    71         52
    76          1
    77        148
    78         35
    79        279
    80         85
    83         18
    85         10
    86          3
    90          2
    91        603
    92        425
    93        999
    94        198
    95        191
    97          8
    98          3
    99         40
   100          7
   102          1
   103          9
   104          5
   105         66
   106         15
   107        194
   108         98
   110         83
   111         67
   112          9
   113          6
   116          1
   117         15
   118          3
   119         70
   120         13
   121        843
   122         82
   125          4
   126          2
   127          2
   134         30
   136        336
   137         45
   141          2
   152          5
   153          5
   154          1
   196          1