##TITLE=Library Entry 1824
##JCAMP-DX=Revision 4.10 
##DATA TYPE=MASS SPECTRUM
##SAMPLE DESCRIPTION=A.A.Kutin, Moscow, Russia
##NAMES=HP
##CAS NAME=2,2'-Bipyridine, 1,1'-dioxide
##MOLFORM=C10H8N2O2
##CAS REGISTRY NO=7275-43-6
##MP= -300
##BP= -300
##MW= 188
##$RETENTION INDEX=0
##$CONDENSED SPECTRUM=NO
##NPOINTS= 120
##XYDATA=(XY..XY) 1 
    35          0
    36          2
    37         72
    38        319
    39        999
    40        110
    41         72
    42         30
    43         31
    44         49
    45          2
    46          0
    48          0
    49         19
    50        149
    51        329
    52        171
    53         43
    54         25
    55         38
    56          3
    57          3
    58          1
    59          0
    60          0
    61         61
    62        182
    63        308
    64        155
    65         73
    66         53
    67         42
    68         40
    69         12
    70          1
    71          1
    73          6
    74         51
    75         51
    76         43
    77         66
    78        414
    79        188
    80         32
    81          0
    82          4
    83          5
    84          3
    85         24
    86         46
    87         54
    88         51
    89         98
    90         42
    91         41
    92         17
    93          8
    94          9
    95          0
    97          0
    98          8
    99          5
   100          4
   101          8
   102         17
   103         25
   104         87
   105         82
   106         10
   107          0
   108          0
   109          0
   110          6
   111          3
   112          3
   113         33
   114         37
   115         37
   116        272
   117        128
   118         53
   119         18
   120          1
   121          2
   126          0
   127          4
   128         44
   129         26
   130         50
   131        112
   132         37
   133          9
   134         35
   135          0
   139          0
   140         19
   141         11
   142         92
   143        210
   144         64
   145         13
   146          0
   153          0
   155         23
   156         24
   157          3
   158          8
   159         23
   160         22
   161          0
   169          0
   170          8
   171        240
   172         34
   173          4
   186          0
   187         18
   188        270
   189         90
   190          6