##TITLE=Library Entry 99114
##JCAMP-DX=Revision 4.10 
##DATA TYPE=MASS SPECTRUM
##SAMPLE DESCRIPTION=A.A.Kutin, Moscow, Russia
##NAMES=HP
##CAS NAME=1H-Benzotriazole-1-carboxaldehyde
##MOLFORM=C7H5N3O
##CAS REGISTRY NO=72773-04-7
##MP= -300
##BP= -300
##MW= 147
##$RETENTION INDEX=0
##$CONDENSED SPECTRUM=NO
##NPOINTS= 43
##XYDATA=(XY..XY) 1 
    34         13
    36         72
    37         71
    38        162
    39        133
    40        219
    41        128
    42          7
    43         13
    44         59
    45         19
    49          5
    50         23
    51         48
    52        180
    53          9
    54         18
    55          3
    57         12
    60          8
    61         30
    62         60
    63        315
    64        541
    65        138
    66          2
    71          4
    76          6
    77         10
    81         23
    82         45
    83          1
    85          2
    88          2
    89          2
    91        769
    92         43
   117          2
   119        999
   120         82
   121          5
   147         37
   148          1