##TITLE=Library Entry 11780
##JCAMP-DX=Revision 4.10 
##DATA TYPE=MASS SPECTRUM
##SAMPLE DESCRIPTION=NIST Mass Spectrometry Data Center
##NAMES=HP
##CAS NAME=7-Oxabicyclo[4.1.0]heptan-3-ol, 6-(3-hydroxy-1-butenyl)-1,5,5-tri
methyl-
##MOLFORM=C13H22O3
##CAS REGISTRY NO=72777-88-9
##MP= -300
##BP= -300
##MW= 226
##$RETENTION INDEX=1674
##$CONDENSED SPECTRUM=NO
##NPOINTS= 145
##XYDATA=(XY..XY) 1 
    19          1
    26          1
    27         21
    28          4
    29         38
    30          1
    31         10
    38          2
    39         73
    40         13
    41        196
    42         21
    43        999
    44         32
    45         75
    46          2
    50          4
    51         20
    52          9
    53         77
    54         19
    55        178
    56         23
    57         56
    58         40
    59         25
    61          5
    62          2
    63          8
    64          3
    65         48
    66         18
    67        138
    68         26
    69        126
    70         59
    71        136
    72          9
    73          4
    74          1
    75          2
    76          3
    77         79
    78         14
    79        135
    80         48
    81        259
    82        313
    83        180
    84         54
    85         85
    86          7
    87         61
    88          6
    89          3
    90          1
    91        118
    92         19
    93        105
    94         31
    95        168
    96         36
    97        101
    98         34
    99         57
   100          5
   101          3
   102          1
   103          8
   104          2
   105         75
   106         21
   107        418
   108         76
   109        422
   110         45
   111         86
   112         12
   113         11
   114          2
   115          8
   116          3
   117         12
   118          3
   119         28
   120          9
   121         71
   122         37
   123        122
   124        189
   125        930
   126        100
   127         11
   128          8
   129          4
   130          2
   131          8
   132          5
   133         27
   134          5
   135         98
   136         11
   137         45
   138          7
   139          9
   140          3
   141          6
   142          2
   143          1
   144          1
   145          5
   147         63
   148         17
   149         22
   150         26
   151         39
   152          7
   153          6
   157          3
   158          1
   159          3
   160          1
   161          3
   163          5
   164          2
   165         18
   166         84
   167         12
   168         37
   169          5
   170          1
   174          1
   175          9
   176          1
   177          1
   179          3
   181          3
   190          2
   193         14
   194          2
   207          1
   208        257
   209         36
   210          4
   211          1