##TITLE=Library Entry 36725
##JCAMP-DX=Revision 4.10 
##DATA TYPE=MASS SPECTRUM
##SAMPLE DESCRIPTION=E. LEMMICH, DEP. CHEM., DANISH SCH. PHARM., COPENHAGEN,
DENMA
##NAMES=HP
##CAS NAME=Peucelinendiol
##MOLFORM=C20H36O2
##CAS REGISTRY NO=72776-48-8
##MP= -300
##BP= -300
##MW= 308
##$RETENTION INDEX=0
##$CONDENSED SPECTRUM=NO
##NPOINTS= 77
##XYDATA=(XY..XY) 1 
    65         25
    67        150
    68         81
    69        999
    70        150
    71        143
    77         43
    79         93
    80         56
    81        335
    82         93
    83        143
    84         25
    85         25
    91         56
    92         37
    93        273
    94        105
    95        342
    96         75
    97         75
   105         81
   107        180
   108         93
   109        540
   110         93
   111         81
   119         87
   121        224
   122         99
   123        329
   124         37
   125         37
   126         31
   127         31
   133         68
   134         25
   135        186
   136        217
   137        124
   138         25
   139         56
   147        118
   148         25
   149         75
   151         43
   152         56
   153         37
   161         99
   163         37
   165         68
   177         56
   179         43
   184         31
   187         25
   189         37
   191         31
   203         87
   205         25
   207         37
   208         37
   216         56
   221        646
   229         43
   240         19
   247         37
   248          9
   257         12
   259        124
   260         25
   272         25
   273          6
   275         12
   286         12
   290        150
   291         31
   308          1