##TITLE=Library Entry 89336
##JCAMP-DX=Revision 4.10 
##DATA TYPE=MASS SPECTRUM
##SAMPLE DESCRIPTION=V.A.Korolev, Moscow, Russia
##NAMES=HP
##CAS NAME=3,5-Dimethylpiperidine-1-sulfonyl chloride
##MOLFORM=C7H14ClNO2S
##CAS REGISTRY NO=727989-60-8
##MP= -300
##BP= -300
##MW= 211
##$RETENTION INDEX=0
##$CONDENSED SPECTRUM=NO
##NPOINTS= 66
##XYDATA=(XY..XY) 1 
    35         31
    36          5
    37         10
    38         32
    39        197
    40         77
    41        384
    42        419
    43        113
    44        179
    45          6
    48         55
    49          5
    50         10
    51         20
    52          7
    53         53
    54         42
    55        643
    56        153
    57         17
    58          6
    64         43
    65         21
    67         40
    68         77
    69        344
    70         98
    71         10
    76          4
    77          9
    78          3
    81          8
    82         28
    83        141
    84         15
    94          6
    95          8
    96         62
    97          5
    99         29
   101          7
   105          4
   106          4
   108          4
   110         17
   111         58
   112        999
   113         65
   114          8
   127          3
   128          4
   142         84
   143          7
   144         29
   145          2
   176        254
   177         21
   178         13
   179          3
   210         35
   211        315
   212         29
   213        117
   214         10
   215          5