##TITLE=Library Entry 81964
##JCAMP-DX=Revision 4.10 
##DATA TYPE=MASS SPECTRUM
##SAMPLE DESCRIPTION=Japan AIST/NIMC Database- Spectrum MS-NW-8833
##NAMES=HP
##CAS NAME=4-(Trifluoromethyl)benzophenone
##MOLFORM=C14H9F3O
##CAS REGISTRY NO=728-86-9
##MP= -300
##BP= -300
##MW= 250
##$RETENTION INDEX=0
##$CONDENSED SPECTRUM=NO
##NPOINTS= 81
##XYDATA=(XY..XY) 1 
    27          5
    28          4
    31          1
    39          6
    50         30
    51        105
    52          7
    53          1
    57          5
    62          2
    63          5
    69          5
    74          9
    75         29
    76         25
    77        352
    78         28
    79          1
    81          2
    85          1
    86          6
    87          2
    88          1
    89          1
    94          2
    95         44
    96          3
    99          4
   100          2
   101          2
   102          1
   104         13
   105        999
   106         76
   107          6
   111          5
   115          1
   119          5
   125         25
   126         15
   127          3
   143          3
   144          6
   145        256
   146         19
   150          3
   151          7
   152         19
   153          9
   154          2
   163          1
   169          1
   170          3
   171          1
   172          9
   173        258
   174         22
   175          2
   180         27
   181         52
   182          8
   183          3
   199          1
   201         12
   202          2
   203          9
   204          1
   219          3
   220          2
   221          1
   222          6
   228          2
   230          1
   231         29
   232          5
   233          1
   248         14
   249         12
   250        368
   251         57
   252          5