##TITLE=Library Entry 78637
##JCAMP-DX=Revision 4.10 
##DATA TYPE=MASS SPECTRUM
##SAMPLE DESCRIPTION=A.Mazepa, Phys.-Chem.Institute, Odessa, Ukraine
##NAMES=HP
##CAS NAME=Benzamide, N-(2-nitrophenyl)-
##MOLFORM=C13H10N2O3
##CAS REGISTRY NO=728-90-5
##MP= -300
##BP= -300
##MW= 242
##$RETENTION INDEX=0
##$CONDENSED SPECTRUM=NO
##NPOINTS= 50
##XYDATA=(XY..XY) 1 
    30          3
    36          2
    38          3
    39         21
    40          2
    41          8
    43          7
    44          5
    45          8
    50         28
    51        124
    52         16
    53          2
    54          2
    55         27
    56          3
    57         10
    58          3
    60          2
    62          1
    63         15
    64          7
    65          6
    69          6
    70          2
    71          3
    73          2
    74          4
    75          5
    76         15
    77        510
    78         28
    79          1
    83          1
    84          1
    90          4
    91          1
   104          2
   105        999
   106         63
   107          2
   122          5
   124          1
   139          3
   194          1
   196         94
   197          7
   211          9
   242         73
   243          5