##TITLE=Library Entry 79719
##JCAMP-DX=Revision 4.10 
##DATA TYPE=MASS SPECTRUM
##SAMPLE DESCRIPTION=RADIAN CORP
##NAMES=HP
##CAS NAME=1,3-Propanedione, 2-bromo-1,3-diphenyl-
##MOLFORM=C15H11BrO2
##CAS REGISTRY NO=728-84-7
##MP= -300
##BP= -300
##MW= 302
##$RETENTION INDEX=0
##$CONDENSED SPECTRUM=NO
##NPOINTS= 50
##XYDATA=(XY..XY) 1 
    14          6
    27         12
    28        162
    29          1
    32         31
    38          1
    39         28
    40         13
    41          5
    50         57
    51        197
    52         21
    53          1
    62         10
    63         29
    64          1
    65         33
    69        287
    70         12
    73          4
    74         19
    75         26
    76         41
    77        590
    78         62
    79          3
    83          3
    89         38
    90         14
    91         21
    98          3
   102         16
   103         15
   105        999
   106         83
   118          6
   125          4
   147        166
   148         15
   152          6
   165          5
   177          1
   178          2
   207          4
   223        414
   224        271
   225         44
   257         21
   258          5
   259          5