##TITLE=Library Entry 79854
##JCAMP-DX=Revision 4.10 
##DATA TYPE=MASS SPECTRUM
##SAMPLE DESCRIPTION=NIST Mass Spectrometry Data Center
##NAMES=HP
##CAS NAME=3-(Trifluoromethyl)benzophenone
##MOLFORM=C14H9F3O
##CAS REGISTRY NO=728-81-4
##MP= -300
##BP= -300
##MW= 250
##$RETENTION INDEX=0
##$CONDENSED SPECTRUM=NO
##NPOINTS= 98
##XYDATA=(XY..XY) 1 
    18          2
    26          2
    27         17
    28          2
    37          3
    38         10
    39         19
    40          1
    50        116
    51        240
    52         13
    53          6
    56          1
    57         11
    61          2
    62          9
    63         13
    64          1
    69         22
    70          1
    73          4
    74         38
    75         85
    76         51
    77        484
    78         32
    79          1
    80          1
    81          6
    85          2
    86          5
    87          5
    88          2
    89          1
    91          2
    92          1
    93          3
    94          7
    95         76
    96          5
    98          4
    99         15
   100          6
   101          7
   102          2
   105        999
   106         78
   107         10
   110          4
   111          7
   113          1
   115          4
   118          1
   119          8
   120          1
   122          1
   123          2
   125         47
   126         22
   127          4
   133          1
   143          5
   145        290
   146         24
   149          1
   150          5
   151         10
   152         18
   153          8
   154          1
   162          1
   163          1
   169          2
   170          3
   171          1
   173        240
   174         22
   175          4
   181         35
   182          6
   183          7
   184          1
   193          1
   199          2
   200          2
   201         19
   202          3
   219          4
   220          2
   221          1
   222          6
   229          1
   231         52
   232          9
   233          1
   250        391
   251         59
   252          5