##TITLE=Library Entry 80025
##JCAMP-DX=Revision 4.10 
##DATA TYPE=MASS SPECTRUM
##SAMPLE DESCRIPTION=Chemical Concepts
##NAMES=HP
##CAS NAME=2,2,5,5-Tetraphenyltetrahydrofuran
##MOLFORM=C28H24O
##CAS REGISTRY NO=72805-47-1
##MP= -300
##BP= -300
##MW= 376
##$RETENTION INDEX=0
##$CONDENSED SPECTRUM=NO
##NPOINTS= 197
##XYDATA=(XY..XY) 1 
    26          2
    27          7
    28          0
    29          5
    30          1
    31          2
    33          1
    34          1
    38          1
    39         19
    40          2
    41         13
    42          4
    43         16
    44          7
    45          2
    50         14
    51        111
    52         12
    53          4
    54          1
    55         10
    56          3
    57          8
    58          1
    59          3
    60          4
    61          1
    62          2
    63         12
    64          2
    65         31
    66          3
    67          2
    68          2
    69          8
    70          2
    71          4
    72          0
    73          4
    74          4
    75         10
    76         25
    77        546
    78         64
    79         31
    80          3
    81          3
    82          2
    83          6
    84          2
    85          2
    86          2
    87          3
    88          3
    89         23
    90          7
    91        147
    92         18
    93          2
    94         11
    95          3
    96          4
    97          4
   101          4
   102         26
   103         69
   104         13
   105        999
   106        104
   107         27
   108          2
   109          1
   110          1
   111          4
   112          1
   113          6
   114          8
   115        278
   116        141
   117         65
   118          6
   119          3
   120          2
   125          2
   126          8
   127         10
   128         20
   129          6
   130          2
   131          4
   132          2
   133          2
   135          2
   137          1
   138          3
   139         25
   140          4
   141          7
   142          2
   143          5
   144          2
   149          2
   150          5
   151         23
   152         88
   153         48
   154        141
   155         25
   156          3
   162          3
   163         19
   164         26
   165        230
   166         61
   167        111
   168         16
   169          2
   175          3
   176         19
   177         27
   178        165
   179        146
   180        449
   181         96
   182         11
   183         17
   184          1
   188          5
   189         22
   190         10
   191         41
   192         26
   193        181
   194        136
   195         28
   196          6
   197          0
   200          1
   201          3
   202         23
   203         65
   204         15
   205          2
   207         15
   208          5
   209          0
   213          0
   214          0
   215          5
   216          0
   219          0
   220          1
   221         13
   222        225
   223         51
   224          4
   225          0
   226          1
   227          0
   228          1
   229          0
   239          5
   240          2
   241          3
   242          1
   243          1
   252          7
   253          5
   254          2
   255          2
   256          2
   257          1
   264          7
   265         17
   266         13
   267          4
   268          1
   269          1
   270          1
   276          1
   277          2
   278          2
   279          6
   280          5
   281        136
   282         33
   283          4
   284          1
   298         13
   299        468
   300        127
   301         17
   302          1
   359          0
   376         17
   377          5