##TITLE=Library Entry 26968
##JCAMP-DX=Revision 4.10 
##DATA TYPE=MASS SPECTRUM
##SAMPLE DESCRIPTION=Exported from NIST MS Search
##NAMES=HP
##CAS NAME=2-Butenedioic acid (E)-, bis(2-methylpropyl) ester
##MOLFORM=C12H20O4
##CAS REGISTRY NO=7283-69-4
##MP= -300
##BP= -300
##MW= 228
##$RETENTION INDEX=1482
##$CONDENSED SPECTRUM=NO
##NPOINTS= 66
##XYDATA=(XY..XY) 1 
    15          7
    17          2
    18         10
    26         38
    27        113
    28         22
    29        191
    30          6
    31         11
    39         58
    40         10
    41        267
    42         28
    43         89
    44          7
    45         17
    53         33
    54        114
    55        120
    56        623
    57        999
    58         46
    59          9
    69          4
    70         10
    71         30
    72         16
    73         15
    81         54
    82        128
    83          8
    85         24
    86          4
    87          5
    97         13
    99        633
   100        243
   101         23
   109         18
   112          7
   113          8
   114         13
   115          4
   117        485
   118         23
   119          5
   126         12
   127         41
   128          7
   139          4
   141         28
   142         17
   153          5
   154         28
   155        926
   156         97
   157         17
   159         13
   169          7
   171          3
   172          7
   173        151
   174         15
   175          2
   213          8
   228          2