##TITLE=Library Entry 8842
##JCAMP-DX=Revision 4.10 
##DATA TYPE=MASS SPECTRUM
##SAMPLE DESCRIPTION=Insect Chem. Ecol. Lab., USDA, Beltsville, MD 20705
##NAMES=HP
##CAS NAME=1,6-Octadiene, 3-ethoxy-3,7-dimethyl-
##MOLFORM=C12H22O
##CAS REGISTRY NO=72845-33-1
##MP= -300
##BP= -300
##MW= 182
##$RETENTION INDEX=1725
##$CONDENSED SPECTRUM=NO
##NPOINTS= 99
##XYDATA=(XY..XY) 1 
    41        341
    42         62
    43        999
    44         48
    45        101
    47          2
    49          4
    50          8
    51         25
    52         12
    53        109
    54         35
    55        596
    56         73
    57        150
    58         69
    59         45
    60          6
    61         10
    62          8
    63         11
    64          7
    65         53
    66         15
    67        201
    68        118
    69        224
    70         71
    71        906
    72        111
    73        124
    74         19
    75          3
    76          7
    77         47
    78          9
    79         92
    80         93
    81        378
    82        131
    83        174
    84         85
    85        116
    86         28
    87         47
    88          8
    89         18
    91         39
    92         46
    93        230
    94         59
    95        107
    96        405
    97        260
    98         45
    99         34
   100          8
   101         25
   103          8
   105         26
   106          7
   107         60
   108         17
   109         44
   110         39
   111         51
   112         21
   113         11
   119         13
   120         12
   121        190
   122         24
   123         49
   124         13
   125         12
   127         10
   131         11
   133         14
   135         20
   136          2
   137         28
   138         10
   139         25
   140          2
   141          2
   147          4
   148          8
   149         10
   150         34
   151         30
   152          8
   153         10
   165          8
   166         27
   167         18
   180          4
   181          3
   182          8
   183          1