##TITLE=Library Entry 98735
##JCAMP-DX=Revision 4.10 
##DATA TYPE=MASS SPECTRUM
##SAMPLE DESCRIPTION=NIST Mass Spectrometry Data Center
##NAMES=HP
##CAS NAME=2,4,6(1H,3H,5H)-Pyrimidinetrione, 5-phenyl-1-(phenylmethyl)-
##MOLFORM=C17H14N2O3
##CAS REGISTRY NO=72846-00-5
##MP= -300
##BP= -300
##MW= 294
##$RETENTION INDEX=0
##$CONDENSED SPECTRUM=NO
##NPOINTS= 99
##XYDATA=(XY..XY) 1 
    15          2
    16          1
    18          7
    26          6
    27         11
    28         33
    29          5
    37          3
    38         18
    39         99
    40         15
    41         14
    42          3
    43          3
    44         13
    50         33
    51        127
    52         23
    54          4
    55          7
    56         14
    59          3
    61          1
    62         25
    63        105
    64         47
    65        152
    66         16
    69         11
    70         38
    71          3
    73          1
    74          5
    75          6
    76         15
    77        146
    78         38
    79         25
    80          5
    86          8
    87          7
    89        280
    90        554
    91        676
    92         50
    97         13
   102          7
   103          3
   104         50
   105         45
   106        255
   107         27
   116          6
   118        999
   119         94
   120          9
   122          6
   127          3
   132        151
   133         30
   134         18
   135          2
   145         31
   146         18
   147          4
   149          8
   152          3
   161          3
   162          4
   165          8
   175          3
   176          8
   177          4
   178          5
   179          9
   180         12
   181          6
   188          7
   189          4
   190         14
   191          5
   193          3
   194          5
   199          2
   203         31
   204          8
   206          2
   207          1
   208        113
   209         19
   216         26
   217          4
   222          5
   223         15
   266         13
   267          2
   294        811
   295        158
   296         21