##TITLE=Library Entry 71323
##JCAMP-DX=Revision 4.10 
##DATA TYPE=MASS SPECTRUM
##SAMPLE DESCRIPTION=B. Derendyaev, Novosibirsk Institute of Organic Chemist
ry
##NAMES=HP
##CAS NAME=(3-Ethylaminopropyl)dibutylborane
##MOLFORM=C13H30BN
##CAS REGISTRY NO=72863-68-4
##MP= -300
##BP= -300
##MW= 211
##$RETENTION INDEX=0
##$CONDENSED SPECTRUM=NO
##NPOINTS= 11
##XYDATA=(XY..XY) 1 
    29        109
    41         69
    56        119
    70        159
    82         89
    96         79
    97        239
    98        999
    99         59
   153         59
   154        239