##TITLE=Library Entry 16764
##JCAMP-DX=Revision 4.10 
##DATA TYPE=MASS SPECTRUM
##SAMPLE DESCRIPTION=NIST Mass Spectrometry Data Center, 1994
##NAMES=HP
##CAS NAME=Methyl allylthioacetate
##MOLFORM=C6H10O2S
##CAS REGISTRY NO=72867-23-3
##MP= -300
##BP= -300
##MW= 146
##$RETENTION INDEX=1518
##$CONDENSED SPECTRUM=NO
##NPOINTS= 76
##XYDATA=(XY..XY) 1 
    12          3
    13         18
    14         87
    15        479
    16          8
    17          1
    18          4
    25          3
    26         37
    27        115
    28         31
    29        144
    30         22
    31         45
    32          9
    33         11
    34          5
    35         12
    36          3
    37         34
    38         95
    39        605
    40          3
    41        934
    42        184
    43        344
    44          3
    45        999
    46        322
    47        184
    48         16
    49          9
    50          3
    51          4
    52          3
    53         90
    54          8
    55          4
    56          2
    57         16
    58         31
    59        214
    60         13
    61         27
    62          2
    63          4
    68          6
    69         29
    70          7
    71         84
    72        128
    73        720
    74        458
    75         63
    76          5
    77         13
    85        116
    86         99
    87        319
    88         19
    89         15
    90          2
    91          5
    99          6
   100          3
   104          5
   105          2
   106          2
   113         13
   114         60
   115         35
   116          3
   146        422
   147         32
   148         21
   149          1