##TITLE=Library Entry 76288
##JCAMP-DX=Revision 4.10 
##DATA TYPE=MASS SPECTRUM
##SAMPLE DESCRIPTION=Chemical Concepts
##NAMES=HP
##CAS NAME=Methyl 3-hydroxydodecanoate
##MOLFORM=C13H26O3
##CAS REGISTRY NO=72864-23-4
##MP= -300
##BP= -300
##MW= 230
##$RETENTION INDEX=1655
##$CONDENSED SPECTRUM=NO
##NPOINTS= 132
##XYDATA=(XY..XY) 1 
    30          2
    31         20
    33         15
    38          1
    39         45
    40         10
    41        210
    42         62
    43        595
    44         65
    45         22
    46          0
    50          0
    51          3
    52          1
    53         20
    54         31
    55        193
    56         70
    57        138
    58         25
    59         85
    60          5
    61        134
    62          3
    63          1
    65          3
    66          7
    67         64
    68         57
    69        112
    70         67
    71        322
    72         19
    73         13
    74        304
    75         58
    76          3
    77          3
    78          0
    79         11
    80          6
    81         69
    82         68
    83        132
    84         65
    85         42
    86          7
    87         62
    88          8
    89          0
    91          2
    92          0
    93          4
    94          6
    95         47
    96         91
    97         68
    98         35
    99         13
   100         16
   101         63
   102         20
   103        999
   104         49
   105          8
   106          0
   107          3
   108          3
   109         22
   110         33
   111         14
   112         25
   113         31
   114         19
   115         19
   116          7
   117          3
   118          2
   119          4
   120          1
   121          2
   122          0
   123         15
   124          7
   125          5
   126          2
   127         11
   128         14
   129         11
   130          2
   131          0
   133          2
   134          1
   135          0
   136          7
   137         13
   138         53
   139         17
   140          1
   141          8
   142          2
   143          3
   144          2
   145          3
   147          0
   151          6
   152          4
   153          0
   155         22
   156          3
   157          6
   158          0
   161          0
   162          6
   163         10
   164          1
   165          0
   169          3
   170          1
   171          0
   179          0
   180         20
   181         26
   182          2
   183          1
   199          1
   212          4
   213          2
   214          0
   229          7
   230          0