##TITLE=Library Entry 54769
##JCAMP-DX=Revision 4.10 
##DATA TYPE=MASS SPECTRUM
##SAMPLE DESCRIPTION=J. SHAW, BORRISTON RESEARCH, ROCKVILLE, MD, USA
##NAMES=HP
##CAS NAME=Monalide
##MOLFORM=C13H18ClNO
##CAS REGISTRY NO=7287-36-7
##MP= -300
##BP= -300
##MW= 239
##$RETENTION INDEX=1831
##$CONDENSED SPECTRUM=NO
##NPOINTS= 140
##XYDATA=(XY..XY) 1 
    14          2
    15         13
    16          8
    17         42
    18        145
    27        108
    28         33
    29        110
    30          3
    31          1
    32          3
    35          1
    36          4
    37          3
    38         11
    39         80
    40         19
    41        291
    42         71
    43        827
    44         35
    45          4
    49          2
    50         11
    51         11
    52          7
    53         16
    54          5
    55         66
    56         26
    57        201
    58         15
    59          3
    60          1
    61          2
    62          8
    63         30
    64         17
    65         31
    66          5
    67          8
    69         63
    70         30
    71         50
    73         26
    74          6
    75         33
    76          8
    77          7
    78          1
    79          2
    80          2
    81          3
    82          2
    83         16
    85        999
    86         89
    87          4
    88          1
    89          4
    90         18
    91         18
    92         20
    93          9
    94          1
    95          2
    96          1
    97          6
    99         65
   100         13
   101         15
   102          4
   103          1
   104          1
   105          4
   106          1
   109          2
   111         27
   112          5
   113         33
   114          2
   115          1
   116          1
   117          1
   118          2
   119          3
   120          2
   121          1
   123          1
   125         12
   126         51
   127        344
   128         41
   129        108
   130          9
   131          1
   132          2
   133          1
   137          1
   138          1
   139          1
   140          2
   141          1
   142          1
   145          1
   146          1
   147          1
   149          5
   153         16
   154         14
   155          6
   156          4
   160          1
   161          2
   162          1
   163          1
   164          1
   166          3
   168         18
   169          2
   170          5
   171          1
   175          1
   182          3
   183          4
   185          3
   197        159
   199         64
   200          4
   204          1
   210          4
   211          3
   212          1
   213          1
   224          1
   225          3
   227          1
   239         67
   241         34
   242          3