##TITLE=Library Entry 16992
##JCAMP-DX=Revision 4.10 
##DATA TYPE=MASS SPECTRUM
##SAMPLE DESCRIPTION=NIST Mass Spectrometry Data Center
##NAMES=HP
##CAS NAME=Methyl undecyl ether
##MOLFORM=C12H26O
##CAS REGISTRY NO=7289-53-4
##MP= -300
##BP= -300
##MW= 186
##$RETENTION INDEX=1325
##$CONDENSED SPECTRUM=NO
##NPOINTS= 75
##XYDATA=(XY..XY) 1 
    15          8
    26          3
    27         65
    28         20
    29        146
    30          4
    31          8
    33         10
    39         81
    40         17
    41        405
    42        138
    43        348
    44         18
    45        999
    46         23
    47          9
    50          1
    51          5
    52          3
    53         37
    54         51
    55        464
    56        423
    57        236
    58         31
    59          8
    60          4
    63          1
    65          6
    66          6
    67         66
    68        182
    69        384
    70        353
    71        105
    72          6
    73          1
    77          4
    78          1
    79          7
    80          1
    81         21
    82        218
    83        384
    84        276
    85         58
    86          3
    87         17
    88          1
    91          1
    93          1
    95          6
    96         69
    97        337
    98        150
    99         14
   100          1
   101          3
   109          1
   110         18
   111        125
   112         45
   113          4
   124          7
   125         54
   126        123
   127         12
   128          1
   139          1
   143          4
   144          1
   154        136
   155         17
   156          1