##TITLE=Library Entry 17194
##JCAMP-DX=Revision 4.10 
##DATA TYPE=MASS SPECTRUM
##SAMPLE DESCRIPTION=NIST Mass Spectrometry Data Center
##NAMES=HP
##CAS NAME=1-Methoxydecane
##MOLFORM=C11H24O
##CAS REGISTRY NO=7289-52-3
##MP= -300
##BP= -300
##MW= 172
##$RETENTION INDEX=1227
##$CONDENSED SPECTRUM=NO
##NPOINTS= 76
##XYDATA=(XY..XY) 1 
    15          8
    26          4
    27         70
    28         23
    29        141
    30          4
    31          9
    33          9
    37          1
    39         98
    40         21
    41        400
    42        145
    43        299
    45        999
    46         24
    47          9
    50          2
    51          7
    52          4
    53         43
    54         54
    55        496
    56        469
    57        223
    58         33
    59         10
    60          5
    63          1
    65          8
    66          7
    67         81
    68        249
    69        470
    70        636
    71        143
    72          8
    73          1
    77          5
    78          1
    79          8
    80          2
    81         24
    82        291
    83        614
    84        391
    85         70
    86          4
    87         24
    88          1
    91          1
    93          1
    95          5
    96         64
    97        337
    98        137
    99         12
   100          1
   101          4
   109          1
   110         25
   111        197
   112        282
   113         25
   114          1
   115          1
   125          5
   126          1
   129          8
   130          1
   138          1
   140        288
   141         33
   142          2
   171          1
   173          1