##TITLE=Library Entry 17334
##JCAMP-DX=Revision 4.10 
##DATA TYPE=MASS SPECTRUM
##SAMPLE DESCRIPTION=J. Klune, Insect Chem. Ecol. Lab., USDA, Beltsville, MD
 20705
##NAMES=HP
##CAS NAME=Methyl tridecyl ether
##MOLFORM=C14H30O
##CAS REGISTRY NO=7289-55-6
##MP= -300
##BP= -300
##MW= 214
##$RETENTION INDEX=0
##$CONDENSED SPECTRUM=NO
##NPOINTS= 126
##XYDATA=(XY..XY) 1 
    41        487
    42        155
    43        513
    45        999
    46         25
    47         12
    51          2
    52          2
    53         30
    54         64
    55        489
    56        442
    57        464
    58         40
    59         13
    60          7
    61          2
    65          5
    66          9
    67         95
    68        359
    69        535
    70        438
    71        216
    72         25
    73          6
    74          2
    75          1
    77          5
    78          0
    79          7
    80          3
    81         49
    82        443
    83        599
    84        287
    85        114
    86          8
    87         32
    88         29
    89          1
    91          2
    93          2
    94          2
    95         22
    96        126
    97        411
    98        170
    99         28
   100          2
   101         11
   102          1
   103          0
   105          1
   107          1
   108          1
   109          9
   110         50
   111        234
   112        105
   113         19
   114          2
   115          2
   119          0
   121          1
   122          1
   123          5
   124         21
   125        112
   126         62
   127         10
   128          1
   129          2
   130          0
   133          0
   135          1
   136          1
   137          3
   138         10
   139         25
   140         20
   141          5
   142          0
   143          1
   145          1
   147          0
   149          1
   150          0
   151          2
   152          6
   153         12
   154        103
   155         13
   156          0
   157          1
   161          0
   163          2
   164          0
   165          1
   166          1
   167          2
   168          3
   169          1
   171          8
   172          1
   177          1
   178          1
   179          1
   180          5
   181          2
   182        298
   183         48
   184          3
   185          1
   193          1
   194          1
   195          1
   196         14
   197          7
   198          1
   199          1
   212          0
   213          8
   214         12
   215          3
   216          0