##TITLE=Library Entry 114788
##JCAMP-DX=Revision 4.10 
##DATA TYPE=MASS SPECTRUM
##SAMPLE DESCRIPTION=Exported from NIST MS Search
##NAMES=HP
##CAS NAME=Morpholine, 4,4'-(dithiodicarbonothioyl)bis-
##MOLFORM=C10H16N2O2S4
##CAS REGISTRY NO=729-46-4
##MP= -300
##BP= -300
##MW= 324
##$RETENTION INDEX=0
##$CONDENSED SPECTRUM=NO
##NPOINTS= 67
##XYDATA=(XY..XY) 1 
    41         70
    42        111
    43         56
    44         19
    45         74
    46         11
    47         22
    52         15
    54         78
    55         52
    56        152
    57         56
    58         37
    59         59
    60        119
    61         15
    64         33
    68         15
    69         19
    70         26
    71         11
    72         48
    73         26
    74         19
    76        141
    77        104
    78         26
    79         11
    80         19
    84         26
    85         26
    86        522
    87         37
    88         37
    89         15
    90         19
    98         15
   100         44
   110         15
   117         30
   118         15
   128         19
   130        999
   131        133
   132         74
   138         15
   162        393
   163         85
   164         48
   175         11
   187         11
   188         11
   189         11
   191         15
   193         15
   196         81
   197         15
   202         19
   221         26
   223         11
   226         11
   260         85
   261          7
   262         11
   324        148
   325         19
   326         37