##TITLE=Library Entry 47706
##JCAMP-DX=Revision 4.10 
##DATA TYPE=MASS SPECTRUM
##SAMPLE DESCRIPTION=D.HENNEBERG, MAX-PLANCK INSTITUTE, MULHEIM, WEST GERMAN
Y
##NAMES=HP
##CAS NAME=Ethanone, 1-phenyl-, (1-phenylethylidene)hydrazone
##MOLFORM=C16H16N2
##CAS REGISTRY NO=729-43-1
##MP= -300
##BP= -300
##MW= 236
##$RETENTION INDEX=0
##$CONDENSED SPECTRUM=NO
##NPOINTS= 128
##XYDATA=(XY..XY) 1 
    26         21
    27         29
    28         43
    30          1
    36          0
    37          1
    38          3
    39         30
    40         10
    41         14
    42         26
    44          2
    48          1
    49          2
    50         32
    51        206
    52         23
    53          3
    54          0
    56          2
    59          0
    62          1
    63         13
    64          5
    65         18
    66          4
    67          0
    70          0
    71          0
    73          0
    74          6
    75         14
    76         71
    77        999
    78        160
    79         19
    83          0
    89         14
    90         17
    91         97
    92         36
    93          4
    94          0
    95          0
    98          2
   100          2
   101          2
   102         28
   103        250
   104        198
   105         22
   106          3
   107          1
   115          9
   116         23
   117         55
   118        353
   119         60
   120          9
   127          1
   128          6
   129          3
   130          5
   131          8
   132        106
   133         89
   134         18
   135          2
   142          2
   143         37
   144          7
   145          6
   146          0
   151          3
   152          6
   153          5
   154          2
   155          0
   157          1
   158          3
   159        231
   160         22
   161          1
   165          5
   166          2
   167          3
   168          1
   178          4
   179          3
   180        108
   181         14
   182          0
   188          0
   189          3
   190          1
   191          4
   192          3
   193          9
   194         61
   195         32
   196          4
   198          1
   202          1
   203          1
   204          3
   205          5
   206         10
   207         11
   208          9
   209          2
   210          1
   211          1
   214          1
   215          1
   217          1
   218          4
   219          8
   220          8
   221        936
   222        159
   223         15
   233          2
   234          3
   235        118
   236        641
   237        122
   238         11
   239          1