##TITLE=Library Entry 77866
##JCAMP-DX=Revision 4.10 
##DATA TYPE=MASS SPECTRUM
##SAMPLE DESCRIPTION=M. Lozynski, Dep. Chem., Poznan Tech. Univ., Poznan, Po
land
##NAMES=HP
##CAS NAME=Tricyclo[8.2.2.2(4,7)]hexadeca-4,6,10,12,13,15-hexaene-5-carboxal
dehyde
##MOLFORM=C17H16O
##CAS REGISTRY NO=729-30-6
##MP= -300
##BP= -300
##MW= 236
##$RETENTION INDEX=0
##$CONDENSED SPECTRUM=NO
##NPOINTS= 17
##XYDATA=(XY..XY) 1 
    51         63
    55         25
    57         30
    63         47
    65         30
    77        116
    78        197
    89         35
    91         25
   103        197
   104        999
   105        128
   131        100
   132        116
   144         52
   236        365
   237         63