##TITLE=Library Entry 39570
##JCAMP-DX=Revision 4.10 
##DATA TYPE=MASS SPECTRUM
##SAMPLE DESCRIPTION=NIST Mass Spectrometry Data Center, 1994
##NAMES=HP
##CAS NAME=2,2,2-Trichloro-N,N-dimethylacetamide
##MOLFORM=C4H6Cl3NO
##CAS REGISTRY NO=7291-33-0
##MP= -300
##BP= -300
##MW= 189
##$RETENTION INDEX=0
##$CONDENSED SPECTRUM=NO
##NPOINTS= 93
##XYDATA=(XY..XY) 1 
    12          7
    13          5
    14         19
    15        202
    16          2
    17          2
    18        109
    19          0
    24          1
    25          2
    26          7
    27         23
    28         90
    29         11
    30          3
    35         22
    36          8
    37          9
    38          8
    39          9
    40         31
    41         37
    42        191
    43         43
    44         26
    45          2
    46          2
    47         60
    48         10
    49         31
    50          3
    51          7
    52          3
    53          1
    54          3
    55          7
    56         52
    57          2
    58          2
    59          1
    60          1
    61          5
    63         11
    64          0
    65          3
    70          1
    72        999
    73         37
    74          3
    75          0
    76         41
    77          4
    78         15
    79          0
    80          0
    81          0
    82         45
    83          8
    84         30
    85          5
    86          6
    87          1
    88          0
    90          3
    92          2
    94          0
    96          1
    98          1
   106          1
   108          1
   110         18
   112         12
   113          0
   114          1
   117         25
   119         26
   121          8
   123          1
   126         81
   128         52
   129          2
   130          8
   139          1
   141          1
   154          2
   155          1
   156          1
   160          1
   162          1
   189          8
   191          9
   192          0
   193          2