##TITLE=Library Entry 9283
##JCAMP-DX=Revision 4.10 
##DATA TYPE=MASS SPECTRUM
##SAMPLE DESCRIPTION=Institute of Organic Chemistry, Novosibirsk, USSR 1988
##NAMES=HP
##CAS NAME=Methyl 3,6-di-O-acetyl-2,4-di-O-methyl-.alpha.-D-mannopyranoside
##MOLFORM=C13H22O8
##CAS REGISTRY NO=72922-21-5
##MP= -300
##BP= -300
##MW= 306
##$RETENTION INDEX=0
##$CONDENSED SPECTRUM=NO
##NPOINTS= 66
##XYDATA=(XY..XY) 1 
    41        149
    42         62
    43        999
    44         21
    45         17
    47          9
    53         23
    55         43
    57         34
    58         36
    59        129
    61         18
    69         55
    70         39
    71        619
    72         30
    73        109
    74        999
    75        599
    76         24
    81         34
    82         13
    83         17
    84         99
    85         71
    87        349
    88        669
    89         55
    95         78
    97         34
    98         22
    99         99
   100         17
   101        849
   102         49
   103         32
   109         12
   111         30
   112         22
   113         78
   114         18
   115         37
   116        849
   117        129
   126         17
   127        259
   128         24
   129         46
   130         85
   131         18
   141         47
   143         22
   144         26
   145         28
   155         45
   159          9
   173         28
   183         31
   186         34
   187         25
   201         21
   203          9
   215          8
   233          2
   275         65
   276          7