##TITLE=Library Entry 45400
##JCAMP-DX=Revision 4.10 
##DATA TYPE=MASS SPECTRUM
##SAMPLE DESCRIPTION=Institute of Organic Chemistry, Novosibirsk, USSR 1988
##NAMES=HP
##CAS NAME=Methyl 2-O-acetyl-3,4-di-O-methyl-.alpha.-D-xylopyranoside
##MOLFORM=C10H18O6
##CAS REGISTRY NO=72922-24-8
##MP= -300
##BP= -300
##MW= 234
##$RETENTION INDEX=0
##$CONDENSED SPECTRUM=NO
##NPOINTS= 74
##XYDATA=(XY..XY) 1 
    40          7
    41         94
    42         37
    43        809
    44         23
    45        239
    46          5
    47         13
    53         11
    54          6
    55         22
    56         14
    57         23
    58        429
    59         93
    60          5
    61         11
    68         12
    69         84
    70         15
    71        159
    72         18
    73         77
    74        929
    75        999
    76          3
    77          5
    83         15
    84         20
    85         49
    86          4
    87        229
    88        169
    89         12
    97         77
    98          9
    99         40
   100         22
   101        119
   102         11
   103         18
   104          1
   105          6
   111         19
   112          3
   113          2
   114         14
   115         37
   116        109
   117         18
   118          1
   119          1
   127          2
   128          1
   129        149
   130         12
   131         14
   132          1
   133         13
   141          1
   142         31
   143         23
   144          3
   145          1
   159          3
   160          2
   161          4
   171         65
   172          6
   173          2
   174          1
   175          5
   202         18
   203         40