##TITLE=Library Entry 9277
##JCAMP-DX=Revision 4.10 
##DATA TYPE=MASS SPECTRUM
##SAMPLE DESCRIPTION=Institute of Organic Chemistry, Novosibirsk, USSR 1988
##NAMES=HP
##CAS NAME=Methyl 2,4-di-O-acetyl-3-O-methyl-.alpha.-D-xylopyranoside
##MOLFORM=C11H18O7
##CAS REGISTRY NO=72922-31-7
##MP= -300
##BP= -300
##MW= 262
##$RETENTION INDEX=0
##$CONDENSED SPECTRUM=NO
##NPOINTS= 76
##XYDATA=(XY..XY) 1 
    40          9
    41        119
    42         52
    43        999
    44         69
    45        179
    53         10
    55         24
    56         13
    57         33
    58         14
    59         64
    60          8
    61         38
    68         74
    69        199
    70         35
    71        589
    72         37
    73         64
    74        999
    75        999
    76         35
    82         20
    83         14
    84          6
    85         74
    86         51
    87        125
    88         15
    97        120
    98         12
    99        228
   100        339
   101        119
   102         10
   103         82
   111         42
   112         11
   113          6
   114          7
   115         76
   116        109
   117         53
   127          7
   128         38
   129        113
   130         10
   131          3
   133          1
   139         58
   140          4
   141          4
   142        113
   143         55
   144          5
   145          6
   146          1
   157         58
   158          4
   159         14
   160          1
   161          7
   170         18
   171         12
   172          2
   187          1
   188          3
   189          1
   199         29
   200          3
   201          0
   202          3
   203          1
   231         25
   232         10