##TITLE=Library Entry 45494
##JCAMP-DX=Revision 4.10 
##DATA TYPE=MASS SPECTRUM
##SAMPLE DESCRIPTION=Institute of Organic Chemistry, Novosibirsk, USSR 1988
##NAMES=HP
##CAS NAME=Methyl 2-O-acetyl-3,4,6-tri-O-methyl-.alpha.-D-mannopyranoside
##MOLFORM=C12H22O7
##CAS REGISTRY NO=72922-28-2
##MP= -300
##BP= -300
##MW= 278
##$RETENTION INDEX=0
##$CONDENSED SPECTRUM=NO
##NPOINTS= 73
##XYDATA=(XY..XY) 1 
    41         87
    42         33
    43        399
    44         50
    45        309
    46          6
    47         15
    53         16
    54          6
    55         48
    56         14
    57         35
    58         38
    59         93
    61         13
    68         12
    69         27
    71        449
    72         68
    73        139
    74        499
    75        999
    76         29
    81         28
    82          8
    83         29
    84         30
    85         68
    86          8
    87        139
    88        599
    89        179
    90         10
    99         81
   100         10
   101        339
   102        169
   103         33
   109          9
   111         30
   112         26
   113         62
   114         14
   115         56
   116        159
   117         99
   118          9
   127         46
   128          2
   129         68
   130          8
   131         22
   141         51
   142          9
   143         20
   144         15
   145         33
   149         18
   155          9
   159         62
   173         74
   177         13
   186          8
   187         11
   201         10
   204         74
   205          8
   215         28
   216          4
   233         62
   234          7
   247         14
   248          3