##TITLE=Library Entry 45487
##JCAMP-DX=Revision 4.10 
##DATA TYPE=MASS SPECTRUM
##SAMPLE DESCRIPTION=Institute of Organic Chemistry, Novosibirsk, USSR 1988
##NAMES=HP
##CAS NAME=Methyl 2,6-di-O-acetyl-3,4-di-O-methyl-.alpha.-D-mannopyranoside
##MOLFORM=C13H22O8
##CAS REGISTRY NO=72922-29-3
##MP= -300
##BP= -300
##MW= 306
##$RETENTION INDEX=0
##$CONDENSED SPECTRUM=NO
##NPOINTS= 77
##XYDATA=(XY..XY) 1 
    41        109
    42         62
    43        659
    44         21
    45         13
    46         11
    53         18
    54          7
    57         30
    58         27
    59         66
    60          7
    61         18
    69         66
    70         45
    71        415
    72         27
    73          9
    74        619
    75        999
    76         41
    77          7
    81         30
    82          9
    83         19
    84         43
    85         62
    87        459
    88        789
    89         79
    95         13
    97         12
    98         11
    99         66
   100         12
   101        259
   102         27
   103         41
   109         24
   111         34
   112         44
   113         54
   114         12
   115         29
   116        229
   117        109
   127         64
   129        109
   130        149
   131         21
   141         58
   142          5
   143         16
   144          9
   145         17
   154         12
   155         18
   159         24
   161         14
   169          8
   171          6
   172         29
   173         14
   177         16
   182          4
   186          8
   187          3
   201         16
   204         37
   214         25
   215          8
   233          8
   243         18
   246          4
   247          4
   275         26
   276          5