##TITLE=Library Entry 8781
##JCAMP-DX=Revision 4.10 
##DATA TYPE=MASS SPECTRUM
##SAMPLE DESCRIPTION=Chemical Concepts
##NAMES=HP
##CAS NAME=3,4-Nonanedione, 5-ethyl-2-methyl-, 4-oxime
##MOLFORM=C12H23NO2
##CAS REGISTRY NO=72936-50-6
##MP= -300
##BP= -300
##MW= 213
##$RETENTION INDEX=0
##$CONDENSED SPECTRUM=NO
##NPOINTS= 106
##XYDATA=(XY..XY) 1 
    26         11
    27        182
    28         61
    29        158
    30         14
    31          8
    38          8
    39        120
    40         23
    41        381
    42         70
    43        999
    44         56
    45         13
    46          8
    50          5
    51         12
    52         10
    53         35
    54         97
    55        158
    56         52
    57        283
    58         20
    59          8
    60          5
    63          3
    64          3
    65         11
    66          9
    67         32
    68         46
    69        107
    70         93
    71        563
    72         35
    73         21
    74          4
    76          4
    77         13
    79         16
    80         10
    81         24
    82         52
    83         35
    84         19
    85         14
    86         11
    87          6
    88         11
    91         14
    93         11
    94          9
    95         17
    96         52
    97         64
    98         58
    99         13
   100          9
   101          4
   104          4
   105          6
   107         12
   108          6
   109         22
   110         22
   111         12
   112          9
   113          6
   114          4
   115          6
   121          4
   122          7
   123          6
   124        112
   125         21
   126        187
   127         23
   128          7
   135          3
   136          4
   137          5
   138         18
   139         20
   140         21
   141          5
   142         68
   143          9
   151          9
   152         19
   153          9
   154         11
   157          8
   166         10
   167          5
   168          5
   170         12
   178         10
   179          6
   180         13
   195          3
   196        170
   197         24
   198          8
   213          7
   214          4