##TITLE=Library Entry 50217
##JCAMP-DX=Revision 4.10 
##DATA TYPE=MASS SPECTRUM
##SAMPLE DESCRIPTION=NIST Mass Spectrometry Data Center
##NAMES=HP
##CAS NAME=3,7-Dimethyloct-6-en-1-yl decanoate
##MOLFORM=C20H38O2
##CAS REGISTRY NO=72934-06-6
##MP= -300
##BP= -300
##MW= 310
##$RETENTION INDEX=2114
##$CONDENSED SPECTRUM=NO
##NPOINTS= 89
##XYDATA=(XY..XY) 1 
    17          3
    27         42
    29        102
    31          5
    38          3
    39         49
    40         15
    41        663
    42        116
    43        388
    44         30
    45         26
    50          2
    52          3
    53         61
    54         39
    55        443
    56        108
    57        290
    58         10
    59         17
    60         15
    65         11
    66          8
    67        362
    68        227
    69        937
    70        117
    71        132
    73         35
    74          3
    77          9
    79         38
    80        111
    81        999
    82        650
    83        239
    84         26
    85         84
    86          9
    87          8
    89          5
    91          9
    93         17
    94         54
    95        675
    96        182
    97         44
    98          9
    99          4
   101          7
   107         10
   109        259
   110         76
   111         25
   112          6
   113          5
   114          6
   115          7
   120          5
   123        707
   124         71
   125          6
   126          3
   128          3
   129          9
   132          2
   137         23
   138        400
   139         50
   140          4
   141          4
   142          2
   147          3
   152          3
   153          4
   155         77
   156          9
   157          3
   158          2
   167          2
   169          1
   171          2
   173          5
   189          2
   195          2
   221          2
   224          3
   250          2