##TITLE=Library Entry 31372
##JCAMP-DX=Revision 4.10 
##DATA TYPE=MASS SPECTRUM
##SAMPLE DESCRIPTION=NIST Mass Spectrometry Data Center
##NAMES=HP
##CAS NAME=6-(Methylthio)hexanenitrile
##MOLFORM=C7H13NS
##CAS REGISTRY NO=72931-29-4
##MP= -300
##BP= -300
##MW= 143
##$RETENTION INDEX=1312
##$CONDENSED SPECTRUM=NO
##NPOINTS= 58
##XYDATA=(XY..XY) 1 
    27         30
    30          3
    35         25
    37          4
    38          5
    39         59
    40         15
    41        139
    42         42
    44          5
    45         62
    46         34
    47         83
    48        112
    49         27
    50          7
    53         19
    54         34
    55        229
    56         14
    58         13
    59         29
    60         11
    61        999
    62         77
    63         52
    64          9
    66         10
    67         26
    68         53
    69        201
    70         11
    71          8
    73          9
    74          9
    75         61
    76          8
    80          7
    82         80
    83         26
    85         27
    86          3
    87         18
    88          4
    92          4
    94         20
    96        217
    97         95
    98          7
   100          6
   101         19
   102         13
   115          9
   128         23
   141         24
   143        419
   144         32
   145         19