##TITLE=Library Entry 25516
##JCAMP-DX=Revision 4.10 
##DATA TYPE=MASS SPECTRUM
##SAMPLE DESCRIPTION=Chemical Concepts
##NAMES=HP
##CAS NAME=11,16-Bis-decyl-hexacosane
##MOLFORM=C46H94
##CAS REGISTRY NO=72936-28-8
##MP= -300
##BP= -300
##MW= 646
##$RETENTION INDEX=0
##$CONDENSED SPECTRUM=NO
##NPOINTS= 341
##XYDATA=(XY..XY) 1 
    26          6
    27         15
    29         32
    38          4
    39         21
    40         12
    41         95
    42         36
    43        373
    44         51
    45         17
    46          3
    47          3
    48          3
    49          2
    50          7
    51         12
    52          3
    53          8
    54         28
    55        184
    56        141
    57        999
    58         68
    59          9
    60         10
    61          4
    62          6
    63          7
    64          7
    65          4
    66          6
    67         58
    68         66
    69        232
    70         99
    71        780
    72         86
    73         15
    74          4
    75          8
    76          5
    77         10
    78          6
    79         12
    80         11
    81         57
    82         91
    83        232
    84         96
    85        561
    86         66
    87          4
    88          3
    89          5
    90          5
    91         20
    92          6
    93         12
    94          7
    95         36
    96         73
    97        239
    98         78
    99        302
   100         35
   101          5
   102          5
   103          3
   104          5
   105         13
   106          4
   107          6
   108          4
   109         18
   110         42
   111        166
   112         55
   113        237
   114         28
   115          6
   116          7
   117          3
   118          4
   119          9
   120          5
   122          6
   123         15
   124         34
   125        114
   126         54
   127        167
   128         34
   129         10
   130          6
   131          3
   132          4
   133          7
   134          6
   135          5
   136          3
   137         11
   138         29
   139         86
   140         42
   141        145
   142         23
   143          7
   144          3
   146          3
   147          5
   148          4
   152         34
   153         66
   154         33
   155        128
   156         26
   157          6
   158          3
   159          4
   160         14
   161          6
   162          4
   163          4
   164          2
   165          7
   166         75
   167         96
   168         47
   169        114
   170         22
   171          5
   173          2
   175          2
   176          2
   177          4
   178          3
   179          7
   180         14
   181         37
   182         53
   183        102
   184         21
   185         10
   186          4
   187          2
   189          6
   191          5
   192          4
   193          3
   194         13
   195         34
   196         22
   197         99
   198         17
   199          7
   200          3
   202          4
   204          2
   205          6
   206          3
   207          9
   208         42
   209         45
   210         20
   211         79
   212         15
   213          4
   214          5
   216          3
   218          3
   219          3
   220          3
   221          4
   222         19
   223         30
   224         18
   225         81
   226         13
   228          3
   229          3
   232          3
   233          3
   234          4
   235          8
   236         27
   237         41
   238         16
   239         80
   240         13
   241          3
   246          3
   247          2
   249          3
   250          8
   251         17
   252         21
   253         66
   254         10
   255          5
   256          2
   260          3
   261          4
   262          4
   263          8
   264          6
   265          6
   266         21
   267         56
   268          9
   269          2
   270          1
   271          1
   276          0
   277          1
   278          3
   279          5
   280         17
   281         55
   282         13
   283          4
   285          2
   288          2
   289          2
   290          3
   291          4
   292         27
   293         52
   294        323
   295        179
   296         46
   297          5
   298          0
   305          1
   306          3
   307          5
   308         37
   309         56
   310         12
   311          4
   312          1
   314          1
   316          1
   318          0
   319          2
   320          2
   321          6
   322          9
   323         35
   324         14
   325          3
   329          2
   331          2
   333          1
   334          2
   335          2
   336          5
   337         31
   338         10
   339          2
   340          1
   348          2
   349          5
   350         88
   351        105
   352         26
   353          4
   360          1
   362         32
   363         71
   364         46
   365         44
   366         10
   367          2
   373          3
   374          1
   375          1
   376          1
   377          4
   378         35
   379         51
   380         17
   381          3
   391          1
   392          4
   393         28
   395          6
   396          3
   401          1
   402          3
   403          2
   404         21
   405          8
   406          1
   409          2
   411          2
   413         15
   414          6
   431         12
   432          4
   441          2
   447          2
   448          3
   449         17
   450          2
   456          1
   459          1
   461          1
   462          1
   463          5
   464          2
   465          3
   474          1
   476          2
   477          8
   479          2
   489          2
   490          3
   491          7
   492          4
   499          2
   500          2
   502          3
   504        105
   505        297
   506        135
   507         29
   508          3
   509          2
   510          1
   514          2
   515          9
   516          3
   523          1
   524          5
   525          2
   533          2
   534          2
   543          2
   544          2
   646          2