##TITLE=Library Entry 51221
##JCAMP-DX=Revision 4.10 
##DATA TYPE=MASS SPECTRUM
##SAMPLE DESCRIPTION=NIST Mass Spectrometry Data Center
##NAMES=HP
##CAS NAME=Tricosanal
##MOLFORM=C23H46O
##CAS REGISTRY NO=72934-02-2
##MP= -300
##BP= -300
##MW= 338
##$RETENTION INDEX=2531
##$CONDENSED SPECTRUM=NO
##NPOINTS= 70
##XYDATA=(XY..XY) 1 
    29         79
    39         29
    41        360
    42         82
    43        621
    44        170
    45         33
    54         81
    55        572
    56        185
    57        831
    58         70
    66         81
    67        360
    68        504
    69        496
    70        204
    71        465
    72         63
    79         50
    81        348
    82        999
    83        599
    84        112
    85        238
    86         37
    95        370
    96        700
    97        523
    98         84
    99         65
   109        254
   110        282
   111        218
   112         56
   113         31
   123        153
   124        168
   125         62
   126         21
   137         87
   138        107
   139         27
   151         33
   152         57
   153         31
   154         16
   158         19
   165         27
   166         38
   180         29
   192         12
   194         18
   207         31
   208         22
   222         35
   224         17
   236         36
   238         15
   249         19
   250         31
   264         43
   278         27
   279         11
   292         75
   293         19
   294         22
   320        161
   321         33
   338         16