##TITLE=Library Entry 35258
##JCAMP-DX=Revision 4.10 
##DATA TYPE=MASS SPECTRUM
##SAMPLE DESCRIPTION=NIST Mass Spectrometry Data Center
##NAMES=HP
##CAS NAME=(E)-3,7-Dimethylocta-2,6-dien-1-yl tetradecanoate
##MOLFORM=C24H44O2
##CAS REGISTRY NO=72934-10-2
##MP= -300
##BP= -300
##MW= 364
##$RETENTION INDEX=2548
##$CONDENSED SPECTRUM=NO
##NPOINTS= 85
##XYDATA=(XY..XY) 1 
    27         20
    29         50
    39         37
    40         13
    41        485
    42         53
    43        344
    44         17
    46          2
    51          7
    52          8
    53         93
    54         35
    55        218
    56         39
    57        300
    58         10
    59          9
    64          2
    65         11
    67        204
    68        551
    69        999
    70        164
    71        187
    72          9
    75         14
    76          9
    77         37
    78         13
    79         78
    80        363
    81        185
    82         61
    83         71
    84         24
    85         72
    86          4
    91         33
    92        157
    93        541
    94        114
    95         79
    96         50
    97         39
    98          9
    99         10
   100          9
   103          8
   104         32
   105        124
   106         20
   107         98
   108         45
   109         43
   110         21
   111         12
   112         14
   113         27
   114          7
   115         11
   118          4
   120         11
   121        372
   122         47
   123         82
   124          7
   126          6
   132          6
   136        193
   137         50
   138         11
   139         15
   140          6
   141          5
   149         43
   150         16
   154         21
   159          5
   161          3
   167         27
   168          7
   169          5
   211         30
   212          4