##TITLE=Library Entry 35257
##JCAMP-DX=Revision 4.10 
##DATA TYPE=MASS SPECTRUM
##SAMPLE DESCRIPTION=NIST Mass Spectrometry Data Center
##NAMES=HP
##CAS NAME=(E)-3,7-Dimethylocta-2,6-dien-1-yl dodecanoate
##MOLFORM=C22H40O2
##CAS REGISTRY NO=72934-09-9
##MP= -300
##BP= -300
##MW= 336
##$RETENTION INDEX=2349
##$CONDENSED SPECTRUM=NO
##NPOINTS= 89
##XYDATA=(XY..XY) 1 
    17          2
    26          4
    27         37
    28         12
    29         80
    30          1
    31          3
    37          2
    38          2
    39         58
    40         18
    41        456
    42         55
    43        283
    45          9
    50          2
    51          6
    52          5
    53         67
    54         42
    55        193
    56         26
    57        192
    58         11
    59         10
    60         13
    61          5
    65         19
    66         11
    67        220
    68        560
    69        999
    70         76
    71         95
    72          8
    73         18
    74          8
    77         32
    78         15
    79         86
    80        355
    81        177
    82         31
    83         51
    84         28
    85         59
    88          8
    91         36
    92        158
    93        553
    94        127
    95         83
    96          7
    97         42
    98         14
    99          9
   100          4
   101          8
   102          3
   103          5
   104         13
   105         49
   106         11
   107         95
   108         38
   109         32
   110         13
   111         21
   112          5
   113         10
   115         16
   118          3
   119         18
   120          6
   121        343
   122         38
   123         50
   125          8
   126          4
   127          6
   133          6
   134          2
   135          9
   136        177
   137         36
   138          8
   139         13
   181          6
   183         43