##TITLE=Library Entry 24538
##JCAMP-DX=Revision 4.10 
##DATA TYPE=MASS SPECTRUM
##SAMPLE DESCRIPTION=NIST Mass Spectrometry Data Center
##NAMES=HP
##CAS NAME=Hexadecyl nonanoate
##MOLFORM=C25H50O2
##CAS REGISTRY NO=72934-15-7
##MP= -300
##BP= -300
##MW= 382
##$RETENTION INDEX=2675
##$CONDENSED SPECTRUM=NO
##NPOINTS= 80
##XYDATA=(XY..XY) 1 
    27         39
    29        145
    39         55
    40         12
    41        549
    42        134
    43        991
    44         37
    53         30
    54        119
    55        799
    56        341
    57        999
    58         50
    59         13
    60         57
    61        100
    66         14
    67        175
    68        162
    69        659
    70        341
    71        575
    72         30
    73         92
    74         11
    81        130
    82        236
    83        641
    84        232
    85        223
    86         17
    87         31
    89         27
    95         48
    96        131
    97        523
    98        140
    99         52
   101         24
   102          6
   103         15
   109         23
   110         51
   111        303
   112        101
   113         27
   115         67
   116         35
   123         29
   124         32
   125        139
   126         55
   129         60
   138         30
   139         56
   140         41
   141        233
   142         21
   152         11
   153         19
   154         20
   158        111
   159        869
   160         91
   166          7
   167         11
   168         14
   181          9
   195          8
   196         37
   214          9
   224         99
   225         19
   269         39
   270          7
   297          3
   340          2
   382         35
   383          7