##TITLE=Library Entry 35436
##JCAMP-DX=Revision 4.10 
##DATA TYPE=MASS SPECTRUM
##SAMPLE DESCRIPTION=NIST Mass Spectrometry Data Center
##NAMES=HP
##CAS NAME=3,7-Dimethyloct-6-en-1-yl dodecanoate
##MOLFORM=C22H42O2
##CAS REGISTRY NO=72934-07-7
##MP= -300
##BP= -300
##MW= 338
##$RETENTION INDEX=2313
##$CONDENSED SPECTRUM=NO
##NPOINTS= 75
##XYDATA=(XY..XY) 1 
    27         35
    28         41
    29        100
    31          7
    38          3
    39         70
    40         22
    41        642
    42        102
    43        404
    50          4
    51          5
    53         74
    54         21
    55        486
    56        100
    57        386
    58         12
    59          9
    60         17
    61          5
    66         14
    67        293
    68        180
    69        999
    70        126
    71        104
    72          5
    73         14
    77         18
    79         35
    80        124
    81        998
    82        654
    83        287
    84         41
    85         61
    86          6
    87          4
    94         67
    95        676
    96        185
    97         74
    98         22
    99          8
   101          5
   108          7
   109        264
   110         71
   111         26
   112         10
   113         10
   115         10
   119          6
   121         19
   122         11
   123        776
   124         81
   125          5
   129         11
   132          4
   137         20
   138        511
   139         65
   140          7
   147          5
   148          4
   156          3
   157          3
   171          3
   180          3
   181          3
   183         58
   184          7
   202          3