##TITLE=Library Entry 50213
##JCAMP-DX=Revision 4.10 
##DATA TYPE=MASS SPECTRUM
##SAMPLE DESCRIPTION=NIST Mass Spectrometry Data Center
##NAMES=HP
##CAS NAME=3,7-Dimethyloct-6-en-1-yl nonanoate
##MOLFORM=C19H36O2
##CAS REGISTRY NO=72934-18-0
##MP= -300
##BP= -300
##MW= 296
##$RETENTION INDEX=2016
##$CONDENSED SPECTRUM=NO
##NPOINTS= 54
##XYDATA=(XY..XY) 1 
    26          7
    27         52
    29        107
    39         91
    41        649
    42        113
    43        311
    44         22
    45         20
    46          4
    53         45
    55        454
    56         83
    57        365
    60         49
    65         32
    67        347
    68        195
    69        957
    70         84
    71        184
    72         19
    73         26
    77         20
    78         11
    79         27
    80        109
    81        999
    82        688
    83        222
    93         26
    94         74
    95        680
    96        153
    98         26
   101         12
   109        274
   110         57
   111         29
   112          9
   114          7
   115         27
   123        756
   124        100
   129         13
   133          6
   134          6
   137         21
   138        400
   139         50
   140          5
   141        104
   142         11
   169          6