##TITLE=Library Entry 57636
##JCAMP-DX=Revision 4.10 
##DATA TYPE=MASS SPECTRUM
##SAMPLE DESCRIPTION=Institute of Organic Chemistry, Novosibirsk, USSR 1988
##NAMES=HP
##CAS NAME=Methyl 4-O-acetyl-2,3-di-O-methyl-6-deoxy-.alpha.-D-mannopyranosi
de
##MOLFORM=C11H20O6
##CAS REGISTRY NO=72945-56-3
##MP= -300
##BP= -300
##MW= 248
##$RETENTION INDEX=0
##$CONDENSED SPECTRUM=NO
##NPOINTS= 65
##XYDATA=(XY..XY) 1 
    40          3
    41         27
    42         11
    43        339
    44          8
    45         97
    46          2
    47          5
    53          9
    54          3
    55         21
    56          4
    57         25
    58         11
    59         35
    60          2
    61         19
    67          5
    68          2
    69          9
    70          3
    71         16
    72         22
    73        126
    74        124
    75        319
    76          9
    81          5
    82          3
    83         19
    84          2
    85        123
    86          7
    87         30
    88        999
    89         61
    97         19
    98          6
    99         13
   100         10
   101         96
   102          6
   103         11
   111          3
   113         10
   114          9
   115         17
   116         66
   117         14
   119          5
   125         15
   128         12
   129         20
   131          5
   143          4
   145          5
   156          2
   157         31
   158          2
   175          2
   185          1
   204         18
   205          2
   217         19
   218          2