##TITLE=Library Entry 11251
##JCAMP-DX=Revision 4.10 
##DATA TYPE=MASS SPECTRUM
##SAMPLE DESCRIPTION=Institute of Organic Chemistry, Novosibirsk, USSR 1988
##NAMES=HP
##CAS NAME=Methyl 2,3,4-tri-O-acetyl-6-O-methyl-.alpha.-D-galactopyranoside
##MOLFORM=C14H22O9
##CAS REGISTRY NO=72945-53-0
##MP= -300
##BP= -300
##MW= 334
##$RETENTION INDEX=0
##$CONDENSED SPECTRUM=NO
##NPOINTS= 83
##XYDATA=(XY..XY) 1 
    41        119
    42         89
    43        999
    44         89
    45        469
    53         59
    55         99
    56         39
    57         99
    58        209
    59        179
    60         99
    61         89
    68         59
    69        419
    70        359
    71        299
    72        169
    73        329
    74        239
    80         59
    81        349
    82        209
    83         89
    84         69
    85        359
    86         99
    87        889
    95         39
    97        239
    98        509
    99        409
   100         99
   101        119
   102        169
   103        359
   104         25
   109        189
   110        209
   112        539
   113        999
   114         89
   115        479
   116        129
   117        229
   127        269
   128        269
   129        419
   130        239
   131        119
   132         69
   140        419
   141        539
   142         59
   143         39
   144        539
   145        179
   154         25
   155         72
   157        509
   158         85
   159         59
   169        389
   170        179
   171         85
   172        359
   173         85
   182         59
   183         89
   184         12
   185          5
   187         46
   188          5
   189          5
   200         32
   201         25
   214         99
   215        299
   216         45
   243         39
   274         19
   289         79
   303         72