##TITLE=Library Entry 40942
##JCAMP-DX=Revision 4.10 
##DATA TYPE=MASS SPECTRUM
##SAMPLE DESCRIPTION=NIST Mass Spectrometry Data Center
##NAMES=HP
##CAS NAME=3,4,4-Trimethyl-3-pentanol
##MOLFORM=C8H18O
##CAS REGISTRY NO=7294-05-5
##MP= -300
##BP= -300
##MW= 130
##$RETENTION INDEX=1277
##$CONDENSED SPECTRUM=NO
##NPOINTS= 57
##XYDATA=(XY..XY) 1 
    15         10
    19          2
    26          4
    27         67
    29        115
    30          3
    31         35
    37          1
    38          3
    39         85
    40         11
    41        205
    42         21
    43        299
    44         12
    45        106
    46          2
    50          3
    51          8
    52          2
    53         26
    54          4
    55        551
    56         37
    57        179
    58         14
    59        297
    60         10
    63          1
    65          5
    66          1
    67         13
    68          1
    69         21
    70          2
    71        110
    72         49
    73        999
    74         48
    75          3
    77          2
    79          4
    81          4
    83        236
    84         21
    85         16
    86         10
    97         28
    98          2
    99          3
   101        424
   102         28
   103          1
   112          1
   113          1
   115         76
   116          6