##TITLE=Library Entry 85725
##JCAMP-DX=Revision 4.10 
##DATA TYPE=MASS SPECTRUM
##SAMPLE DESCRIPTION=Exported from NIST MS Search
##NAMES=HP
##CAS NAME=Pyridine, 3-methoxy-
##MOLFORM=C6H7NO
##CAS REGISTRY NO=7295-76-3
##MP= -300
##BP= -300
##MW= 109
##$RETENTION INDEX=1005
##$CONDENSED SPECTRUM=NO
##NPOINTS= 14
##XYDATA=(XY..XY) 1 
    43        100
    50         40
    51         60
    52         40
    65         30
    66        380
    67         40
    78         60
    79         90
    93         20
    94        110
   108         20
   109        999
   110         90