##TITLE=Library Entry 16212
##JCAMP-DX=Revision 4.10 
##DATA TYPE=MASS SPECTRUM
##SAMPLE DESCRIPTION=V.A.Korolev, Moscow, Russia
##NAMES=HP
##CAS NAME=5-(2-Aminoethoxy)-2H-1,3-benzodioxole
##MOLFORM=C9H11NO3
##CAS REGISTRY NO=72955-85-2
##MP= -300
##BP= -300
##MW= 181
##$RETENTION INDEX=0
##$CONDENSED SPECTRUM=NO
##NPOINTS= 42
##XYDATA=(XY..XY) 1 
    29         53
    30        391
    37         25
    38         38
    39        101
    40         35
    41         95
    42        275
    43        146
    44        999
    45         28
    49         15
    50        124
    51        168
    52        129
    53        282
    54         33
    55         29
    61         24
    62         87
    63        152
    64         10
    65        160
    66         15
    69         43
    79         97
    80         35
    81         12
    82         13
    91         13
    93          5
   107         41
   108          6
   109          6
   121         57
   122          4
   137        283
   138        722
   139         52
   140          2
   181        110
   182          9