##TITLE=Library Entry 4473
##JCAMP-DX=Revision 4.10 
##DATA TYPE=MASS SPECTRUM
##SAMPLE DESCRIPTION=V.A.KOPTYUG, ATLAS OF MASS SPECTRA OF ORGANIC COMPOUNDS
##NAMES=HP
##CAS NAME=3-Imidazoline-3-oxide-1-oxyl, 2,2,4,5,5-pentamethyl-
##MOLFORM=C8H15N2O2
##CAS REGISTRY NO=72960-74-8
##MP= -300
##BP= -300
##MW= 171
##$RETENTION INDEX=0
##$CONDENSED SPECTRUM=NO
##NPOINTS= 89
##XYDATA=(XY..XY) 1 
    36         19
    37          7
    38         17
    39        243
    40         66
    41        961
    42        999
    43        272
    44        123
    45          6
    50         10
    51         19
    52         11
    53         86
    54         19
    55         57
    56        527
    57        481
    58         70
    59        155
    60          6
    62          3
    63          3
    64          2
    65         18
    66          9
    67         94
    68         74
    69        791
    70         60
    71         11
    72          5
    73         25
    74        100
    75        119
    76          5
    82         82
    83        357
    84         83
    85        109
    86         16
    99        160
   100         38
   101          8
   102          2
   103          3
   104          3
   105          4
   107          2
   108         12
   109         20
   110         47
   111         19
   112          3
   113          3
   114          2
   115          3
   116          5
   117          3
   119          2
   120          2
   121          2
   122          5
   123          6
   124         12
   125         52
   126         17
   127          4
   128          2
   129          2
   131          4
   137          2
   138          3
   139          4
   140         17
   141        358
   142         62
   143          6
   149          9
   154          3
   155          9
   156        126
   157         19
   158          4
   169          6
   170         14
   171        242
   172         58
   173          7