##TITLE=Library Entry 41102
##JCAMP-DX=Revision 4.10 
##DATA TYPE=MASS SPECTRUM
##SAMPLE DESCRIPTION=Japan AIST/NIMC Database- Spectrum MS-IW-6627
##NAMES=HP
##CAS NAME=.beta.-L-Arabinopyranose
##MOLFORM=C5H10O5
##CAS REGISTRY NO=7296-56-2
##MP= -300
##BP= -300
##MW= 150
##$RETENTION INDEX=0
##$CONDENSED SPECTRUM=NO
##NPOINTS= 91
##XYDATA=(XY..XY) 1 
    13          2
    14          9
    15         55
    16          1
    17         25
    18        110
    19         11
    25          2
    26         16
    27         47
    28         56
    29        161
    30         47
    31        242
    32         65
    33          9
    37          3
    38          5
    39         31
    40         17
    41         30
    42        108
    43        284
    44        106
    45         79
    46          3
    47         32
    49          3
    50          2
    51          2
    52          2
    53          6
    54         20
    55         65
    56         50
    57        151
    58         44
    59         10
    60        493
    61        247
    62         10
    63          1
    65          1
    66          1
    67          4
    68         33
    69         29
    70          5
    71        154
    72         85
    73        999
    74         76
    75         10
    76          2
    77          5
    79          1
    80          2
    81          3
    82          4
    83         10
    84         15
    85         32
    86         76
    87         11
    88          3
    89         13
    90         10
    91         35
    92          1
    94          1
    95         26
    96         40
    97          6
    98         10
    99          1
   100          1
   101         72
   102         27
   103         38
   104          4
   112          2
   113          1
   114         23
   115          6
   116          1
   119         45
   120          3
   121          1
   132          2
   133         13
   134          1