##TITLE=Library Entry 100273
##JCAMP-DX=Revision 4.10 
##DATA TYPE=MASS SPECTRUM
##SAMPLE DESCRIPTION=NIST Mass Spectrometry Data Center
##NAMES=HP
##CAS NAME=(1R,4R,5S)-1,8-Dimethyl-4-(prop-1-en-2-yl)spiro[4.5]dec-7-ene
##MOLFORM=C15H24
##CAS REGISTRY NO=729602-94-2
##MP= -300
##BP= -300
##MW= 204
##$RETENTION INDEX=1475
##$CONDENSED SPECTRUM=NO
##NPOINTS= 103
##XYDATA=(XY..XY) 1 
    26          2
    27         45
    28          6
    29         57
    30          2
    37          1
    38          3
    39        132
    40         33
    41        272
    42         26
    43         51
    44          1
    50          7
    51         39
    52         20
    53        147
    54         19
    55        187
    56         79
    57         29
    58          4
    59          2
    62          2
    63         15
    64          7
    65         90
    66         27
    67        218
    68        174
    69        124
    70         32
    71          4
    73          1
    74          2
    75          2
    76          2
    77        233
    78         49
    79        342
    80         64
    81        176
    82         47
    83         22
    84         10
    87          1
    89          5
    90          2
    91        275
    92        125
    93        495
    94        139
    95         86
    96         11
    97          9
   101          1
   102          4
   103         22
   104          8
   105        357
   106         83
   107        208
   108        116
   109         86
   110          8
   115         28
   116         10
   119        999
   120        135
   121        559
   122        102
   123         33
   124          8
   125          1
   127          4
   128          9
   129          8
   130          4
   131         23
   133        130
   134         88
   135         73
   136         42
   137          5
   146         16
   147        121
   148         72
   149         22
   150          3
   160          4
   161        140
   162         31
   163          8
   164          1
   175         23
   176          8
   177          1
   189         87
   190         14
   191          1
   204        115
   205         20
   206          1