##TITLE=Library Entry 57888
##JCAMP-DX=Revision 4.10 
##DATA TYPE=MASS SPECTRUM
##SAMPLE DESCRIPTION=Institute of Organic Chemistry, Novosibirsk, USSR 1988
##NAMES=HP
##CAS NAME=Methyl 2,3,4-tri-O-methyl-6-deoxy-.alpha.-D-mannopyranoside
##MOLFORM=C10H20O5
##CAS REGISTRY NO=72983-16-5
##MP= -300
##BP= -300
##MW= 220
##$RETENTION INDEX=0
##$CONDENSED SPECTRUM=NO
##NPOINTS= 32
##XYDATA=(XY..XY) 1 
    41         41
    42          5
    43         25
    44          6
    45        105
    46          4
    55         15
    57         23
    59         32
    71         20
    72         73
    73        149
    75        289
    76          7
    88        999
    89         52
    95         20
    96          4
    97          2
   101        179
   102          8
   113          2
   114          1
   115          5
   116          1
   117          1
   119         18
   129         17
   131          9
   145          3
   176         12
   189          0