##TITLE=Library Entry 38637
##JCAMP-DX=Revision 4.10 
##DATA TYPE=MASS SPECTRUM
##SAMPLE DESCRIPTION=J. KAMINSKA, INST. GEN. FOOD CHEM., TECH. UNIV. LODZ, P
OLAND
##NAMES=HP
##CAS NAME=p-Menth-8-en-1-ol, stereoisomer
##MOLFORM=C10H18O
##CAS REGISTRY NO=7299-40-3
##MP= -300
##BP= -300
##MW= 154
##$RETENTION INDEX=1161
##$CONDENSED SPECTRUM=NO
##NPOINTS= 132
##XYDATA=(XY..XY) 1 
    24          0
    25          1
    26         12
    27        186
    28         51
    29        256
    30         39
    31        454
    32        275
    33          8
    34          0
    35          3
    36          1
    37          2
    38         13
    39        278
    40         75
    41        428
    42         50
    43        901
    44         29
    45         36
    46          2
    47         11
    48          3
    49          3
    50         15
    51         38
    52         23
    53        195
    54         42
    55        279
    56         76
    57         46
    58        296
    59         48
    60          3
    61          7
    62         19
    63         11
    64          3
    65         50
    66         27
    67        255
    68        316
    69        447
    70         35
    71        999
    72         48
    73         12
    74          2
    75          2
    76          1
    77         71
    78         16
    79        269
    80         52
    81        185
    82         60
    83        101
    84        180
    85         14
    86          5
    87          0
    88          0
    89          1
    90          1
    91         56
    92         47
    93        453
    94        191
    95        109
    96         30
    97         47
    98          5
    99          3
   100          0
   101          0
   102          0
   103          3
   104          1
   105         27
   106         11
   107        418
   108        334
   109         46
   110          6
   111        128
   112          7
   113          0
   114          0
   115          1
   116          0
   117         45
   118          0
   119         48
   120          2
   121        423
   122         41
   123          5
   124          1
   125          7
   126         14
   127          1
   128          1
   129          0
   130          0
   131          0
   132          0
   133          0
   134          0
   135          7
   136        601
   137         85
   138          3
   139         74
   140          6
   141          1
   142          0
   143          0
   145          0
   146          0
   147          0
   148          0
   149          0
   150          0
   151          0
   152         10
   153          1
   154          3
   155          1
   156          0