##TITLE=Library Entry 34902
##JCAMP-DX=Revision 4.10 
##DATA TYPE=MASS SPECTRUM
##SAMPLE DESCRIPTION=D.HENNEBERG, MAX-PLANCK INSTITUTE, MULHEIM, WEST GERMAN
Y
##NAMES=HP
##CAS NAME=Cyclopentane, 1-butyl-2-ethyl-
##MOLFORM=C11H22
##CAS REGISTRY NO=72993-32-9
##MP= -300
##BP= -300
##MW= 154
##$RETENTION INDEX=1108
##$CONDENSED SPECTRUM=NO
##NPOINTS= 69
##XYDATA=(XY..XY) 1 
    21          0
    22          0
    23          1
    24          4
    25          2
    26          5
    27        118
    28          0
    29        117
    30          4
    33          1
    35          1
    36          0
    37          5
    38          3
    39         88
    41        402
    42        155
    43        287
    47          0
    49          0
    50          2
    51          6
    52          4
    53         38
    54         38
    55        573
    56        271
    57        106
    58          3
    60          1
    63          1
    64          0
    65         11
    66         30
    67        162
    68         39
    69        999
    70        201
    71         37
    72          1
    75          1
    77          8
    78          1
    79         10
    80          2
    81         30
    82         35
    83         98
    84        148
    85         36
    86          1
    91          1
    93          0
    95          9
    96          7
    97         45
    98         45
    99          6
   109         11
   110         93
   111        297
   112         35
   113          1
   124          1
   125         15
   126         64
   127          5
   154         11