##TITLE=Library Entry 8787
##JCAMP-DX=Revision 4.10 
##DATA TYPE=MASS SPECTRUM
##SAMPLE DESCRIPTION=Mark Whitten, Florida Museum of Natural History, U. of
 Florida
##NAMES=HP
##CAS NAME=Cyclohexanol, 1-methyl-4-(1-methylethenyl)-, cis-
##MOLFORM=C10H18O
##CAS REGISTRY NO=7299-41-4
##MP= -300
##BP= -300
##MW= 154
##$RETENTION INDEX=1144
##$CONDENSED SPECTRUM=NO
##NPOINTS= 60
##XYDATA=(XY..XY) 1 
    41        500
    43        999
    44         31
    45         39
    50         17
    51         54
    52         24
    53        136
    55        335
    56         46
    57         48
    58         87
    59         23
    61          5
    62          7
    63         14
    65         45
    66         22
    67        142
    68         63
    69        240
    71        534
    72         36
    77         87
    78         19
    79        171
    80         88
    81        230
    82         35
    83        120
    84         77
    85         12
    86         27
    91         76
    92         94
    93        316
    94         99
    95         63
    96         54
    97         68
    98         13
   105         25
   106          7
   107         54
   108         20
   109         23
   110         19
   111        183
   112         17
   119          8
   121        141
   122         14
   123          7
   125         24
   126         11
   136         71
   137         12
   139        110
   140         13
   154         26