##TITLE=Library Entry 35586
##JCAMP-DX=Revision 4.10 
##DATA TYPE=MASS SPECTRUM
##SAMPLE DESCRIPTION=Japan AIST/NIMC Database- Spectrum MS-NW-1088
##NAMES=HP
##CAS NAME=2-Butenoic acid, butyl ester
##MOLFORM=C8H14O2
##CAS REGISTRY NO=7299-91-4
##MP= -300
##BP= -300
##MW= 142
##$RETENTION INDEX=1046
##$CONDENSED SPECTRUM=NO
##NPOINTS= 54
##XYDATA=(XY..XY) 1 
    14          1
    15          8
    18          1
    26          8
    27         61
    28         23
    29         93
    30          3
    31          9
    32          4
    37          3
    38         11
    39        160
    40         30
    41        362
    42         21
    43         16
    44          3
    45          8
    51          2
    53          4
    54          2
    55         48
    56        180
    57         31
    58          1
    67          1
    68         18
    69        999
    70         49
    71          7
    72          2
    73          8
    74          1
    80          1
    81          1
    82          9
    83          2
    84          1
    85          5
    86          9
    87        576
    88         26
    89          2
    96          1
    97          2
    99         14
   100          3
   101          4
   109          2
   113          6
   114          1
   127         14
   142          1