##TITLE=Library Entry 71304
##JCAMP-DX=Revision 4.10 
##DATA TYPE=MASS SPECTRUM
##SAMPLE DESCRIPTION=Humboldt-Universitat zu Berlin, Department of Chemistry
, Analytical Group
##NAMES=HP
##CAS NAME=.beta.-Piperidinopropiophenone
##MOLFORM=C14H19NO
##CAS REGISTRY NO=73-63-2
##MP= -300
##BP= -300
##MW= 217
##$RETENTION INDEX=0
##$CONDENSED SPECTRUM=NO
##NPOINTS= 72
##XYDATA=(XY..XY) 1 
    15         35
    18          7
    26         12
    27         75
    28        120
    29         60
    30         47
    31          2
    37          1
    39         54
    41        168
    42        201
    43         30
    44         74
    45          2
    50         26
    51         97
    52         10
    53         14
    54         35
    55        153
    56         80
    57         10
    58          4
    62          2
    63          5
    64          2
    65         10
    66          2
    67          9
    68         19
    69         63
    70         70
    71          4
    74          5
    75          6
    77        213
    78         19
    79          7
    80          5
    81          3
    82         15
    83         15
    84         39
    85          6
    89          3
    91         19
    92          2
    94          3
    96         76
    97        264
    98        999
    99         68
   100          2
   103          6
   105        113
   106         10
   110         16
   112         51
   113          4
   115          2
   120          2
   124          2
   131          2
   132          4
   133          8
   200          1
   212          2
   216          6
   217         25
   218          8
   219          1