##TITLE=Library Entry 54860
##JCAMP-DX=Revision 4.10 
##DATA TYPE=MASS SPECTRUM
##SAMPLE DESCRIPTION=NIST Mass Spectrometry Data Center
##NAMES=HP
##CAS NAME=2(3H)-Furanone, 5-dodecyldihydro-
##MOLFORM=C16H30O2
##CAS REGISTRY NO=730-46-1
##MP= -300
##BP= -300
##MW= 254
##$RETENTION INDEX=2105
##$CONDENSED SPECTRUM=NO
##NPOINTS= 92
##XYDATA=(XY..XY) 1 
    27         31
    28         20
    29        129
    30          3
    39         47
    41        280
    42         75
    43        300
    44         18
    45          7
    53         25
    54         54
    55        391
    56        212
    57        255
    58         28
    59         15
    60         22
    67         99
    68        104
    69        294
    70        167
    71        112
    72         25
    73         54
    79         21
    80         13
    81         92
    82        101
    83        240
    84        169
    85        999
    86         54
    87         26
    94         20
    95         77
    96        123
    97        196
    98        131
    99         32
   100         95
   101         53
   102          6
   109         54
   110         92
   111        129
   112         55
   113         24
   114         83
   115         24
   116          6
   119         27
   121         17
   122         14
   123         58
   124         49
   125         55
   126         26
   127         36
   128         85
   133         17
   134         24
   135         11
   136         11
   137         46
   138         41
   139         24
   140          8
   141         20
   142          7
   148         10
   151         28
   152         36
   153         13
   154         16
   156          4
   158          5
   169          5
   179          8
   180          5
   182          4
   192         58
   193         14
   194         28
   195          8
   207          7
   208          5
   215          2
   218         24
   219          4
   236         35
   237          5