##TITLE=Library Entry 54277
##JCAMP-DX=Revision 4.10 
##DATA TYPE=MASS SPECTRUM
##SAMPLE DESCRIPTION=Japan AIST/NIMC Database- Spectrum MS-NW-2090
##NAMES=HP
##CAS NAME=.gamma.-L-Glutamyl-4-nitro anilide
##MOLFORM=C11H13N3O5
##CAS REGISTRY NO=7300-59-6
##MP= -300
##BP= -300
##MW= 267
##$RETENTION INDEX=0
##$CONDENSED SPECTRUM=NO
##NPOINTS= 190
##XYDATA=(XY..XY) 1 
    12          6
    13          3
    14          8
    15         14
    16         21
    17         15
    18         54
    24          3
    25         11
    26         80
    27        113
    28        383
    29         42
    30         73
    31          4
    32          6
    36         10
    37         37
    38         72
    39        254
    40         45
    41        337
    42         37
    43         19
    44        390
    45         36
    46         11
    49          6
    50         64
    51         70
    52        137
    53         94
    54        121
    55         95
    56        199
    57         25
    58          2
    59          2
    60          7
    61         16
    62         40
    63        108
    64         91
    65        718
    66         91
    67         42
    68         11
    69         10
    70          5
    71          8
    72          3
    73         21
    74         24
    75         35
    76         48
    77         46
    78         33
    79         33
    80        154
    81         54
    82         22
    83        124
    84        999
    85         49
    86          7
    87          7
    88          6
    89         10
    90         32
    91         65
    92        438
    93         53
    94          7
    95          7
    96          3
    97          6
    98          6
    99          3
   100          2
   101          9
   102         20
   103         29
   104         25
   105         19
   106         35
   107         46
   108        391
   109         40
   110          4
   111          5
   112          2
   113          2
   114          2
   115          6
   116          9
   117         18
   118         38
   119         15
   120          5
   121          4
   122         87
   123          8
   124          3
   125          2
   126          2
   127          4
   128         13
   129         56
   130         50
   131         13
   132          8
   133          6
   134         11
   135          4
   137          4
   138        858
   139         70
   140          9
   141          4
   142          9
   143         10
   144          9
   145         18
   146          9
   147          4
   148          5
   149          6
   150          3
   151          2
   153          2
   154          7
   155         33
   156         61
   157         96
   158         78
   159         12
   160          4
   161          1
   162          3
   163          3
   164          7
   165          2
   167          1
   168          3
   169         12
   170         21
   171         62
   172         14
   173         43
   174         19
   175         30
   176         43
   177          9
   180          5
   181          1
   183          2
   184          9
   185          6
   186          5
   187         18
   188          6
   189          5
   190          2
   191          1
   192          1
   194          2
   195          1
   196          2
   200          2
   201          7
   202          8
   203        206
   204        169
   205         28
   206          2
   216          3
   217          5
   218          5
   219         13
   220          4
   221         11
   222         14
   223          2
   228          2
   229          2
   233          5
   247          4
   248          6
   249         50
   250          8