##TITLE=Library Entry 1107
##JCAMP-DX=Revision 4.10 
##DATA TYPE=MASS SPECTRUM
##SAMPLE DESCRIPTION=Japan AIST/NIMC Database- Spectrum MS-IW- 973
##NAMES=HP
##CAS NAME=4,9-Dioxa-1,12-dodecanediamine
##MOLFORM=C10H24N2O2
##CAS REGISTRY NO=7300-34-7
##MP= -300
##BP= -300
##MW= 204
##$RETENTION INDEX=0
##$CONDENSED SPECTRUM=NO
##NPOINTS= 115
##XYDATA=(XY..XY) 1 
    15          7
    16          6
    17         11
    18         41
    26          7
    27         30
    28         96
    29         51
    30        999
    31         66
    32          6
    38          1
    39         20
    40          7
    41        159
    42         70
    43        102
    44        115
    45        128
    46          5
    47          1
    51          3
    52          5
    53          9
    54         15
    55        102
    56        312
    57        507
    58        808
    59        226
    60         11
    62          1
    65          2
    66          2
    67          5
    68          9
    69         10
    70         29
    71        160
    72         30
    73         61
    74        354
    75         90
    76        264
    77         12
    78          3
    79          6
    80          2
    81          9
    82          7
    83          7
    84         19
    85         23
    86         33
    87          4
    88         13
    89          6
    90          3
    91          2
    92          2
    93          5
    94          3
    95          4
    96          4
    97          5
    98          6
    99          4
   100        115
   101         12
   102          4
   103         16
   104          3
   105          1
   106          3
   107          3
   109          2
   110          1
   111          1
   112          3
   113          5
   114        143
   115         12
   116          7
   117         48
   118          4
   119          3
   122          4
   123          1
   124          2
   126          1
   128          7
   129          4
   130        100
   131         58
   132          5
   133          2
   134          3
   136          1
   146        292
   147         27
   148        417
   149         34
   150          4
   151          2
   155          2
   160          1
   161          9
   162          2
   172          2
   174          7
   175          3
   186          1
   188          5
   205         11
   206          1