##TITLE=Library Entry 24849
##JCAMP-DX=Revision 4.10 
##DATA TYPE=MASS SPECTRUM
##SAMPLE DESCRIPTION=NIST Mass Spectrometry Data Center, 1994
##NAMES=HP
##CAS NAME=t-Butylpentafluorophenylmethylchlorosilane
##MOLFORM=C11H12ClF5Si
##CAS REGISTRY NO=73000-03-0
##MP= -300
##BP= -300
##MW= 302
##$RETENTION INDEX=0
##$CONDENSED SPECTRUM=NO
##NPOINTS= 147
##XYDATA=(XY..XY) 1 
    15         29
    18          2
    26          4
    27         62
    28         16
    29        201
    30          3
    37          2
    38          6
    39        116
    40         21
    41        379
    42         25
    43          5
    47         80
    48          4
    49          9
    50          5
    51         23
    52          2
    53         10
    54          3
    55         27
    56        523
    57        999
    58         46
    61         10
    62          7
    63         49
    64          3
    65         16
    66          2
    67         10
    68          3
    69         12
    73          6
    74          4
    75         59
    76          4
    77         23
    78         11
    79         36
    80         16
    81         89
    82          8
    83          8
    84          1
    85         15
    86          6
    87          7
    88          2
    89          1
    91         24
    92         12
    93         31
    94          5
    95         11
    96         17
    97        132
    98         26
    99         73
   100          5
   101         22
   102          3
   103          7
   104          5
   105         20
   106         11
   107          6
   109          6
   110         24
   111         17
   112          3
   113          4
   114          2
   115          9
   116          2
   117         12
   118          1
   119         12
   120          1
   121          3
   123         11
   125         54
   126         11
   127          6
   128          3
   129         43
   130          7
   131          1
   133          3
   135         19
   137          8
   138          1
   139          4
   140          1
   141         31
   142          3
   143         31
   144          9
   145         33
   146          5
   147         10
   148          9
   149          1
   150          1
   151          4
   152          1
   156          1
   157          3
   158          2
   159         13
   160          2
   161          6
   163          6
   164          3
   165          3
   168          2
   169          3
   170          1
   175          3
   176          4
   179         46
   180         14
   181         18
   182          5
   183          4
   185          2
   195          4
   196          2
   199          4
   201          2
   209         11
   210          5
   211          1
   219          5
   221          2
   225          4
   227          1
   245         21
   246          4
   247          9
   287          1
   302         36
   303          7
   304         14
   305          2