##TITLE=Library Entry 31646
##JCAMP-DX=Revision 4.10 
##DATA TYPE=MASS SPECTRUM
##SAMPLE DESCRIPTION=Leung Pu, NIH, Bethesda, Maryland, U.S.
##NAMES=HP
##CAS NAME=p-Azidophenyl sulfone
##MOLFORM=C12H8N6O2S
##CAS REGISTRY NO=7300-27-8
##MP= -300
##BP= -300
##MW= 300
##$RETENTION INDEX=0
##$CONDENSED SPECTRUM=NO
##NPOINTS= 90
##XYDATA=(XY..XY) 1 
    41         45
    42          8
    43         33
    45         60
    47        132
    48         73
    49         59
    50         20
    51         44
    52        124
    53         32
    55         20
    57         21
    59          8
    61         61
    62        235
    63        999
    64        380
    65        125
    66         38
    69         94
    70         31
    71         25
    74         65
    75         92
    76         77
    77        306
    78        105
    79         18
    80         89
    81         15
    83        134
    84         45
    86         32
    88        130
    89         33
    90        570
    91         61
    92         58
    93         26
    96        453
    97        111
    98         35
    99          8
   102          7
   106         34
   108        131
   109          9
   110         81
   111         89
   112          8
   113         19
   122          9
   124         41
   125        589
   126        110
   127         69
   131         23
   138        544
   139         40
   140        209
   141         40
   149         20
   152         84
   153        242
   154         48
   156          8
   159        162
   161         68
   163          8
   165         44
   166        212
   167         35
   168         18
   170         25
   179         71
   180         91
   181         42
   182         87
   183         31
   215         37
   218         11
   231          9
   233         18
   258         28
   267         19
   272         68
   273         15
   300        149
   301         28