##TITLE=Library Entry 9605
##JCAMP-DX=Revision 4.10 
##DATA TYPE=MASS SPECTRUM
##SAMPLE DESCRIPTION=G. HIMBERT, FACH. CHEM. UNIV. KAISERSLAUTERN, W. GER.
##NAMES=HP
##CAS NAME=2-Acetyl-3-(N-methylanilino)-2-cyclobuten-1-one
##MOLFORM=C13H13NO2
##CAS REGISTRY NO=73000-88-1
##MP= -300
##BP= -300
##MW= 215
##$RETENTION INDEX=0
##$CONDENSED SPECTRUM=NO
##NPOINTS= 34
##XYDATA=(XY..XY) 1 
    27        130
    28        350
    31        110
    39        280
    43        999
    51        390
    56        110
    65        110
    67        200
    77        620
    78        150
    82        970
    91        280
    95        110
   103        150
   104        210
   105        250
   106        350
   107        150
   115        170
   117        110
   124        280
   128        110
   143        150
   144        580
   145        110
   158        110
   172        330
   186        550
   187        310
   200        200
   214        480
   215        330
   216         70