##TITLE=Library Entry 98636
##JCAMP-DX=Revision 4.10 
##DATA TYPE=MASS SPECTRUM
##SAMPLE DESCRIPTION=F. TURECEK,HEYROVSKY INST PHYS CHEM & ELECTROCHEM,PRAGU
E,CZECH
##NAMES=HP
##CAS NAME=1-(iso-Butyl)-5-(phenylamino)-1H-tetrazole
##MOLFORM=C11H15N5
##CAS REGISTRY NO=73027-66-4
##MP= -300
##BP= -300
##MW= 217
##$RETENTION INDEX=0
##$CONDENSED SPECTRUM=NO
##NPOINTS= 73
##XYDATA=(XY..XY) 1 
    26         16
    27        155
    29        332
    30         32
    38         32
    39        216
    40         29
    41        355
    42         42
    43        181
    50         77
    51        255
    52         55
    53         23
    54         13
    55         85
    56         34
    57        435
    58         42
    62          8
    63         42
    64         56
    65        265
    66         39
    67         10
    69         94
    71         10
    72         10
    74         13
    75         19
    76         73
    77        445
    78         84
    79         18
    84          8
    90         18
    91        174
    92        484
    93        144
    94         10
    97          9
   103         60
   104        119
   105        116
   106         66
   107          8
   117        121
   118        999
   119        423
   120         40
   125         54
   129         60
   130         10
   131         12
   132         16
   133        316
   134         41
   144          5
   145          5
   146        300
   147        100
   148         11
   160          5
   161          7
   162          3
   173          8
   174        519
   175         60
   188         97
   189         17
   216         34
   217        468
   218         73