##TITLE=Library Entry 47651
##JCAMP-DX=Revision 4.10 
##DATA TYPE=MASS SPECTRUM
##SAMPLE DESCRIPTION=F. TURECEK,HEYROVSKY INST PHYS CHEM & ELECTROCHEM,PRAGU
E,CZECH
##NAMES=HP
##CAS NAME=1-Isopropyl-5-(phenylamino)-1H-tetrazole
##MOLFORM=C10H13N5
##CAS REGISTRY NO=73027-65-3
##MP= -300
##BP= -300
##MW= 203
##$RETENTION INDEX=0
##$CONDENSED SPECTRUM=NO
##NPOINTS= 70
##XYDATA=(XY..XY) 1 
    26         39
    27        307
    29         54
    30         21
    37         25
    38         75
    39        350
    40         68
    41        386
    42        607
    43        746
    50        189
    51        532
    52        118
    53         36
    54         25
    55         41
    56         61
    57         46
    58         50
    62         23
    63         82
    64         89
    65        446
    66        104
    67        118
    68         15
    69        893
    70         25
    74         36
    75         45
    76        173
    77        999
    78        209
    79         62
    80         18
    83         80
    84         16
    90         25
    91        186
    92        739
    93        675
    94        100
    95         10
   103        154
   104        329
   105        121
   106        164
   107         71
   111        607
   112         39
   117         39
   118        279
   119        868
   120        154
   121         11
   132         61
   133        814
   134        200
   135         16
   160        182
   161         29
   174        296
   175         68
   188         71
   189          9
   202         95
   203        993
   204        150
   205         15