##TITLE=Library Entry 19278
##JCAMP-DX=Revision 4.10 
##DATA TYPE=MASS SPECTRUM
##SAMPLE DESCRIPTION=NIST Mass Spectrometry Data Center
##NAMES=HP
##CAS NAME=cis-10-Nonadecenoic acid
##MOLFORM=C19H36O2
##CAS REGISTRY NO=73033-09-7
##MP= -300
##BP= -300
##MW= 296
##$RETENTION INDEX=2256
##$CONDENSED SPECTRUM=NO
##NPOINTS= 223
##XYDATA=(XY..XY) 1 
    15          1
    26          3
    27         62
    28         15
    29        147
    30          4
    31          7
    37          1
    38          1
    39         95
    40         19
    41        596
    42        104
    43        431
    44         14
    45         62
    46          2
    47          1
    50          2
    51          6
    52          5
    53         83
    54        222
    55        999
    56        276
    57        317
    58         19
    59         32
    60        123
    61         12
    62          1
    63          1
    65         24
    66         20
    67        299
    68        174
    69        574
    70        241
    71        124
    72          8
    73        117
    74         11
    75          3
    77         26
    78          9
    79         82
    80         38
    81        235
    82        195
    83        515
    84        275
    85         89
    86          9
    87         46
    88          5
    89          1
    91         29
    93         38
    94         37
    95        178
    96        240
    97        455
    98        231
    99         44
   100         37
   101         58
   102          8
   103          2
   104          1
   105         15
   106          6
   107         28
   108         29
   109         98
   110        137
   111        216
   112         89
   113         36
   114         71
   115         36
   116         10
   117          5
   118          3
   119         28
   120         10
   121         34
   122         19
   123         94
   124         86
   125        104
   126         43
   127         57
   128         29
   129         31
   130          6
   131          3
   132          1
   133         26
   134         23
   135         28
   136         15
   137         61
   138         57
   139         48
   140         23
   141         13
   142          4
   143         10
   144          3
   145          1
   147         20
   148         20
   149         20
   150         10
   151         43
   152         39
   153         27
   154         14
   155         10
   156          3
   157          6
   158          2
   159          1
   161         16
   162          8
   163         12
   164          7
   165         30
   166         20
   167         14
   168          8
   169          8
   170          2
   171          5
   172          2
   173          1
   175         11
   176          4
   177          5
   178          5
   179         22
   180         18
   181         10
   182          5
   183          7
   184          2
   185          4
   186          2
   187          1
   189          6
   190          2
   191          3
   192          3
   193         16
   194         27
   195          9
   196          3
   197          5
   198          2
   199          2
   200          4
   201          1
   203          4
   204          1
   205          2
   206          3
   207         14
   208         12
   209          5
   210          2
   211          2
   212          1
   213          3
   214          2
   215          1
   217          2
   218          1
   219          1
   220          2
   221         17
   222         12
   223          4
   224          2
   225          1
   227          2
   228          2
   231          1
   232          1
   234         22
   235         22
   236         28
   237          6
   238          1
   239          1
   240          1
   241          1
   247          1
   248          1
   249         15
   250          8
   251          1
   253          2
   254          1
   255          1
   260          6
   261          2
   263          3
   264          4
   265          1
   267          1
   268          1
   269          1
   274          1
   278         96
   279         21
   280          3
   282          1
   292          4
   293          1
   294          1
   296         14
   297          3
   298          1