##TITLE=Library Entry 27423
##JCAMP-DX=Revision 4.10 
##DATA TYPE=MASS SPECTRUM
##SAMPLE DESCRIPTION=M.GIELIN, FREE UNIV. OF BRUSSELS, BRUSSELS, BELGIUM
##NAMES=HP
##CAS NAME=Stannane, fluorotriisobutyl-
##MOLFORM=C12H27FSn
##CAS REGISTRY NO=7304-48-5
##MP= -300
##BP= -300
##MW= 310
##$RETENTION INDEX=0
##$CONDENSED SPECTRUM=NO
##NPOINTS= 133
##XYDATA=(XY..XY) 1 
    18         16
    20          8
    27         46
    28         21
    29        203
    39         70
    40         17
    41        330
    42         38
    43         29
    55         29
    56         56
    57        999
    58         49
   116         13
   117         37
   118         37
   119         59
   120         46
   121         70
   122          4
   123         10
   124          6
   125         13
   127          2
   131         32
   132         18
   133         51
   134         21
   135        101
   136         24
   137         73
   138         27
   139         95
   140          1
   141         13
   143         16
   151         16
   152          8
   153         29
   154         17
   155         42
   156          4
   157         16
   158          1
   159          9
   160          1
   171          8
   172          8
   173        139
   174         84
   175        240
   176        108
   177        314
   178         21
   179         64
   180          5
   181         62
   182          2
   191          6
   192          6
   193         28
   194         17
   195         51
   196         18
   197         54
   198          5
   199         18
   200          2
   201         12
   209         86
   210         51
   211        170
   212         67
   213        227
   214         29
   215         84
   216          2
   217         37
   218          2
   219         10
   230         13
   231         31
   232         32
   233         54
   234         43
   235         54
   236         10
   237         13
   238          5
   239         13
   249        165
   250        106
   251        283
   252        127
   253        384
   254         37
   255         62
   256         13
   257         78
   258         29
   259          2
   265         54
   266         35
   267        108
   268         48
   269        148
   270         24
   271         59
   272          2
   273         27
   274          2
   275          8
   287         13
   288         13
   289         24
   290         16
   291         33
   292          8
   293          8
   295          8
   304         10
   305          2
   306         43
   307         38
   308         95
   309         48
   310        162
   311         21
   312         46
   313          5
   314         24
   315         16