##TITLE=Library Entry 13446
##JCAMP-DX=Revision 4.10 
##DATA TYPE=MASS SPECTRUM
##SAMPLE DESCRIPTION=A.A.Kutin, Moscow, Russia
##NAMES=HP
##CAS NAME=N-[4-(2,2-Dichloro-vinyl)-thiazol-2-yl]-acetamide
##MOLFORM=C7H6Cl2N2OS
##CAS REGISTRY NO=73040-48-9
##MP= -300
##BP= -300
##MW= 236
##$RETENTION INDEX=0
##$CONDENSED SPECTRUM=NO
##NPOINTS= 168
##XYDATA=(XY..XY) 1 
    33          1
    34          2
    35          7
    36         27
    37         18
    38         24
    39         12
    40         29
    41         14
    43        999
    44         46
    45        182
    46         23
    47         18
    48          5
    49         11
    50         16
    51         23
    52         22
    53         25
    54          4
    55          5
    56          4
    57         17
    58          7
    59         10
    60         35
    61          7
    62         22
    63          7
    64         12
    65          2
    66          4
    67          5
    68          6
    69         54
    70         39
    71         37
    72         23
    73        110
    74         12
    75         33
    76         10
    77         13
    78          3
    79         32
    80          7
    81         56
    82         39
    83         16
    84         15
    85         29
    86         42
    87         26
    88         19
    89         24
    90          3
    91         12
    92         19
    93          3
    94         14
    95         11
    96         26
    97         10
    98         11
    99          3
   100          4
   101          7
   102          1
   103          5
   104          8
   105         10
   106          4
   107         25
   108          3
   109         16
   110          1
   111          6
   112          2
   113         18
   114          8
   115         19
   116         23
   117         73
   118         20
   119         25
   120          8
   121         16
   122         23
   123         24
   124         47
   125          9
   126          7
   127          2
   128          2
   129          1
   130          6
   131         25
   132         26
   133         11
   134         11
   135          7
   136          2
   137          3
   138          0
   139          3
   140          2
   141          2
   142          1
   143          2
   144          1
   145          0
   146          0
   147          3
   148          8
   149          9
   150          5
   151          7
   152         71
   153          6
   154         48
   155          4
   156         10
   157          8
   158        106
   159        384
   160         62
   161        139
   162         11
   163          5
   164          0
   165          0
   166          1
   167          4
   168          1
   169          2
   170          0
   171          1
   172          0
   173          0
   174          1
   175          0
   178          0
   179          0
   180          0
   185          0
   186          2
   187          0
   188          0
   190          0
   192         17
   194        784
   195         71
   196        498
   197         37
   198         97
   199          6
   200          6
   201          0
   202          0
   221          2
   223          1
   236        163
   237         19
   238        100
   239         10
   240         20
   241          1