##TITLE=Library Entry 40304
##JCAMP-DX=Revision 4.10 
##DATA TYPE=MASS SPECTRUM
##SAMPLE DESCRIPTION=Japan AIST/NIMC Database- Spectrum MS-IW-1687
##NAMES=HP
##CAS NAME=S-Phenyl dimethylthiocarbamate
##MOLFORM=C9H11NOS
##CAS REGISTRY NO=7304-68-9
##MP= -300
##BP= -300
##MW= 181
##$RETENTION INDEX=0
##$CONDENSED SPECTRUM=NO
##NPOINTS= 66
##XYDATA=(XY..XY) 1 
    15         18
    18         15
    27          4
    28         15
    29          1
    37          2
    38          6
    39         45
    40          4
    41          5
    42         49
    43         10
    44         15
    45         13
    47          1
    49          1
    50         19
    51         37
    52          3
    56         30
    57          7
    58          7
    59          4
    61          3
    62          6
    63         14
    64          2
    65        101
    66          9
    69         46
    70          3
    71          4
    72        999
    73         51
    74         10
    75          6
    76          5
    77         22
    78          7
    79          1
    81          7
    82         15
    83          8
    84          3
    88          7
    91          7
    93          2
    96          1
   105          1
   106          1
   107          1
   108         22
   109        197
   110         28
   111          9
   112          1
   121          2
   123          3
   124          3
   137          6
   152          5
   180          1
   181        493
   182         58
   183         25
   184          2