##TITLE=Library Entry 90934
##JCAMP-DX=Revision 4.10 
##DATA TYPE=MASS SPECTRUM
##SAMPLE DESCRIPTION=Japan AIST/NIMC Database- Spectrum MS-IW-4861
##NAMES=HP
##CAS NAME=Thiazole, 2-amino-5-methyl-
##MOLFORM=C4H6N2S
##CAS REGISTRY NO=7305-71-7
##MP= -300
##BP= -300
##MW= 114
##$RETENTION INDEX=0
##$CONDENSED SPECTRUM=NO
##NPOINTS= 68
##XYDATA=(XY..XY) 1 
    15          2
    25          1
    26          9
    27         19
    28         64
    29          5
    30          3
    32          2
    33          4
    34          2
    37          6
    38         13
    39         79
    40          6
    41          4
    42         15
    43         48
    44          9
    45         65
    46         10
    47          6
    48          1
    49          3
    50          1
    51          8
    52         15
    53         14
    54         53
    55         30
    56         13
    57         35
    58         33
    59         85
    60        139
    61        127
    62          9
    63          6
    64          1
    67          1
    68          2
    69         34
    70         12
    71        414
    72        376
    73         34
    74         19
    75          1
    76          3
    77          2
    79          2
    81        144
    82          9
    83          2
    85          2
    86        102
    87         28
    88          5
    89          1
    91          3
    92          1
    97          1
    98          3
    99          4
   113        177
   114        999
   115         73
   116         48
   117          3