##TITLE=Library Entry 54722
##JCAMP-DX=Revision 4.10 
##DATA TYPE=MASS SPECTRUM
##SAMPLE DESCRIPTION=ORMSBG,9(1)6(1974); VANDEWALLE
##NAMES=HP
##CAS NAME=2,4-Heptanedione
##MOLFORM=C7H12O2
##CAS REGISTRY NO=7307-02-0
##MP= -300
##BP= -300
##MW= 128
##$RETENTION INDEX=983
##$CONDENSED SPECTRUM=NO
##NPOINTS= 12
##XYDATA=(XY..XY) 1 
    39         60
    41         20
    42         30
    43        960
    55         40
    58         70
    63         20
    71        300
    85        999
   100        160
   113        150
   128        260