##TITLE=Library Entry 16895
##JCAMP-DX=Revision 4.10 
##DATA TYPE=MASS SPECTRUM
##SAMPLE DESCRIPTION=L.N.Kulikova, V.G. Zaikin, Peoples' Friendship Universi
ty of Russia, Moscow
##NAMES=HP
##CAS NAME=Methyl hexadecyl ether
##MOLFORM=C17H36O
##CAS REGISTRY NO=7307-53-1
##MP= -300
##BP= -300
##MW= 256
##$RETENTION INDEX=0
##$CONDENSED SPECTRUM=NO
##NPOINTS= 80
##XYDATA=(XY..XY) 1 
    26         12
    27         78
    29        186
    30          4
    31         10
    33         20
    37          1
    38          3
    39         58
    40         11
    41        465
    42        134
    43        621
    44         14
    45        999
    46         20
    47          8
    51          1
    53         21
    54         62
    55        537
    56        360
    57        484
    58         31
    59          5
    60          3
    65          2
    66          7
    67         92
    68        272
    69        488
    70        314
    71        212
    72         10
    77          1
    79          3
    80          1
    81         38
    82        279
    83        550
    84        200
    85        103
    86          6
    87         16
    95         14
    96         78
    97        380
    98        122
    99         20
   101          1
   109          3
   110         33
   111        189
   112         81
   113         11
   123          1
   124         17
   125         87
   126         51
   127          6
   138         10
   139         30
   140         31
   141          4
   152          5
   153         14
   154         22
   155          4
   166          2
   167          7
   168         17
   169          2
   181          2
   182          4
   195          1
   196         47
   197          7
   213          2
   224         61
   225         11