##TITLE=Library Entry 1009
##JCAMP-DX=Revision 4.10 
##DATA TYPE=MASS SPECTRUM
##SAMPLE DESCRIPTION=Japan AIST/NIMC Database- Spectrum MS-NW-5226
##NAMES=HP
##CAS NAME=1-Undecanamine
##MOLFORM=C11H25N
##CAS REGISTRY NO=7307-55-3
##MP= -300
##BP= -300
##MW= 171
##$RETENTION INDEX=1330
##$CONDENSED SPECTRUM=NO
##NPOINTS= 63
##XYDATA=(XY..XY) 1 
    15          2
    17          2
    26          1
    27         28
    28         16
    29         50
    30        999
    31         18
    32          1
    39         17
    40          3
    41         78
    42         21
    43         57
    44         79
    45         64
    46          2
    51          1
    53          5
    54          4
    55         47
    56         29
    57         18
    58          4
    59         15
    65          1
    67          5
    68          5
    69         24
    70         15
    71          5
    72         14
    73          6
    77          1
    81          1
    82          5
    83         12
    84          9
    85          2
    86         34
    87          5
    96          2
    97          8
    98          5
    99          1
   100         17
   101          2
   110          1
   111          3
   112          4
   114          7
   115          1
   125          1
   126          2
   128          5
   129          1
   140          1
   142          7
   154          2
   156          3
   170          5
   171         11
   172          2