##TITLE=Library Entry 16812
##JCAMP-DX=Revision 4.10 
##DATA TYPE=MASS SPECTRUM
##SAMPLE DESCRIPTION=J. Klune, Insect Chem. Ecol. Lab., USDA, Beltsville, MD
 20705
##NAMES=HP
##CAS NAME=Methyl pentadecyl ether
##MOLFORM=C16H34O
##CAS REGISTRY NO=7307-52-0
##MP= -300
##BP= -300
##MW= 242
##$RETENTION INDEX=0
##$CONDENSED SPECTRUM=NO
##NPOINTS= 110
##XYDATA=(XY..XY) 1 
    41        620
    42        156
    43        657
    45        999
    46         18
    47          7
    49          2
    50          0
    51          4
    53         49
    55        572
    56        221
    57        402
    58         31
    59         12
    60          7
    61          5
    65          8
    67         95
    68        184
    69        329
    70        174
    71        178
    72         10
    73          5
    74         10
    75          1
    77          6
    79         11
    81         16
    82        246
    83        299
    84        112
    85         89
    86          7
    87         15
    88          1
    91          4
    93          4
    95         19
    96         57
    97        192
    98         60
    99         19
   100          1
   101          3
   105          2
   107          6
   109         11
   110         23
   111         96
   112         38
   113         11
   114          0
   115          1
   119          0
   121          1
   122          0
   123          4
   124         12
   125         46
   126         26
   127          8
   128          0
   129          0
   135         83
   136          1
   137         82
   138         10
   139         16
   140         16
   141          7
   142          0
   143          1
   148          0
   149         15
   150          2
   151         15
   152          4
   153          7
   154         11
   155          3
   157          0
   163          2
   164          0
   165          2
   166          2
   167          3
   168          4
   169          1
   177          1
   179          1
   180          1
   181          2
   182         24
   183          3
   191          0
   196          0
   199          3
   208          0
   209          0
   210         76
   211         14
   212          1
   213          1
   225          0
   241          3
   242          5
   243          3
   244          0