##TITLE=Library Entry 87734
##JCAMP-DX=Revision 4.10 
##DATA TYPE=MASS SPECTRUM
##SAMPLE DESCRIPTION=A.A.Kutin, Moscow, Russia
##NAMES=HP
##CAS NAME=Thiophene-2-carboxamide, N-(1,3,4-thiadiazol-2-yl)-
##MOLFORM=C7H5N3OS2
##CAS REGISTRY NO=73084-05-6
##MP= -300
##BP= -300
##MW= 211
##$RETENTION INDEX=0
##$CONDENSED SPECTRUM=NO
##NPOINTS= 77
##XYDATA=(XY..XY) 1 
    33         11
    34          1
    39        457
    40         17
    42         16
    45        264
    47         11
    49         13
    50         14
    51          6
    53         24
    54          3
    57         79
    58         33
    59         16
    60          3
    61          1
    62          0
    63          1
    64          3
    65          1
    66          2
    69         22
    71         11
    73          3
    74          2
    75          0
    76          1
    77          5
    78          1
    81         28
    83        158
    86          8
    87          0
    88          0
    90          0
    91          4
    93          0
    94          0
    96          2
    97          1
    98          0
   100          1
   101          1
   102          0
   105          1
   107          0
   111        999
   113         78
   114          2
   115          1
   116          0
   124          2
   125          0
   126          0
   128          5
   129          0
   135          2
   137          0
   138          0
   140          0
   141          0
   142          0
   161          0
   168          0
   178          0
   181          1
   183         86
   184         15
   185          6
   186          1
   208          1
   210         44
   211        115
   212         13
   213         10
   214          0