##TITLE=Library Entry 66163
##JCAMP-DX=Revision 4.10 
##DATA TYPE=MASS SPECTRUM
##SAMPLE DESCRIPTION=W.J.STEC,CENT. MOL. & MACROMOL. STUD.,POL. ACAD. SCI.,L
ODZ,P
##NAMES=HP
##CAS NAME=Thymidine cyclic 3',5'-phosphoranilidothioate, S-
##MOLFORM=C16H18N3O5PS
##CAS REGISTRY NO=73098-26-7
##MP= -300
##BP= -300
##MW= 395
##$RETENTION INDEX=0
##$CONDENSED SPECTRUM=NO
##NPOINTS= 73
##XYDATA=(XY..XY) 1 
    27        162
    28        212
    29         76
    38         52
    39        258
    40         76
    41        203
    42         58
    43         92
    44         51
    45         42
    47         30
    50         33
    51         80
    53        164
    54        177
    55        319
    56         43
    63         50
    64         39
    65        251
    66        240
    67         72
    68         40
    69        114
    70         35
    71        114
    77         59
    78         36
    80         68
    81        837
    82        116
    83         65
    85         42
    86         44
    87         72
    91         40
    92        183
    93        999
    94        117
    97         96
    99         68
   109         30
   110         69
   114         36
   115         38
   118         36
   122         66
   124         79
   126        226
   127        161
   138         61
   144         42
   153         48
   154        119
   155         63
   156        126
   157         57
   170         36
   171        309
   172        187
   173         55
   177         33
   189         52
   207         31
   241        335
   242         55
   243         22
   269        128
   270         60
   303         46
   395        200
   396         31