##TITLE=Library Entry 9710
##JCAMP-DX=Revision 4.10 
##DATA TYPE=MASS SPECTRUM
##SAMPLE DESCRIPTION=CARL DJERASSI DEPT OF CHEM STANFORD UNIV STANFORD CALIF
 94305
##NAMES=HP
##CAS NAME=Pyrrolidine, 1,1'-methylenebis-
##MOLFORM=C9H18N2
##CAS REGISTRY NO=7309-47-9
##MP= -300
##BP= -300
##MW= 154
##$RETENTION INDEX=0
##$CONDENSED SPECTRUM=NO
##NPOINTS= 25
##XYDATA=(XY..XY) 1 
    40         80
    41        450
    42        710
    43        999
    44         50
    51         10
    52         20
    53         40
    54         50
    55        150
    56         40
    57         70
    67         50
    68         50
    69         40
    70        200
    71        130
    72         20
    80         20
    81         20
    82        220
    83        150
    84        910
    85        100
    96         20