##TITLE=Library Entry 7519
##JCAMP-DX=Revision 4.10 
##DATA TYPE=MASS SPECTRUM
##SAMPLE DESCRIPTION=Exported from NIST MS Search
##NAMES=HP
##CAS NAME=Butane, 1-[(1-methylethyl)thio]-
##MOLFORM=C7H16S
##CAS REGISTRY NO=7309-43-5
##MP= -300
##BP= -300
##MW= 132
##$RETENTION INDEX=936
##$CONDENSED SPECTRUM=NO
##NPOINTS= 82
##XYDATA=(XY..XY) 1 
    24          1
    25          2
    26         48
    27        627
    28         91
    29        369
    30          9
    31          1
    32          7
    33          6
    34         12
    35         36
    36          1
    37          9
    38         21
    39        285
    40         37
    41        723
    42        104
    43        999
    44         31
    45        172
    46         90
    47        524
    48         64
    49         53
    50          9
    51         10
    52          3
    53         21
    54         14
    55        344
    56        884
    57        249
    58         47
    59        119
    60         98
    61        444
    62         23
    63         24
    64          1
    65          1
    67          1
    68          1
    69          4
    70          4
    71          8
    72          2
    73         12
    74         32
    75        476
    76        291
    77        125
    78         17
    79          5
    81          1
    82          1
    83          1
    84          1
    85          3
    86          1
    87          4
    88         18
    89        503
    90        112
    91         42
    92          6
    93          1
   101          1
   103         33
   104          2
   105          2
   115          1
   117        351
   118         21
   119         17
   120          1
   131         17
   132        556
   133         48
   134         27
   135          2