##TITLE=Library Entry 58033
##JCAMP-DX=Revision 4.10 
##DATA TYPE=MASS SPECTRUM
##SAMPLE DESCRIPTION=F. TURECEK,HEYROVSKY INST PHYS CHEM & ELECTROCHEM,PRAGU
E,CZECH
##NAMES=HP
##CAS NAME=Methyl 2,4-dimethyltridecanoate
##MOLFORM=C16H32O2
##CAS REGISTRY NO=73105-69-8
##MP= -300
##BP= -300
##MW= 256
##$RETENTION INDEX=0
##$CONDENSED SPECTRUM=NO
##NPOINTS= 81
##XYDATA=(XY..XY) 1 
    27         18
    29         54
    39         14
    41        121
    42         29
    43        136
    44          4
    45          4
    53          6
    54          4
    55        107
    56         40
    57        140
    58          7
    59         48
    60          3
    65          2
    67          9
    69        107
    70         23
    71         82
    73         40
    74          9
    77          3
    79          3
    81          7
    83         32
    84         11
    85         50
    87         43
    88        999
    89         43
    90          4
    91          2
    93          2
    95          7
    96          3
    97         39
    98          5
    99         21
   100          2
   101        500
   102         36
   107          5
   109          4
   110          3
   111         18
   112         18
   113         18
   115          3
   121          2
   123          2
   125          5
   126          5
   127         10
   129         68
   130          5
   139          3
   141          4
   143          4
   153          2
   157          9
   167          2
   168          2
   169         11
   171          4
   185        150
   186         21
   191          2
   195          2
   197         11
   209          3
   213         46
   214          6
   225         13
   226          3
   227          1
   234          7
   241          3
   256         12
   257          4