##TITLE=Library Entry 13447
##JCAMP-DX=Revision 4.10 
##DATA TYPE=MASS SPECTRUM
##SAMPLE DESCRIPTION=Div. of Experiment Therapeutics WRAIR, WRAMC, Washingto
n DC 20307
##NAMES=HP
##CAS NAME=7-[3-Azido-2-hydroxypropyl]guanine
##MOLFORM=C8H10N8O2
##CAS REGISTRY NO=73100-74-0
##MP= -300
##BP= -300
##MW= 250
##$RETENTION INDEX=0
##$CONDENSED SPECTRUM=NO
##NPOINTS= 89
##XYDATA=(XY..XY) 1 
    42        408
    43        999
    44        127
    45         12
    49          9
    51         20
    52         35
    53        129
    54         99
    55         48
    56         34
    57         35
    58          8
    64         12
    65         17
    66         64
    67        102
    68         68
    69         79
    70         25
    71         62
    72         13
    77          8
    78          9
    79         19
    80         22
    81         28
    82         29
    83         20
    84         31
    92         12
    93         18
    94         42
    95         60
    96         24
    97         12
   106          9
   107          8
   108         17
   109         66
   110         61
   111         10
   119         15
   120          8
   121         10
   122         11
   123         14
   124         15
   134         20
   135         23
   136          9
   137          9
   138         11
   147         28
   149         13
   151        130
   152         19
   164        220
   165        131
   166         16
   176          9
   177         62
   178        165
   179         32
   180         15
   190         13
   191         18
   194        625
   195         64
   196          8
   202          8
   203         16
   204         12
   205         43
   207         87
   208        236
   209         28
   215         11
   217         11
   218          8
   220         17
   221         28
   222        207
   223         21
   248         12
   249          8
   250        559
   251         67
   252          3