##TITLE=Library Entry 24226
##JCAMP-DX=Revision 4.10 
##DATA TYPE=MASS SPECTRUM
##SAMPLE DESCRIPTION=F. TURECEK,HEYROVSKY INST PHYS CHEM & ELECTROCHEM,PRAGU
E,CZECH
##NAMES=HP
##CAS NAME=1-Iodo-2-methylundecane
##MOLFORM=C12H25I
##CAS REGISTRY NO=73105-67-6
##MP= -300
##BP= -300
##MW= 296
##$RETENTION INDEX=0
##$CONDENSED SPECTRUM=NO
##NPOINTS= 53
##XYDATA=(XY..XY) 1 
    27         94
    29        174
    36          9
    39         77
    40         14
    41        486
    42        117
    43        857
    44         24
    51          8
    52          3
    53         23
    54         20
    55        314
    56        257
    57        999
    58         37
    59         14
    63          6
    64          3
    65          7
    67         26
    68         17
    69        200
    70        103
    71        514
    72         23
    81         14
    82         17
    83         71
    84         43
    85        314
    86         17
    95         10
    96         10
    97         46
    98         17
    99         91
   111         23
   112         11
   113         46
   125         10
   126         16
   127         31
   128         26
   154          9
   155         28
   156          3
   168          7
   169         34
   170          6
   211          2
   296          0