##TITLE=Library Entry 42539
##JCAMP-DX=Revision 4.10 
##DATA TYPE=MASS SPECTRUM
##SAMPLE DESCRIPTION=O A MAMER, MCGILL UNIVERSITY, MONTRE
##NAMES=HP
##CAS NAME=Hexanedioic acid, 3-trimethylsiloxy-, bis(trimethylsilyl) ester
##MOLFORM=C15H34O5Si3
##CAS REGISTRY NO=73105-00-7
##MP= -300
##BP= -300
##MW= 378
##$RETENTION INDEX=1699
##$CONDENSED SPECTRUM=NO
##NPOINTS= 224
##XYDATA=(XY..XY) 1 
    14          5
    15          0
    20          4
    25          2
    26          4
    27          4
    28          8
    29          8
    30          1
    31          3
    37          2
    38          0
    39          0
    40          0
    41          3
    42          2
    43         24
    44         28
    45        115
    46          7
    47         32
    48          1
    49          1
    52          1
    53         13
    54          6
    55         60
    56          9
    58         16
    59         42
    60          7
    61         23
    62          2
    63          0
    65          0
    66          6
    68          2
    69          0
    72         37
    73        999
    74         91
    75        263
    76         17
    77         11
    78          1
    81         38
    82          4
    83         31
    84          1
    85         38
    86          5
    87          4
    88          5
    89          3
    90          0
    92          0
    98          0
    99         11
   100          1
   101         30
   102          4
   103          4
   104          2
   106          0
   108          1
   109         84
   110          5
   111          1
   112          0
   113          6
   114          1
   115         33
   116         21
   117         73
   119         10
   122          1
   127          5
   128          2
   129        176
   130         25
   131         30
   132          5
   133         64
   134          8
   135          2
   138          1
   139         18
   140          5
   141          0
   142          1
   143         17
   144          2
   145          3
   146          1
   147        348
   148         53
   149         87
   150         11
   151          4
   152          2
   153          0
   154          1
   155         11
   156          2
   157         31
   158          6
   159          9
   160          2
   161          2
   162          2
   163          5
   164          2
   167          0
   168          1
   169          1
   170          1
   171         12
   172          1
   173          2
   174          2
   175          5
   176          2
   177          0
   178          0
   180          1
   182          1
   183         10
   184          2
   185          0
   186          1
   187          0
   188          3
   189         51
   190         11
   191         18
   192          3
   196          1
   198          1
   199         21
   200          4
   201          0
   202          2
   203         66
   204         23
   205         11
   206          2
   212          1
   213          4
   214          1
   215          1
   216          2
   217         20
   218         36
   219          9
   220          5
   223          0
   224          1
   225          1
   227          1
   228          1
   229          3
   230          3
   231         44
   232          9
   233         66
   234         13
   235          1
   237          2
   241          1
   242          1
   243          2
   244          3
   245          8
   246          4
   247        141
   248         32
   249         10
   250          1
   256          1
   257          2
   258          1
   259          1
   260          4
   261          8
   262          3
   263          0
   264          1
   271          1
   272          1
   273         12
   274          3
   275          7
   276          2
   279          1
   284          1
   286          1
   287          2
   288          3
   289          3
   290          2
   291          2
   294          1
   303          3
   304          1
   305          2
   313          0
   314          1
   318          1
   319          4
   320          1
   321          8
   322          2
   323          2
   333          1
   335          1
   347          1
   348          1
   363        178
   364         53
   365         28
   366          7
   367          2
   377          1
   378          1