##TITLE=Library Entry 57951
##JCAMP-DX=Revision 4.10 
##DATA TYPE=MASS SPECTRUM
##SAMPLE DESCRIPTION=F. TURECEK,HEYROVSKY INST PHYS CHEM & ELECTROCHEM,PRAGU
E,CZECH
##NAMES=HP
##CAS NAME=Methyl 2,6-dimethyltridecanoate
##MOLFORM=C16H32O2
##CAS REGISTRY NO=73105-76-7
##MP= -300
##BP= -300
##MW= 256
##$RETENTION INDEX=0
##$CONDENSED SPECTRUM=NO
##NPOINTS= 83
##XYDATA=(XY..XY) 1 
    27         21
    29         67
    39         16
    40          4
    41        148
    42         29
    43        187
    44          5
    45          6
    53          7
    54          5
    55        179
    56         52
    57        146
    58          5
    59         49
    65          2
    67         11
    68          7
    69        117
    70         15
    71         64
    72          4
    73         17
    74          4
    77          2
    79          4
    80          2
    81         14
    82         13
    83         35
    84          6
    85         37
    86          2
    87         71
    88        999
    89         44
    90          7
    91          2
    93          3
    94          2
    95         16
    96          7
    97        116
    98         19
    99          9
   101        437
   102         27
   103          2
   108          3
   109          1
   110          8
   111          6
   112         14
   113          7
   114          1
   115         13
   116          1
   121          2
   122          2
   123          8
   124          4
   125         31
   126         13
   127          5
   129         52
   130         12
   131          4
   135          3
   137          3
   138          2
   139          4
   141          4
   143          5
   151          3
   157        119
   158         11
   159          1
   241          3
   242          0
   256         34
   257          7
   258          1