##TITLE=Library Entry 58032
##JCAMP-DX=Revision 4.10 
##DATA TYPE=MASS SPECTRUM
##SAMPLE DESCRIPTION=F. TURECEK,HEYROVSKY INST PHYS CHEM & ELECTROCHEM,PRAGU
E,CZECH
##NAMES=HP
##CAS NAME=Methyl 2,8-dimethyltridecanoate
##MOLFORM=C16H32O2
##CAS REGISTRY NO=73105-83-6
##MP= -300
##BP= -300
##MW= 256
##$RETENTION INDEX=0
##$CONDENSED SPECTRUM=NO
##NPOINTS= 122
##XYDATA=(XY..XY) 1 
    27         29
    29         79
    31          6
    39         29
    40          8
    41        193
    42         36
    43        200
    51          5
    53          8
    54          5
    55        200
    56         57
    57        300
    58         11
    59         57
    67         21
    69        214
    70         29
    71         64
    73         18
    74         43
    75          8
    81         25
    83        114
    84         11
    85         36
    87         64
    88        999
    89         36
    95         29
    97         86
    98         21
    99         14
   101        643
   102         29
   103          4
   105          3
   107          9
   108          3
   109         15
   111         43
   112         17
   113         10
   114          2
   115         36
   116          5
   117          4
   118          2
   119          5
   121          7
   123          8
   124          4
   125         21
   126          4
   127          7
   128          4
   129         93
   130         17
   131          5
   133          2
   134          2
   135         18
   136          3
   137          6
   138          3
   139          9
   141          9
   142          3
   143        107
   144         11
   145          4
   149          6
   151          5
   152          4
   153         36
   154          6
   155          4
   157        500
   158         50
   159         10
   163          2
   165          4
   166          2
   167          6
   168          2
   169          5
   171          3
   177          3
   178          4
   179          2
   181          5
   183          3
   184          3
   185         22
   187          4
   189          3
   191          7
   192          3
   193          4
   195          4
   196          4
   198          1
   199         15
   200          4
   203          3
   205          3
   206          3
   207          5
   208          2
   209          5
   210          4
   211          4
   212          3
   213         36
   214          5
   225         10
   226          4
   227          3
   241          3
   256         29
   257          9