##TITLE=Library Entry 57316
##JCAMP-DX=Revision 4.10 
##DATA TYPE=MASS SPECTRUM
##SAMPLE DESCRIPTION=Institute of Organic Chemistry, Novosibirsk, USSR 1988
##NAMES=HP
##CAS NAME=1,3,5,7,9,11,13,15-Octaethylbicyclo[7.7.1]octasiloxane
##MOLFORM=C16H46O9Si8
##CAS REGISTRY NO=73113-21-0
##MP= -300
##BP= -300
##MW= 606
##$RETENTION INDEX=0
##$CONDENSED SPECTRUM=NO
##NPOINTS= 107
##XYDATA=(XY..XY) 1 
    41         36
    42         18
    43         20
    59        911
    60         75
    61         36
    71         31
    72         18
    73         16
    85         34
    86         13
    87        999
    88         93
    89         39
    90         10
   103        105
   104         14
   105         93
   106          4
   115        186
   116         15
   117         10
   133         62
   134          8
   149         55
   161         41
   193         13
   230         12
   244         38
   245         34
   246          9
   258         14
   295         19
   341         36
   342         10
   343          9
   355         36
   356         11
   357         10
   369         24
   370         10
   371          8
   383         28
   384         10
   385          8
   387         18
   388          8
   403          9
   415         62
   416         23
   417         16
   418          6
   429         11
   430          5
   431         17
   432          8
   443        450
   444        184
   445        134
   459         34
   460         16
   461         23
   462          6
   471        101
   472         44
   473         35
   475         15
   476          4
   487         38
   488         17
   489        121
   490         52
   491         37
   492         12
   503         60
   504         24
   505         23
   515         15
   516          9
   517        531
   518        262
   519        200
   520         66
   521         27
   531         74
   532         37
   533         34
   534         11
   535          5
   545         22
   546         11
   547         19
   548          8
   561         14
   562          7
   577        257
   578        142
   579        108
   580         43
   581         18
   591        108
   592         62
   593         50
   594         17
   595          7
   605         18
   606          9