##TITLE=Library Entry 60742
##JCAMP-DX=Revision 4.10 
##DATA TYPE=MASS SPECTRUM
##SAMPLE DESCRIPTION=Chemical Concepts
##NAMES=HP
##CAS NAME=1H-Cyclopent[c]isoxazole-1-carboxylic acid, hexahydro-4,5-bis(phe
nylmethoxy)-, phenyl ester, [3aS-(3a.alpha.,4.beta.,5.alpha.,6a.alpha.)]-
##MOLFORM=C27H27NO5
##CAS REGISTRY NO=73111-32-7
##MP= -300
##BP= -300
##MW= 445
##$RETENTION INDEX=0
##$CONDENSED SPECTRUM=NO
##NPOINTS= 210
##XYDATA=(XY..XY) 1 
    25          7
    37          4
    39         33
    40          8
    41         17
    42          5
    43          9
    44          3
    45          2
    50          7
    51         21
    52          6
    53          8
    54          4
    55         12
    56          5
    57          8
    62          4
    63         11
    64          6
    65         90
    66         28
    67         11
    68          5
    69          7
    70          5
    71          4
    72          4
    73          2
    74          4
    75          2
    76          4
    77         81
    78         12
    79         26
    80         10
    81          8
    82          6
    83          7
    84         12
    85          3
    87          2
    89         14
    90         11
    91        999
    92        143
    93         14
    94        162
    95         41
    96          9
    97          6
    98          4
    99          2
   100          3
   103          2
   104          7
   105         18
   106         10
   107         55
   108         23
   109          5
   110          7
   111         11
   112          5
   113          2
   114         10
   115          5
   116          2
   117          6
   118          4
   119          3
   120         13
   121          7
   122          3
   123          2
   124          3
   126          5
   127          7
   128          5
   129          6
   130          4
   131          4
   132          5
   133          4
   134          2
   137          5
   138         20
   139          3
   140         18
   141          9
   142          6
   143          9
   144         13
   145          7
   146          7
   147          7
   148          5
   149         25
   150          4
   152          4
   153          2
   154         15
   155          9
   156         14
   157          6
   158          5
   159          6
   160          8
   161         11
   162          3
   165          5
   166          5
   167         17
   168          5
   169          2
   170          4
   171          4
   172          9
   173         48
   174         11
   175          2
   176          4
   177          2
   178          2
   179          3
   180          3
   181         26
   182          7
   183          4
   184         16
   185          7
   186          3
   187          5
   188          4
   189          2
   190          5
   192         12
   193          2
   196          2
   197          6
   198          6
   199          4
   200          7
   201          4
   202         42
   203         15
   204          5
   205          5
   206          2
   211          6
   214          3
   215          2
   216         16
   217         11
   218          7
   219          7
   220          5
   223          4
   224          3
   226          7
   227          2
   228          3
   230          6
   231         42
   232         72
   233         28
   234          8
   235          3
   236          2
   243          6
   245          3
   246         52
   247         13
   248        103
   249         18
   250          3
   252          3
   260         17
   261          4
   262         15
   263          4
   264          2
   278         10
   279          5
   280          2
   282          2
   292          3
   295          4
   298          2
   308         16
   309          6
   310          2
   322          2
   323          2
   324          5
   325          2
   336          5
   337          2
   338          5
   339         71
   340         17
   341          3
   352         14
   353          6
   354         33
   355          7
   356          2
   445         76
   446         28
   447          5