##TITLE=Library Entry 59124
##JCAMP-DX=Revision 4.10 
##DATA TYPE=MASS SPECTRUM
##SAMPLE DESCRIPTION=Chemical Concepts
##NAMES=HP
##CAS NAME=1H-Cyclopent[c]isoxazole, 1-[2,3:5,6-bis-O-(1-methylethylidene)-.
alpha.-d-mannofuranosyl]hexahydro-4,5,6-tris(phenylmethoxy)-, [3aR -(3a.alph
a.,4.alpha.,5.beta.,
##MOLFORM=C39H47NO9
##CAS REGISTRY NO=73111-30-5
##MP= -300
##BP= -300
##MW= 673
##$RETENTION INDEX=0
##$CONDENSED SPECTRUM=NO
##NPOINTS= 463
##XYDATA=(XY..XY) 1 
    26          4
    27         23
    28          7
    29         45
    30         11
    31         14
    37          2
    38          3
    39         32
    40          6
    41         89
    42         29
    43        185
    44         20
    45         18
    46         11
    47          2
    48          6
    49          2
    50          8
    51         18
    52          7
    53         17
    54         10
    55         70
    56         20
    57         68
    58         13
    59         62
    60         30
    61         14
    62          3
    63          8
    64         10
    65         54
    66          8
    67         17
    68         36
    69         64
    70         26
    71         58
    72         30
    73         42
    74          6
    75          4
    76          3
    77         31
    78          9
    79         31
    80         11
    81         48
    82         16
    83         37
    84         22
    85         49
    86          6
    87          9
    88          3
    89         11
    90         11
    91        999
    92        131
    93         12
    94          9
    95         23
    96         17
    97         34
    98         50
    99         48
   100         17
   101         87
   102          7
   103          8
   104          8
   105         29
   106         14
   107         31
   108         24
   109         22
   110         13
   111         19
   112         11
   113         20
   114          6
   115         14
   116          5
   117          8
   118          3
   119          5
   120          4
   121          7
   122          6
   123          7
   124          8
   125         15
   126         37
   127         47
   128          9
   129         29
   130          7
   131          6
   132          3
   133          5
   134          6
   135          5
   136          7
   137          6
   138          7
   139         14
   140          9
   141         66
   142         12
   143         14
   144          6
   145         14
   146          5
   147          9
   148          7
   149         17
   150          5
   151          4
   152          6
   153          8
   154          8
   155         11
   156         23
   157          9
   158         14
   159          8
   160          7
   161          6
   162          6
   163          7
   164          3
   165          5
   166          5
   167         14
   168          4
   169          6
   170          5
   171          8
   172          8
   173          6
   174          6
   175          4
   176          3
   177          3
   178          4
   179          4
   180          5
   181         59
   182         15
   183          4
   184          6
   185         76
   186         14
   187          8
   188          9
   189          8
   190          9
   191          3
   192          2
   193          4
   194          3
   195          2
   196          2
   197          7
   198          3
   199          7
   200         10
   201          9
   202          7
   203          4
   204          4
   205          3
   206          2
   207          2
   208          2
   209          3
   210          4
   211          3
   212          2
   213          8
   214          8
   215          6
   216          7
   217         14
   218         17
   219          9
   220          4
   221          3
   222          3
   223          3
   224          3
   225          3
   226          2
   227          3
   228          4
   229          4
   230          3
   231          3
   232          5
   233          3
   234          7
   235          4
   236          4
   237          3
   238          3
   239          3
   240          6
   241          4
   242          4
   243          8
   244         16
   245         17
   246         16
   247          5
   248          7
   249          2
   250          2
   251          2
   252          3
   253         16
   254          7
   255          3
   256          6
   257          3
   258          8
   259          9
   260         11
   261          3
   262         23
   263          5
   264          3
   265          2
   266          3
   267          2
   268          3
   269          2
   270          2
   271          3
   272          4
   273          3
   274          3
   275          3
   276          3
   277          3
   278          3
   279         14
   280          7
   281          3
   282          3
   283          2
   284          4
   285          2
   286          3
   287          2
   288          2
   289          1
   290          2
   291          2
   292          2
   293          2
   294          3
   295          2
   296          3
   297          3
   298          3
   299          2
   300          2
   302          2
   303          2
   304          1
   305          1
   306          2
   307          2
   308          4
   309          3
   310          3
   311          2
   312          7
   313          3
   314          3
   315          2
   316          2
   320          3
   321          2
   322          5
   323          4
   324          7
   325          4
   326          6
   327          9
   328          3
   329          2
   330          2
   331          1
   332          2
   333          1
   334          3
   335          2
   336          2
   337          2
   338          6
   339          2
   340         18
   341          5
   342          3
   343          2
   348          4
   349          2
   350          8
   351          4
   352         18
   353         12
   354         61
   355         17
   356          5
   357          2
   358          6
   359          2
   360          3
   364          2
   365          3
   366          3
   367          3
   368         17
   369          5
   370          8
   371          2
   372          2
   373          1
   378          2
   379          2
   380          2
   381          1
   382          2
   383          2
   384          2
   385          2
   386          2
   387          1
   388          2
   390          2
   394          3
   395          2
   396          1
   399          2
   400          2
   401          2
   402          4
   403          4
   404          5
   405          3
   406          2
   407          2
   408          3
   409          2
   414          7
   415          4
   416          4
   417          2
   418          6
   419          2
   420          1
   427          2
   428          4
   429          3
   430         23
   431          8
   432         24
   433         11
   434          4
   442          6
   443          3
   444         10
   445          3
   446          2
   447          2
   448          1
   457          2
   458         10
   459         18
   460        130
   461         43
   462         11
   463          3
   464          8
   465          3
   466         16
   467          5
   468          2
   471          2
   472          4
   474         29
   475          8
   476          9
   477          3
   478          2
   484          2
   485          3
   486          3
   492          2
   493          1
   494          2
   495          1
   496          2
   497          0
   498          1
   499          0
   500          2
   508          2
   509          2
   510          1
   514          3
   515          2
   522          2
   523          1
   524          2
   536          4
   537          2
   538          4
   539          1
   540          1
   550          9
   551          3
   552         16
   553          6
   554          3
   555          1
   556          2
   566          3
   567         14
   568          5
   569          1
   572         49
   573         19
   574          5
   575          1
   576          0
   582          9
   583          4
   584          1
   598          2
   599          1
   600          3
   601          1
   602          3
   603          1
   614          1
   615          2
   616          1
   644          1
   658         43
   659         18
   660          6
   661          1
   662          0
   663          0
   672          3
   673         16
   674          8
   675          2