##TITLE=Library Entry 107688
##JCAMP-DX=Revision 4.10 
##DATA TYPE=MASS SPECTRUM
##SAMPLE DESCRIPTION=NIST Mass Spectrometry Data Center
##NAMES=HP
##CAS NAME=2-Pentyn-1-amine, N,N-diethyl-
##MOLFORM=C9H17N
##CAS REGISTRY NO=73117-10-9
##MP= -300
##BP= -300
##MW= 139
##$RETENTION INDEX=0
##$CONDENSED SPECTRUM=NO
##NPOINTS= 77
##XYDATA=(XY..XY) 1 
    11          3
    12          1
    14         19
    15         59
    16          6
    17          5
    18         37
    26         35
    27        262
    28        373
    29        242
    30        158
    31          6
    32         30
    37          7
    38         24
    39        228
    40         58
    41        502
    42        214
    43         25
    44         65
    45          3
    49          3
    50         26
    51         59
    52         36
    53         56
    54         44
    55         52
    56        451
    57         37
    58        450
    59         20
    61          2
    62          8
    63         23
    65        204
    66         38
    67        354
    68         50
    69          8
    70         29
    71          7
    72         34
    73          2
    74          1
    76          2
    77          9
    78          5
    79          9
    80         29
    81         17
    82         24
    84         78
    85          7
    86         46
    87          3
    91          3
    92          3
    93          6
    94         26
    95         12
    96         14
    97          1
   106          2
   108         25
   109          8
   110         14
   122         10
   124        999
   125         98
   126          4
   136          2
   138         52
   139        137
   140         13