##TITLE=Library Entry 5180
##JCAMP-DX=Revision 4.10 
##DATA TYPE=MASS SPECTRUM
##SAMPLE DESCRIPTION=Exported from NIST MS Search
##NAMES=HP
##CAS NAME=Pyrimidine, 4-methoxy-2-methyl-
##MOLFORM=C6H8N2O
##CAS REGISTRY NO=7314-65-0
##MP= -300
##BP= -300
##MW= 124
##$RETENTION INDEX=0
##$CONDENSED SPECTRUM=NO
##NPOINTS= 38
##XYDATA=(XY..XY) 1 
    26        119
    27        125
    28        220
    29         49
    38         38
    39         87
    40        280
    41        161
    42        999
    43        161
    51         49
    52        188
    53        597
    54         89
    55        112
    56        278
    57         49
    58         51
    64         13
    65         20
    66         62
    67         67
    68         60
    69          9
    71         11
    73         11
    79         11
    80         11
    81         20
    82         29
    83         40
    93        132
    94        476
    95        278
    96         40
   123        656
   124        993
   125         69