##TITLE=Library Entry 109661
##JCAMP-DX=Revision 4.10 
##DATA TYPE=MASS SPECTRUM
##SAMPLE DESCRIPTION=Chuck Anderson, Aldrich Chemical Co.
##NAMES=HP
##CAS NAME=2-Chlorohydrocinnamonitrile
##MOLFORM=C9H8ClN
##CAS REGISTRY NO=7315-17-5
##MP= -300
##BP= -300
##MW= 165
##$RETENTION INDEX=1368
##$CONDENSED SPECTRUM=NO
##NPOINTS= 72
##XYDATA=(XY..XY) 1 
    13          0
    14          0
    25          0
    26          6
    27         14
    28          4
    35          0
    36          1
    37          5
    38         11
    39         40
    40         14
    41          2
    43          1
    44          6
    45          0
    47          0
    49          4
    50         30
    51         51
    52          7
    53          1
    54          0
    60          0
    61         11
    62          8
    63         70
    64         15
    65         10
    72          1
    73         19
    74          9
    75         54
    76          8
    77         49
    78          4
    84          3
    85          4
    86          6
    87          8
    88          1
    89        128
    90         22
    91          2
    97          4
    98          0
    99         50
   100          3
   101         50
   102         23
   103         30
   104          3
   111          2
   112          8
   114          3
   123          2
   125        999
   126         18
   127        359
   128         29
   129          4
   130          6
   131          0
   136          2
   138         20
   139          0
   140          7
   164          0
   165        195
   166          5
   167         73
   168          4