##TITLE=Library Entry 3125
##JCAMP-DX=Revision 4.10 
##DATA TYPE=MASS SPECTRUM
##SAMPLE DESCRIPTION=C.H. BRIESKORN, INST. PHARM., WUERZBURG UNIV., W. GER.
##NAMES=HP
##CAS NAME=Methyl (+)-thujan-3-spiro-2'-thiazolidine-4-carboxylate
##MOLFORM=C14H23NO2S
##CAS REGISTRY NO=73154-86-6
##MP= -300
##BP= -300
##MW= 269
##$RETENTION INDEX=0
##$CONDENSED SPECTRUM=NO
##NPOINTS= 146
##XYDATA=(XY..XY) 1 
    39        378
    40         67
    41        999
    42        167
    43        722
    44         89
    45        133
    46         44
    47        144
    51        122
    52         67
    53        344
    54        144
    55        600
    56        100
    57         56
    58        133
    59        889
    60         89
    61         67
    63         56
    65        200
    66         89
    67        422
    68        256
    69        256
    70         78
    71         56
    76        133
    77        367
    78        133
    79        333
    80        133
    81        433
    82        111
    83        111
    84         22
    85         89
    86        233
    87        744
    88        144
    89         33
    91        500
    92         89
    93        578
    94        200
    95        244
    96        122
    97         56
    98         22
    99         78
   100        533
   101         56
   102         44
   103         44
   104         56
   105        167
   106        111
   107        233
   108        489
   109        300
   110         78
   111         67
   112         78
   113         44
   114        289
   115         67
   116         44
   117         67
   118        200
   119        822
   120        178
   121        100
   122         44
   123        100
   124         56
   125         67
   126        167
   127         44
   128         33
   130         33
   131         33
   132        144
   133        122
   134        122
   135        233
   136        300
   137         33
   138         44
   139         22
   140         56
   141         22
   146         44
   147         33
   148         56
   149         67
   150         89
   151         44
   152         67
   153         22
   154         89
   159        744
   160        133
   161         67
   162        122
   163         67
   164         33
   165         33
   166        133
   167         44
   168         33
   172         33
   173        189
   174         44
   175         33
   176         67
   177         44
   178         22
   180         33
   186        433
   187         56
   188         33
   210        233
   211         56
   212         33
   214        467
   215         67
   216         33
   220         67
   221         22
   222        133
   223         78
   224         22
   226        533
   227         78
   228         44
   236        144
   237         22
   241         67
   242         11
   254        533
   255         78
   256         33
   269        422
   270         56
   271         22