##TITLE=Library Entry 54612
##JCAMP-DX=Revision 4.10 
##DATA TYPE=MASS SPECTRUM
##SAMPLE DESCRIPTION=A.A.Kutin, Moscow, Russia
##NAMES=HP
##CAS NAME=4,6,6-Trimethyl-bicyclo[3.1.1]heptan-2-ol
##MOLFORM=C10H18O
##CAS REGISTRY NO=7316-84-9
##MP= -300
##BP= -300
##MW= 154
##$RETENTION INDEX=1186
##$CONDENSED SPECTRUM=NO
##NPOINTS= 85
##XYDATA=(XY..XY) 1 
    36          5
    37          1
    39        335
    40         92
    41        655
    42         79
    43        416
    44         58
    45         24
    50         13
    51         47
    52         23
    53        146
    54         52
    55        570
    56        129
    57        228
    58         24
    59         75
    60         16
    61          2
    62          1
    63         10
    65         62
    66         23
    67        209
    68         60
    69        404
    70        133
    71         72
    72         23
    73         18
    74          1
    77         93
    78         21
    79        155
    80         63
    81        186
    82        102
    83        410
    84        138
    85        999
    86         55
    87          7
    91         83
    92         50
    93        183
    94         75
    95        179
    96         65
    97        207
    98        144
    99         34
   100         14
   101          2
   103          1
   105         22
   106          7
   107         62
   108         21
   109         56
   110         77
   111         79
   112         55
   113          7
   114         30
   115          5
   117          5
   119         19
   121        150
   122         14
   123         15
   124          1
   125         14
   126          2
   129          3
   134          3
   135          3
   136         35
   137         13
   139        289
   140         27
   149          4
   151          2
   154          1