##TITLE=Library Entry 83662
##JCAMP-DX=Revision 4.10 
##DATA TYPE=MASS SPECTRUM
##SAMPLE DESCRIPTION=NIST Mass Spectrometry Data Center, 1990.
##NAMES=HP
##CAS NAME=2-Methyl-1-phenyl-1-pentanol
##MOLFORM=C12H18O
##CAS REGISTRY NO=73177-67-0
##MP= -300
##BP= -300
##MW= 178
##$RETENTION INDEX=0
##$CONDENSED SPECTRUM=NO
##NPOINTS= 57
##XYDATA=(XY..XY) 1 
    14          3
    27         51
    29         47
    38          6
    39         80
    40         16
    41         93
    42         12
    43         56
    50         28
    51         92
    52         27
    53         41
    54          6
    55         30
    57         10
    62         14
    63         40
    64         12
    65         72
    66          7
    67         28
    68         17
    69         98
    70          9
    71          8
    74         11
    75         13
    77        277
    78         71
    79        450
    80         30
    82         16
    89         31
    91        301
    92         35
   102         15
   103         30
   104         35
   105         93
   106         15
   107        999
   108         78
   115        140
   116         76
   117        140
   118         51
   127         18
   128         45
   129         69
   130         18
   131        358
   132         38
   145         29
   160        173
   161         23
   178         37