##TITLE=Library Entry 53859
##JCAMP-DX=Revision 4.10 
##DATA TYPE=MASS SPECTRUM
##SAMPLE DESCRIPTION=Japan AIST/NIMC Database- Spectrum MS-NW-6578
##NAMES=HP
##CAS NAME=2-Butenoic acid, 3-amino-, ethyl ester
##MOLFORM=C6H11NO2
##CAS REGISTRY NO=7318-00-5
##MP= -300
##BP= -300
##MW= 129
##$RETENTION INDEX=0
##$CONDENSED SPECTRUM=NO
##NPOINTS= 72
##XYDATA=(XY..XY) 1 
    12          2
    13          3
    14         23
    15         35
    16          3
    17          1
    18          3
    24          2
    25          5
    26         33
    27         94
    28        141
    29         87
    30         49
    31         79
    32          2
    37          3
    38         13
    39         42
    40         63
    41        124
    42        319
    43         56
    44         52
    45         47
    46         15
    47          1
    50          1
    51          4
    52         10
    53          4
    54         39
    55         44
    56         11
    57        430
    58         17
    59          1
    60         11
    61          6
    62          1
    64          1
    65          2
    66          2
    67         11
    68         79
    69          6
    70          7
    71          1
    72          3
    73          5
    77          1
    80          2
    81          1
    82          9
    83        212
    84        999
    85         80
    86         11
    87          1
    88         11
    94          1
    96          2
   100          5
   101         32
   102          3
   113          1
   114          6
   115          1
   128          1
   129        329
   130         25
   131          1