##TITLE=Library Entry 32314
##JCAMP-DX=Revision 4.10 
##DATA TYPE=MASS SPECTRUM
##SAMPLE DESCRIPTION=NIST Mass Spectrometry Data Center, 1990.
##NAMES=HP
##CAS NAME=1,4-Hexadiene, (Z)-
##MOLFORM=C6H10
##CAS REGISTRY NO=7318-67-4
##MP= -300
##BP= -300
##MW= 82
##$RETENTION INDEX=588
##$CONDENSED SPECTRUM=NO
##NPOINTS= 35
##XYDATA=(XY..XY) 1 
    14         16
    15         33
    26         54
    27        227
    28        164
    29         59
    31         13
    37         23
    38         66
    39        434
    40         75
    41        397
    42         52
    43         89
    49         14
    50         72
    51         95
    52         39
    53        167
    54        170
    55         72
    59         31
    62         13
    63         23
    65        163
    67        999
    68         56
    71         95
    77         47
    78         12
    79         98
    80         19
    81         96
    82        298
    83         20