##TITLE=Library Entry 7382
##JCAMP-DX=Revision 4.10 
##DATA TYPE=MASS SPECTRUM
##SAMPLE DESCRIPTION=W. KELLY UNILEVER RESEARCH COLWORTH/WELWYN, BEDFORD U.K
.
##NAMES=HP
##CAS NAME=3-Hexene-2,5-diol
##MOLFORM=C6H12O2
##CAS REGISTRY NO=7319-23-5
##MP= -300
##BP= -300
##MW= 116
##$RETENTION INDEX=1932
##$CONDENSED SPECTRUM=NO
##NPOINTS= 37
##XYDATA=(XY..XY) 1 
    38         10
    39        135
    40         22
    41        110
    42         25
    43        999
    44         44
    45        150
    50         15
    51         20
    52          5
    53         70
    54         35
    55        280
    56         60
    57         45
    58         20
    59         15
    61         42
    65          5
    67         27
    69         37
    70         10
    71         80
    72         20
    79         15
    81         14
    82         13
    83        255
    84         15
    85          7
    95          4
    96          6
    97          5
    98        110
    99          3
   101          9