##TITLE=Library Entry 56747
##JCAMP-DX=Revision 4.10 
##DATA TYPE=MASS SPECTRUM
##SAMPLE DESCRIPTION=Japan AIST/NIMC Database- Spectrum MS-NW-5947
##NAMES=HP
##CAS NAME=Pentanamide, 2-amino-4-methyl-N-2-naphthalenyl-, (S)-
##MOLFORM=C16H20N2O
##CAS REGISTRY NO=732-85-4
##MP= -300
##BP= -300
##MW= 256
##$RETENTION INDEX=0
##$CONDENSED SPECTRUM=NO
##NPOINTS= 115
##XYDATA=(XY..XY) 1 
    15          3
    17          5
    18          8
    27         16
    28         14
    29          9
    30        156
    31          2
    39         11
    40          2
    41         30
    42         13
    43         56
    44        139
    45          4
    50          2
    51          5
    52          2
    53          2
    54          2
    55          4
    56          5
    57          6
    58          1
    62          4
    63          9
    64          2
    65          6
    66          1
    67          2
    68          2
    69          5
    70         10
    71          2
    72          1
    74          3
    75          5
    76          3
    77          7
    78          2
    81          1
    82          1
    83          1
    84          9
    85          4
    86        999
    87         62
    88          5
    89          8
    90          2
    91          2
    95          1
    96          1
    97          2
    98          1
    99          2
   100          2
   101          4
   102          2
   103          1
   111          1
   112          1
   113          4
   114         10
   115         82
   116         24
   117          5
   125          1
   126          9
   127         27
   128          8
   129          2
   139          1
   140         10
   141          9
   142         17
   143        298
   144         57
   145          5
   152          1
   153          8
   154          5
   155          1
   156          2
   161          1
   167          1
   168          1
   169         19
   170          5
   171          7
   172          1
   180          1
   182         18
   183          3
   184          1
   194          1
   196          2
   197          3
   198          2
   199          3
   200          8
   201          1
   211          1
   213          2
   224          2
   233          2
   238          2
   239          1
   241          2
   254          5
   255          1
   256        182
   257         38
   258          4
   259          1