##TITLE=Library Entry 43421
##JCAMP-DX=Revision 4.10 
##DATA TYPE=MASS SPECTRUM
##SAMPLE DESCRIPTION=S. MARKEY UNIV. OF COLO. MED. CTR., DENVER, COLORADO, U
SA
##NAMES=HP
##CAS NAME=Lanthionine, N,N',O,O'-tetrakis(trimethylsilyl)-
##MOLFORM=C18H44N2O4SSi4
##CAS REGISTRY NO=73200-54-1
##MP= -300
##BP= -300
##MW= 496
##$RETENTION INDEX=2133
##$CONDENSED SPECTRUM=NO
##NPOINTS= 73
##XYDATA=(XY..XY) 1 
    18        196
    20          9
    27         17
    29         19
    30          6
    31          8
    41         27
    42         28
    43         54
    44         36
    45        105
    47         44
    55         18
    56         11
    57         13
    59         55
    61          8
    69         34
    70         24
    71          4
    72         17
    73        999
    74        108
    75        149
    76          9
    77         47
    84          6
    86         16
   100        176
   101         26
   102          9
   103         16
   114         34
   115         93
   116         39
   117         15
   129         15
   130          5
   131         38
   132         37
   133         37
   144         11
   146        179
   147        226
   148         66
   149         46
   160         19
   162         12
   172          7
   174         18
   188         16
   190         15
   203         15
   204          7
   216         65
   217         17
   218        548
   219        117
   220         60
   221         15
   222         12
   232         67
   233         13
   262         22
   264         12
   265          9
   278          5
   288          7
   289         13
   290         42
   291         16
   366          6
   379         17