##TITLE=Library Entry 2515
##JCAMP-DX=Revision 4.10 
##DATA TYPE=MASS SPECTRUM
##SAMPLE DESCRIPTION=Chemical Concepts
##NAMES=HP
##CAS NAME=Oxirane, tetradecyl-
##MOLFORM=C16H32O
##CAS REGISTRY NO=7320-37-8
##MP= -300
##BP= -300
##MW= 240
##$RETENTION INDEX=1708
##$CONDENSED SPECTRUM=NO
##NPOINTS= 123
##XYDATA=(XY..XY) 1 
    26          4
    27        190
    28         28
    29        562
    30         16
    31         89
    33          0
    38          1
    39        128
    40         21
    41        999
    42        198
    43        982
    44         36
    45         66
    46          1
    51          4
    52          1
    53         69
    54        222
    55        875
    56        336
    57        576
    58        305
    59        103
    60          4
    64          0
    65         10
    66         68
    67        499
    68        575
    69        574
    70        257
    71        746
    72         62
    73          9
    74          0
    77          8
    78          2
    79         39
    80         41
    81        449
    82        888
    83        540
    84        153
    85        225
    86         18
    87          4
    91          4
    93         11
    94         23
    95        366
    96        611
    97        362
    98         79
    99         39
   100          9
   101          2
   105          0
   107          3
   108          8
   109        185
   110        180
   111        140
   112         46
   113         28
   114          7
   115          1
   121          2
   122          8
   123         99
   124        105
   125         63
   126         26
   127         25
   128          3
   135          0
   136          4
   137         49
   138         62
   139         23
   140         24
   141         10
   142          1
   150          0
   151         25
   152         42
   153         10
   154         15
   155          4
   156          0
   165         18
   166         29
   167          4
   168          4
   169          4
   171          0
   179          8
   180         32
   181          4
   182         36
   183         10
   184          2
   185          3
   186          0
   193          4
   194         23
   195          3
   196          0
   197          4
   198          2
   199          4
   200          0
   207          1
   208         18
   209          5
   210          1
   211          3
   222         16
   223          4
   239          2
   240          8
   241          2