##TITLE=Library Entry 4994
##JCAMP-DX=Revision 4.10 
##DATA TYPE=MASS SPECTRUM
##SAMPLE DESCRIPTION=Exported from NIST MS Search
##NAMES=HP
##CAS NAME=Propanedinitrile, dimethyl-
##MOLFORM=C5H6N2
##CAS REGISTRY NO=7321-55-3
##MP= -300
##BP= -300
##MW= 94
##$RETENTION INDEX=0
##$CONDENSED SPECTRUM=NO
##NPOINTS= 56
##XYDATA=(XY..XY) 1 
    12          9
    13          7
    14         23
    15        183
    16          5
    24          6
    25         16
    26        150
    27        141
    28        282
    29          4
    30          1
    32         17
    33          3
    35          1
    36         15
    37         75
    38         90
    39        174
    40         94
    41        129
    42        999
    43         27
    44         37
    45          1
    46          1
    47          2
    48          2
    49          4
    50         21
    51        150
    52        412
    53        327
    54         19
    55          1
    60          1
    62          8
    63         16
    64         32
    65         10
    66        241
    67        225
    68         50
    69          3
    75          1
    76         11
    77         30
    78         41
    79         46
    80          2
    90          1
    91          1
    92          1
    93        740
    94         45
    95          2