##TITLE=Library Entry 25085
##JCAMP-DX=Revision 4.10 
##DATA TYPE=MASS SPECTRUM
##SAMPLE DESCRIPTION=A.Swigar, R.Silverstein, Monoterpenes,1981
##NAMES=HP
##CAS NAME=7-Methyl-3-methylene-7-octen-1-ol, propanoate (ester)
##MOLFORM=C13H22O2
##CAS REGISTRY NO=73214-63-8
##MP= -300
##BP= -300
##MW= 210
##$RETENTION INDEX=1415
##$CONDENSED SPECTRUM=NO
##NPOINTS= 33
##XYDATA=(XY..XY) 1 
    39        217
    40         92
    41        458
    42         55
    43         60
    51         43
    52         24
    53        188
    54         58
    55        171
    56         72
    57        999
    58         60
    65         53
    66         58
    67        228
    68        744
    69        222
    77         60
    79        290
    80        429
    81        352
    82         60
    91         64
    92         51
    93        347
    94        145
    95        115
   107        217
   108        211
   109         73
   121        213
   136        132