##TITLE=Library Entry 30005
##JCAMP-DX=Revision 4.10 
##DATA TYPE=MASS SPECTRUM
##SAMPLE DESCRIPTION=Chemical Concepts
##NAMES=HP
##CAS NAME=Cyclohexanemethanol, .alpha.,.alpha.,4-trimethyl-, cis-
##MOLFORM=C10H20O
##CAS REGISTRY NO=7322-63-6
##MP= -300
##BP= -300
##MW= 156
##$RETENTION INDEX=1152
##$CONDENSED SPECTRUM=NO
##NPOINTS= 73
##XYDATA=(XY..XY) 1 
    26          1
    27         38
    28         18
    29         41
    30          0
    31         49
    32          4
    38          0
    39         34
    40         10
    41         75
    42         12
    43         64
    44          2
    45         15
    46          0
    50          0
    51          3
    52          1
    53         13
    54         10
    55         80
    56         10
    57          6
    58         94
    59        999
    60         30
    61          2
    62          0
    63          1
    65          4
    66          1
    67         24
    68          6
    69         16
    70          4
    71         11
    72          0
    73          0
    77          5
    78          0
    79          8
    80          1
    81         57
    82          7
    83         20
    84          1
    85          0
    86          0
    91          2
    92          0
    93          2
    94          1
    95         13
    96         45
    97         20
    98          2
    99          0
   105          0
   107          0
   108          0
   109          1
   110          0
   111          0
   121          0
   123         49
   124          4
   125          0
   137          0
   138          1
   139          1
   141         21
   142          2