##TITLE=Library Entry 43163
##JCAMP-DX=Revision 4.10 
##DATA TYPE=MASS SPECTRUM
##SAMPLE DESCRIPTION=Chemical Concepts
##NAMES=HP
##CAS NAME=4-Penten-2-one, 3-methyl-3-(1-methylethyl)-5-(trimethylsilyl)-
##MOLFORM=C12H24OSi
##CAS REGISTRY NO=73236-94-9
##MP= -300
##BP= -300
##MW= 212
##$RETENTION INDEX=0
##$CONDENSED SPECTRUM=NO
##NPOINTS= 135
##XYDATA=(XY..XY) 1 
    27         12
    29          9
    30          1
    31         10
    38          1
    39         11
    40          2
    41         28
    42          4
    43        113
    44         12
    45         65
    46          4
    47          6
    50          1
    51          3
    52          1
    53         10
    54          3
    55         17
    56          2
    57          8
    58         11
    59        118
    60          9
    61         13
    62          1
    63          1
    65          3
    66          2
    67         12
    68          2
    69         11
    70          3
    71          8
    72          7
    73        999
    74        121
    75        104
    76          6
    77         12
    78          2
    79         12
    80          4
    81         12
    82          2
    83         21
    84          3
    85         21
    86          3
    87          4
    91          9
    92          2
    93          7
    94          2
    95         19
    96          8
    97         15
    98          3
    99        145
   100         15
   101         10
   103          2
   105          4
   106          1
   107         52
   108          5
   109         12
   110          2
   111         11
   112          4
   113         16
   114          2
   115         19
   116          2
   117          5
   118          1
   119          2
   120          1
   121          9
   122          7
   123         10
   124          2
   125          7
   126          2
   127         22
   128          4
   129          2
   130         35
   131          6
   132          2
   133          2
   135          4
   136          3
   137          5
   138          2
   139         31
   140          4
   141          9
   142          1
   143          3
   147          5
   148          1
   149          3
   150          1
   151          9
   152          2
   153          8
   154          7
   155         55
   156          8
   157          3
   167          1
   168          2
   169        185
   170         37
   171         10
   172          1
   177          1
   181          3
   182          3
   183          2
   191          8
   192          2
   193          1
   195          1
   197        315
   198         59
   199         17
   200          2
   211          2
   212         63
   213         13
   214          3
   215          1