##TITLE=Library Entry 37464
##JCAMP-DX=Revision 4.10 
##DATA TYPE=MASS SPECTRUM
##SAMPLE DESCRIPTION=Chemical Concepts
##NAMES=HP
##CAS NAME=2-Acetylthiomethylpyrrolidine-1-carboxylic acid, t-butyl ester
##MOLFORM=C12H21NO3S
##CAS REGISTRY NO=73236-85-8
##MP= -300
##BP= -300
##MW= 259
##$RETENTION INDEX=0
##$CONDENSED SPECTRUM=NO
##NPOINTS= 75
##XYDATA=(XY..XY) 1 
    27         26
    28         38
    29        100
    30         13
    31          4
    38          2
    39         41
    40          8
    41        211
    42         36
    43        261
    44         23
    45         16
    46          7
    47         10
    51          3
    53         11
    54         10
    55         39
    56         47
    57        878
    58         43
    59         15
    60          4
    61          3
    65          3
    67         18
    68         28
    69         23
    70        999
    71         63
    72          2
    73          4
    74         16
    80          3
    81          2
    82         17
    83         36
    84         15
    85          4
    87          5
    89          2
    90         13
    91         10
    97          2
    99          5
   101          5
   102          3
   103          4
   110          2
   112         11
   113          4
   114        734
   115         62
   116         29
   117          2
   118          2
   126          4
   127         46
   128         11
   135          1
   142          3
   143          7
   144        224
   145         22
   146         13
   158          2
   160          9
   170        279
   171         32
   172          2
   183         52
   184          6
   186          6
   204          9