##TITLE=Library Entry 23376
##JCAMP-DX=Revision 4.10 
##DATA TYPE=MASS SPECTRUM
##SAMPLE DESCRIPTION=G.D. ROBERTS & E. WHITE, V SMITH KLINE CORP PHILA., PA.
, USA
##NAMES=HP
##CAS NAME=Propanoic acid, 2,2-dimethyl-, silver(1+) salt
##MOLFORM=C5H9AgO2
##CAS REGISTRY NO=7324-58-5
##MP= -300
##BP= -300
##MW= 208
##$RETENTION INDEX=0
##$CONDENSED SPECTRUM=NO
##NPOINTS= 38
##XYDATA=(XY..XY) 1 
    27         33
    28         26
    38         15
    39        132
    40         25
    41        367
    42         62
    43         41
    44        111
    45         58
    51         11
    53         16
    55         54
    56         92
    57        999
    58         52
    59         54
    69         21
    85         27
    87         38
   107         28
   109         26
   214         22
   216         40
   218         19
   301          1
   315         47
   316          2
   317         83
   318          5
   319         39
   320          2
   372          1
   373          0
   374          2
   375          1
   376          1
   377          0