##TITLE=Library Entry 31493
##JCAMP-DX=Revision 4.10 
##DATA TYPE=MASS SPECTRUM
##SAMPLE DESCRIPTION=Chuck Anderson, Aldrich Chemical Co.
##NAMES=HP
##CAS NAME=Propanoic acid, 2-chloro-, methyl ester, (S)-
##MOLFORM=C4H7ClO2
##CAS REGISTRY NO=73246-45-4
##MP= -300
##BP= -300
##MW= 122
##$RETENTION INDEX=0
##$CONDENSED SPECTRUM=NO
##NPOINTS= 68
##XYDATA=(XY..XY) 1 
    12          0
    13          3
    14         13
    15        358
    16          4
    17          0
    24          1
    25         13
    26        127
    27        810
    28        171
    29         97
    30         18
    31         83
    32          1
    33          5
    35          6
    36          5
    37          6
    38          4
    39         10
    40          1
    41         23
    42         15
    43        208
    44         10
    45         12
    47          2
    48          7
    49          4
    50          2
    51          9
    52          0
    53         11
    54          2
    55         74
    56         29
    57          3
    59        645
    60         19
    61         21
    62        103
    63        999
    64         54
    65        330
    66          6
    76          7
    77          0
    78          2
    79         23
    80          0
    81          7
    85          0
    87        291
    88         12
    89          4
    90          6
    91        124
    92          5
    93         43
    94          1
    95          0
   107          0
   121          0
   122         23
   123          4
   124          7
   125          1