##TITLE=Library Entry 69778
##JCAMP-DX=Revision 4.10 
##DATA TYPE=MASS SPECTRUM
##SAMPLE DESCRIPTION=TNO Volatile Compounds in Food - Chemical Concepts
##NAMES=HP
##CAS NAME=Thiophene, 2,2'-(1,2-ethanediyl)bis-
##MOLFORM=C10H10S2
##CAS REGISTRY NO=7326-80-9
##MP= -300
##BP= -300
##MW= 194
##$RETENTION INDEX=0
##$CONDENSED SPECTRUM=NO
##NPOINTS= 82
##XYDATA=(XY..XY) 1 
    26          4
    33          0
    34          1
    37          4
    38          9
    39         75
    40         15
    41          2
    42          1
    44          8
    45        211
    46          7
    47         16
    48          1
    49          2
    50         11
    51         23
    52          9
    53        128
    54          6
    56          2
    57          3
    58         19
    59          4
    60          2
    61          1
    62          5
    63         17
    64          3
    65         11
    66          5
    67          1
    69         33
    70         10
    71         14
    73         10
    74          3
    75          1
    76          2
    77          6
    78          0
    79          2
    81          4
    82          5
    83          2
    84          4
    85          2
    87          1
    89          3
    91          2
    93          2
    95          5
    96          5
    97        999
    98         67
    99         53
   100          3
   102          2
   103          0
   108          2
   109          7
   110          4
   111          2
   115          7
   117          1
   121          3
   128          1
   134          2
   135          2
   147          5
   148          2
   149          1
   151          0
   159          1
   160          3
   190          1
   191          4
   192          4
   193          2
   194         93
   195         13
   196         10