##TITLE=Library Entry 4657
##JCAMP-DX=Revision 4.10 
##DATA TYPE=MASS SPECTRUM
##SAMPLE DESCRIPTION=H. Fales, LC, NHLBI, NIH, Bethesda, MD 20892
##NAMES=HP
##CAS NAME=Criwelline, 6-O-methyl-
##MOLFORM=C19H23NO5
##CAS REGISTRY NO=73276-41-2
##MP= -300
##BP= -300
##MW= 345
##$RETENTION INDEX=0
##$CONDENSED SPECTRUM=NO
##NPOINTS= 232
##XYDATA=(XY..XY) 1 
    42        999
    43        144
    44        291
    45        983
    46         19
    47         15
    49         14
    50         31
    51         84
    52         25
    53         52
    54         23
    55         81
    56         29
    57         44
    58         36
    59         82
    60          5
    62         16
    63         68
    64         34
    65         65
    66         21
    67         19
    68         21
    70        766
    71         92
    72         33
    73          5
    74         29
    75        139
    76         86
    77        139
    78         42
    79         23
    80         10
    81         14
    82         51
    83         20
    84         34
    85         26
    86         10
    87         24
    88         33
    89         60
    90         15
    91         70
    92         33
    93         52
    94         51
    95         23
    96         79
    97         31
    98         24
    99         14
   100         28
   101         41
   102         69
   103         59
   104         85
   105         30
   106         21
   107         18
   108         16
   109          6
   110          5
   112         62
   113         41
   114         52
   115        256
   116         49
   117         25
   118         20
   119         13
   120         23
   121         33
   124         18
   125          9
   126         50
   127        104
   128        117
   129         81
   130         27
   131         25
   132         12
   133          9
   134         10
   135         45
   136          8
   137          4
   138         27
   139         86
   140         39
   141        119
   142         44
   143         54
   144         20
   145         12
   146         10
   147         20
   148          9
   149         25
   150         15
   151         45
   152        195
   153        216
   154         62
   155         56
   156         28
   157         51
   158         20
   159         78
   160         22
   161          8
   162          9
   163         13
   164          9
   165         21
   166         12
   167         29
   168         36
   169         45
   170         27
   171         78
   172         65
   173         88
   174         20
   175         12
   176          6
   177          4
   178          5
   179          5
   180         22
   181        416
   182         75
   183         47
   184         22
   185        138
   186        105
   187         66
   188         23
   189         17
   190          5
   193         10
   194         11
   195         11
   196         16
   197         46
   198          8
   199        614
   200        102
   201         69
   202         26
   203         10
   209         30
   210         48
   211        488
   212        152
   213        114
   214         58
   215        665
   216        180
   217         52
   218         15
   219          5
   222          7
   223         13
   224         21
   225         30
   226         40
   227         41
   228         49
   229         34
   230         70
   231         28
   232         24
   233          4
   237          5
   238         28
   239         24
   240         52
   241         40
   242         40
   243        434
   244         73
   245         29
   246          9
   247         17
   252         15
   253         23
   254         33
   255         18
   256         31
   257         17
   258         13
   259         22
   260          8
   261         57
   262          9
   268          4
   269          6
   270         12
   271          7
   272         17
   273          6
   274         15
   275        188
   276         27
   280          5
   281          4
   282         12
   283         12
   284         14
   285          6
   286         32
   287         11
   297          6
   298         30
   299          6
   300         11
   312         10
   313         12
   314        127
   315        439
   316         83
   317         11
   330         58
   331         11
   344          8
   345        191
   346         45
   347          7