##TITLE=Library Entry 37248
##JCAMP-DX=Revision 4.10 
##DATA TYPE=MASS SPECTRUM
##SAMPLE DESCRIPTION=Chemical Concepts
##NAMES=HP
##CAS NAME=Acetamide, N-(3-methyl-2-buten-1-yl)-
##MOLFORM=C7H13NO
##CAS REGISTRY NO=73286-69-8
##MP= -300
##BP= -300
##MW= 127
##$RETENTION INDEX=0
##$CONDENSED SPECTRUM=NO
##NPOINTS= 54
##XYDATA=(XY..XY) 1 
    26         11
    27        110
    28        109
    29         71
    30        230
    31          6
    37          5
    38         15
    39        153
    40         51
    41        325
    42        117
    43        489
    44         44
    45          5
    50         14
    51         26
    52         15
    53        111
    54         23
    55         32
    56         31
    57         85
    58         16
    59          8
    60        119
    61          4
    63          5
    65         14
    66         18
    67        239
    68        307
    69        105
    70        999
    71         60
    72         78
    73          4
    77          4
    79          4
    80          5
    81          4
    82         20
    83         21
    84        356
    85         79
    86         14
    98         16
    99          4
   110          7
   112         89
   113          7
   126          5
   127        384
   128         36