##TITLE=Library Entry 1137
##JCAMP-DX=Revision 4.10 
##DATA TYPE=MASS SPECTRUM
##SAMPLE DESCRIPTION=Japan AIST/NIMC Database- Spectrum MS-NW-1026
##NAMES=HP
##CAS NAME=2,2-Dimethyl-1,3-propanediamine
##MOLFORM=C5H14N2
##CAS REGISTRY NO=7328-91-8
##MP= -300
##BP= -300
##MW= 102
##$RETENTION INDEX=0
##$CONDENSED SPECTRUM=NO
##NPOINTS= 46
##XYDATA=(XY..XY) 1 
    14          1
    15          9
    16          1
    17          4
    18        111
    19          1
    26          4
    27         43
    28        159
    29         80
    30        999
    31         22
    32          7
    37          3
    38          7
    39         56
    40         17
    41        174
    42         40
    43         44
    44         66
    45         33
    46          1
    47          1
    50          2
    51          4
    52          6
    53         18
    54         17
    55        297
    56        517
    57        100
    58         89
    59          4
    67          5
    68         16
    69          6
    70        562
    71         41
    72        119
    73        136
    74          6
    82          1
    84         15
    85        216
    86         13