##TITLE=Library Entry 100513
##JCAMP-DX=Revision 4.10 
##DATA TYPE=MASS SPECTRUM
##SAMPLE DESCRIPTION=Japan AIST/NIMC Database- Spectrum MS-IW-4084
##NAMES=HP
##CAS NAME=p-(Chloromethyl)benzaldehyde
##MOLFORM=C8H7ClO
##CAS REGISTRY NO=73291-09-5
##MP= -300
##BP= -300
##MW= 154
##$RETENTION INDEX=0
##$CONDENSED SPECTRUM=NO
##NPOINTS= 88
##XYDATA=(XY..XY) 1 
    26          4
    27          9
    28          4
    29         14
    35          3
    36          9
    37         11
    38         33
    39        135
    40         15
    41         16
    42          1
    43          8
    44          8
    45         27
    47          1
    48          1
    49         10
    50         59
    51        102
    52         17
    53          5
    58          1
    59         18
    60          2
    61         20
    62         72
    63        222
    64         60
    65        115
    66          7
    68          1
    69          8
    70          2
    72          1
    73         24
    74         17
    75         25
    76         10
    77         32
    78          9
    79          1
    84          2
    85          9
    86         16
    87         17
    88          8
    89        350
    90        226
    91        644
    92         49
    93          2
    97          4
    98          1
    99         46
   100          3
   101         16
   102          9
   103         46
   104         49
   105          6
   106          1
   116          1
   117          3
   118         79
   119        999
   120         93
   121          6
   123          3
   124         10
   125        509
   126         44
   127        165
   128         12
   135          1
   137          1
   138          5
   139        145
   140         13
   141         46
   142          4
   152          3
   153        769
   154        979
   155        331
   156        319
   157         27
   158          1