##TITLE=Library Entry 48553
##JCAMP-DX=Revision 4.10 
##DATA TYPE=MASS SPECTRUM
##SAMPLE DESCRIPTION=J.E.WAJON,SCH. APPL. CHEM.,CURTIN UNIV. TECHNOL.,BENTLE
Y,AUST.
##NAMES=HP
##CAS NAME=Pentasulfide, dimethyl
##MOLFORM=C2H6S5
##CAS REGISTRY NO=7330-31-6
##MP= -300
##BP= -300
##MW= 190
##$RETENTION INDEX=1415
##$CONDENSED SPECTRUM=NO
##NPOINTS= 55
##XYDATA=(XY..XY) 1 
    32         75
    33         19
    34         25
    36          6
    40         16
    41          4
    44         55
    45        628
    46        210
    47        707
    48        403
    49         36
    50         22
    51          9
    55          6
    61         61
    62         12
    64        443
    65         65
    66         75
    67          8
    76         12
    77         25
    78         50
    79        999
    80        199
    81        100
    82         23
    83          8
    93         17
    94        433
    95         20
    96         65
    97         10
    98          6
   110         10
   111        161
   112         33
   113         22
   115          8
   126        364
   127         18
   128         45
   129          6
   130          6
   141          6
   143         15
   145          7
   158        541
   159         29
   160        100
   161          6
   162         11
   190         68
   192         19