##TITLE=Library Entry 89095
##JCAMP-DX=Revision 4.10 
##DATA TYPE=MASS SPECTRUM
##SAMPLE DESCRIPTION=A.A.Kutin, Moscow, Russia
##NAMES=HP
##CAS NAME=4H-3,1-Benzoxazin-4-one, 6-chloro-2-(2-thienyl)-
##MOLFORM=C12H6ClNO2S
##CAS REGISTRY NO=73314-31-5
##MP= -300
##BP= -300
##MW= 263
##$RETENTION INDEX=0
##$CONDENSED SPECTRUM=NO
##NPOINTS= 156
##XYDATA=(XY..XY) 1 
    33          0
    34          2
    35          2
    36         11
    37         20
    38         47
    39        276
    40         29
    41          4
    42          3
    43          8
    44         18
    45         49
    47          5
    49         20
    50         32
    51         12
    52          4
    53         17
    55          5
    57         31
    58         19
    59          2
    60          4
    61         16
    62         26
    63         29
    64         18
    65          4
    66          2
    67          1
    69         18
    70          6
    71          5
    72          6
    73         30
    74         42
    75         68
    76          8
    77          6
    78          1
    79          1
    81         14
    82         22
    83         91
    84         16
    85          7
    86          7
    87          7
    88         15
    89          7
    90          2
    91          3
    92          1
    93          2
    94          1
    95         17
    97         15
    98          9
    99          5
   100          7
   101          1
   104          4
   105          2
   106          1
   107          4
   108          4
   109         23
   111        999
   112         57
   113         49
   114          9
   115          1
   117         33
   119         13
   120          4
   121          1
   124         74
   126         30
   127          3
   128          1
   129          0
   132         12
   133          9
   134          1
   135          2
   136          2
   138          1
   139          1
   140         15
   141          1
   144          0
   145          4
   146          1
   147          0
   148          0
   149          1
   151          0
   152          0
   153          1
   154          0
   156          0
   157          1
   158          0
   159          0
   162          1
   163          0
   164          1
   168          0
   170          0
   171          1
   172          6
   173          0
   174          1
   175          1
   176          3
   177          1
   178          0
   180         38
   182         15
   183          3
   184         17
   185          2
   186          1
   187          0
   192          1
   193          1
   195          0
   200          6
   201          1
   206          0
   207          1
   208          0
   209          0
   219         62
   220          8
   221         23
   222          2
   223          0
   228          7
   229          2
   230          0
   235         48
   236          6
   237         17
   238          1
   239          0
   259          0
   260          1
   261          2
   263        309
   264         43
   265        110
   266         15
   267          5
   268          0