##TITLE=Library Entry 72922
##JCAMP-DX=Revision 4.10 
##DATA TYPE=MASS SPECTRUM
##SAMPLE DESCRIPTION=Humboldt-Universitat zu Berlin, Department of Chemistry
, Analytical Group
##NAMES=HP
##CAS NAME=N-Bromacetyl-2-amino-thiazol
##MOLFORM=C5H5BrN2OS
##CAS REGISTRY NO=73326-20-2
##MP= -300
##BP= -300
##MW= 220
##$RETENTION INDEX=0
##$CONDENSED SPECTRUM=NO
##NPOINTS= 99
##XYDATA=(XY..XY) 1 
    24          1
    25          7
    26         27
    27         24
    28         12
    29         16
    30          1
    31          4
    32         19
    33          5
    34          1
    37          1
    38         14
    39         24
    40         41
    41         41
    42        176
    43         18
    44         23
    45        323
    46         24
    47         21
    48          4
    49          1
    50          1
    51          6
    52          6
    53         23
    54         11
    55        231
    56         15
    57         63
    58        136
    59         44
    60         12
    61          3
    65          1
    66          4
    67          1
    68          1
    69          5
    70         15
    71         25
    72         11
    73         71
    74          4
    75          3
    79         11
    80          3
    81         11
    82          5
    83          5
    84          2
    85          2
    86         20
    87          1
    88          1
    91          4
    92          4
    93         75
    94          7
    95         75
    96          1
    97          2
    98          4
    99         63
   100        999
   101         50
   102         36
   103          2
   105          0
   106          0
   111          2
   113         24
   114          1
   115          1
   120          4
   121         45
   122          4
   123         43
   124          1
   125          0
   126          1
   127          5
   128          0
   140          0
   141          7
   142          0
   149          0
   171          0
   176          1
   178          1
   180          0
   196          0
   204          0
   220         68
   222         71
   223          6
   224          3