##TITLE=Library Entry 11348
##JCAMP-DX=Revision 4.10 
##DATA TYPE=MASS SPECTRUM
##SAMPLE DESCRIPTION=G.S. KING, CHEM. PATHOL. DEP., QUEEN CHARLOTTE'S HOSP.,
 LONDON
##NAMES=HP
##CAS NAME=6-Deoxysorbitol pentaacetate
##MOLFORM=C16H24O10
##CAS REGISTRY NO=7333-30-4
##MP= -300
##BP= -300
##MW= 376
##$RETENTION INDEX=0
##$CONDENSED SPECTRUM=NO
##NPOINTS= 41
##XYDATA=(XY..XY) 1 
    41         12
    42         28
    43        999
    44         56
    45         36
    51          8
    52         16
    55         12
    57         24
    60         16
    61         16
    69          8
    70         40
    71         12
    73         20
    79         20
    80          8
    81          8
    82          8
    83          8
    85         12
    94          8
    95         20
    99         68
   100          8
   103         64
   111          8
   112         44
   113          8
   115         92
   116         44
   117         48
   129         60
   141         16
   145         32
   154         16
   155          8
   158         28
   159         60
   201         24
   217         12