##TITLE=Library Entry 58978
##JCAMP-DX=Revision 4.10 
##DATA TYPE=MASS SPECTRUM
##SAMPLE DESCRIPTION=NIST Mass Spectrometry Data Center, 1994
##NAMES=HP
##CAS NAME=10,12-Octadecadiynoic acid
##MOLFORM=C18H28O2
##CAS REGISTRY NO=7333-25-7
##MP= -300
##BP= -300
##MW= 276
##$RETENTION INDEX=2202
##$CONDENSED SPECTRUM=NO
##NPOINTS= 124
##XYDATA=(XY..XY) 1 
    15         20
    16         14
    17          5
    18         30
    19          7
    26         20
    27        283
    28         76
    29        466
    30         22
    31         33
    36         11
    39        250
    40         44
    41        812
    42        102
    43        303
    44         10
    45        160
    50         74
    51        166
    52         38
    53         99
    54         10
    55        598
    56         49
    57         63
    58         10
    59         40
    60        140
    62         20
    63        116
    64         36
    65        205
    66         71
    67        416
    68         59
    69        134
    70         16
    71         48
    72         16
    73         66
    74         29
    75         53
    76        115
    77        377
    78        354
    79        542
    80        189
    81        289
    82         84
    83         49
    84         17
    85         20
    87         19
    88         10
    89         81
    90         10
    91        999
    92        299
    93        344
    94        108
    95        156
    96         29
    97         23
    98         10
    99         14
   101         12
   102         24
   103        104
   104         65
   105        548
   106        177
   107        150
   108         60
   109         37
   110          9
   115         89
   116         40
   117        165
   118          9
   119        462
   120         99
   121         51
   122         17
   123         19
   127          9
   128         26
   129         30
   130         18
   131        107
   132         31
   133        201
   134        177
   135         41
   136         19
   137          9
   141         15
   143         15
   144          6
   145         76
   146         18
   147         73
   148         40
   149         26
   150         19
   151         10
   152         43
   153          7
   157         13
   159         46
   160         12
   161         33
   162         16
   163         12
   173         17
   175         16
   177         10
   178         16
   179         12
   187         18
   191          8
   205          8
   234          6