##TITLE=Library Entry 89908
##JCAMP-DX=Revision 4.10 
##DATA TYPE=MASS SPECTRUM
##SAMPLE DESCRIPTION=Chemical Concepts
##NAMES=HP
##CAS NAME=3,5-Heptanedione, 2,2,6-trimethyl-
##MOLFORM=C10H18O2
##CAS REGISTRY NO=7333-23-5
##MP= -300
##BP= -300
##MW= 170
##$RETENTION INDEX=0
##$CONDENSED SPECTRUM=NO
##NPOINTS= 91
##XYDATA=(XY..XY) 1 
    26          3
    27         44
    29         90
    30          1
    31          5
    36          0
    38          1
    39         58
    40          9
    41        208
    42         16
    43        702
    44         15
    45          8
    46          0
    50          1
    51          4
    52          1
    53         15
    54          1
    55         37
    56          9
    57        259
    58         13
    59          5
    61          0
    62          0
    63          0
    64          0
    65          7
    66          2
    67         73
    68          5
    69         28
    70          8
    71        104
    73          1
    74          0
    78          1
    79          9
    80          1
    81         45
    82          2
    83         18
    84          2
    85         63
    86         38
    87          4
    88          0
    91          0
    93          0
    94          0
    95         49
    96          1
    97         26
    98          4
    99         15
   100          2
   103          0
   107          0
   109         27
   110          2
   111         16
   112          8
   113        999
   114         77
   115         10
   116          0
   119          0
   121          0
   125          7
   126          0
   127        250
   128         18
   129          2
   130          0
   137          1
   139          0
   140          1
   141          1
   142         13
   143          2
   152          0
   153          0
   154          0
   155          4
   156          1
   157          0
   170        139
   171         20
   172          1