##TITLE=Library Entry 41671
##JCAMP-DX=Revision 4.10 
##DATA TYPE=MASS SPECTRUM
##SAMPLE DESCRIPTION=Institute of Organic Chemistry, Novosibirsk, USSR 1988
##NAMES=HP
##CAS NAME=(1S,17S)-3,6,9,12,15,18,21,24,27,30-Decaoxabicyclo[15.13.0]triaco
ntane
##MOLFORM=C20H38O10
##CAS REGISTRY NO=73346-56-2
##MP= -300
##BP= -300
##MW= 438
##$RETENTION INDEX=0
##$CONDENSED SPECTRUM=NO
##NPOINTS= 190
##XYDATA=(XY..XY) 1 
    50          9
    51         20
    52          6
    53         17
    54         22
    55        111
    56         59
    57        261
    58        483
    59        461
    60         42
    61         58
    62          5
    63         13
    64         24
    65         22
    66          9
    67         29
    68         30
    69        172
    70        122
    71        355
    72        299
    73        999
    74         94
    75         52
    76         13
    77         27
    78          9
    79         33
    80          9
    81         48
    82         27
    83         66
    84         34
    85         77
    86        427
    87        888
    88        211
    89        888
    90         50
    91         65
    92         11
    93          8
    94         53
    95         46
    96         33
    97         40
    98         24
    99        388
   100         83
   101        211
   102         77
   103        249
   104         27
   105         47
   106          8
   107         22
   108         16
   109         20
   110         14
   111         29
   112         55
   113        138
   114         45
   115        233
   116         46
   117        283
   118         22
   119         19
   121         16
   122         20
   123         11
   124          8
   125         23
   126         23
   127         26
   128         21
   129         64
   130         34
   131        183
   132         17
   133        416
   134         33
   135         14
   137          8
   138          9
   139         14
   140          9
   141         17
   142          8
   143         37
   144         12
   145         41
   146         14
   147         31
   148          8
   149         12
   151         17
   152          9
   154          6
   155         16
   156         13
   157         48
   158         17
   159         41
   160         13
   161         83
   162         10
   163         11
   165          7
   169          7
   170          7
   171         17
   172          6
   173         19
   174         25
   175         94
   176         12
   177         99
   178         13
   179          7
   182          9
   183          6
   185          6
   186          6
   187         14
   188          9
   189         18
   190          7
   191         12
   192          6
   195         14
   201         50
   202         11
   203         47
   204          8
   205        149
   206         17
   207         16
   208          5
   214          6
   215          7
   216          8
   217         17
   218        133
   219        111
   220         18
   221         15
   231         34
   232         11
   233         11
   234          6
   235          6
   244         21
   245         39
   246          9
   247         11
   249         13
   261         24
   262         13
   263         26
   264          5
   275          6
   276          2
   277          4
   287          3
   288          5
   289          5
   291         24
   292          6
   293          6
   305          6
   306          7
   307          4
   319          3
   333          8
   334          2
   349          3
   350          6
   351         16
   352          3
   377         12
   378          2
   394          6
   395          3
   396          2
   438         44
   439         16
   440          3