##TITLE=Library Entry 78663
##JCAMP-DX=Revision 4.10 
##DATA TYPE=MASS SPECTRUM
##SAMPLE DESCRIPTION=Chemical Concepts
##NAMES=HP
##CAS NAME=Benzoic acid, 2-benzoyl-6-nitro-
##MOLFORM=C14H9NO5
##CAS REGISTRY NO=7335-77-5
##MP= -300
##BP= -300
##MW= 271
##$RETENTION INDEX=0
##$CONDENSED SPECTRUM=NO
##NPOINTS= 72
##XYDATA=(XY..XY) 1 
    25         12
    26          3
    29         59
    38          9
    39         20
    44          7
    45         12
    46         11
    50         76
    51        167
    52         13
    53         11
    62         12
    63         35
    64         27
    65          8
    66          5
    73          5
    74         50
    75         83
    76         74
    77        562
    78         82
    79          6
    86          4
    87          6
    91         10
    92         48
    93          4
    94         97
    95          7
    98          5
    99          4
   102          5
   103          8
   104         53
   105        999
   106         83
   107          4
   115         11
   119         11
   120         16
   126         10
   139         16
   140          4
   141         14
   148         23
   149         13
   150         37
   151         33
   152         37
   153          8
   168          6
   169          4
   177          4
   178         10
   179          9
   180         55
   181         16
   194        113
   195         12
   196          4
   197          4
   210        125
   211         18
   225          4
   226          4
   227          5
   254          3
   255          3
   271         83
   272         15