##TITLE=Library Entry 25317
##JCAMP-DX=Revision 4.10 
##DATA TYPE=MASS SPECTRUM
##SAMPLE DESCRIPTION=NIST Mass Spectrometry Data Center, 1990.
##NAMES=HP
##CAS NAME=3,5-Dimethyl-4-octanone
##MOLFORM=C10H20O
##CAS REGISTRY NO=7335-17-3
##MP= -300
##BP= -300
##MW= 156
##$RETENTION INDEX=0
##$CONDENSED SPECTRUM=NO
##NPOINTS= 23
##XYDATA=(XY..XY) 1 
    15         13
    27        207
    28        124
    29        345
    39        150
    41        416
    42         92
    43        607
    44         24
    53         29
    55        111
    57        999
    58         43
    67         12
    69         33
    71        911
    72         48
    85        279
    86         84
    99        145
   114        152
   115         15
   156         61