##TITLE=Library Entry 90768
##JCAMP-DX=Revision 4.10 
##DATA TYPE=MASS SPECTRUM
##SAMPLE DESCRIPTION=Japan AIST/NIMC Database- Spectrum MS-IW-3948
##NAMES=HP
##CAS NAME=2-Acetamido-4-methyl-1,3-thiazole
##MOLFORM=C6H8N2OS
##CAS REGISTRY NO=7336-51-8
##MP= -300
##BP= -300
##MW= 156
##$RETENTION INDEX=0
##$CONDENSED SPECTRUM=NO
##NPOINTS= 70
##XYDATA=(XY..XY) 1 
    14          3
    15         22
    26          3
    27         10
    28         14
    29          4
    31          4
    32          4
    34          1
    37          2
    38          5
    39         24
    40         18
    41         14
    42        109
    43        393
    44         12
    45        108
    46         37
    47          6
    48          2
    51          3
    52          5
    53          7
    54          7
    55         10
    56          3
    57          4
    58          5
    59          9
    60          8
    61         29
    62          1
    63          2
    66          2
    67         19
    68          3
    69         67
    70         16
    71        116
    72        279
    73         55
    74         17
    75          3
    77          2
    79          1
    81         27
    82          2
    83          1
    85          4
    86          9
    87         40
    88          2
    89          2
    99          1
   100          2
   105          1
   107          2
   112          3
   113         40
   114        999
   115         69
   116         51
   117          2
   127          2
   141          8
   142          2
   156        201
   157         16
   158          9