##TITLE=Library Entry 35287
##JCAMP-DX=Revision 4.10 
##DATA TYPE=MASS SPECTRUM
##SAMPLE DESCRIPTION=NIST Mass Spectrometry Data Center
##NAMES=HP
##CAS NAME=2-Propenoic acid, 2-methyl-, 3-methylbutyl ester
##MOLFORM=C9H16O2
##CAS REGISTRY NO=7336-27-8
##MP= -300
##BP= -300
##MW= 156
##$RETENTION INDEX=1044
##$CONDENSED SPECTRUM=NO
##NPOINTS= 61
##XYDATA=(XY..XY) 1 
    26          3
    27         35
    28          8
    29         57
    30          2
    31          6
    37          3
    38         11
    39        183
    40         39
    41        456
    42        115
    43        133
    44          5
    45         20
    46          1
    50          2
    51          3
    52          1
    53         14
    54          8
    55        241
    56         28
    57         34
    58          5
    59         10
    65          1
    66          1
    67          4
    68          9
    69        999
    70        951
    71         77
    72          3
    73          2
    74          2
    81          2
    82          8
    83         19
    84          5
    85          9
    86          9
    87        112
    88          5
    89          1
    93          1
    95          2
    96          1
    97          4
    98          5
    99         29
   100          5
   101          2
   109          1
   110          2
   111          5
   112          1
   123          1
   127          4
   138          1
   141          1