##TITLE=Library Entry 30957
##JCAMP-DX=Revision 4.10 
##DATA TYPE=MASS SPECTRUM
##SAMPLE DESCRIPTION=Chemical Concepts
##NAMES=HP
##CAS NAME=12-Bromododecanoic acid
##MOLFORM=C12H23BrO2
##CAS REGISTRY NO=73367-80-3
##MP= -300
##BP= -300
##MW= 278
##$RETENTION INDEX=0
##$CONDENSED SPECTRUM=NO
##NPOINTS= 161
##XYDATA=(XY..XY) 1 
    26          7
    27        193
    28         38
    29        257
    30          8
    31         16
    39        104
    40         24
    41        658
    42        105
    43        294
    44         10
    45         62
    46          2
    47          1
    51          3
    52          4
    53         49
    54         49
    55        655
    56         85
    57        216
    58         13
    59         38
    60        999
    61        159
    62          8
    63          1
    64          1
    65          6
    66          4
    67         74
    68         46
    69        373
    70         32
    71        128
    72          7
    73        904
    74         77
    75          8
    77          3
    79         10
    80          5
    81         59
    82         30
    83        265
    84         56
    85         40
    86          4
    87        128
    88         12
    91          2
    93          8
    94          4
    95         39
    96         27
    97        158
    98         48
    99          8
   100          6
   101         41
   102         12
   106          1
   107         19
   108          2
   109         21
   110         16
   111         33
   112         10
   113          4
   114          7
   115         82
   116         17
   117          3
   119          2
   121          7
   122          1
   123          8
   124          2
   125         15
   126          2
   127          2
   129        205
   130         19
   131          2
   133          1
   134          1
   135         34
   136          4
   137         31
   138          7
   139         22
   140          2
   141          2
   143         11
   148         24
   149         17
   150         27
   151         14
   152          3
   153         10
   154          1
   155          3
   157          5
   161          1
   162         18
   163         18
   164         15
   165         19
   166          2
   168          1
   170          1
   171          9
   172          2
   175          3
   176          6
   177         17
   178          6
   179         18
   180          8
   181         33
   182          5
   185          1
   188          2
   189          1
   190          3
   191          1
   193          9
   195          7
   198          6
   199        267
   200         35
   201          3
   207          4
   209          2
   216          9
   217          2
   218         44
   219         21
   220         34
   221         23
   222          5
   223          3
   235         50
   236          3
   237         51
   238          3
   242          1
   244          1
   249          7
   250          2
   251          8
   252          1
   259          1
   261          2
   263          2
   278        106
   279         16
   280        103
   281         14
   282          1