##TITLE=Library Entry 14513
##JCAMP-DX=Revision 4.10 
##DATA TYPE=MASS SPECTRUM
##SAMPLE DESCRIPTION=A. Brossi, LC, NIDDK, NIH, Bethesda, MD 20892
##NAMES=HP
##CAS NAME=Acetamide, N-(5,6,7,9-tetrahydro-2-hydroxy-1,3,10-trimethoxy-9-ox
obenzo(a)heptalen-7-yl)-, (S)-
##MOLFORM=C21H23NO6
##CAS REGISTRY NO=7336-36-9
##MP= -300
##BP= -300
##MW= 385
##$RETENTION INDEX=0
##$CONDENSED SPECTRUM=NO
##NPOINTS= 199
##XYDATA=(XY..XY) 1 
    42        131
    43        999
    44         55
    45         18
    47          9
    49         36
    50          3
    51         30
    52          4
    53         16
    54          8
    55         32
    56         11
    57         17
    59          8
    60         46
    61         26
    63         21
    65         16
    67         17
    69         13
    70          4
    71          3
    73          3
    75         10
    76         11
    77         26
    78         19
    79          3
    83          8
    84         15
    86         14
    88          3
    89         12
    90          4
    91         10
    92          3
    96          4
    97          3
   100          4
   101          8
   102         12
   103          5
   104          4
   105          4
   106          5
   112          3
   113         14
   114          9
   115         53
   116          5
   117          4
   118          4
   120          4
   123          3
   124          4
   126         21
   127         25
   128         30
   129         16
   130          4
   131          9
   134          6
   135          3
   138          3
   139         43
   140         21
   141         35
   142         13
   143          6
   145          3
   149          4
   150          5
   151         17
   152         48
   153         28
   154         18
   155         20
   156         10
   157         10
   158          4
   159          3
   163          7
   164          3
   165         27
   166          9
   167         22
   168         23
   169         22
   170         11
   171         11
   172          3
   176          4
   177          3
   178          9
   179          4
   180         13
   181         23
   182         19
   183         20
   184         17
   185         12
   186          4
   189          4
   191          3
   192          3
   193         13
   194          9
   195         25
   196         21
   197         29
   198         13
   199         16
   200          3
   205          3
   206          4
   207         11
   208         11
   209         13
   210         21
   211         24
   212         33
   213         15
   214          5
   220          3
   221         12
   222          6
   223         31
   224         23
   225         35
   226         15
   227         20
   228         11
   229          3
   235         14
   236         18
   237         32
   238         18
   239         28
   240         39
   241         20
   242         12
   243          3
   249          4
   250          6
   251         44
   252         36
   253         41
   254         16
   255         48
   256         16
   257         20
   265         25
   266         20
   267        120
   268         48
   269         22
   270         32
   271         13
   272          6
   279         12
   280         51
   281         19
   282         24
   283        154
   284         64
   285         23
   286         45
   287          8
   294         18
   295         12
   296         11
   297         76
   298        353
   299         71
   300         44
   301          5
   308         13
   309          4
   310         10
   311         41
   312         13
   313          4
   314         31
   315          4
   324          3
   325          9
   326         91
   327         19
   328         10
   339          4
   342         28
   356         10
   357         55
   358         12
   384          3
   385        222
   386         60
   387         11