##TITLE=Library Entry 37914
##JCAMP-DX=Revision 4.10 
##DATA TYPE=MASS SPECTRUM
##SAMPLE DESCRIPTION=J. Daly, M. Garraffo, T. Spande, LBC-NIDDK-NIH, Bethesd
a, MD
##NAMES=HP
##CAS NAME=(8S,8aS,Z)-8-Methyl-6-((R)-2-methylpentylidene)octahydroindolizin
-8-ol
##MOLFORM=C15H27NO
##CAS REGISTRY NO=73376-36-0
##MP= -300
##BP= -300
##MW= 237
##$RETENTION INDEX=0
##$CONDENSED SPECTRUM=NO
##NPOINTS= 124
##XYDATA=(XY..XY) 1 
    51         11
    52          9
    53         64
    54         30
    55        127
    56         24
    57         13
    58         14
    59          4
    63          4
    65         38
    66         22
    67        101
    68        100
    69        100
    70        999
    71        178
    72        168
    73          9
    77         56
    78         14
    79         79
    80         35
    81         77
    82         55
    83         63
    84        225
    85         24
    86          4
    89          3
    91         38
    92          9
    93         36
    94         34
    95         73
    96         69
    97         27
    99          2
   103          4
   104          4
   105         14
   106         19
   107         29
   108         86
   109         95
   110         64
   111         19
   112        136
   113         14
   114          7
   115          4
   116          2
   117          8
   118          8
   119          9
   120         33
   121         26
   122         61
   123        148
   125         16
   126         13
   127          2
   130          5
   131          5
   132          9
   133         14
   134         36
   135         12
   136         41
   137         35
   138         10
   139          3
   144          5
   145          4
   146         10
   147          9
   148         85
   149         17
   150         46
   151         32
   153         22
   154          5
   158          6
   159          3
   160         24
   161          8
   162         11
   164         20
   166        815
   167         94
   168          8
   172          6
   174         19
   176         68
   177         13
   178         12
   179          9
   180         13
   181          2
   188          8
   190         10
   192         95
   193         28
   194        267
   195         55
   196          6
   202          5
   204         28
   205          6
   207          3
   208         22
   209          4
   218          9
   219         10
   220         22
   221          4
   222         43
   223          7
   234          2
   235         11
   236         80
   237        134
   238         23
   239          2