##TITLE=Library Entry 75279
##JCAMP-DX=Revision 4.10 
##DATA TYPE=MASS SPECTRUM
##SAMPLE DESCRIPTION=A. VAN LANGENHOVE, HARVARD SCH. PUBLIC HEALTH, BOSTON,
 USA
##NAMES=HP
##CAS NAME=2,5-Anhydro-1,3,4,6-tetra-O-methyl-d-mannitol
##MOLFORM=C10H20O5
##CAS REGISTRY NO=73370-61-3
##MP= -300
##BP= -300
##MW= 220
##$RETENTION INDEX=0
##$CONDENSED SPECTRUM=NO
##NPOINTS= 45
##XYDATA=(XY..XY) 1 
    71        791
    72        114
    73        126
    74        260
    75        263
    81         58
    82         18
    83        239
    84        101
    85        157
    86         56
    87        287
    88         44
    89        507
    90         28
    95         23
    97         21
    98         12
    99        501
   100         46
   101        999
   102        133
   103         33
   111        541
   112         57
   113         52
   114         43
   115        462
   116         39
   117         50
   125        396
   126        181
   127         33
   129         37
   143        890
   144         74
   145         22
   156        376
   157         60
   158         38
   169         10
   174         10
   175        370
   176         27
   188         18