##TITLE=Library Entry 51217
##JCAMP-DX=Revision 4.10 
##DATA TYPE=MASS SPECTRUM
##SAMPLE DESCRIPTION=ASES Database, Dalian Institute, P.R. China
##NAMES=HP
##CAS NAME=2,2-Dimethyl-cyclohex-3-en-1-ol
##MOLFORM=C8H14O
##CAS REGISTRY NO=73374-46-6
##MP= -300
##BP= -300
##MW= 126
##$RETENTION INDEX=0
##$CONDENSED SPECTRUM=NO
##NPOINTS= 39
##XYDATA=(XY..XY) 1 
    47         15
    51         11
    53         52
    54         13
    55        369
    56         75
    57        379
    58         18
    60         18
    64          5
    65         11
    66          9
    67        203
    68         21
    69        197
    70        165
    71         49
    72         65
    73        130
    75         79
    76          4
    77         13
    80          6
    81         15
    82        999
    83        157
    84         11
    85         17
    86          9
    91          7
    93         16
    97          8
    98         10
    99          6
   101         12
   108          9
   111        359
   112         19
   126         37