##TITLE=Library Entry 37913
##JCAMP-DX=Revision 4.10 
##DATA TYPE=MASS SPECTRUM
##SAMPLE DESCRIPTION=J. Daly, M. Garraffo, T. Spande, LBC-NIDDK-NIH, Bethesd
a, MD
##NAMES=HP
##CAS NAME=Pumilitoxin 251d
##MOLFORM=C16H29NO
##CAS REGISTRY NO=73376-35-9
##MP= -300
##BP= -300
##MW= 251
##$RETENTION INDEX=0
##$CONDENSED SPECTRUM=NO
##NPOINTS= 129
##XYDATA=(XY..XY) 1 
    51          8
    52          7
    53         58
    54         23
    55        128
    56         24
    57         23
    58         14
    59          4
    63          2
    65         29
    66         18
    67         91
    68         88
    69         79
    70        999
    71        171
    72        169
    73          8
    77         44
    78         10
    79         69
    80         28
    81         75
    82         55
    83         67
    84        200
    85         22
    89          2
    91         28
    92          7
    93         30
    94         29
    95         78
    96         67
    97         27
    98         13
    99          3
   100          1
   102          1
   103          3
   104          2
   105          9
   106         14
   107         31
   108         45
   109         53
   110         24
   112        116
   113         12
   114          6
   115          2
   116          1
   117          4
   118          4
   119          5
   120         27
   121         18
   122         68
   123        100
   124         41
   125         19
   126         12
   127          2
   129          1
   131          2
   132          6
   133          9
   134         25
   135         10
   136         31
   137         62
   138         20
   139          3
   140          1
   142          1
   145          1
   146          6
   148         56
   149         12
   150         30
   151         13
   152         16
   153         12
   154          3
   155          1
   157          1
   158          3
   160         17
   161          6
   162          7
   164         13
   166        610
   167         70
   168          6
   169          1
   172          2
   174         12
   176         43
   177          7
   178          6
   179          2
   180          6
   181          1
   190          5
   192         10
   194         97
   195         20
   196          2
   202          1
   204          3
   206         49
   208         73
   209         13
   210          1
   216          2
   218         13
   219          3
   220          1
   222          6
   232          4
   233          4
   234         10
   236         17
   237          3
   250         35
   251         52
   252         11
   253          1