##TITLE=Library Entry 38340
##JCAMP-DX=Revision 4.10 
##DATA TYPE=MASS SPECTRUM
##SAMPLE DESCRIPTION=Chemical Concepts
##NAMES=HP
##CAS NAME=2,3'-Bifuran, octahydro-
##MOLFORM=C8H14O2
##CAS REGISTRY NO=73373-15-6
##MP= -300
##BP= -300
##MW= 142
##$RETENTION INDEX=0
##$CONDENSED SPECTRUM=NO
##NPOINTS= 70
##XYDATA=(XY..XY) 1 
    26         10
    27        150
    29         54
    30          5
    31         27
    37          2
    38          8
    39        156
    40         31
    41        211
    42         95
    43        342
    44         22
    45         12
    48          0
    50          4
    51          9
    52          4
    53         42
    54         40
    55         68
    56         14
    57         14
    58          3
    59          0
    62          0
    63          1
    64          0
    65          6
    66          5
    67         48
    68         19
    69         70
    70         64
    71        999
    72         45
    73          5
    75          0
    77          5
    78          0
    79         11
    80          7
    81         25
    82          5
    83        109
    84         38
    85          3
    86          2
    87          0
    91          2
    93          2
    94          1
    95          6
    96         10
    97         97
    98          8
    99          6
   100          0
   101          0
   109          2
   111         12
   112          1
   113          3
   114          7
   115          0
   123          1
   124          3
   141          1
   142         24
   143          1