##TITLE=Library Entry 30074
##JCAMP-DX=Revision 4.10 
##DATA TYPE=MASS SPECTRUM
##SAMPLE DESCRIPTION=Japan AIST/NIMC Database- Spectrum MS-NW-1425
##NAMES=HP
##CAS NAME=4-Methyl itaconate
##MOLFORM=C6H8O4
##CAS REGISTRY NO=7338-27-4
##MP= -300
##BP= -300
##MW= 144
##$RETENTION INDEX=0
##$CONDENSED SPECTRUM=NO
##NPOINTS= 88
##XYDATA=(XY..XY) 1 
    12          3
    13          5
    14         24
    15        684
    16          9
    17          2
    18          7
    24          1
    25          9
    26         35
    27         91
    28         99
    29        283
    30         19
    31        175
    32         51
    33         18
    34          9
    36          8
    37         62
    38        133
    39        884
    40        511
    41        595
    42         87
    43         92
    44         35
    45        274
    46          5
    47          2
    48          4
    49          3
    50          7
    51          6
    52          4
    53         33
    54         35
    55        189
    56         56
    57        256
    58         83
    59        999
    60         30
    61          9
    62          1
    64          1
    65          1
    66         10
    67         80
    68        943
    69        469
    70         36
    71         26
    72         62
    73         14
    74         12
    77          5
    78          1
    79          2
    81          5
    82         31
    83         15
    84         60
    85        782
    86         43
    87          6
    95          5
    96          1
    97          1
    98         16
    99        113
   100        110
   101         10
   102          4
   111          1
   112        167
   113        604
   114         37
   115          5
   116          5
   126         77
   127         21
   128          2
   129          1
   143          3
   144         94
   145          7
   146          1