##TITLE=Library Entry 2040
##JCAMP-DX=Revision 4.10 
##DATA TYPE=MASS SPECTRUM
##SAMPLE DESCRIPTION=Chemical Concepts
##NAMES=HP
##CAS NAME=1-Propanesulfonic acid, 3-bromo-
##MOLFORM=C3H7BrO3S
##CAS REGISTRY NO=73384-82-4
##MP= -300
##BP= -300
##MW= 202
##$RETENTION INDEX=0
##$CONDENSED SPECTRUM=NO
##NPOINTS= 90
##XYDATA=(XY..XY) 1 
    26         22
    27         79
    28        164
    29         37
    30         30
    31         45
    33          1
    34          0
    35          0
    36          3
    37          7
    38         14
    39        159
    40         22
    41        999
    42         55
    43         21
    44          1
    45          4
    46          1
    47          0
    48         16
    49          2
    50          2
    53          0
    55          4
    56          0
    57         30
    58         54
    59         33
    60          0
    62          0
    63          1
    64          8
    65         38
    66          5
    67          1
    68          0
    69          1
    70          0
    71          0
    75          0
    77          1
    78         14
    79         23
    80         55
    81         25
    82         55
    83         17
    85          0
    90          0
    91          1
    92          0
    93         17
    94          1
    95         16
    96         60
    97          1
    98          3
   105          3
   106          0
   107          4
   108          0
   109          3
   111          0
   117          0
   119          4
   120        131
   121         16
   122        125
   123        149
   124          6
   125          7
   126          0
   127          0
   128          0
   135          0
   137          0
   138          0
   156          0
   157          0
   171          0
   184          0
   185          0
   187          1
   202         21
   203          1
   204         21
   205          1
   206          1