##TITLE=Library Entry 62077
##JCAMP-DX=Revision 4.10 
##DATA TYPE=MASS SPECTRUM
##SAMPLE DESCRIPTION=Exported from NIST MS Search
##NAMES=HP
##CAS NAME=1,3-Cyclopentadiene, 5-(1,3-dimethylbutylidene)-
##MOLFORM=C11H16
##CAS REGISTRY NO=7338-49-0
##MP= -300
##BP= -300
##MW= 148
##$RETENTION INDEX=0
##$CONDENSED SPECTRUM=NO
##NPOINTS= 44
##XYDATA=(XY..XY) 1 
    38         51
    39        381
    40         41
    41        206
    50         61
    51        123
    52         41
    53         41
    55         61
    62         30
    63        103
    64         41
    65        185
    66        103
    67         51
    75         30
    76         30
    77        288
    78        103
    79        144
    89        185
    90         41
    91        999
    92        206
    93         41
   102         51
   103        103
   104         41
   105        432
   106        288
   107         41
   115         72
   116         30
   117         51
   118         41
   119         41
   120         51
   131         30
   132         30
   133        979
   134         82
   147         51
   148        515
   149         61