##TITLE=Library Entry 62654
##JCAMP-DX=Revision 4.10 
##DATA TYPE=MASS SPECTRUM
##SAMPLE DESCRIPTION=Japan AIST/NIMC Database- Spectrum MS-IW-3686
##NAMES=HP
##CAS NAME=Benzenesulfonamide, 4-methyl-N-(4-nitrophenyl)-
##MOLFORM=C13H12N2O4S
##CAS REGISTRY NO=734-25-8
##MP= -300
##BP= -300
##MW= 292
##$RETENTION INDEX=0
##$CONDENSED SPECTRUM=NO
##NPOINTS= 112
##XYDATA=(XY..XY) 1 
    16          1
    26          1
    27          4
    28         11
    29          1
    30         43
    31          1
    32          2
    37          1
    38         11
    39         45
    40          5
    41         18
    42          1
    43          4
    44          2
    45          4
    48          2
    50          8
    51         20
    52         17
    53          9
    54          1
    55          3
    56          1
    57          4
    61          2
    62         11
    63         64
    64         51
    65        180
    66         10
    67          5
    69          2
    70          1
    71          2
    74          2
    75          3
    76          4
    77         16
    78          8
    79          9
    80          6
    81          3
    82          1
    83          2
    85          2
    86          1
    87          2
    88          1
    89         34
    90         30
    91        999
    92         96
    93          5
    95          2
    96          1
    97          2
   103          1
   104          1
   105          2
   106          2
   107         23
   108         11
   109          2
   110          1
   111          4
   115          2
   119          1
   120          1
   121          5
   122          3
   123          2
   124          1
   127          1
   128          2
   129          1
   137          1
   138         12
   139         25
   140          6
   141          2
   149          5
   151          1
   152          3
   153          2
   154          2
   155        679
   156         58
   157         35
   158          3
   166          3
   167          5
   168          1
   169          1
   178          1
   179          1
   180          9
   181          8
   182          6
   183          2
   198          2
   199          1
   211          2
   227          3
   228          4
   262          2
   276          5
   292        362
   293         57
   294         22
   295          3