##TITLE=Library Entry 23448
##JCAMP-DX=Revision 4.10 
##DATA TYPE=MASS SPECTRUM
##SAMPLE DESCRIPTION=Exported from NIST MS Search
##NAMES=HP
##CAS NAME=1-Hexanethiol, 2-ethyl-
##MOLFORM=C8H18S
##CAS REGISTRY NO=7341-17-5
##MP= -300
##BP= -300
##MW= 146
##$RETENTION INDEX=0
##$CONDENSED SPECTRUM=NO
##NPOINTS= 106
##XYDATA=(XY..XY) 1 
    12          7
    13          3
    15         46
    20          2
    22          1
    24          1
    25          2
    26         35
    27        409
    28        121
    29        405
    30          9
    31          1
    35         30
    36          5
    37          6
    38         14
    39        210
    40         32
    41        647
    42        180
    43        514
    44         68
    45        106
    46         43
    47        310
    48         24
    49         18
    50         10
    51         17
    52          7
    53         49
    54         31
    55        486
    56        431
    57        999
    58         54
    59         27
    60         22
    61         88
    62         18
    63          7
    64          2
    65          6
    66          2
    67         19
    68         21
    69        138
    70        367
    71         65
    72          4
    73         13
    74          7
    75         22
    76         27
    77          7
    78          2
    79          3
    80          1
    81          6
    82         22
    83        147
    84         85
    85         10
    86          3
    87          4
    88          6
    89         31
    90         64
    91          6
    92          3
    93          1
    95          2
    96          1
    97         17
    98         35
    99         10
   100          1
   101          2
   102          1
   103          4
   104         20
   105          5
   106          1
   111          1
   112        151
   113         17
   114          1
   115          2
   116          1
   117         15
   118         24
   119          4
   120          1
   122          3
   130          1
   131          1
   132          9
   133          1
   134          1
   144          1
   145          2
   146         80
   147          8
   148          4
   149          1