##TITLE=Library Entry 87969
##JCAMP-DX=Revision 4.10 
##DATA TYPE=MASS SPECTRUM
##SAMPLE DESCRIPTION=NIST Mass Spectrometry Data Center
##NAMES=HP
##CAS NAME=6-Hydroxy-4,4,7a-trimethyl-5,6,7,7a-tetrahydrobenzofuran-2(4H)-on
e
##MOLFORM=C11H16O3
##CAS REGISTRY NO=73410-02-3
##MP= -300
##BP= -300
##MW= 196
##$RETENTION INDEX=1784
##$CONDENSED SPECTRUM=NO
##NPOINTS= 123
##XYDATA=(XY..XY) 1 
    26          3
    27         26
    29         32
    30          2
    31         11
    37          1
    38          8
    39        142
    40         37
    41        235
    42         27
    43        631
    44         30
    45         14
    46          1
    48          1
    49          1
    50         24
    51         67
    52         37
    53        116
    54         13
    55        137
    56         34
    57        279
    58         16
    59         31
    61         11
    62         11
    63         25
    64          6
    65        100
    66         69
    67        276
    68         46
    69        170
    70         37
    71         40
    72          3
    73          8
    74         20
    77         87
    78         20
    79        141
    80         29
    81        165
    82         37
    83         86
    84         36
    85        185
    86         12
    87         15
    89          5
    90          1
    91        110
    92         21
    93        124
    94         32
    95        242
    96         69
    97        147
    98         46
    99          6
   103         12
   104          1
   105         33
   106         20
   107        292
   108         81
   109        242
   110        168
   111        999
   112        247
   113         26
   114          3
   115          5
   117         13
   118          4
   119         35
   121         66
   122         23
   123         68
   124         32
   125        115
   126         19
   127          4
   131          9
   133         13
   134          8
   135        305
   136         97
   137         89
   138         58
   139        106
   140        359
   141         30
   145          5
   147          8
   148          3
   149         11
   150         66
   151         26
   152         24
   153        126
   154         20
   155          6
   156          1
   161          2
   162          7
   163        220
   164         21
   166          6
   167         14
   168         19
   169          5
   178        503
   179         68
   180          8
   181         49
   182          6
   196         97
   197         14
   198          5