##TITLE=Library Entry 114271
##JCAMP-DX=Revision 4.10 
##DATA TYPE=MASS SPECTRUM
##SAMPLE DESCRIPTION=Japan AIST/NIMC Database- Spectrum MS-IW-6539
##NAMES=HP
##CAS NAME=N,3-Diphenylpropiolamide
##MOLFORM=C15H11NO
##CAS REGISTRY NO=7342-02-1
##MP= -300
##BP= -300
##MW= 221
##$RETENTION INDEX=0
##$CONDENSED SPECTRUM=NO
##NPOINTS= 75
##XYDATA=(XY..XY) 1 
    27          1
    28          2
    37          1
    38          2
    39         11
    40          1
    41          1
    50          7
    51         29
    52          4
    53          1
    61          1
    62          3
    63          9
    64          6
    65         16
    66          2
    73          1
    74         13
    75         67
    76         13
    77         17
    78          2
    82          3
    83          5
    84          1
    87          1
    88          2
    89         13
    90          7
    91          7
    92          4
    93          7
    94          1
    95          5
    96          7
    97          2
    98          3
    99          2
   100          5
   101         66
   102         25
   103          2
   104          5
   105          1
   110          9
   111          1
   115          1
   118          4
   119         13
   120          1
   127          1
   128          6
   129        999
   130        101
   131          7
   139          1
   149          1
   163          1
   164          1
   165         15
   166          3
   167          1
   178         15
   179          3
   180          1
   190          2
   191          4
   192          8
   193         61
   194          9
   220        154
   221        450
   222         75
   223          7