##TITLE=Library Entry 27516
##JCAMP-DX=Revision 4.10 
##DATA TYPE=MASS SPECTRUM
##SAMPLE DESCRIPTION=Institute of Organic Chemistry, Novosibirsk, USSR 1988
##NAMES=HP
##CAS NAME=1,3,5,7-Tetraethyl-1,7-dibutoxytetrasiloxane
##MOLFORM=C16H42O5Si4
##CAS REGISTRY NO=73420-33-4
##MP= -300
##BP= -300
##MW= 426
##$RETENTION INDEX=0
##$CONDENSED SPECTRUM=NO
##NPOINTS= 94
##XYDATA=(XY..XY) 1 
    26         79
    27        305
    28        299
    29        699
    30         20
    39        134
    40         40
    41        380
    42        156
    43        436
    44        105
    45         31
    55        386
    56        361
    57        999
    58        172
    59        159
    63         13
    69         28
    70        107
    71        159
    72         22
    73         89
    74         16
    87        123
    88         12
    89         21
   101         16
   102         11
   103         21
   104         13
   137         60
   138         10
   139         13
   140          9
   165         58
   166         10
   183         70
   184         15
   185          8
   193         63
   194         11
   197        112
   198         19
   199         17
   209         47
   210         13
   211         65
   212         13
   213         13
   223         26
   224         10
   225         94
   226         22
   227         18
   237         32
   238          8
   239         79
   240         17
   241         15
   251         22
   252          7
   253        287
   254         68
   255         57
   256         12
   265         36
   266          9
   267        500
   268        117
   269         90
   270         14
   271          8
   281        793
   282        325
   283        495
   284        999
   285         49
   286          9
   295        198
   296         62
   297         78
   298         16
   309         77
   310         23
   311         21
   312          4
   325        224
   326         69
   327          9
   339         19
   340          6
   397          4
   398          2