##TITLE=Library Entry 26853
##JCAMP-DX=Revision 4.10 
##DATA TYPE=MASS SPECTRUM
##SAMPLE DESCRIPTION=R.A. CORRAL, DIV. QUIM. ORG., UNIV. NAC. LA PLATA, ARGE
N+
##NAMES=HP
##CAS NAME=1-Methyl-3-neo-pentyl-2,4,5-trioxoimidazolidine
##MOLFORM=C9H14N2O3
##CAS REGISTRY NO=73429-72-8
##MP= -300
##BP= -300
##MW= 198
##$RETENTION INDEX=0
##$CONDENSED SPECTRUM=NO
##NPOINTS= 19
##XYDATA=(XY..XY) 1 
    40         10
    41        220
    42         20
    43         20
    53         10
    55        100
    56        160
    57        999
    58        130
    69         10
    70         20
    86         10
    98         70
   129         30
   130         10
   142        280
   143         50
   183         60
   198         80