##TITLE=Library Entry 37792
##JCAMP-DX=Revision 4.10 
##DATA TYPE=MASS SPECTRUM
##SAMPLE DESCRIPTION=V.Zaikin,Topchiev Inst.Petrochem.Synth.,Moscow
##NAMES=HP
##CAS NAME=Bromoacetic acid, 2-pentyl ester
##MOLFORM=C7H13BrO2
##CAS REGISTRY NO=73448-66-5
##MP= -300
##BP= -300
##MW= 208
##$RETENTION INDEX=1094
##$CONDENSED SPECTRUM=NO
##NPOINTS= 97
##XYDATA=(XY..XY) 1 
    25          2
    26         30
    27        192
    28         16
    29        163
    30          5
    31         14
    35          8
    36         47
    37          7
    38         15
    39        172
    40         34
    41        290
    42        251
    43        692
    44         31
    45        106
    46          2
    49          6
    50         30
    51         40
    52         64
    53         42
    54         13
    55        436
    56         22
    57         11
    58         12
    59          5
    60          8
    61          5
    62          2
    63          3
    65          4
    66          2
    67         15
    68          7
    69         48
    70        999
    71        738
    72         41
    73         39
    74          2
    75          2
    76          2
    77          9
    78         14
    79        113
    80          8
    81          7
    82          3
    83         17
    84          2
    85          5
    86         15
    87        131
    88         14
    91          4
    92          9
    93        172
    94         17
    95        163
    96          9
   101          3
   102          1
   107          1
   109          1
   111          2
   113          2
   115         10
   120         22
   121        900
   122         43
   123        920
   124         20
   125          2
   127          3
   129        129
   130         11
   138          3
   139         17
   140          2
   141         17
   164          6
   165        447
   166         25
   167        446
   168         18
   169          2
   179          2
   181          1
   191          1
   193         51
   194          3
   195         51
   196          2