##TITLE=Library Entry 69126
##JCAMP-DX=Revision 4.10 
##DATA TYPE=MASS SPECTRUM
##SAMPLE DESCRIPTION=A.A.Kutin, Moscow, Russia
##NAMES=HP
##CAS NAME=Propanoic acid, 3-amino-3-(2-furyl)-
##MOLFORM=C7H9NO3
##CAS REGISTRY NO=73456-99-2
##MP= -300
##BP= -300
##MW= 155
##$RETENTION INDEX=0
##$CONDENSED SPECTRUM=NO
##NPOINTS= 106
##XYDATA=(XY..XY) 1 
    33          1
    34          2
    36          1
    37         17
    38         43
    39        162
    40         64
    41        196
    42        102
    43         66
    44         46
    45         45
    46         11
    47          1
    48          2
    49          2
    50         12
    51         26
    52         18
    53         35
    54         24
    55         30
    56         11
    57          8
    58          0
    60         21
    61          3
    62          6
    63         14
    64          9
    65         54
    66         39
    67         36
    68         33
    69        193
    70         27
    71          4
    72          0
    73          1
    74          1
    75          0
    76          1
    77          3
    78          7
    79          4
    80         35
    81         26
    82         24
    83         21
    84          4
    85          1
    86          3
    87          1
    88          3
    90          0
    91          2
    92         10
    93         33
    94        114
    96        999
    97         82
    98          6
    99          0
   101         14
   102          0
   103          0
   104          1
   105          1
   106          1
   107          1
   108          9
   109         60
   110         17
   111          2
   112          4
   113          0
   114          0
   119          3
   120          2
   121          3
   122          0
   123          0
   124          0
   125          0
   126          4
   127          2
   128          0
   129          0
   130          0
   134          0
   135          1
   136          5
   137          4
   138          7
   139          2
   140          0
   144          0
   146          0
   149          0
   152          0
   153          1
   154          9
   155        171
   156         14
   157          1
   160          0