##TITLE=Library Entry 51063
##JCAMP-DX=Revision 4.10 
##DATA TYPE=MASS SPECTRUM
##SAMPLE DESCRIPTION=C.Djerassi ET AL.J.Org.Chem.,31,1599(1966)
##NAMES=HP
##CAS NAME=3,9-Diazabicyclo[4.2.1]nonan-4-one, 3-ethyl-9-methyl-
##MOLFORM=C10H18N2O
##CAS REGISTRY NO=7345-18-8
##MP= -300
##BP= -300
##MW= 182
##$RETENTION INDEX=0
##$CONDENSED SPECTRUM=NO
##NPOINTS= 59
##XYDATA=(XY..XY) 1 
    41        368
    42        977
    43         87
    44        224
    45          6
    48          8
    50         10
    51         18
    52         18
    53         70
    54        119
    55        265
    56        192
    57        137
    58        147
    59         28
    64         18
    65         18
    66         99
    67        137
    68         38
    69         99
    70         28
    71         10
    72         48
    79          8
    80         50
    81         64
    82        999
    83        188
    84         38
    85         10
    86        210
    87          8
    94         72
    95         50
    96        785
    97        759
    98         66
    99         20
   101        558
   102         36
   108         20
   109          8
   110         20
   111         40
   112         20
   123         26
   124         60
   125         28
   126          8
   127          8
   139         18
   153         32
   154         22
   167         14
   182        117
   183         80
   184          8