##TITLE=Library Entry 26015
##JCAMP-DX=Revision 4.10 
##DATA TYPE=MASS SPECTRUM
##SAMPLE DESCRIPTION=Japan AIST/NIMC Database- Spectrum MS-IW-2839
##NAMES=HP
##CAS NAME=Ethylenediamine, N,N'-diethyl-N,N'-dinitroso-
##MOLFORM=C6H14N4O2
##CAS REGISTRY NO=7346-14-7
##MP= -300
##BP= -300
##MW= 174
##$RETENTION INDEX=0
##$CONDENSED SPECTRUM=NO
##NPOINTS= 70
##XYDATA=(XY..XY) 1 
    14          4
    15         36
    16          1
    25          1
    26         21
    27        127
    28        265
    29        252
    30        167
    31          9
    36          1
    38          1
    39          5
    40         13
    41         55
    42        825
    43         82
    44         64
    45          9
    46          1
    47          1
    51          1
    52          4
    53          2
    54         25
    55         31
    56        887
    57        999
    58        375
    59         21
    60          3
    61          3
    67          1
    68          8
    69         17
    70         24
    71        146
    72         14
    73         36
    74          1
    75          3
    81          4
    82          1
    83          4
    84          3
    85         17
    86          7
    87        907
    88         61
    89          6
    96          2
    97          4
    98          2
    99         37
   100         78
   101        120
   102          6
   103          1
   111          1
   112          2
   113         17
   114        350
   115         26
   116         17
   117          2
   127          1
   128          1
   129          2
   144        137
   145         10