##TITLE=Library Entry 56594
##JCAMP-DX=Revision 4.10 
##DATA TYPE=MASS SPECTRUM
##SAMPLE DESCRIPTION=LAC, NIDDK, NIH, Bethesda, MD 20892
##NAMES=HP
##CAS NAME=2-Hydroxyimino-3-[3-pyrrolyl]propionic acid, ethyl ester
##MOLFORM=C9H12N2O3
##CAS REGISTRY NO=73473-07-1
##MP= -300
##BP= -300
##MW= 196
##$RETENTION INDEX=0
##$CONDENSED SPECTRUM=NO
##NPOINTS= 50
##XYDATA=(XY..XY) 1 
    41         37
    42        115
    43         26
    44         88
    45         10
    49          1
    51          6
    52         11
    53         17
    54         23
    55         11
    56         75
    57         20
    58        181
    59          7
    60          1
    67         15
    68          6
    70         33
    71         14
    72         27
    74          2
    78          3
    79         61
    80        204
    81         51
    82        130
    84          9
    86        999
    87         59
    88          5
    92          1
    94          4
    99          2
   100         69
   101        257
   102         31
   103          2
   105         59
   106         32
   107         12
   119          6
   121          1
   133          9
   151          3
   152         14
   179         72
   180         11
   196         40
   197          1