##TITLE=Library Entry 81215
##JCAMP-DX=Revision 4.10 
##DATA TYPE=MASS SPECTRUM
##SAMPLE DESCRIPTION=Exported from NIST MS Search
##NAMES=HP
##CAS NAME=1H-Isoindole-1,3(2H)-dione, 2-(4-oxo-4-phenylbutyl)-
##MOLFORM=C18H15NO3
##CAS REGISTRY NO=7347-68-4
##MP= -300
##BP= -300
##MW= 293
##$RETENTION INDEX=0
##$CONDENSED SPECTRUM=NO
##NPOINTS= 17
##XYDATA=(XY..XY) 1 
    50         50
    51         80
    76         90
    77        390
    78         60
   104         60
   105        999
   106         80
   120        679
   121         60
   133        100
   146        889
   147        110
   160        190
   161         50
   174        170
   293         20