##TITLE=Library Entry 16273
##JCAMP-DX=Revision 4.10 
##DATA TYPE=MASS SPECTRUM
##SAMPLE DESCRIPTION=T. NIWAGUCHI, NAT. RES. INST. POLICE SCI., TOKYO
##NAMES=HP
##CAS NAME=2-Amino-1-(o-hydroxyphenyl)propane
##MOLFORM=C9H13NO
##CAS REGISTRY NO=73470-00-5
##MP= -300
##BP= -300
##MW= 151
##$RETENTION INDEX=0
##$CONDENSED SPECTRUM=NO
##NPOINTS= 16
##XYDATA=(XY..XY) 1 
    44        999
    45         46
    51         34
    65         18
    77         49
    91         32
   105         16
   107         25
   108         14
   115         11
   117          7
   119         15
   133         13
   134         10
   151         79
   152         10