##TITLE=Library Entry 54316
##JCAMP-DX=Revision 4.10 
##DATA TYPE=MASS SPECTRUM
##SAMPLE DESCRIPTION=E. WYRZYKIEWICZ, INST. CHEM., MICKIEWICZ UNIV., POZNAN,
 &
##NAMES=HP
##CAS NAME=2-Isopropylthiothymine
##MOLFORM=C8H12N2OS
##CAS REGISTRY NO=73471-99-5
##MP= -300
##BP= -300
##MW= 184
##$RETENTION INDEX=0
##$CONDENSED SPECTRUM=NO
##NPOINTS= 25
##XYDATA=(XY..XY) 1 
    52         38
    53         42
    54        275
    55        508
    56         59
    59         80
    60         63
    81         63
    82         97
    83        245
    84        999
    85         42
    86         42
   109         84
   110        220
   111         30
   142        779
   143         84
   151        834
   152         46
   169        203
   170         12
   184        390
   185         32
   186         12