##TITLE=Library Entry 7103
##JCAMP-DX=Revision 4.10 
##DATA TYPE=MASS SPECTRUM
##SAMPLE DESCRIPTION=Chemical Concepts
##NAMES=HP
##CAS NAME=8,9-Seco-3,19-epoxyandrostane-8,9-dione, 17-acetoxy-3-methoxy-4,4
-dimethyl-
##MOLFORM=C24H36O6
##CAS REGISTRY NO=73480-50-9
##MP= -300
##BP= -300
##MW= 420
##$RETENTION INDEX=0
##$CONDENSED SPECTRUM=NO
##NPOINTS= 369
##XYDATA=(XY..XY) 1 
    27         43
    28         22
    29        106
    30          3
    31         10
    33          2
    35         33
    36          4
    37         11
    38          2
    39         59
    40         15
    41        510
    42         56
    43        999
    44         35
    45         68
    46          1
    47         48
    48          2
    49         18
    50          5
    51         11
    52          8
    53        142
    54         33
    55        580
    56         69
    57        149
    58         11
    59         98
    60         19
    61         10
    65         38
    66         21
    67        217
    68         50
    69        470
    70         64
    71         87
    72         10
    73         74
    74         14
    75          6
    76         12
    77        105
    78         22
    81        426
    82        293
    83        197
    84         38
    85         65
    86          8
    87         24
    88          5
    89          4
    90          3
    91        168
    92         52
    93        330
    94        161
    95        282
    96         79
    97        130
    98         36
    99         49
   100         11
   101         14
   102         52
   103         19
   104         23
   105        190
   106         72
   107        204
   108        108
   109        298
   110         99
   111        128
   112         36
   113        176
   114         27
   115         71
   116         17
   117        154
   118         43
   119        169
   120         53
   121        175
   122         67
   123        112
   124         72
   125         68
   126         23
   127         23
   128         20
   129         59
   130         32
   131        104
   132         48
   133        129
   134         51
   135        133
   136         81
   137        338
   138         57
   139         53
   140         16
   141        295
   142         46
   143        112
   144         29
   145        116
   146         53
   147        114
   148         46
   149         81
   150         76
   151         68
   152         25
   153         51
   154         28
   155         42
   156         50
   157         91
   158         36
   159        107
   160         46
   161         90
   162         48
   163        109
   164         48
   165         51
   166         20
   167         51
   168         30
   169         63
   170         36
   171         84
   172         79
   173         94
   174         47
   175         79
   176         47
   177         83
   178         42
   179         62
   180         30
   181         57
   182         54
   183         47
   184         33
   185         84
   186         34
   187         65
   188         33
   189         76
   190         60
   191         97
   192         66
   193         59
   194         38
   195         63
   196         35
   197         52
   198         30
   199         89
   200        117
   201        125
   202         53
   203         63
   204         43
   205         60
   206         39
   207         75
   208         79
   209         66
   210         35
   211         50
   212         28
   213         86
   214         60
   215         52
   216         38
   217        202
   218         78
   219         97
   220         38
   221         30
   222         38
   223         73
   224         49
   225         43
   226         66
   227         71
   228         39
   229         75
   230         59
   231        109
   232         57
   233         54
   234         34
   235         46
   236         20
   237         31
   238         16
   239         54
   240         22
   241         71
   242         26
   243         43
   244         53
   245         86
   246         49
   247         59
   248         39
   249        114
   250         53
   251         43
   252         13
   253         26
   254         59
   255        168
   256         50
   257         41
   258         68
   259         62
   260        121
   261         82
   262         43
   263         42
   264         16
   265         22
   266         14
   267         39
   268         28
   269         59
   270         22
   271         60
   272         64
   273        127
   274         48
   275         59
   276         70
   277         51
   278         25
   279         35
   280         14
   281         21
   282         32
   283         23
   284         13
   285         34
   286        126
   287        267
   288         66
   289         55
   290         16
   291         21
   292         20
   293          8
   294          3
   295         15
   296         18
   297         15
   298         12
   299         81
   300         29
   301         41
   302         13
   303         39
   304        164
   305        104
   306         23
   307          4
   308          3
   309         15
   310         43
   311         20
   312          8
   313         25
   314         68
   315        146
   316         42
   317         27
   318         16
   319         10
   320         29
   321         12
   322          9
   323          3
   324         25
   325         11
   326          7
   327         52
   328         39
   329         30
   330         11
   331         18
   332         35
   333         43
   334         25
   335         87
   336         33
   337         14
   338          3
   339          1
   340          3
   341         14
   342        209
   343         78
   344         15
   345         27
   346         53
   347        156
   348         35
   349          9
   350          2
   351          1
   352          1
   353          1
   354          1
   355          2
   356          2
   357          3
   358          6
   359         32
   360        260
   361         86
   362         14
   363          7
   364         95
   365         66
   366         13
   367          2
   368          2
   369          3
   370         32
   371         11
   372          6
   373          8
   374         14
   375          6
   376          1
   377         10
   378          4
   379          1
   384         26
   385         10
   386          7
   387         24
   388         14
   389         18
   390         11
   391          9
   392          7
   393          1
   400          4
   401          4
   402        214
   403         70
   404         17
   405          6
   416          2
   417          0
   418          1
   419          1
   420         81
   421         23
   422          4