##TITLE=Library Entry 33187
##JCAMP-DX=Revision 4.10 
##DATA TYPE=MASS SPECTRUM
##SAMPLE DESCRIPTION=F. TURECEK,HEYROVSKY INST PHYS CHEM & ELECTROCHEM,PRAGU
E,CZECH
##NAMES=HP
##CAS NAME=(7S)-trans-syn-cis-Tricyclo[7.3.0.0(2,6)]dodecan-7-ol
##MOLFORM=C12H20O
##CAS REGISTRY NO=73495-57-5
##MP= -300
##BP= -300
##MW= 180
##$RETENTION INDEX=0
##$CONDENSED SPECTRUM=NO
##NPOINTS= 92
##XYDATA=(XY..XY) 1 
    26         30
    27        270
    29        240
    31         60
    38         10
    39        360
    40         80
    41        790
    42         80
    43        120
    44         20
    45         20
    50         20
    51         90
    52         50
    53        210
    54         90
    55        350
    56         50
    57        160
    58         20
    63         30
    64         20
    65        150
    66        210
    67        999
    68        360
    69        160
    70        370
    71         50
    77        230
    78         90
    79        720
    80        740
    81        620
    82        150
    83        150
    84         60
    85         20
    91        440
    92        170
    93        420
    94        560
    95        390
    96         90
    97        220
    98         90
    99         10
   103         20
   104         10
   105        160
   106         90
   107        170
   108        100
   109         50
   110         30
   111         70
   112         40
   115         30
   116         10
   117         50
   118         50
   119        600
   120        320
   121        360
   122         50
   123         20
   128         10
   129         20
   131         30
   132         20
   133        690
   134        560
   135        190
   136        590
   137        100
   138         10
   145          7
   147        100
   148         20
   149        140
   150         20
   151         10
   160         20
   161         90
   162        940
   163        140
   164         10
   178          7
   179          7
   180         13
   181          3