##TITLE=Library Entry 33151
##JCAMP-DX=Revision 4.10 
##DATA TYPE=MASS SPECTRUM
##SAMPLE DESCRIPTION=F. TURECEK,HEYROVSKY INST PHYS CHEM & ELECTROCHEM,PRAGU
E,CZECH
##NAMES=HP
##CAS NAME=(7R)-trans-syn-cis-Tricyclo[7.3.0.0(2,6)]-dodecan-7-ol
##MOLFORM=C12H20O
##CAS REGISTRY NO=73495-58-6
##MP= -300
##BP= -300
##MW= 180
##$RETENTION INDEX=0
##$CONDENSED SPECTRUM=NO
##NPOINTS= 91
##XYDATA=(XY..XY) 1 
    26         30
    27        260
    29        250
    31         50
    38         10
    39        360
    40         70
    41        810
    42        130
    43        210
    44         30
    45         20
    50         30
    51         80
    52         40
    53        220
    54         80
    55        370
    56         60
    57        310
    58         20
    63         30
    64         20
    65        140
    66        210
    67        999
    68        300
    69        170
    70        300
    71         60
    76         10
    77        240
    78        100
    79        870
    80        940
    81        640
    82        110
    83        140
    84         50
    85         30
    91        540
    92        220
    93        510
    94        640
    95        440
    96        100
    97        110
    98         40
    99         10
   103         20
   104         20
   105        180
   106        110
   107        150
   108         90
   109         40
   110         20
   111         30
   112         20
   115         30
   116         10
   117         50
   118         60
   119        810
   120        460
   121        440
   122         50
   123         30
   128         10
   129         10
   131         30
   132         20
   133        990
   134        750
   135        150
   136        180
   137         60
   138         10
   147        100
   148         20
   149         60
   150         10
   151         10
   161         70
   162        870
   163        120
   164         10
   165          6
   178          8
   179          5
   180          4