##TITLE=Library Entry 7173
##JCAMP-DX=Revision 4.10 
##DATA TYPE=MASS SPECTRUM
##SAMPLE DESCRIPTION=LAC, NIDDK, NIH, Bethesda, MD 20892
##NAMES=HP
##CAS NAME=Pregnane-3,20-dione
##MOLFORM=C21H32O2
##CAS REGISTRY NO=7350-00-7
##MP= -300
##BP= -300
##MW= 316
##$RETENTION INDEX=0
##$CONDENSED SPECTRUM=NO
##NPOINTS= 140
##XYDATA=(XY..XY) 1 
    41        209
    43        999
    45         30
    49          2
    51          9
    53         92
    55        296
    56          9
    57         20
    58          4
    65         31
    67        148
    68         43
    69         57
    71         85
    72          4
    77         65
    79        161
    80         22
    81        155
    82         17
    83          5
    84        107
    85         30
    86          1
    91        111
    93         95
    94         20
    95         94
    96          4
    97         23
    98          2
    99          2
   103          6
   105         72
   107         98
   108         33
   109         45
   110          8
   111         15
   115          8
   117         24
   118          8
   119         40
   120         28
   121         47
   122         38
   123         32
   124         17
   125          3
   128          5
   129          5
   131         27
   132         15
   133         31
   134         17
   135         32
   136          5
   137         13
   141          3
   143         13
   144          5
   145         28
   146          9
   147         25
   148          7
   149         13
   150          3
   157         12
   158          4
   159         32
   160          2
   161         36
   162          9
   163         10
   165          1
   169          2
   171         13
   172          7
   173         16
   174         11
   175         19
   176         31
   177          7
   183          1
   185          8
   186          6
   187         12
   188         10
   189         12
   190          3
   197          1
   199         10
   200          3
   201          8
   202          1
   203          9
   204          1
   211          2
   213         36
   214          7
   215         14
   216          1
   217          7
   218          1
   225          5
   226          1
   227          7
   228         20
   229          7
   231         28
   232          7
   233          6
   240          1
   241          6
   243          8
   244          6
   245          4
   246         61
   247          9
   251          6
   255         13
   256          3
   257          1
   258         17
   259          4
   265          6
   269          8
   270          3
   271          3
   272         17
   273          8
   283         17
   284          1
   298         66
   299         19
   301         14
   316         47
   317         10
   318          3