##TITLE=Library Entry 66268
##JCAMP-DX=Revision 4.10 
##DATA TYPE=MASS SPECTRUM
##SAMPLE DESCRIPTION=NIST Mass Spectrometry Data Center
##NAMES=HP
##CAS NAME=.alpha.-Phellandrene, dimer
##MOLFORM=C20H32
##CAS REGISTRY NO=7350-11-0
##MP= -300
##BP= -300
##MW= 272
##$RETENTION INDEX=1801
##$CONDENSED SPECTRUM=NO
##NPOINTS= 84
##XYDATA=(XY..XY) 1 
    27         10
    28          1
    29          5
    39         12
    40          2
    41         48
    42          2
    43         55
    44          2
    50          1
    51          7
    52          3
    53         13
    54          1
    55         14
    56          1
    57          1
    58          1
    59          1
    63          2
    64          1
    65         21
    66          3
    67          9
    68          1
    69         13
    70          1
    76          1
    77        164
    78         25
    79         32
    80         12
    81         24
    82          2
    83          1
    89          1
    90          1
    91        167
    92        532
    93        999
    94         83
    95         11
    96          1
   102          1
   103          5
   104          2
   105         21
   106          3
   107          8
   108          2
   115          8
   116          3
   117          6
   118          1
   119         19
   120          3
   121         24
   122          3
   123          1
   127          2
   128          6
   129          5
   130          2
   131          3
   133          2
   134         61
   135         32
   136        453
   137         52
   138         17
   139          2
   141          3
   142          2
   143          3
   144          1
   145          2
   147          1
   152          1
   153          1
   154          1
   155          1
   157          1
   159          1
   165          1