##TITLE=Library Entry 37218
##JCAMP-DX=Revision 4.10 
##DATA TYPE=MASS SPECTRUM
##SAMPLE DESCRIPTION=CARL DJERASSI DEPT OF CHEM STANFORD UNIV STANFORD CALIF
 94305
##NAMES=HP
##CAS NAME=Pentane, 1-[(3-methylbutyl)thio]-
##MOLFORM=C10H22S
##CAS REGISTRY NO=7352-01-4
##MP= -300
##BP= -300
##MW= 174
##$RETENTION INDEX=1237
##$CONDENSED SPECTRUM=NO
##NPOINTS= 28
##XYDATA=(XY..XY) 1 
    40         10
    41        240
    42        160
    43        320
    44         10
    45         30
    46         20
    47         50
    53         10
    55        260
    56         20
    57         20
    59         10
    60         20
    61        290
    62         10
    63         10
    69        150
    70        999
    71        130
    75         10
   102         10
   103        120
   104         50
   105         20
   117         30
   131         40
   174        140