##TITLE=Library Entry 10828
##JCAMP-DX=Revision 4.10 
##DATA TYPE=MASS SPECTRUM
##SAMPLE DESCRIPTION=DM6-152-F21
##NAMES=HP
##CAS NAME=Pentane, 1-[(1-methylethyl)thio]-
##MOLFORM=C8H18S
##CAS REGISTRY NO=7352-00-3
##MP= -300
##BP= -300
##MW= 146
##$RETENTION INDEX=1034
##$CONDENSED SPECTRUM=NO
##NPOINTS= 51
##XYDATA=(XY..XY) 1 
    15         20
    27        450
    28         70
    29        300
    30         10
    34         10
    35         30
    38         20
    39        290
    40         40
    41        579
    42        380
    43        999
    44         50
    45        100
    46         70
    47        340
    48         30
    49         30
    53         20
    55        360
    56         30
    57         20
    58         30
    59         80
    60         90
    61        330
    62         10
    63         10
    67         10
    68         10
    69        380
    70        390
    71         60
    73         10
    74         50
    75        400
    76        280
    77         90
    78         10
    89        310
    90         20
   102         30
   103        679
   104         70
   105         30
   131        180
   132         20
   146        450
   147         50
   148         20