##TITLE=Library Entry 69537
##JCAMP-DX=Revision 4.10 
##DATA TYPE=MASS SPECTRUM
##SAMPLE DESCRIPTION=Japan AIST/NIMC Database- Spectrum MS-IW-7704
##NAMES=HP
##CAS NAME=2-(2-Cyanoethyl)-2,3-dihydro-3-oxopyridazine
##MOLFORM=C7H7N3O
##CAS REGISTRY NO=73535-74-7
##MP= -300
##BP= -300
##MW= 149
##$RETENTION INDEX=0
##$CONDENSED SPECTRUM=NO
##NPOINTS= 64
##XYDATA=(XY..XY) 1 
    14          2
    15          1
    24          1
    25          8
    26        102
    27         47
    28         76
    29          5
    30          1
    36          4
    37         20
    38         49
    39        714
    40         64
    41         32
    42         27
    43          3
    44          2
    50         12
    51         75
    52        166
    53        150
    54         70
    55         38
    56          8
    62          1
    63          1
    64          2
    65          2
    66         16
    67         93
    68         83
    69         11
    76          3
    77         13
    78         48
    79          7
    80         14
    81         95
    82         89
    83          5
    92          8
    93          4
    94         15
    95        143
    96        999
    97         70
    98          5
   105          2
   106         50
   107          4
   108          1
   109        433
   110         25
   111          1
   120          5
   121         18
   122         25
   123          3
   132          4
   148         15
   149        923
   150         94
   151          6