##TITLE=Library Entry 5617
##JCAMP-DX=Revision 4.10 
##DATA TYPE=MASS SPECTRUM
##SAMPLE DESCRIPTION=NIST Mass Spectrometry Data Center, 1994
##NAMES=HP
##CAS NAME=N-(2-Chloroethyl)acetamide
##MOLFORM=C4H8ClNO
##CAS REGISTRY NO=7355-58-0
##MP= -300
##BP= -300
##MW= 121
##$RETENTION INDEX=0
##$CONDENSED SPECTRUM=NO
##NPOINTS= 55
##XYDATA=(XY..XY) 1 
    12          8
    13         20
    14         97
    15        334
    16         10
    17          8
    18         26
    25         12
    26         84
    27        237
    28        327
    29        127
    30        736
    31         17
    35         15
    36         15
    37         10
    38         22
    39         25
    40         61
    41         87
    42        255
    43        999
    44        353
    45         14
    47          9
    48         12
    49         79
    50         10
    51         38
    52         17
    53          9
    54        109
    55        265
    56         57
    57          4
    59         16
    60         12
    61          8
    62         11
    63        118
    64          6
    65         33
    72        509
    73         18
    76          7
    78         37
    80         13
    85        104
    86         91
    87          6
   106          9
   121        164
   122         10
   123         46