##TITLE=Library Entry 11396
##JCAMP-DX=Revision 4.10 
##DATA TYPE=MASS SPECTRUM
##SAMPLE DESCRIPTION=Japan AIST/NIMC Database- Spectrum MS-IW-5600
##NAMES=HP
##CAS NAME=.beta.-D-Glucopyranuronic acid, methyl ester, tetraacetate
##MOLFORM=C15H20O11
##CAS REGISTRY NO=7355-18-2
##MP= -300
##BP= -300
##MW= 376
##$RETENTION INDEX=0
##$CONDENSED SPECTRUM=NO
##NPOINTS= 161
##XYDATA=(XY..XY) 1 
    13          3
    14         15
    15         29
    16          2
    17          1
    18          2
    26          1
    27          4
    28         26
    29         12
    30          2
    31          9
    32          4
    33          3
    38          1
    39          7
    40          3
    41         15
    42         81
    43        999
    44         50
    45         45
    46          1
    50          2
    51          1
    53          2
    54          1
    55         10
    56          2
    57          8
    58          1
    59         15
    60         52
    61         12
    67          1
    68          9
    69          6
    70          1
    71         31
    72          1
    73         82
    74          6
    75          4
    80          1
    81          2
    82          1
    83         11
    84         21
    85        107
    86         12
    87          7
    89          3
    90         54
    91          3
    94          1
    95          9
    96          9
    97         17
    98         45
    99         14
   100          7
   101         16
   102         26
   103        132
   104          4
   109          2
   111          8
   112         56
   113         81
   114         17
   115        481
   116         48
   117          6
   118         36
   119          3
   123         10
   124          1
   125          5
   126         40
   127        102
   128          9
   129          4
   130          1
   131         23
   132         22
   133          1
   136          2
   137          2
   138          2
   139          7
   140          5
   141          6
   142          1
   143        106
   144        365
   145        101
   146          8
   147          2
   153          5
   154         12
   155        190
   156         18
   157        418
   158         40
   159          6
   160          6
   161          5
   162          1
   167          2
   168          1
   169        147
   170         11
   171         12
   172         22
   173         42
   174          5
   182          1
   183          3
   185         10
   186        244
   187         24
   188          3
   189         14
   190          3
   196          1
   197         56
   198          7
   199          1
   200          1
   203         20
   204          2
   213          1
   214         36
   215        127
   216         11
   217          2
   224          1
   227          1
   228        195
   229         40
   230          4
   231         15
   232          8
   233          2
   243          2
   245         31
   246          3
   247          1
   256          2
   257         15
   258          2
   274         22
   275          6
   285          1
   316          4
   317         28
   318          3
   333          2
   334          3
   345          3
   376          1