##TITLE=Library Entry 70220
##JCAMP-DX=Revision 4.10 
##DATA TYPE=MASS SPECTRUM
##SAMPLE DESCRIPTION=Japan AIST/NIMC Database- Spectrum MS-NW-9662
##NAMES=HP
##CAS NAME=4-Piperidinamine, N,1-dimethyl-
##MOLFORM=C7H16N2
##CAS REGISTRY NO=73579-08-5
##MP= -300
##BP= -300
##MW= 128
##$RETENTION INDEX=0
##$CONDENSED SPECTRUM=NO
##NPOINTS= 73
##XYDATA=(XY..XY) 1 
    14          1
    15         29
    26          5
    27         40
    28         75
    29         41
    30         59
    31          9
    38          3
    39         33
    40          8
    41         64
    42        383
    43        590
    44        298
    45          9
    49          1
    50          3
    51          6
    52          9
    53         19
    54         43
    55        131
    56        142
    57        126
    58        111
    59          8
    62          1
    63          2
    64          4
    65          4
    66          4
    67         11
    68         85
    69         43
    70        342
    71        176
    72         21
    73          1
    77          1
    78          3
    79         10
    80          9
    81         17
    82        272
    83         22
    84         64
    85         33
    86          9
    91          5
    92          1
    93          2
    94         25
    95          8
    96        640
    97        999
    98        127
    99         36
   100          3
   105          3
   106          1
   109          5
   110          1
   111          2
   113          7
   114          1
   123          1
   125          9
   126          2
   127          4
   128         44
   129         12
   130          1