##TITLE=Library Entry 3384
##JCAMP-DX=Revision 4.10 
##DATA TYPE=MASS SPECTRUM
##SAMPLE DESCRIPTION=Exported from NIST MS Search
##NAMES=HP
##CAS NAME=1-Butene, 2-ethyl-3-methyl-
##MOLFORM=C7H14
##CAS REGISTRY NO=7357-93-9
##MP= -300
##BP= -300
##MW= 98
##$RETENTION INDEX=659
##$CONDENSED SPECTRUM=NO
##NPOINTS= 73
##XYDATA=(XY..XY) 1 
    12          2
    13          4
    14         19
    15        153
    16          6
    24          1
    25          1
    26         40
    27        488
    28         75
    29        200
    30          4
    31          1
    32          1
    36          1
    37         11
    38         36
    39        414
    40         68
    41        999
    42         76
    43        238
    44          8
    45          1
    46          1
    47          1
    48          1
    49          5
    50         50
    51         81
    52         35
    53        158
    54         50
    55        873
    56        382
    57         36
    58          1
    60          1
    61          3
    62          8
    63         15
    64          2
    65         27
    66         12
    67        100
    68         47
    69        995
    70         96
    71          4
    72          1
    73          1
    74          2
    75          1
    76          1
    77         11
    78          3
    79         13
    80          2
    81         17
    82          3
    83        416
    84         27
    85          1
    86          1
    91          1
    92          1
    93          1
    95          1
    96          1
    97          4
    98        302
    99         23
   100          1