##TITLE=Library Entry 2704
##JCAMP-DX=Revision 4.10 
##DATA TYPE=MASS SPECTRUM
##SAMPLE DESCRIPTION=Div. of Experiment Therapeutics WRAIR, WRAMC, Washingto
n DC 20307
##NAMES=HP
##CAS NAME=Methyl 2-bromodecanoate
##MOLFORM=C11H21BrO2
##CAS REGISTRY NO=7357-56-4
##MP= -300
##BP= -300
##MW= 264
##$RETENTION INDEX=0
##$CONDENSED SPECTRUM=NO
##NPOINTS= 145
##XYDATA=(XY..XY) 1 
    41        999
    42        272
    43        866
    45        130
    47         47
    48          6
    49          2
    51          1
    53        176
    55        909
    56        110
    57        234
    59        349
    60         18
    61         15
    62          1
    63          8
    64          4
    65         21
    67        126
    68         35
    69        347
    70         60
    71        141
    73        140
    74         62
    75          6
    76          2
    77         16
    79         45
    81        161
    82         31
    83        119
    84         13
    85         48
    86          8
    87        546
    88         37
    89          5
    90          1
    91         10
    93         21
    95         78
    97         88
    98         39
    99         33
   101         85
   102          6
   103          1
   104          1
   105          9
   106         14
   107         23
   108         23
   109         39
   110         26
   111         31
   113         61
   115         41
   116          5
   117          1
   119         11
   120          7
   121         19
   122         10
   123         39
   125         27
   127         20
   129         32
   130          5
   131          2
   133         17
   135         46
   137          9
   138         57
   139         14
   140         52
   141          5
   143        121
   144          9
   145          1
   147          5
   149         24
   152        565
   154        552
   155         13
   157         62
   158          7
   159          2
   161          3
   162          3
   163          6
   165         53
   167         54
   168          0
   169          4
   171         28
   172          1
   173          2
   175          3
   176          2
   177          6
   178          0
   179          9
   180          3
   181         10
   182          3
   183          7
   185        288
   186         30
   187          4
   189          2
   191          2
   193         18
   194          8
   195         17
   196          9
   197          1
   201          1
   203          2
   205          1
   207         72
   209         61
   210          3
   211          0
   217          1
   219          1
   221         42
   223         44
   224          3
   229          1
   230          1
   231          4
   232          1
   233          6
   234          1
   235          6
   236          2
   249          1
   251          1
   263          7
   264         19
   265         10
   266         19
   267          2