##TITLE=Library Entry 56880
##JCAMP-DX=Revision 4.10 
##DATA TYPE=MASS SPECTRUM
##SAMPLE DESCRIPTION=Z. Moldovan, Inst. Isotop. Mol. Technol., Cluj-Napoca,
 Romania
##NAMES=HP
##CAS NAME=Phosphinothioic chloride, (4-morpholinyl)phenyl-
##MOLFORM=C10H13ClNOPS
##CAS REGISTRY NO=73577-36-3
##MP= -300
##BP= -300
##MW= 261
##$RETENTION INDEX=0
##$CONDENSED SPECTRUM=NO
##NPOINTS= 50
##XYDATA=(XY..XY) 1 
    39         18
    41         28
    42         66
    43         19
    44         24
    50         28
    51        113
    54         28
    55         57
    56        283
    57         38
    58         66
    59         19
    63        169
    77        189
    78         70
    81         19
    84         19
    85         19
    86        999
    87         66
    91         19
   107         85
   108         19
   109         38
   139        113
   140         33
   141         28
   143        255
   144         19
   145         80
   175        255
   176         85
   177        104
   178         38
   192         19
   204         47
   206         28
   218         19
   219          9
   226         52
   227         19
   228        311
   229         47
   230        104
   231         19
   261        283
   262         42
   263        104
   264         19