##TITLE=Library Entry 52336
##JCAMP-DX=Revision 4.10 
##DATA TYPE=MASS SPECTRUM
##SAMPLE DESCRIPTION=L.R.HILPERT, CHEM. A-105, U.S. DEP. COMM. NBS, WASHINGT
ON, Ux
##NAMES=HP
##CAS NAME=2,6-Dimethyl-6-nitro-2-hepten-4-one
##MOLFORM=C9H15NO3
##CAS REGISTRY NO=73583-56-9
##MP= -300
##BP= -300
##MW= 185
##$RETENTION INDEX=0
##$CONDENSED SPECTRUM=NO
##NPOINTS= 62
##XYDATA=(XY..XY) 1 
    27        110
    29        165
    30         32
    31          2
    37          2
    38          8
    39        160
    40         20
    41         87
    42         14
    43         27
    44          1
    45          1
    46          3
    47          1
    50          7
    51         15
    52          8
    53         60
    54         27
    55        300
    56         42
    57          3
    59          1
    62          1
    63          2
    65          5
    66          2
    67         14
    68          2
    69          6
    70          1
    71          2
    77          6
    78          2
    79          5
    80          1
    81          4
    82        180
    83        999
    84         58
    85          4
    91          3
    93          2
    94          1
    95          6
    96          1
    97          2
    98          1
    99          9
   105          1
   107          1
   108          1
   109          3
   110         28
   111          2
   123         15
   124          2
   137          1
   138         13
   139          4
   185          4