##TITLE=Library Entry 21743
##JCAMP-DX=Revision 4.10 
##DATA TYPE=MASS SPECTRUM
##SAMPLE DESCRIPTION=Chemical Concepts
##NAMES=HP
##CAS NAME=Boroxin, tributyl-
##MOLFORM=C12H27B3O3
##CAS REGISTRY NO=7359-98-0
##MP= -300
##BP= -300
##MW= 252
##$RETENTION INDEX=0
##$CONDENSED SPECTRUM=NO
##NPOINTS= 145
##XYDATA=(XY..XY) 1 
    26         32
    27        221
    29        483
    30         12
    37          5
    38          4
    39         78
    41        223
    42         64
    43        266
    44          9
    50          5
    51          7
    52         11
    53         52
    54        170
    55        999
    56        467
    57         85
    58          3
    63          4
    64          6
    65         12
    66         13
    67         58
    68         67
    69        116
    70         22
    71         36
    72          3
    75          3
    77          7
    78          7
    79         13
    80         34
    81         84
    82        107
    83        203
    84         59
    85         57
    86          3
    91          9
    92         11
    93         12
    94         20
    95         53
    96         86
    97        117
    98         15
    99          3
   100          3
   101          3
   103          5
   105          6
   106         11
   107         22
   108         55
   109        121
   110        178
   111        272
   112         44
   113         58
   115          3
   119          7
   120          6
   121         17
   122         31
   123         60
   124         64
   125         66
   126         27
   127          8
   128          2
   129          3
   131          3
   133          3
   134          8
   135         17
   136         32
   137         86
   138        145
   139        160
   140         22
   141          3
   143          7
   148          6
   149         19
   150         28
   151         57
   152         88
   153        103
   154         13
   155          8
   163         11
   164         29
   165         72
   166        157
   167        250
   168        166
   169         51
   170          3
   171          3
   176          4
   177          7
   178         19
   179         66
   180        110
   181        136
   182         18
   183          3
   184          6
   185          9
   191          9
   192         25
   193         75
   194        168
   195        260
   196         27
   197          6
   200          6
   205          3
   206          7
   207         31
   208        175
   209        634
   210        868
   211         91
   212         11
   219          4
   220         23
   221        105
   222        342
   223        505
   224         79
   225          8
   226          3
   227          2
   235         18
   236         60
   237         96
   238         14
   249          4
   250         14
   251         27
   252         18