##TITLE=Library Entry 72358
##JCAMP-DX=Revision 4.10 
##DATA TYPE=MASS SPECTRUM
##SAMPLE DESCRIPTION=ORMSBG,9(3)289(1974); HANCOCK
##NAMES=HP
##CAS NAME=Diborane(4)triamine, 2-chloro-N,N,N',N',N'',N''-hexamethyl-
##MOLFORM=C6H18B2ClN3
##CAS REGISTRY NO=7360-75-0
##MP= -300
##BP= -300
##MW= 189
##$RETENTION INDEX=0
##$CONDENSED SPECTRUM=NO
##NPOINTS= 71
##XYDATA=(XY..XY) 1 
    27         81
    40         55
    47         30
    52         11
    53         10
    54         42
    55         56
    56        234
    60         24
    61         80
    62         10
    63         24
    68         13
    69         19
    70         59
    71         13
    72         27
    73         12
    74         33
    76         20
    79         14
    82         10
    83         34
    84         14
    85         28
    86         48
    87         19
    88         30
    89         45
    90        173
    91         12
    92         55
    98        245
    99        999
   100         54
   101         21
   102         20
   103         10
   104         18
   106         59
   110         16
   111         30
   115         12
   128         15
   129         33
   130         23
   131         48
   132         10
   133         14
   144         24
   145         48
   146         12
   147         15
   153         21
   154         45
   165         11
   172         13
   173         36
   174         71
   175         16
   176         22
   178         12
   179         25
   180         17
   181         13
   186         13
   187         66
   188        158
   189        128
   190         58
   191         35