##TITLE=Library Entry 49109
##JCAMP-DX=Revision 4.10 
##DATA TYPE=MASS SPECTRUM
##SAMPLE DESCRIPTION=Exported from NIST MS Search
##NAMES=HP
##CAS NAME=9,12,15-Octadecatrienoic acid, methyl ester
##MOLFORM=C19H32O2
##CAS REGISTRY NO=7361-80-0
##MP= -300
##BP= -300
##MW= 292
##$RETENTION INDEX=2086
##$CONDENSED SPECTRUM=NO
##NPOINTS= 163
##XYDATA=(XY..XY) 1 
    26         20
    27          4
    28         45
    39         62
    41        254
    42         20
    43        104
    44          4
    45          4
    51          4
    52          4
    53         62
    54         56
    55        291
    56         16
    57         37
    59        137
    65         56
    66         77
    67        541
    68        104
    69        175
    70          4
    71         16
    73         16
    74        139
    75          2
    77        218
    78        145
    79        999
    80        450
    81        468
    82        125
    83        118
    84         16
    85         37
    87        177
    88          2
    91        395
    92         83
    93        722
    94        368
    95        812
    96        139
    97         97
    98         16
    99         16
   101         45
   103         25
   104         14
   105        187
   106         75
   107        429
   108        791
   109        266
   110         45
   111         45
   112          4
   113          4
   115         58
   116          4
   117         62
   118         16
   119        118
   120         58
   121        416
   122        270
   123        125
   127         16
   128          4
   129         58
   130          4
   131         77
   132         16
   133        100
   134         37
   135        354
   136        208
   137         62
   138          4
   139         20
   140          4
   141         25
   143         41
   144          4
   145         37
   146          4
   147         79
   148         25
   149        295
   150        137
   151         25
   152          4
   153          4
   154          4
   155          4
   157         16
   159         16
   160          4
   161         45
   162         25
   163        125
   164         87
   165         16
   167         16
   168         16
   171         16
   172          4
   173        104
   174         16
   175         45
   176          4
   177         35
   178         45
   179          4
   181         16
   182          4
   185         16
   187          4
   189         25
   190          4
   191        116
   192         37
   193          4
   194          4
   195          4
   196          4
   199         16
   203         16
   204         16
   205          4
   206          4
   207         16
   208          4
   209          4
   210         16
   217         37
   218          6
   219          6
   221         16
   222         16
   223        104
   224         37
   231         25
   232          4
   235         25
   236        291
   237         58
   238         37
   239          4
   249         58
   250         37
   251         16
   260          4
   261        250
   262         45
   263        125
   264         25
   290         37
   291         14
   292        774
   293        187
   294         20