##TITLE=Library Entry 33254
##JCAMP-DX=Revision 4.10 
##DATA TYPE=MASS SPECTRUM
##SAMPLE DESCRIPTION=Chemical Concepts
##NAMES=HP
##CAS NAME=1-Methyl-2-oxocyclohex-3-enecarboxylic acid, methyl ester
##MOLFORM=C9H12O3
##CAS REGISTRY NO=73611-76-4
##MP= -300
##BP= -300
##MW= 168
##$RETENTION INDEX=0
##$CONDENSED SPECTRUM=NO
##NPOINTS= 97
##XYDATA=(XY..XY) 1 
    25          1
    26         11
    27         57
    28         26
    29         16
    30          2
    31          3
    32          0
    33          0
    36          0
    37          2
    38          7
    39        101
    40         92
    41         86
    42         29
    43         13
    44          4
    45          4
    49          0
    50          6
    51         14
    52          9
    53         40
    54          9
    55         26
    56          2
    57          2
    58          0
    59         15
    60          0
    61          0
    62          1
    63          3
    64          1
    65          9
    66          5
    67          4
    68        999
    69         71
    70          4
    71          1
    73          1
    74          1
    75          0
    76          0
    77         18
    78          5
    79         33
    80         17
    81         63
    82          6
    83          4
    84          0
    85          1
    86          1
    87          0
    88          2
    89          0
    90          1
    91          7
    92          1
    93          1
    94          3
    95          2
    97          2
    99          0
   100          0
   101          1
   107          6
   108         26
   109         92
   110          8
   111          1
   112          2
   114          0
   115          0
   118          2
   119          0
   121          2
   123          0
   125          1
   135          1
   136         12
   137         23
   138          2
   139          0
   140          5
   141          0
   143          0
   150          1
   153         68
   154          6
   155          0
   168         27
   169          3
   170          0