##TITLE=Library Entry 901
##JCAMP-DX=Revision 4.10 
##DATA TYPE=MASS SPECTRUM
##SAMPLE DESCRIPTION=Japan AIST/NIMC Database- Spectrum MS-NW-2280
##NAMES=HP
##CAS NAME=L-Serine, N-glycyl-
##MOLFORM=C5H10N2O4
##CAS REGISTRY NO=7361-43-5
##MP= -300
##BP= -300
##MW= 162
##$RETENTION INDEX=0
##$CONDENSED SPECTRUM=NO
##NPOINTS= 92
##XYDATA=(XY..XY) 1 
    12          3
    13          2
    14          7
    15         31
    16          9
    17         20
    18         77
    25          2
    26          9
    27         37
    28        173
    29         48
    30        999
    31         55
    32          7
    34          1
    36          8
    38          4
    39          8
    40         18
    41         39
    42         85
    43         47
    44         98
    45         14
    46          5
    47          2
    51          3
    52          4
    53          5
    54          9
    55         20
    56         17
    57         38
    58         11
    59         13
    60         98
    61          2
    67          5
    68          5
    69         38
    70         14
    71         13
    72         10
    73          9
    74         23
    75         16
    76          1
    79          2
    80          2
    81          4
    82          3
    83         32
    84          8
    85         27
    86          9
    87          7
    88          4
    89          4
    95          1
    96          3
    97          5
    98          9
    99         24
   100          9
   101          7
   103          5
   104          3
   106          1
   108          1
   109          1
   110          1
   111          2
   112          2
   113          5
   114        128
   115          9
   116          3
   117          4
   118          2
   119         19
   126          9
   127          2
   128          9
   129          6
   131          1
   132          6
   133          1
   140          1
   143          1
   144         15
   145          2