##TITLE=Library Entry 66440
##JCAMP-DX=Revision 4.10 
##DATA TYPE=MASS SPECTRUM
##SAMPLE DESCRIPTION=Chemical Concepts
##NAMES=HP
##CAS NAME=9-Borabicyclo[3.3.1]nonane, 9-(2,6,6-trimethylbicyclo[3.1.1]hept-
3-yl)-
##MOLFORM=C18H31B
##CAS REGISTRY NO=73624-47-2
##MP= -300
##BP= -300
##MW= 258
##$RETENTION INDEX=0
##$CONDENSED SPECTRUM=NO
##NPOINTS= 140
##XYDATA=(XY..XY) 1 
    26         45
    27        182
    29        135
    36          9
    37         50
    38         42
    39        206
    40        129
    41        816
    42         46
    43        150
    44          8
    50         41
    51        144
    52        131
    53        479
    54         85
    55        427
    56         43
    57         31
    61          9
    62         12
    63         36
    64        103
    65        329
    66        109
    67        466
    68         72
    69        270
    70         35
    71         14
    75          7
    76         50
    77        286
    78        122
    79        533
    80        205
    81        466
    82        419
    83        668
    84         59
    88         17
    89         76
    90        127
    91        549
    92        518
    93        999
    94        283
    95        525
    96        156
    97         36
    98         17
   102         12
   103         74
   104         73
   105        263
   106        205
   107        280
   108        169
   109        380
   110        129
   111         36
   112          6
   113         12
   114          7
   115         14
   116         25
   117        119
   118        402
   119        836
   120        575
   121        474
   122        105
   123        142
   124         14
   125         13
   126          9
   127          6
   129         16
   130         16
   131         97
   132        222
   133        386
   134        188
   135         86
   136        647
   137        224
   138        364
   139         51
   143          7
   144         19
   145         92
   146        206
   147        285
   148        159
   149         30
   150         13
   153          9
   154         13
   158         33
   159        117
   160         98
   161         84
   162         31
   163         23
   165          9
   171          6
   172         42
   173        185
   174         79
   175         58
   176         89
   177         15
   186         22
   187        112
   188         65
   189         58
   190         26
   201        203
   202        749
   203        128
   204         10
   206          7
   207         11
   214         60
   215        255
   216         70
   217          9
   218          7
   220          7
   221         25
   229         14
   230          8
   235         24
   242         13
   243         53
   244         29
   257         46
   258        184
   259         43