##TITLE=Library Entry 51937
##JCAMP-DX=Revision 4.10 
##DATA TYPE=MASS SPECTRUM
##SAMPLE DESCRIPTION=D.HENNEBERG, MAX-PLANCK INSTITUTE, MULHEIM, WEST GERMAN
Y
##NAMES=HP
##CAS NAME=Cyclohexanecarboxylic acid, 1-butyl-, methyl ester
##MOLFORM=C12H22O2
##CAS REGISTRY NO=7362-81-4
##MP= -300
##BP= -300
##MW= 198
##$RETENTION INDEX=1285
##$CONDENSED SPECTRUM=NO
##NPOINTS= 106
##XYDATA=(XY..XY) 1 
    26         32
    27        486
    28        114
    29        560
    30         20
    31         26
    32          5
    38         18
    39        410
    40         84
    41        851
    42         76
    43        207
    44         10
    45         67
    46          3
    50         16
    51         51
    52         35
    53        224
    54        131
    55        718
    56         60
    57        200
    58         12
    59        158
    60         54
    61         10
    62          3
    63         11
    64          3
    65         50
    66         33
    67        314
    68         81
    69        512
    70         41
    71         86
    72          7
    73         20
    74         45
    75         12
    77         65
    78         16
    79        102
    80         33
    81        468
    82         88
    83        999
    84         75
    85         19
    86          2
    87         45
    88         31
    89          3
    91         26
    92          7
    93         17
    94          7
    95        214
    96         85
    97        368
    98         35
    99         14
   100         15
   101         57
   102         15
   103          2
   105          3
   107          5
   108          8
   109         59
   110         37
   111         17
   112         32
   113         56
   114         11
   115          9
   116          7
   122          2
   123         48
   124         25
   125         18
   126          3
   127         16
   128         12
   129          5
   130        113
   131          9
   137         13
   138         93
   139        576
   140         73
   141        187
   142        655
   143        261
   145          2
   155        135
   156         22
   157          9
   166         11
   167          6
   169          9
   198         77
   199         13
   200          1