##TITLE=Library Entry 2911
##JCAMP-DX=Revision 4.10 
##DATA TYPE=MASS SPECTRUM
##SAMPLE DESCRIPTION=D.HENNEBERG, MAX-PLANCK INSTITUTE, MULHEIM, WEST GERMAN
Y
##NAMES=HP
##CAS NAME=Cycloundecanecarboxylic acid, 1-methyl-, methyl ester
##MOLFORM=C14H26O2
##CAS REGISTRY NO=7362-89-2
##MP= -300
##BP= -300
##MW= 226
##$RETENTION INDEX=0
##$CONDENSED SPECTRUM=NO
##NPOINTS= 100
##XYDATA=(XY..XY) 1 
    26         16
    27        251
    28        151
    29        446
    30         15
    31         21
    33         12
    39        275
    40         71
    41        999
    42        153
    43        361
    44         15
    45         53
    51         16
    52         11
    53        142
    54         90
    55        938
    56        170
    57        227
    58         11
    59        188
    60         10
    61          6
    65         23
    66         16
    67        171
    68         93
    69        493
    70         55
    71         82
    72          7
    73         48
    74         15
    77         24
    78          6
    79         37
    80         12
    81        130
    82         61
    83        444
    84         40
    85         88
    86          7
    87         49
    88        322
    89         17
    91         12
    93         16
    94          9
    95        101
    96         50
    97        420
    98         76
    99         17
   100          6
   101        627
   102         47
   103          5
   107          6
   108          5
   109         58
   110         53
   111        231
   112         48
   113         39
   114         67
   115         28
   123         21
   124         20
   125         51
   126         10
   127         62
   128         14
   129         11
   130         13
   136         10
   137         17
   138         17
   139         17
   141         13
   142          7
   143         14
   144         44
   151         14
   152         12
   155          7
   157         18
   165         20
   166         61
   167        195
   168         25
   169         14
   183         11
   194         56
   195         10
   211         21
   226         41
   227          6