##TITLE=Library Entry 40506
##JCAMP-DX=Revision 4.10 
##DATA TYPE=MASS SPECTRUM
##SAMPLE DESCRIPTION=O A MAMER, MCGILL UNIVERSITY, MONTRE
##NAMES=HP
##CAS NAME=Diethyl tartrate, [S-(R*,R*)]-, 2TMS derivative
##MOLFORM=C14H30O6Si2
##CAS REGISTRY NO=73639-61-9
##MP= -300
##BP= -300
##MW= 350
##$RETENTION INDEX=0
##$CONDENSED SPECTRUM=NO
##NPOINTS= 91
##XYDATA=(XY..XY) 1 
    16          6
    25          7
    26         48
    27        641
    29         19
    31         31
    39          8
    41         14
    42          6
    43        137
    47         69
    53          9
    55          2
    57         30
    58         32
    60         18
    62          6
    70         10
    71         18
    72         42
    73        999
    74        124
    75        443
    76         27
    77         18
    85          5
    86          7
    87         10
    89         26
    91         31
    99         16
   100          6
   101         59
   102         52
   103        146
   104         19
   105         20
   115         15
   116         16
   117        106
   118         13
   119         20
   129          6
   130         51
   131         53
   132         38
   133        151
   134         22
   135         20
   143         21
   144          6
   145         36
   146          6
   147        170
   148         29
   150          2
   151          8
   161        111
   162         13
   171         11
   173         14
   175        142
   176         20
   177         20
   187          6
   189        125
   190         24
   191         28
   192          6
   204         20
   205         13
   217         34
   218          8
   219         20
   220          6
   233         15
   234          6
   245         16
   248        204
   249         78
   250         27
   251          7
   261         50
   262         13
   263         11
   277         55
   278         12
   279          8
   335        125
   336         32
   337         14