##TITLE=Library Entry 81113
##JCAMP-DX=Revision 4.10 
##DATA TYPE=MASS SPECTRUM
##SAMPLE DESCRIPTION=Japan AIST/NIMC Database- Spectrum MS-NW-6707
##NAMES=HP
##CAS NAME=3H-Indazol-3-one, 1,2-dihydro-
##MOLFORM=C7H6N2O
##CAS REGISTRY NO=7364-25-2
##MP= -300
##BP= -300
##MW= 134
##$RETENTION INDEX=0
##$CONDENSED SPECTRUM=NO
##NPOINTS= 99
##XYDATA=(XY..XY) 1 
    12          2
    13          1
    14          3
    15          6
    16          7
    18          1
    24          1
    25          9
    26         34
    27         57
    28         58
    29         73
    30         10
    31          3
    32          1
    36         14
    37        130
    38        166
    39        160
    40         28
    41         25
    42          8
    43         22
    44         54
    45          9
    48          9
    49         57
    50        375
    51        472
    52        369
    53         69
    54         23
    55         11
    56          2
    57          4
    58          1
    60         15
    61         63
    62         94
    63        197
    64        133
    65         57
    66         13
    67         23
    68          3
    69          3
    70          2
    71          2
    72          4
    73         40
    74        149
    75        119
    76        291
    77        767
    78        391
    79        361
    80         42
    81          3
    82          1
    83          2
    84          2
    85          5
    86         12
    87         14
    88         16
    89         19
    90         37
    91         62
    92         15
    93          2
    94          1
    95          2
    96          1
    97          1
   101          4
   102          1
   103          7
   104         59
   105        999
   106        105
   107          9
   108          2
   111          1
   113          1
   115          2
   116          7
   117          5
   118         14
   119          4
   120          1
   128          1
   129          1
   130          1
   132          4
   133         26
   134        894
   135         77
   136          7
   137          1