##TITLE=Library Entry 76004
##JCAMP-DX=Revision 4.10 
##DATA TYPE=MASS SPECTRUM
##SAMPLE DESCRIPTION=O A MAMER, MCGILL UNIVERSITY, MONTRE
##NAMES=HP
##CAS NAME=Glycine, 2TMS derivative
##MOLFORM=C8H21NO2Si2
##CAS REGISTRY NO=7364-42-3
##MP= -300
##BP= -300
##MW= 219
##$RETENTION INDEX=1105
##$CONDENSED SPECTRUM=NO
##NPOINTS= 64
##XYDATA=(XY..XY) 1 
    15          9
    28          4
    29         18
    30         21
    31         24
    42          8
    43         66
    44         37
    45        155
    46         11
    47         24
    51          3
    52          8
    55          8
    56          8
    57         16
    58         34
    59         71
    60          9
    61         15
    66         49
    67         13
    70          5
    72         27
    73        682
    74         63
    75         78
    76          5
    77          3
    80          3
    81         39
    82          3
    86         23
    87         13
    88          4
    89          5
    95         11
   100          6
   102        999
   103        126
   104         41
   105          7
   115          4
   116          3
   117         11
   118          2
   119          4
   130          3
   131         18
   132          7
   133         15
   134          3
   147        274
   148         43
   149         22
   158          3
   174          3
   176         55
   177         10
   178          5
   204         59
   205         11
   206          5
   219          1