##TITLE=Library Entry 96463
##JCAMP-DX=Revision 4.10 
##DATA TYPE=MASS SPECTRUM
##SAMPLE DESCRIPTION=O A MAMER, MCGILL UNIVERSITY, MONTRE
##NAMES=HP
##CAS NAME=Sarcosine, 2TMS derivative
##MOLFORM=C9H23NO2Si2
##CAS REGISTRY NO=7364-43-4
##MP= -300
##BP= -300
##MW= 233
##$RETENTION INDEX=1161
##$CONDENSED SPECTRUM=NO
##NPOINTS= 65
##XYDATA=(XY..XY) 1 
    15         10
    26          4
    27          2
    29         18
    30          0
    31         10
    41          2
    42         30
    43         39
    44         17
    45        113
    46          9
    47         11
    52          3
    55          4
    56          5
    57          9
    58         15
    59         58
    60          6
    61          8
    66         17
    67          3
    70          4
    71          8
    72         17
    73        518
    74         47
    75         45
    76          4
    86         13
    87         19
    88         20
   100          9
   101          7
   102         15
   103          5
   114          7
   115          6
   116        999
   117        114
   118         41
   119          5
   131         12
   133         15
   144          7
   147        126
   148         21
   149         11
   175          5
   179          4
   190         52
   191          6
   192          4
   193          4
   196          5
   204          3
   207          3
   218         30
   219          6
   220          3
   221          4
   233         46
   234          6
   235          5