##TITLE=Library Entry 59772
##JCAMP-DX=Revision 4.10 
##DATA TYPE=MASS SPECTRUM
##SAMPLE DESCRIPTION=Chemical Concepts
##NAMES=HP
##CAS NAME=3-Buten-2-one, 4-(phenylmethoxy)-, (E)-
##MOLFORM=C11H12O2
##CAS REGISTRY NO=73642-47-4
##MP= -300
##BP= -300
##MW= 176
##$RETENTION INDEX=0
##$CONDENSED SPECTRUM=NO
##NPOINTS= 136
##XYDATA=(XY..XY) 1 
    26          2
    27          7
    28          1
    29          4
    30          0
    31          2
    36          0
    37          1
    38          4
    39         40
    40          3
    41         14
    42          6
    43         59
    44          5
    45          1
    49          0
    50          7
    51         21
    52          7
    53          3
    54          1
    55          4
    56          1
    57          1
    58          1
    59          0
    60          0
    61          1
    62          5
    63         20
    64          8
    65        110
    66          6
    67          0
    68          0
    69          2
    70          2
    71          1
    72          0
    73          5
    74          2
    75          2
    76          2
    77         19
    78          6
    79         10
    80          1
    81          1
    82          1
    83          3
    84          0
    85          4
    86          1
    87          1
    88          1
    89         27
    90         18
    91        999
    92         98
    93          4
    94          0
    95          0
    96          0
    97          1
    98          0
    99          0
   101          0
   102          1
   103          3
   104          1
   105          9
   106          2
   107          8
   108         10
   109          1
   110          3
   111          0
   112          0
   113          0
   114          0
   115          7
   116         17
   117          2
   118          1
   119          1
   120          0
   121          0
   122          0
   123          0
   124          0
   125          1
   126          7
   127          1
   128          3
   129          5
   130          3
   131          3
   132          1
   133         60
   134         19
   135          2
   136          2
   137          0
   138          0
   139          0
   140          0
   141          0
   142          0
   143          1
   144          0
   145          1
   146          0
   147         31
   148          9
   149          2
   150          1
   151          0
   152          0
   153          0
   155          1
   156          0
   157          1
   158          6
   159          1
   160          0
   161          1
   162          0
   171          0
   172          0
   173          0
   174          0
   175         30
   176         20
   177          3
   178          0