##TITLE=Library Entry 43208
##JCAMP-DX=Revision 4.10 
##DATA TYPE=MASS SPECTRUM
##SAMPLE DESCRIPTION=S. MARKEY UNIV. OF COLO. MED. CTR., DENVER, COLORADO, U
SA
##NAMES=HP
##CAS NAME=L-Serine, 3TMS derivative
##MOLFORM=C12H31NO3Si3
##CAS REGISTRY NO=7364-48-9
##MP= -300
##BP= -300
##MW= 321
##$RETENTION INDEX=1388
##$CONDENSED SPECTRUM=NO
##NPOINTS= 81
##XYDATA=(XY..XY) 1 
    38          3
    39         19
    40         96
    41         37
    42         46
    43        109
    44        160
    45        275
    46         18
    47        113
    49         32
    51         20
    55         24
    56         28
    57         56
    58         31
    59         88
    60         18
    61         36
    63          9
    65          5
    69        116
    70         15
    72         37
    73        999
    74        113
    75        650
    76         50
    77        119
    79          8
    80          7
    84         35
    86         11
    88          3
    89          5
    93         48
    95         14
   100        153
   101         34
   102         26
   103         55
   114         29
   115         22
   116        164
   117         47
   118         10
   119         27
   130         18
   131         49
   132        149
   133         71
   134         11
   144         35
   146         24
   147        204
   148         31
   149         27
   159          6
   169         10
   174         11
   181          6
   188         55
   189         23
   190          5
   203         17
   204        752
   205        142
   206         58
   207         11
   216         17
   217          7
   218        455
   219        118
   220         42
   221          6
   234          9
   278         61
   279         12
   280          2
   306         49
   307          8