##TITLE=Library Entry 43439
##JCAMP-DX=Revision 4.10 
##DATA TYPE=MASS SPECTRUM
##SAMPLE DESCRIPTION=O A MAMER, MCGILL UNIVERSITY, MO+
##NAMES=HP
##CAS NAME=L-Cysteine, 3TMS derivative
##MOLFORM=C12H31NO2SSi3
##CAS REGISTRY NO=7364-50-3
##MP= -300
##BP= -300
##MW= 337
##$RETENTION INDEX=1568
##$CONDENSED SPECTRUM=NO
##NPOINTS= 63
##XYDATA=(XY..XY) 1 
    29          5
    31          8
    43          2
    44         17
    45        160
    46         12
    47          4
    55          1
    57          0
    58          5
    59         75
    60         10
    61          8
    70          7
    71          4
    72         24
    73        999
    74         96
    75         56
    76          6
    86         10
    91         10
    98          4
   100        182
   101         23
   102         11
   103         13
   105          6
   114         11
   115         32
   116         23
   117         11
   119          7
   130         11
   131         13
   132         52
   133         31
   134          8
   146         14
   147        107
   148         23
   149         13
   156          4
   163          8
   172          4
   174          4
   188          4
   203          5
   204         14
   205          9
   216          5
   218        551
   219        111
   220        614
   221        121
   222         74
   223         12
   230          6
   232         15
   294         27
   295          7
   296          5
   322         13