##TITLE=Library Entry 24763
##JCAMP-DX=Revision 4.10 
##DATA TYPE=MASS SPECTRUM
##SAMPLE DESCRIPTION=NIST Mass Spectrometry Data Center
##NAMES=HP
##CAS NAME=Heptafluorobutyric acid, n-tetradecyl ester
##MOLFORM=C18H29F7O2
##CAS REGISTRY NO=7365-36-8
##MP= -300
##BP= -300
##MW= 410
##$RETENTION INDEX=1660
##$CONDENSED SPECTRUM=NO
##NPOINTS= 109
##XYDATA=(XY..XY) 1 
    15          1
    26          3
    27         49
    28         17
    29        143
    30          4
    31          3
    33          1
    37          1
    39         72
    40         20
    41        560
    42        157
    43        814
    44         30
    47          2
    50          4
    51          5
    52          3
    53         49
    54        103
    55        945
    56        425
    57        999
    58         44
    59          2
    61          2
    62          1
    63          1
    65          9
    66         13
    67        148
    68        186
    69        887
    70        439
    71        503
    72         27
    73          1
    77          6
    78          3
    79         18
    80          6
    81         92
    82        369
    83        783
    84        337
    85        321
    86         20
    87          1
    91          3
    93          5
    94          2
    95         38
    96        162
    97        704
    98        223
    99         69
   100         38
   101          1
   107          1
   109         24
   110         74
   111        397
   112        158
   113         40
   114          3
   119         26
   120          1
   123          4
   124         39
   125        172
   126         91
   127         24
   128          2
   131          4
   137          2
   138         21
   139         50
   140         50
   141         13
   142          1
   147          2
   150          9
   151          1
   152          9
   153         21
   154         21
   155          6
   159          1
   166          5
   167         10
   168         73
   169        157
   170          5
   178          1
   193          1
   194          1
   196         84
   197         23
   198          1
   199          1
   215          4
   223          2
   227          1
   241         15
   242          3
   255          1
   392          4
   393          1