##TITLE=Library Entry 89255
##JCAMP-DX=Revision 4.10 
##DATA TYPE=MASS SPECTRUM
##SAMPLE DESCRIPTION=Japan AIST/NIMC Database- Spectrum MS-NW-9023
##NAMES=HP
##CAS NAME=HEPES
##MOLFORM=C8H18N2O4S
##CAS REGISTRY NO=7365-45-9
##MP= -300
##BP= -300
##MW= 238
##$RETENTION INDEX=0
##$CONDENSED SPECTRUM=NO
##NPOINTS= 182
##XYDATA=(XY..XY) 1 
    13          2
    14         10
    15         99
    16          6
    17         24
    18         83
    24          2
    25         12
    26        136
    27        577
    28        274
    29        166
    30        101
    31          9
    32         14
    33          6
    34          9
    38          5
    39         26
    40         27
    41        164
    42        854
    43        362
    44        429
    45         34
    46          4
    47          3
    48        102
    49         14
    50          8
    51          9
    52         19
    53         14
    54        125
    55        735
    56        616
    57        627
    58        315
    59         18
    60         11
    61          2
    62          2
    63         10
    64        136
    65        510
    66         23
    67         31
    68         60
    69        108
    70        373
    71         39
    72         68
    73         15
    74         17
    75          3
    76          6
    77          8
    78          6
    79          8
    80         17
    81         44
    82        144
    83        133
    84        259
    85         75
    86         31
    87          9
    88         92
    89          7
    90          2
    91         55
    92          7
    93          9
    94         12
    95          9
    96          9
    97         90
    98         64
    99        378
   100        102
   101          8
   102          4
   103          4
   104          4
   105          5
   106          8
   107          9
   108         31
   109         17
   110          9
   111         57
   112        999
   113        110
   114         23
   115          9
   116          2
   117          5
   118          6
   119          7
   120          9
   121          8
   122          7
   123          6
   124          4
   125         13
   126         10
   127         42
   128         17
   129          7
   130          9
   131          9
   132          6
   133          7
   134          6
   135          7
   136          5
   137          3
   138          6
   139          4
   140          9
   141         21
   142          7
   143         62
   144          9
   145          6
   146          5
   147          5
   148          5
   149          7
   150          4
   151          3
   152          8
   153          2
   154          5
   155          5
   156          9
   157         13
   158          9
   159          5
   160          3
   161          4
   162          3
   163          5
   164          5
   165          4
   166          3
   167          2
   168          3
   169          2
   170          2
   171          2
   172          3
   173          3
   174          2
   175          2
   176          2
   177          3
   178          2
   179          2
   180          2
   181          2
   182          2
   183          2
   184          3
   185          2
   186          3
   187          2
   188          2
   192          2
   193          2
   194          2
   195          2
   199          2
   200          2
   202          3
   205          2
   207         14
   208          3
   209          2
   237          2
   238          1
   239          2