##TITLE=Library Entry 44516
##JCAMP-DX=Revision 4.10 
##DATA TYPE=MASS SPECTRUM
##SAMPLE DESCRIPTION=TNO Volatile Compounds in Food - Chemical Concepts
##NAMES=HP
##CAS NAME=4-Decenoic acid, methyl ester, Z-
##MOLFORM=C11H20O2
##CAS REGISTRY NO=7367-83-1
##MP= -300
##BP= -300
##MW= 184
##$RETENTION INDEX=1289
##$CONDENSED SPECTRUM=NO
##NPOINTS= 112
##XYDATA=(XY..XY) 1 
    25         12
    26         17
    27        390
    28         89
    29        510
    30          5
    31         29
    32         19
    33          7
    36          3
    37          7
    38          7
    39        392
    40         59
    41        851
    42        158
    43        467
    44         12
    45         43
    46          2
    47          3
    49          1
    51         23
    52         20
    53        163
    54        522
    55        735
    56        101
    57         95
    58          5
    59        396
    60         10
    61          5
    62          1
    63          8
    64          3
    65         39
    66         33
    67        521
    68        333
    69        515
    70         43
    71         62
    72         23
    73         49
    74        999
    75         86
    77         31
    78          8
    79         63
    80         31
    81        327
    82        144
    83        150
    84        255
    85        257
    86          9
    87        140
    88         22
    91          9
    93         12
    94         10
    95        108
    96        234
    97         78
    98         26
    99         23
   100          7
   101         32
   102          6
   105          1
   107          6
   108         28
   109         48
   110        459
   111         86
   112          1
   113         37
   114         39
   115         23
   116          3
   118          1
   119          6
   123         78
   124         43
   125          6
   126          3
   127         23
   128         16
   129          3
   134         11
   135         42
   136          3
   138          5
   140          4
   141          9
   142          5
   143          3
   144          1
   146          2
   147          2
   151          2
   152        157
   153         46
   154          1
   155          1
   162          3
   164          4
   165          2
   167          2
   184         17
   185          1