##TITLE=Library Entry 464
##JCAMP-DX=Revision 4.10 
##DATA TYPE=MASS SPECTRUM
##SAMPLE DESCRIPTION=TNO Volatile Compounds in Food - Chemical Concepts
##NAMES=HP
##CAS NAME=4-Decenoic acid, ethyl ester, (Z)-
##MOLFORM=C12H22O2
##CAS REGISTRY NO=7367-84-2
##MP= -300
##BP= -300
##MW= 198
##$RETENTION INDEX=1361
##$CONDENSED SPECTRUM=NO
##NPOINTS= 121
##XYDATA=(XY..XY) 1 
    25          3
    26         34
    27        503
    28        286
    29        999
    30          4
    31         23
    32         22
    33          7
    37          4
    38         12
    39        276
    40         48
    41        860
    42        142
    43        322
    44         12
    45        114
    46         14
    47         11
    50          1
    51         22
    52          9
    53        158
    54        519
    55        780
    56        115
    57        159
    58          9
    59         16
    60        301
    61        282
    62          6
    63          5
    64          3
    65         29
    66         47
    67        501
    68        249
    69        628
    70        219
    71        260
    72         14
    73        100
    74         12
    75          5
    77         39
    78         14
    79         71
    80         18
    81        265
    82        136
    83        279
    84        259
    85         61
    86          5
    87         23
    88        700
    89         40
    91          8
    92          7
    93         13
    94         19
    95        121
    96        270
    97        112
    98         26
    99         61
   100         13
   101        122
   102         14
   105          3
   107         20
   108         19
   109        144
   110        513
   111         80
   112         12
   113         29
   114         11
   115         23
   117          5
   119         10
   122          2
   123         59
   124         53
   125          5
   127         24
   128         16
   129         12
   131          2
   132          3
   133         11
   134         15
   135         62
   136          4
   137          1
   138         20
   139         21
   141         24
   142          8
   144          4
   147          1
   151          1
   152        146
   153         46
   155          7
   158          5
   160          3
   161          4
   163          4
   164          4
   169          8
   183          2
   194          7
   195          3
   196          3
   197          4
   198         26
   199          3
   200          1