##TITLE=Library Entry 82055
##JCAMP-DX=Revision 4.10 
##DATA TYPE=MASS SPECTRUM
##SAMPLE DESCRIPTION=Chemical Concepts
##NAMES=HP
##CAS NAME=Methanone, [5-(hydroxyphenylmethylene)-1,3-cyclopentadien-1-yl]ph
enyl-
##MOLFORM=C19H14O2
##CAS REGISTRY NO=73675-12-4
##MP= -300
##BP= -300
##MW= 274
##$RETENTION INDEX=0
##$CONDENSED SPECTRUM=NO
##NPOINTS= 116
##XYDATA=(XY..XY) 1 
    27         12
    28         25
    38          3
    39         42
    41          0
    50         52
    51        182
    52         16
    53         11
    55          0
    57          0
    61          2
    62         20
    63         81
    64         21
    65         22
    66          0
    69          1
    70          1
    74         23
    75         24
    76         24
    77        575
    78         60
    79          0
    81          0
    84          7
    86          6
    87         11
    88          8
    89         27
    90          0
    91         66
    92         25
    93          0
    94          2
    95          0
    96          0
    98          6
    99          3
   100          0
   101          9
   102          6
   104          0
   105        999
   106         77
   107          4
   108          7
   109         14
   110          1
   111          0
   113         20
   114         21
   115        142
   116         15
   119        229
   120         17
   122          3
   123         14
   126          5
   127          0
   128          0
   137         10
   138          0
   139        135
   140         48
   141        113
   142          8
   144          1
   150          6
   151         14
   152         34
   153          6
   163          0
   165          1
   168        129
   169        286
   170         34
   176          0
   179          0
   181          9
   183          1
   189          4
   195          0
   196        181
   197        234
   198         29
   199          0
   200          0
   201          0
   202         12
   203          4
   213          0
   215         15
   216          0
   217          3
   218          5
   226          9
   227          5
   228         27
   229         46
   230          7
   231          7
   245         11
   246          9
   247          0
   255         11
   256         24
   257         35
   258          6
   259          0
   262          2
   273         18
   274        922
   275        189
   276         21