##TITLE=Library Entry 76287
##JCAMP-DX=Revision 4.10 
##DATA TYPE=MASS SPECTRUM
##SAMPLE DESCRIPTION=Chemical Concepts
##NAMES=HP
##CAS NAME=Octanoic acid, 3-hydroxy-, methyl ester
##MOLFORM=C9H18O3
##CAS REGISTRY NO=7367-87-5
##MP= -300
##BP= -300
##MW= 174
##$RETENTION INDEX=1243
##$CONDENSED SPECTRUM=NO
##NPOINTS= 63
##XYDATA=(XY..XY) 1 
    31         95
    33         71
    39        115
    40         19
    41        317
    42        163
    43        818
    44        181
    45         52
    51          4
    52          0
    53         30
    54         27
    55        318
    56         90
    57        109
    58         47
    59        185
    60          8
    61        311
    62          6
    65          0
    67         36
    68         17
    69         23
    70         11
    71        587
    72         38
    73         11
    74        515
    75         60
    76          4
    77          0
    79          4
    80          0
    81         40
    82         65
    83        147
    84         10
    85         40
    86          7
    87         40
    88          8
    95          8
    96         46
    97         23
    99         48
   100         15
   101         63
   102         20
   103        999
   104         52
   105          7
   113         26
   114         18
   117          4
   118          1
   124         28
   125         61
   126          3
   127          7
   141          2
   143          1