##TITLE=Library Entry 20949
##JCAMP-DX=Revision 4.10 
##DATA TYPE=MASS SPECTRUM
##SAMPLE DESCRIPTION=NIST Mass Spectrometry Data Center
##NAMES=HP
##CAS NAME=2-Octenoic acid, methyl ester, (E)-
##MOLFORM=C9H16O2
##CAS REGISTRY NO=7367-81-9
##MP= -300
##BP= -300
##MW= 156
##$RETENTION INDEX=1184
##$CONDENSED SPECTRUM=NO
##NPOINTS= 97
##XYDATA=(XY..XY) 1 
    14          1
    15         30
    26         12
    27        141
    28         33
    29        227
    30          8
    31         10
    33          2
    37          4
    38         17
    39        262
    40         84
    41        484
    42        181
    43        115
    44          5
    45         31
    46          1
    47          1
    49          1
    50         14
    51         34
    52         19
    53        172
    54         89
    55        999
    56        128
    57        114
    58         17
    59        344
    60         11
    61          4
    62          3
    63          8
    64          2
    65         30
    66         22
    67        144
    68        317
    69        247
    70        108
    71         82
    72         32
    73         14
    74        327
    75         31
    76          2
    77         17
    78          4
    79         27
    80         15
    81        252
    82        353
    83        136
    84         11
    85        108
    87        977
    88         83
    89          7
    90          1
    91          7
    92          1
    93          7
    94          3
    95         85
    96        337
    97         53
    98          6
    99         30
   100        175
   101        235
   102         20
   103          2
   105          1
   106          8
   107          3
   108          1
   109         17
   110          1
   111          9
   113        492
   114        117
   115         22
   116          2
   124        292
   125        411
   126         36
   127         69
   128         10
   129          1
   141         20
   142          2
   155          2
   156         19
   157          6
   158          1