##TITLE=Library Entry 70012
##JCAMP-DX=Revision 4.10 
##DATA TYPE=MASS SPECTRUM
##SAMPLE DESCRIPTION=NIST Mass Spectrometry Data Center, 1994
##NAMES=HP
##CAS NAME=Butyl sorbate
##MOLFORM=C10H16O2
##CAS REGISTRY NO=7367-78-4
##MP= -300
##BP= -300
##MW= 168
##$RETENTION INDEX=1258
##$CONDENSED SPECTRUM=NO
##NPOINTS= 89
##XYDATA=(XY..XY) 1 
    13          1
    14          6
    15         28
    16          5
    17          3
    18          2
    19          5
    25          0
    26         40
    27        295
    28         96
    29        305
    30         16
    31         16
    32          3
    33          1
    34          1
    37         11
    38         54
    39        497
    40        128
    41        790
    42         45
    43         90
    44          7
    45         13
    47          4
    49          2
    50         24
    51         49
    52         34
    53         40
    54         14
    55         82
    56         52
    57         60
    58          7
    60          2
    61          6
    62         14
    63         28
    64         16
    65        194
    66        205
    67        958
    68        104
    69         39
    70          7
    71         11
    72          1
    73          3
    77          5
    78          2
    79         11
    80          1
    81         31
    82         15
    83         18
    84         45
    85          4
    86          1
    91          2
    93         11
    95        837
    97        999
    98         62
    99         10
   100          1
   107          1
   108          2
   109          3
   111         59
   112        328
   113        112
   114        122
   115         10
   121          1
   122          2
   123          7
   125          5
   126          3
   135          2
   139          5
   140          3
   151          1
   153         19
   154          1
   168         69
   169          7