##TITLE=Library Entry 18915
##JCAMP-DX=Revision 4.10 
##DATA TYPE=MASS SPECTRUM
##SAMPLE DESCRIPTION=NIST Mass Spectrometry Data Center
##NAMES=HP
##CAS NAME=Ethyl trans-2-decenoate
##MOLFORM=C12H22O2
##CAS REGISTRY NO=7367-88-6
##MP= -300
##BP= -300
##MW= 198
##$RETENTION INDEX=0
##$CONDENSED SPECTRUM=NO
##NPOINTS= 107
##XYDATA=(XY..XY) 1 
    13          2
    15         24
    17          2
    18          5
    19          5
    27        579
    28        156
    29        874
    30         30
    37          4
    39        413
    40        151
    41        857
    42        202
    43        779
    44         27
    45         58
    46          4
    47          3
    50          9
    51         34
    52         22
    53        237
    54        163
    55        999
    56        238
    57        231
    58         16
    60         48
    61         74
    62          3
    63          4
    65         35
    66         42
    67        235
    68        366
    69        482
    70        193
    71        100
    73        634
    74          3
    75          3
    77         20
    78          9
    79         69
    81        338
    82        138
    83        212
    84        302
    85         92
    86        248
    87         77
    88        305
    89         35
    90          3
    91          9
    92          4
    93         33
    94         27
    95        129
    96        231
    97        115
    98         69
    99        314
   101        603
   102         49
   103          4
   105          7
   106          4
   107         19
   108         39
   109        102
   110        285
   111         70
   112          9
   113         42
   114         76
   115        151
   116         17
   119          7
   123        117
   124         58
   125         12
   127        149
   128         45
   129         20
   130         14
   133         10
   134         20
   135          6
   137         17
   138          3
   141         35
   142         22
   143         15
   144          2
   152        188
   153        391
   154         40
   155         40
   156          8
   157          6
   169         13
   170          4
   171          2
   198          6
   199          3