##TITLE=Library Entry 21467
##JCAMP-DX=Revision 4.10 
##DATA TYPE=MASS SPECTRUM
##SAMPLE DESCRIPTION=NIST Mass Spectrometry Data Center
##NAMES=HP
##CAS NAME=Ethyl (E)-2-octenoate
##MOLFORM=C10H18O2
##CAS REGISTRY NO=7367-82-0
##MP= -300
##BP= -300
##MW= 170
##$RETENTION INDEX=1249
##$CONDENSED SPECTRUM=NO
##NPOINTS= 101
##XYDATA=(XY..XY) 1 
    15          3
    26         13
    27        125
    28         31
    29        245
    30          8
    31          8
    37          2
    38         11
    39        195
    40         63
    41        311
    42        110
    43        136
    44          7
    45         46
    46          1
    47          1
    50         10
    51         27
    52         17
    53        136
    54         76
    55        999
    56        120
    57        143
    58         14
    59          7
    60         36
    61         41
    62          3
    63          7
    64          2
    65         25
    66         19
    67        115
    68        295
    69        128
    70        151
    71         61
    73        488
    74         26
    75          4
    77         15
    78          4
    79         30
    80         16
    81        209
    82        281
    83        122
    84         16
    85         53
    86        244
    87         74
    88        210
    89         18
    90          2
    91          8
    92          2
    93          9
    94          4
    95        119
    96        329
    97         82
    98         18
    99        488
   100         60
   101        454
   102         62
   103          5
   105          2
   106          8
   107          6
   108          2
   109         16
   110          9
   111          4
   112          2
   113         53
   114         55
   115        189
   116         18
   117          1
   123         21
   124        313
   125        824
   126         77
   127        213
   128         77
   129         16
   130          1
   141         55
   142         25
   143          9
   144          1
   155         16
   156          2
   169          1
   170         34
   171         15
   172          2