##TITLE=Library Entry 20203
##JCAMP-DX=Revision 4.10 
##DATA TYPE=MASS SPECTRUM
##SAMPLE DESCRIPTION=Chemical Concepts
##NAMES=HP
##CAS NAME=4-Nonene, 5-butyl-
##MOLFORM=C13H26
##CAS REGISTRY NO=7367-38-6
##MP= -300
##BP= -300
##MW= 182
##$RETENTION INDEX=0
##$CONDENSED SPECTRUM=NO
##NPOINTS= 89
##XYDATA=(XY..XY) 1 
    25          3
    26         23
    27        144
    28          5
    29        186
    30          5
    31          0
    37          2
    38          4
    39        104
    40         22
    41        548
    42         48
    43        184
    44          7
    45          2
    48          0
    49          1
    50          4
    51         12
    52          8
    53         78
    54         38
    55        999
    56        562
    57        323
    58         14
    59          0
    62          0
    63          2
    64          1
    65         25
    66         12
    67        141
    68         68
    69        903
    70        738
    71         90
    72          3
    73          1
    75          1
    77         30
    78          7
    79         43
    80          8
    81         79
    82         68
    83        500
    84        135
    85         26
    86          1
    89          0
    91         12
    92          2
    93          7
    94          2
    95         36
    96         17
    97        208
    98        294
    99         45
   100          3
   103          0
   105          1
   107          1
   108          0
   109          8
   110          7
   111         59
   112         36
   113          2
   116          0
   121          0
   123          3
   124          6
   125         52
   126         22
   127          2
   137          0
   139          1
   140        154
   141         19
   142          1
   153          5
   154          1
   181          0
   182        191
   183         28
   184          2