##TITLE=Library Entry 1103
##JCAMP-DX=Revision 4.10 
##DATA TYPE=MASS SPECTRUM
##SAMPLE DESCRIPTION=Japan AIST/NIMC Database- Spectrum MS-NW-1921
##NAMES=HP
##CAS NAME=Glycyl-dl-.alpha.-amino-n-butyric acid
##MOLFORM=C6H12N2O3
##CAS REGISTRY NO=7369-76-8
##MP= -300
##BP= -300
##MW= 160
##$RETENTION INDEX=0
##$CONDENSED SPECTRUM=NO
##NPOINTS= 62
##XYDATA=(XY..XY) 1 
    14          1
    15          6
    16          1
    17          5
    18         23
    26          5
    27         29
    28         97
    29         23
    30        999
    31         67
    32          4
    36          3
    38          2
    39         15
    40          4
    41         42
    42         13
    43         14
    44          9
    45         15
    46          3
    52          2
    53          1
    54          5
    55          9
    56         26
    57         16
    58        150
    59          6
    67          1
    68          2
    69          4
    70          7
    71         16
    72          1
    73          7
    74          5
    84          8
    85         12
    86          3
    87          3
    88          1
    97          1
    98          1
    99         21
   100          2
   102          8
   103          2
   104          1
   113          2
   114         16
   115          9
   116          1
   117         15
   118          1
   127          1
   132          1
   142          3
   143          1
   160         18
   161          2