##TITLE=Library Entry 30242
##JCAMP-DX=Revision 4.10 
##DATA TYPE=MASS SPECTRUM
##SAMPLE DESCRIPTION=NIST Mass Spectrometry Data Center
##NAMES=HP
##CAS NAME=Oxypeucedanin
##MOLFORM=C16H14O5
##CAS REGISTRY NO=737-52-0
##MP= -300
##BP= -300
##MW= 286
##$RETENTION INDEX=2501
##$CONDENSED SPECTRUM=NO
##NPOINTS= 106
##XYDATA=(XY..XY) 1 
    26          1
    27         25
    28          4
    29         40
    30          1
    31         50
    37          3
    38         17
    39         58
    40          8
    41        232
    42         18
    43        100
    44          6
    45         23
    49          2
    50         30
    51        100
    52          9
    53         20
    55         58
    56          3
    57        223
    58         10
    59        999
    60         32
    61          7
    62         29
    63         77
    64         10
    65         10
    66         21
    67         26
    68          4
    69         30
    71         13
    74         31
    75         46
    76         10
    77         20
    78          7
    79         25
    80          4
    85        942
    86         62
    87         30
    88         22
    89        132
    90         33
    91          4
    92          3
    93          6
    94          3
    95          6
    98          7
    99          6
   100         11
   101         23
   102          9
   103          4
   104          2
   106          1
   107          5
   108          3
   113          2
   115          9
   116         13
   118         27
   119          6
   128          3
   129         23
   131          7
   135          5
   142          1
   143          2
   144          8
   145        118
   146         21
   147          4
   156          2
   157         22
   158          6
   159          4
   170          1
   171          5
   172          1
   173         55
   174         93
   175         11
   176          1
   185          8
   186          5
   187         13
   188          2
   200          2
   201         56
   202        217
   203         27
   204          4
   228          1
   229          2
   244          4
   245          1
   286        299
   287         53
   288          7