##TITLE=Library Entry 32824
##JCAMP-DX=Revision 4.10 
##DATA TYPE=MASS SPECTRUM
##SAMPLE DESCRIPTION=NIST Mass Spectrometry Data Center
##NAMES=HP
##CAS NAME=cis-13,16-Docasadienoic acid
##MOLFORM=C22H40O2
##CAS REGISTRY NO=7370-49-2
##MP= -300
##BP= -300
##MW= 336
##$RETENTION INDEX=2566
##$CONDENSED SPECTRUM=NO
##NPOINTS= 239
##XYDATA=(XY..XY) 1 
    15          1
    26          2
    27         46
    28         13
    29        112
    30          4
    31          5
    38          2
    39         75
    40         15
    41        493
    42         66
    43        239
    44          8
    45         54
    46          2
    47          1
    50          2
    51          9
    52          8
    53         97
    54        395
    55        820
    56         87
    57        117
    58         11
    59         26
    60        179
    61          9
    62          1
    63          2
    64          2
    65         60
    66         75
    67        999
    68        497
    69        424
    70         53
    71         45
    72          4
    73         87
    74         10
    75          4
    76          1
    77        107
    78         33
    79        353
    80        199
    81        898
    82        809
    83        307
    84         51
    85         29
    86          3
    87         19
    88          1
    89          2
    91         93
    92         18
    93        104
    94         78
    95        701
    96        694
    97        242
    98         43
    99         14
   100          6
   101         16
   102          2
   103          4
   104          4
   105         24
   106          7
   107         45
   108         39
   109        342
   110        336
   111         96
   112         17
   113         14
   114         10
   115         14
   116          4
   117          7
   118          3
   119         15
   120          6
   121         45
   122         30
   123        166
   124        169
   125         45
   126         15
   127         18
   128         15
   129         17
   130          3
   131          8
   132          3
   133         15
   134          6
   135         36
   136         28
   137         84
   138         85
   139         22
   140         12
   141          7
   142          2
   143          5
   144          1
   145          4
   146          2
   147         11
   148          5
   149         22
   150         25
   151         43
   152         39
   153         14
   154         12
   155          5
   156          1
   157          3
   158          1
   159          4
   160          1
   161          8
   162          2
   163         11
   164         15
   165         24
   166         19
   167         14
   168         12
   169          4
   170          1
   171          2
   172          1
   173          5
   174          2
   175          5
   176          2
   177          7
   178          9
   179         13
   180         10
   181         11
   182         11
   183          3
   184          1
   185          3
   186          1
   187          4
   188          1
   189          4
   190          1
   191          4
   192          5
   193          8
   194          7
   195          9
   196         10
   197          2
   198          1
   199          1
   201          3
   202          1
   203          2
   204          1
   205          3
   206          4
   207          5
   208          4
   209          8
   210          9
   211          2
   213          1
   215          1
   217          1
   219          3
   220          3
   221          4
   222          3
   223          6
   224          8
   225          2
   227          1
   229          1
   233          3
   234          3
   235          3
   236          3
   237          5
   238          7
   239          2
   241          1
   243          1
   245          1
   247          3
   248          2
   249          3
   250          2
   251          4
   252          5
   253          1
   261          2
   262          1
   263          2
   264          2
   265          4
   266          3
   267          1
   274          1
   275          1
   276          3
   277          2
   278          2
   279          4
   280          2
   284          1
   289          1
   290          1
   291          2
   292          1
   293          2
   294          1
   302          1
   307          2
   308          1
   318          7
   319          5
   320         10
   321          4
   322          1
   336        115
   337         29
   338          5
   339          1