##TITLE=Library Entry 72164
##JCAMP-DX=Revision 4.10 
##DATA TYPE=MASS SPECTRUM
##SAMPLE DESCRIPTION=Japan AIST/NIMC Database- Spectrum MS-IW-3655
##NAMES=HP
##CAS NAME=2H-Pyran-2-one, tetrahydro-6-octyl-
##MOLFORM=C13H24O2
##CAS REGISTRY NO=7370-92-5
##MP= -300
##BP= -300
##MW= 212
##$RETENTION INDEX=2565
##$CONDENSED SPECTRUM=NO
##NPOINTS= 119
##XYDATA=(XY..XY) 1 
    15          2
    26          2
    27         61
    28         10
    29         81
    30          2
    31          2
    38          1
    39         46
    40          9
    41        212
    42        182
    43        213
    44         12
    45          6
    51          2
    52          1
    53         16
    54         32
    55        273
    56        126
    57         98
    58         14
    59          4
    60         18
    61          2
    65          3
    66          3
    67         44
    68         67
    69        154
    70        290
    71        281
    72         15
    73         28
    74          2
    77          3
    78          1
    79          8
    80          4
    81         42
    82         41
    83         84
    84         68
    85         15
    86         29
    87         11
    88          1
    91          3
    92          1
    93          5
    94          7
    95         29
    96         58
    97         81
    98         81
    99        999
   100         95
   101         20
   102          2
   105          1
   107          3
   108          5
   109         15
   110         39
   111         35
   112         17
   113         19
   114        131
   115         27
   116          5
   119          6
   120          2
   121          3
   122          2
   123         18
   124         18
   125         17
   126          5
   127         13
   128          8
   129          6
   130          3
   133          7
   134         17
   135          3
   136          1
   137         16
   138          9
   139          5
   140          8
   141         30
   142         13
   143          3
   144          1
   147          4
   148          1
   150         48
   151         18
   152         30
   153          6
   155          4
   156          4
   157          1
   161          1
   165          8
   166          4
   169          6
   170          1
   175          1
   176         17
   177          2
   183          4
   184          2
   194         32
   195          5
   211          1
   212          8
   213          1