##TITLE=Library Entry 18449
##JCAMP-DX=Revision 4.10 
##DATA TYPE=MASS SPECTRUM
##SAMPLE DESCRIPTION=T.A.BLAZER DU PONT, GIBBSTOWN, N.J., USA
##NAMES=HP
##CAS NAME=1,3-Cyclobutanedicarbonitrile, trans-
##MOLFORM=C6H6N2
##CAS REGISTRY NO=7371-74-6
##MP= -300
##BP= -300
##MW= 106
##$RETENTION INDEX=0
##$CONDENSED SPECTRUM=NO
##NPOINTS= 39
##XYDATA=(XY..XY) 1 
    15         15
    24          4
    25         21
    26        337
    27        180
    28         88
    29          1
    36          6
    37         44
    38         53
    39         89
    40         31
    41         17
    42          2
    48          2
    49         11
    50         36
    51        123
    52        256
    53        999
    54        825
    55         29
    61          2
    62          6
    63         11
    64         23
    65          5
    66        130
    67          7
    74          1
    75         10
    76         11
    77          5
    78         13
    79         72
    80          7
    91         10
   105         15
   106          6