##TITLE=Library Entry 27060
##JCAMP-DX=Revision 4.10 
##DATA TYPE=MASS SPECTRUM
##SAMPLE DESCRIPTION=J. Klune, Insect Chem. Ecol. Lab., USDA, Beltsville, MD
 20705
##NAMES=HP
##CAS NAME=11-Methylnonacosane
##MOLFORM=C30H62
##CAS REGISTRY NO=7371-99-5
##MP= -300
##BP= -300
##MW= 422
##$RETENTION INDEX=2931
##$CONDENSED SPECTRUM=NO
##NPOINTS= 138
##XYDATA=(XY..XY) 1 
    41        279
    42         86
    43        844
    44         23
    53         11
    54         28
    55        283
    56        194
    57        999
    58         46
    65          2
    66          2
    67         30
    68         38
    69        180
    70        126
    71        719
    72         37
    77          1
    79          3
    80          1
    81         17
    82         56
    83        154
    84         76
    85        548
    86         33
    91          1
    92          0
    95          8
    96         44
    97        161
    98         49
    99        211
   100         14
   105          0
   109          3
   110         23
   111         99
   112         36
   113        130
   114         10
   123          1
   124         13
   125         54
   126         24
   127         69
   128          5
   137          1
   138          9
   139         23
   140        120
   141         55
   142          5
   152          5
   153          8
   154         11
   155         23
   156          2
   166          5
   167          8
   168        891
   169        365
   170         37
   171          2
   180          3
   181          4
   182         24
   183         25
   184          3
   194          2
   195          3
   196         15
   197         18
   198          2
   208          2
   209          2
   210         10
   211         13
   212          2
   222          1
   223          1
   224         13
   225         13
   226          2
   236          0
   237          1
   238          6
   239          7
   240          1
   251          0
   252         92
   253         38
   254          6
   266          5
   267          4
   268          0
   278          0
   279          0
   280        271
   281        235
   282         45
   283          4
   294         10
   295          8
   296          2
   308         10
   309         10
   310          2
   322          7
   323          7
   324          1
   330          0
   336          8
   337         10
   338          2
   350          8
   351         11
   352          3
   364          6
   365         12
   366          3
   378          6
   379         12
   380          3
   392          8
   393         21
   394          6
   395          0
   406          4
   407         28
   408          9
   409          1
   420          1
   421          3
   422         19
   423          6
   424          0