##TITLE=Library Entry 76686
##JCAMP-DX=Revision 4.10 
##DATA TYPE=MASS SPECTRUM
##SAMPLE DESCRIPTION=A.A.Kutin, Moscow, Russia
##NAMES=HP
##CAS NAME=1H-[1,2,4]Triazolo[1',5':2,3][1,2,4]triazino[5,6-b]indole
##MOLFORM=C10H6N6
##CAS REGISTRY NO=73718-33-9
##MP= -300
##BP= -300
##MW= 210
##$RETENTION INDEX=0
##$CONDENSED SPECTRUM=NO
##NPOINTS= 68
##XYDATA=(XY..XY) 1 
    34          1
    37         94
    38        149
    39        179
    40        156
    41         79
    42         25
    43         64
    44         71
    45         11
    50        341
    51        283
    52        169
    53        243
    54         13
    55         29
    56          9
    57         26
    61         45
    62         70
    63         92
    64        110
    65         23
    66          2
    67         11
    68          2
    69         10
    70          6
    71          5
    72          2
    73         29
    74         95
    75        368
    76        471
    77        211
    79          1
    83          3
    84          1
    85          2
    86          8
    87         19
    88         28
    89         15
    90          9
    91         19
    98          1
    99         22
   100         56
   101        254
   102        361
   103        999
   104         60
   105         12
   114          2
   116          4
   126          1
   127         57
   128        464
   129        111
   130          7
   154         30
   155        161
   156         11
   169          1
   182         42
   183          0
   210        623
   211         76