##TITLE=Library Entry 24362
##JCAMP-DX=Revision 4.10 
##DATA TYPE=MASS SPECTRUM
##SAMPLE DESCRIPTION=J. Klune, Insect Chem. Ecol. Lab., USDA, Beltsville, MD
 20705
##NAMES=HP
##CAS NAME=13-Methylnonacosane
##MOLFORM=C30H62
##CAS REGISTRY NO=7371-98-4
##MP= -300
##BP= -300
##MW= 422
##$RETENTION INDEX=2930
##$CONDENSED SPECTRUM=NO
##NPOINTS= 131
##XYDATA=(XY..XY) 1 
    41        281
    42         96
    43        848
    44         24
    51          0
    53         11
    54         28
    55        278
    56        188
    57        999
    58         40
    65          1
    66          2
    67         29
    68         36
    69        177
    70        114
    71        635
    72         32
    77          1
    79          4
    80          1
    81         17
    82         46
    83        141
    84         62
    85        463
    86         28
    91          0
    95          8
    96         36
    97        141
    98         39
    99        159
   100         10
   109          3
   110         20
   111         83
   112         29
   113        101
   114          8
   123          1
   124         12
   125         45
   126         20
   127         66
   128          6
   137          0
   138          9
   139         19
   140         15
   141         48
   142          4
   152          6
   153         11
   154         11
   155         31
   156          3
   166          4
   167          7
   168         98
   169         39
   170          4
   180          2
   181          3
   182          6
   183         13
   184          1
   194          2
   195          3
   196        553
   197        282
   198         34
   199          2
   208          0
   209          1
   210         15
   211         12
   212          2
   222          0
   223          1
   224         93
   225         34
   226          4
   238          7
   239          6
   240          0
   251          0
   252        316
   253        234
   254         40
   255          2
   266         13
   267         11
   268          2
   280         11
   281         10
   282          1
   294          6
   295          6
   296          1
   308          6
   309          7
   310          1
   322          5
   323          6
   324          1
   336          5
   337          6
   338          1
   350          5
   351          8
   352          2
   364          4
   365          8
   366          2
   378          4
   379          9
   380          2
   392          7
   393         17
   394          5
   406          4
   407         26
   408          8
   409          1
   420          1
   421          3
   422         17
   423          5
   424          0