##TITLE=Library Entry 28248
##JCAMP-DX=Revision 4.10 
##DATA TYPE=MASS SPECTRUM
##SAMPLE DESCRIPTION=Chemical Concepts
##NAMES=HP
##CAS NAME=Methyl n-hexadecyl ketone
##MOLFORM=C18H36O
##CAS REGISTRY NO=7373-13-9
##MP= -300
##BP= -300
##MW= 268
##$RETENTION INDEX=2004
##$CONDENSED SPECTRUM=NO
##NPOINTS= 136
##XYDATA=(XY..XY) 1 
    26          1
    27         45
    28          0
    29        132
    30          2
    31          2
    38          0
    39         24
    40          8
    41        237
    42         42
    43        597
    44         12
    45         29
    46          1
    47          0
    52          0
    53          9
    54         21
    55        181
    56         57
    57        186
    58        999
    59        752
    60         27
    61          1
    65          3
    66          2
    67         31
    68         33
    69         86
    70         34
    71        307
    72         25
    73          4
    74          0
    75          0
    77          2
    78          0
    79          4
    80          2
    81         28
    82         79
    83         65
    84         19
    85        108
    86         12
    87          0
    91          0
    93          1
    94          1
    95         33
    96        108
    97         50
    98         15
    99         12
   100         20
   101          2
   105          0
   107          0
   108          0
   109         14
   110         25
   111         26
   112         10
   113         17
   114         14
   115          1
   121          0
   123          9
   124         12
   125         15
   126          6
   127         24
   128          3
   135          0
   136          0
   137          5
   138          9
   139          4
   140          4
   141          3
   142          1
   143          0
   149          0
   151          1
   152          7
   153          4
   154          3
   155          2
   156          2
   157          0
   165          1
   166          8
   167          2
   168          3
   169          4
   170          3
   171          0
   179          1
   180          4
   181          1
   182          4
   183          3
   184          1
   193          0
   194          4
   195          0
   197          1
   198          0
   207          0
   208         25
   209          4
   210         40
   211          7
   212          3
   221          0
   222          0
   224          1
   225          7
   226          3
   227          0
   235          0
   239          5
   240          2
   250         22
   251          4
   252          3
   253         27
   254          4
   255          0
   264          0
   267          1
   268        144
   269         31
   270          2