##TITLE=Library Entry 91005
##JCAMP-DX=Revision 4.10 
##DATA TYPE=MASS SPECTRUM
##SAMPLE DESCRIPTION=F. TURECEK,HEYROVSKY INST PHYS CHEM & ELECTROCHEM,PRAGU
E,CZECH
##NAMES=HP
##CAS NAME=(7S,8R,S) Ethyl 8-ethoxy-cis-bicyclo[4.3.0]-3-nonene-7-carboxylat
e
##MOLFORM=C14H22O3
##CAS REGISTRY NO=73742-02-6
##MP= -300
##BP= -300
##MW= 238
##$RETENTION INDEX=0
##$CONDENSED SPECTRUM=NO
##NPOINTS= 134
##XYDATA=(XY..XY) 1 
    26         70
    27        280
    29        610
    30         30
    31        100
    38         20
    39        200
    40         50
    41        350
    42         40
    43        120
    44         60
    45         70
    46         10
    47         40
    50         30
    51        170
    52         30
    53        120
    54         60
    55        160
    56         30
    57        190
    58         40
    59         30
    60         30
    61         20
    62         10
    63         30
    64         20
    65        130
    66        180
    67        130
    68        210
    69        300
    70         40
    71         60
    72         30
    73        290
    74         30
    75         20
    76         20
    77        230
    78        160
    79        910
    80         90
    81        110
    82         60
    83         90
    84         30
    85        150
    86        730
    87         60
    88         50
    89         20
    90         20
    91        500
    92        280
    93        130
    94         40
    95         70
    96         30
    97         50
    98         30
    99         50
   100         40
   101        480
   102         40
   103         40
   104         70
   105         90
   106         30
   107         50
   108         20
   109         40
   110         70
   111         80
   112         30
   113         40
   114        999
   115        120
   116         40
   117        400
   118        600
   119        880
   120        140
   121         50
   122         20
   123         30
   124         20
   125         30
   127         30
   128         20
   129         30
   130         20
   131         50
   132         20
   133         30
   134         10
   135         60
   136         40
   137         30
   138         50
   145         60
   146        170
   147        120
   148         40
   149         50
   150         20
   151         40
   152         10
   153         30
   163        190
   164        260
   165         60
   166         20
   167         10
   168         30
   178         20
   179         10
   180         10
   181         20
   184         20
   185         10
   186         30
   191         30
   192        380
   193        120
   194         30
   195         20
   210         30
   211         20
   238        190
   239         40