##TITLE=Library Entry 60563
##JCAMP-DX=Revision 4.10 
##DATA TYPE=MASS SPECTRUM
##SAMPLE DESCRIPTION=C.G.VAN DEN HEUVEL,LAB. ORG. CHEM.,AMSTERDAM UNIV.,NETH
ERLAN
##NAMES=HP
##CAS NAME=2-Benzylcyclopentanecarboxylic acid
##MOLFORM=C13H16O2
##CAS REGISTRY NO=73742-04-8
##MP= -300
##BP= -300
##MW= 204
##$RETENTION INDEX=0
##$CONDENSED SPECTRUM=NO
##NPOINTS= 88
##XYDATA=(XY..XY) 1 
    38         60
    39        420
    40        120
    41        470
    42        140
    43        140
    44        470
    45        140
    50         90
    51        200
    52         70
    53        120
    54         30
    55        120
    57         60
    59        110
    60         30
    62         40
    63        120
    64         60
    65        420
    66        150
    67        670
    68        240
    69         50
    71         30
    73        150
    74         80
    75         30
    76         40
    77        200
    78        180
    79        130
    80         70
    81        110
    86         40
    87         20
    89         90
    90         40
    91        999
    92        810
    93        110
    94         90
    95        200
    96         30
    97         20
    99         30
   102         40
   103         70
   104        270
   105        100
   107         40
   111         30
   113        380
   114         50
   115        270
   116         90
   117        560
   118        490
   119         60
   121         40
   124         30
   126         30
   127         50
   128        130
   129        230
   130        210
   131         90
   132         60
   133         20
   141         50
   142         50
   143         60
   144        120
   145         30
   155         30
   156         50
   157        110
   158        500
   159        120
   183         30
   184         50
   185         40
   186        320
   187         60
   202        100
   204        260
   205         40