##TITLE=Library Entry 98927
##JCAMP-DX=Revision 4.10 
##DATA TYPE=MASS SPECTRUM
##SAMPLE DESCRIPTION=F. TURECEK,HEYROVSKY INST PHYS CHEM & ELECTROCHEM,PRAGU
E,CZECH
##NAMES=HP
##CAS NAME=(7R,8R,S) Ethyl 8-ethoxy-trans-bicyclo[4.3.0]-3-nonene-7-carboxyl
ate
##MOLFORM=C14H22O3
##CAS REGISTRY NO=73741-98-7
##MP= -300
##BP= -300
##MW= 238
##$RETENTION INDEX=0
##$CONDENSED SPECTRUM=NO
##NPOINTS= 143
##XYDATA=(XY..XY) 1 
    26         90
    27        360
    29        660
    30         30
    31        110
    38         30
    39        270
    40         60
    41        470
    42         70
    43        220
    44        110
    45         90
    46         20
    47         30
    50         50
    51        440
    52         50
    53        160
    54         60
    55        260
    56         90
    57        400
    58         50
    59         70
    60         40
    61         40
    62         20
    63         60
    64         40
    65        180
    66        160
    67        200
    68         80
    69        920
    70         80
    71        150
    72         50
    73        240
    74         50
    75         40
    76         50
    77        320
    78        140
    79        470
    80         70
    81        200
    82        100
    83        160
    84         60
    85        570
    86        150
    87         40
    88         80
    89         40
    90         30
    91        700
    92        400
    93        210
    94         90
    95        140
    96         70
    97        130
    98         60
    99         90
   100         50
   101        700
   102         60
   103         50
   104        100
   105        130
   106         40
   107        100
   108         50
   109         90
   110         90
   111        170
   112         60
   113         90
   114        160
   115        110
   116         60
   117        320
   118        590
   119        999
   120        200
   121        120
   122         30
   123         60
   124         50
   125         90
   126         30
   127         50
   128         40
   129         70
   130         30
   131        140
   132         20
   133         70
   134         20
   135        110
   136         50
   137         60
   138         70
   139         30
   140         40
   141         70
   142         20
   145         80
   146        130
   147        130
   148         70
   149        170
   150         70
   151         80
   152         30
   153        110
   154         30
   155        100
   156         20
   163        550
   164        160
   165         60
   166         30
   168         10
   169         90
   170         20
   181         70
   182         20
   183         40
   184         70
   185         50
   186         10
   191         50
   192        360
   193        140
   194         90
   195         50
   210        140
   211         60
   212         20
   238        130
   239         30