##TITLE=Library Entry 53714
##JCAMP-DX=Revision 4.10 
##DATA TYPE=MASS SPECTRUM
##SAMPLE DESCRIPTION=ASES Database, Dalian Institute, P.R. China
##NAMES=HP
##CAS NAME=2-Cyclohexen-1-ol, 2,4,4-trimethyl-
##MOLFORM=C9H16O
##CAS REGISTRY NO=73741-61-4
##MP= -300
##BP= -300
##MW= 140
##$RETENTION INDEX=0
##$CONDENSED SPECTRUM=NO
##NPOINTS= 50
##XYDATA=(XY..XY) 1 
    41        206
    43        579
    53         65
    55        150
    58          5
    59         11
    63          9
    65         36
    66         16
    67         64
    68         12
    69        325
    70         34
    71         21
    72          8
    74          5
    77         54
    78         10
    79         73
    80         10
    81        189
    82         51
    83         80
    84        999
    85         80
    86          4
    91        112
    92         16
    93         25
    94          6
    95         32
    96         65
    97         59
    98         34
   105         29
   106          4
   107        239
   108         26
   109         18
   110          6
   111         15
   112         11
   121          5
   122         40
   123         15
   125        308
   126         29
   139          4
   140        346
   141         34