##TITLE=Library Entry 28009
##JCAMP-DX=Revision 4.10 
##DATA TYPE=MASS SPECTRUM
##SAMPLE DESCRIPTION=P.A. Leclercq, Lab. Instrum. Anal., Eindhoven Univ. Tec
hnol., Netherlands
##NAMES=HP
##CAS NAME=1,3,5-Triazin-2(1H)-one, 4,6-bis[(1-methylethyl)amino]-
##MOLFORM=C9H17N5O
##CAS REGISTRY NO=7374-53-0
##MP= -300
##BP= -300
##MW= 211
##$RETENTION INDEX=0
##$CONDENSED SPECTRUM=NO
##NPOINTS= 95
##XYDATA=(XY..XY) 1 
    41        401
    42        385
    43        922
    44        539
    45         22
    50          5
    51         12
    52         10
    53         23
    54         29
    55         69
    56         59
    57        100
    58        999
    59         80
    60         16
    67         52
    68        156
    69        482
    70        136
    71         28
    72          4
    73         21
    77         17
    78         10
    79         12
    80          6
    81         18
    82         24
    83         91
    84        139
    85        133
    86        312
    87         21
    89          1
    90          3
    91         38
    92          4
    93          8
    94         31
    95         45
    96         20
    97         20
    98         35
    99         40
   100          9
   108          9
   109         32
   110         24
   111        209
   112        857
   113         75
   114          6
   115          6
   121          6
   122          6
   123         11
   124         14
   125         25
   126        140
   127        322
   128        130
   129         14
   135          4
   136          4
   137         25
   138         10
   139         36
   140         10
   141         62
   142          5
   151          7
   152         24
   153         51
   154        486
   155         55
   156          4
   166         17
   167         10
   168         65
   169        464
   170         40
   171          5
   180         13
   183          6
   194         15
   195          5
   196        580
   197         64
   198          4
   209          9
   210         39
   211        482
   212         58
   213          5