##TITLE=Library Entry 54283
##JCAMP-DX=Revision 4.10 
##DATA TYPE=MASS SPECTRUM
##SAMPLE DESCRIPTION=ASES Database, Dalian Institute, P.R. China
##NAMES=HP
##CAS NAME=1-Methoxy-4,4-dimethyl-cyclohex-1-ene
##MOLFORM=C9H16O
##CAS REGISTRY NO=73741-65-8
##MP= -300
##BP= -300
##MW= 140
##$RETENTION INDEX=0
##$CONDENSED SPECTRUM=NO
##NPOINTS= 50
##XYDATA=(XY..XY) 1 
    39        111
    41        163
    43         84
    45         31
    50          5
    51         18
    52         12
    53         58
    54        152
    55         87
    56         16
    57         10
    59          7
    63          5
    65         19
    66          7
    67         37
    68         10
    69         60
    70          4
    71          8
    72          5
    77         38
    78         10
    79         27
    80          5
    81         17
    82         13
    83        137
    84        999
    85         68
    86          7
    91         27
    93         28
    94          6
    95          9
    97         22
    98          5
   107          8
   108         13
   109         12
   110          5
   111         49
   112          7
   123          6
   125        122
   126         11
   139          5
   140        199
   141         20