##TITLE=Library Entry 43237
##JCAMP-DX=Revision 4.10 
##DATA TYPE=MASS SPECTRUM
##SAMPLE DESCRIPTION=TNO Volatile Compounds in Food - Chemical Concepts
##NAMES=HP
##CAS NAME=D-Lyxose, 4TMS derivative
##MOLFORM=C17H42O5Si4
##CAS REGISTRY NO=73745-85-4
##MP= -300
##BP= -300
##MW= 438
##$RETENTION INDEX=0
##$CONDENSED SPECTRUM=NO
##NPOINTS= 95
##XYDATA=(XY..XY) 1 
    60          3
    61          8
    66          8
    67          2
    69         47
    70          4
    71          7
    72         11
    73        999
    74         81
    75        112
    76          4
    77         10
    79          3
    81          0
    85          1
    86          7
    87          0
    88          1
    89          4
    91          1
    95          0
    96          0
    97          5
    99          2
   100          0
   101         34
   102          4
   103         50
   104          3
   105          3
   113          1
   115         13
   116         28
   117         19
   118          2
   119          3
   127          1
   129         44
   130          2
   131         18
   132          1
   133         53
   134          6
   135          2
   141          0
   142          0
   143         11
   144          0
   145          2
   147        166
   148         24
   149         15
   150          2
   151          0
   157          3
   161          1
   169          6
   175          2
   177          2
   189         57
   190          8
   191        251
   192         33
   193         19
   194          1
   203          4
   204        487
   205        104
   206         37
   207         12
   209          0
   215          9
   217        247
   218         43
   219         24
   220          2
   221         10
   230          1
   231          7
   232          1
   243          4
   244          1
   259          7
   260          1
   265          4
   279          2
   281          2
   291          5
   305         13
   306          2
   307          1
   333          6
   334          0
   335          0