##TITLE=Library Entry 28215
##JCAMP-DX=Revision 4.10 
##DATA TYPE=MASS SPECTRUM
##SAMPLE DESCRIPTION=A.A.Kutin, Moscow, Russia
##NAMES=HP
##CAS NAME=Oxane-4-methanamine, 4-(3,4-dimethoxyphenyl)-N-ethyl-
##MOLFORM=C16H25NO3
##CAS REGISTRY NO=73751-24-3
##MP= -300
##BP= -300
##MW= 279
##$RETENTION INDEX=0
##$CONDENSED SPECTRUM=NO
##NPOINTS= 137
##XYDATA=(XY..XY) 1 
    33          8
    34         10
    35         53
    36        133
    37         16
    38         56
    39         57
    40         88
    41         45
    42         26
    43         45
    44         47
    45          8
    50         11
    51         31
    52         16
    53         28
    54         11
    55         42
    56         49
    57        258
    58        999
    59         32
    62          3
    63         13
    64          7
    65         25
    66          5
    67          8
    68          2
    69          9
    70          6
    71          5
    72          2
    74          0
    75          4
    76         15
    77         55
    78         24
    79         24
    80          3
    81          4
    82         19
    83         90
    84          7
    86          2
    88          2
    89         20
    90         18
    91         53
    92          7
    93          2
    94          2
    95          6
    97          0
   102         16
   103         24
   104         11
   105         22
   106          9
   107         13
   108          3
   109          1
   112          0
   114          3
   115         32
   116         14
   117         24
   118         14
   119         17
   120          7
   121         13
   122          1
   123          2
   124          2
   127          6
   128         13
   129         11
   130          8
   131         16
   132         13
   133         22
   134          5
   135          5
   136          2
   137          5
   138          6
   139          3
   143          2
   144          9
   145         22
   146         18
   147         21
   148         10
   149         12
   150         17
   151         83
   152          8
   157          1
   158          5
   159         25
   160         64
   161         29
   162         32
   163        115
   164         20
   165         23
   166          0
   171          3
   172          5
   173          2
   174          3
   175          8
   176         20
   177         49
   178          9
   179          2
   188          6
   189         14
   190         20
   191         60
   192         13
   193         15
   202          0
   203          9
   204          0
   205          0
   218          1
   219         12
   220         78
   221        248
   222        132
   223         16
   224          4
   247          0
   251         15
   279          0