##TITLE=Library Entry 34905
##JCAMP-DX=Revision 4.10 
##DATA TYPE=MASS SPECTRUM
##SAMPLE DESCRIPTION=NIST Mass Spectrometry Data Center
##NAMES=HP
##CAS NAME=Crotyl methacrylate
##MOLFORM=C8H12O2
##CAS REGISTRY NO=7376-45-6
##MP= -300
##BP= -300
##MW= 140
##$RETENTION INDEX=0
##$CONDENSED SPECTRUM=NO
##NPOINTS= 66
##XYDATA=(XY..XY) 1 
    15         11
    25          1
    26         25
    27        182
    29        186
    30          4
    31          9
    37         17
    38         52
    39        637
    40         92
    41        890
    42         66
    43         74
    44          8
    45         13
    49          2
    50         19
    51         29
    52         16
    53        129
    54        162
    55        914
    56         48
    57         23
    58          3
    59         21
    65          1
    66          1
    67         38
    68         12
    69        999
    70         88
    71        151
    72          6
    74          1
    77          2
    79         25
    80          4
    81         17
    82          7
    83         10
    84         20
    85          2
    86          3
    87         30
    88          1
    91          1
    93         11
    94         19
    95        368
    96         33
    97         18
    98         38
    99          4
   107          5
   111        358
   112         40
   113          3
   122          9
   123          2
   125         18
   126          1
   139          1
   140         11
   141          1