##TITLE=Library Entry 26653
##JCAMP-DX=Revision 4.10 
##DATA TYPE=MASS SPECTRUM
##SAMPLE DESCRIPTION=Japan AIST/NIMC Database- Spectrum MS-IW-3660
##NAMES=HP
##CAS NAME=Octanamide, N-hydroxy-
##MOLFORM=C8H17NO2
##CAS REGISTRY NO=7377-03-9
##MP= -300
##BP= -300
##MW= 159
##$RETENTION INDEX=0
##$CONDENSED SPECTRUM=NO
##NPOINTS= 85
##XYDATA=(XY..XY) 1 
    15          7
    17          7
    18         29
    26          6
    27        125
    28         53
    29        200
    30          9
    31          4
    32         20
    33          4
    34          1
    38          2
    39         82
    40         17
    41        357
    42         80
    43        514
    44         30
    45          5
    46          5
    48          1
    50          1
    51          4
    52          2
    53         18
    54         11
    55        175
    56         30
    57        999
    58         61
    59         67
    60         26
    61          1
    65          2
    66          1
    67         52
    68          6
    69         26
    70         10
    71         21
    72         11
    73          3
    74          2
    75        194
    76          6
    77          2
    79          2
    80          1
    81          9
    82          9
    83         29
    84         15
    85          9
    86          4
    87          1
    88         34
    89          4
    95          1
    96          3
    97          7
    98          9
    99          7
   100          2
   102         10
   107          1
   109         94
   110          9
   111          1
   112          2
   113          1
   114          1
   116          2
   117          1
   125          2
   126          5
   127        869
   128         76
   129          5
   130          1
   141          3
   143          1
   158          1
   159          4
   160          3