##TITLE=Library Entry 22058
##JCAMP-DX=Revision 4.10 
##DATA TYPE=MASS SPECTRUM
##SAMPLE DESCRIPTION=Chemical Concepts
##NAMES=HP
##CAS NAME=Propanedinitrile, (cyclohexylmethylene)-
##MOLFORM=C10H12N2
##CAS REGISTRY NO=73776-46-2
##MP= -300
##BP= -300
##MW= 160
##$RETENTION INDEX=0
##$CONDENSED SPECTRUM=NO
##NPOINTS= 114
##XYDATA=(XY..XY) 1 
    24          0
    25          3
    26         53
    27        338
    28        153
    29        160
    30         13
    36          0
    37         15
    38         36
    39        401
    40         95
    41        907
    42        107
    43        160
    44          6
    45          0
    46          1
    47          1
    48          0
    49          2
    50         53
    51        106
    52         77
    53         90
    54        120
    55        311
    56        999
    57         54
    58          1
    61          5
    62         18
    63         71
    64         88
    65         69
    66         40
    67        618
    68        104
    69        577
    70         29
    71          1
    72          0
    73          1
    74          3
    75         28
    76         64
    77        143
    78         95
    79         82
    80         85
    81        122
    82        310
    83         25
    84          1
    86          1
    87          3
    88         12
    89         18
    90         58
    91        186
    92        179
    93         77
    94         77
    95         53
    96          4
    97          0
    99          1
   100          2
   101          5
   102         15
   103         21
   104         70
   105        272
   106        148
   107         65
   108         10
   109          1
   111          0
   113          0
   114          2
   115         11
   116         17
   117         24
   118        112
   119        100
   120         84
   121          6
   127          1
   128          8
   129          6
   130          7
   131         95
   132        254
   133         93
   134         14
   135          1
   138          0
   140          1
   141          0
   142         14
   143         21
   144         10
   145        197
   146         22
   147          0
   154          0
   155          1
   156          0
   157          4
   158          2
   159        156
   160        155
   161         18
   162          1