##TITLE=Library Entry 27772
##JCAMP-DX=Revision 4.10 
##DATA TYPE=MASS SPECTRUM
##SAMPLE DESCRIPTION=NIST Mass Spectrometry Data Center
##NAMES=HP
##CAS NAME=N,N-Dimethyloctylamine
##MOLFORM=C10H23N
##CAS REGISTRY NO=7378-99-6
##MP= -300
##BP= -300
##MW= 157
##$RETENTION INDEX=1099
##$CONDENSED SPECTRUM=NO
##NPOINTS= 37
##XYDATA=(XY..XY) 1 
    15         19
    18          7
    27         46
    28         24
    29         65
    30         44
    39         30
    41         77
    42         98
    43         45
    44         34
    45         17
    46          7
    51          1
    52          1
    53          5
    54          4
    55         20
    56         22
    58        999
    59         44
    67          2
    68          2
    69          5
    70          8
    71          8
    72          6
    82          1
    84          8
    98          1
   100          1
   114          3
   128          1
   142          1
   156          4
   157         28
   158          3