##TITLE=Library Entry 100315
##JCAMP-DX=Revision 4.10 
##DATA TYPE=MASS SPECTRUM
##SAMPLE DESCRIPTION=Chemical Concepts
##NAMES=HP
##CAS NAME=Benzene, 1-(bromomethyl)-4-(1-methylethyl)-
##MOLFORM=C10H13Br
##CAS REGISTRY NO=73789-86-3
##MP= -300
##BP= -300
##MW= 212
##$RETENTION INDEX=0
##$CONDENSED SPECTRUM=NO
##NPOINTS= 51
##XYDATA=(XY..XY) 1 
    26         14
    27         43
    28         15
    29         22
    38         21
    39        140
    40         20
    41         73
    42         13
    43         16
    50         35
    51         75
    52         26
    53         27
    58         28
    62         21
    63         93
    65        110
    66         16
    76         15
    77        134
    78         54
    79         76
    80         59
    81         23
    82         62
    89         49
    91        325
    92         51
    93         49
   102         34
   103         66
   104         45
   105        186
   106         33
   115        141
   116         48
   117        289
   118        137
   119        999
   120         90
   128         13
   131         31
   132         26
   133        554
   134        313
   135         39
   212         38
   213          3
   214         41
   215          3