##TITLE=Library Entry 97990
##JCAMP-DX=Revision 4.10 
##DATA TYPE=MASS SPECTRUM
##SAMPLE DESCRIPTION=C.G.VAN DEN HEUVEL,LAB. ORG. CHEM.,AMSTERDAM UNIV.,NETH
ERLAN-
##NAMES=HP
##CAS NAME=7-Phenylbicyclo[3.2.0]heptan-6-one
##MOLFORM=C13H14O
##CAS REGISTRY NO=73788-97-3
##MP= -300
##BP= -300
##MW= 186
##$RETENTION INDEX=0
##$CONDENSED SPECTRUM=NO
##NPOINTS= 84
##XYDATA=(XY..XY) 1 
    38         30
    39        200
    40         40
    41        160
    42         20
    43         60
    44         40
    45        140
    46         80
    47         40
    50         60
    51        140
    52         40
    53         60
    55         80
    57         40
    62         30
    63        100
    64         50
    65        150
    66        140
    67        500
    68        100
    69         40
    70         20
    73         30
    74         20
    75         60
    76         30
    77        190
    78         80
    79        100
    80        100
    81         40
    82         20
    83         30
    84         40
    85         20
    89        150
    90        300
    91        700
    92        260
    93         30
    94         30
    95         40
    96         20
    97         90
   102         30
   103        110
   104        130
   105        160
   106         30
   107        110
   115        260
   116         80
   117        410
   118        999
   119        110
   120         50
   122         50
   123         20
   125         90
   127         50
   128        130
   129        370
   130        410
   131         70
   132         20
   136         30
   141         30
   142         30
   143        100
   144         40
   148         40
   151         30
   155         20
   157         50
   158        470
   159         70
   170         40
   171         30
   172         20
   186        130
   187         20