##TITLE=Library Entry 8808
##JCAMP-DX=Revision 4.10 
##DATA TYPE=MASS SPECTRUM
##SAMPLE DESCRIPTION=Japan AIST/NIMC Database- Spectrum MS-NW-3143
##NAMES=HP
##CAS NAME=3-Hexanone, 2-methyl-
##MOLFORM=C7H14O
##CAS REGISTRY NO=7379-12-6
##MP= -300
##BP= -300
##MW= 114
##$RETENTION INDEX=784
##$CONDENSED SPECTRUM=NO
##NPOINTS= 41
##XYDATA=(XY..XY) 1 
    14          1
    15          9
    18          1
    26          7
    27        112
    28         12
    29         13
    31          2
    32          1
    37          2
    38          5
    39         57
    40          9
    41        155
    42         32
    43        999
    44         32
    45          2
    50          1
    51          2
    53          5
    55         19
    56          3
    57          7
    58          3
    59          1
    60          2
    67          3
    69          3
    70         35
    71        666
    72         32
    73          7
    81          1
    83          1
    85          1
    86          3
    99          5
   114        148
   115         11
   116          1