##TITLE=Library Entry 45152
##JCAMP-DX=Revision 4.10 
##DATA TYPE=MASS SPECTRUM
##SAMPLE DESCRIPTION=Exported from NIST MS Search
##NAMES=HP
##CAS NAME=Ethane, 1,1-bis(methylthio)-
##MOLFORM=C4H10S2
##CAS REGISTRY NO=7379-30-8
##MP= -300
##BP= -300
##MW= 122
##$RETENTION INDEX=952
##$CONDENSED SPECTRUM=NO
##NPOINTS= 74
##XYDATA=(XY..XY) 1 
    12          6
    13         10
    14         24
    15         75
    16          2
    18          1
    24          1
    25          3
    26         24
    27         95
    28          8
    29         27
    30          1
    32         13
    33          9
    34          8
    35          7
    36          1
    37          1
    38          1
    39         14
    40          2
    41        261
    42          9
    43          1
    44         14
    45        254
    46         85
    47        312
    48         30
    49        120
    50          3
    51          5
    56          2
    57         19
    58         67
    59        219
    60         62
    61         26
    62          3
    63          4
    64          9
    65          1
    66          1
    68          1
    69          2
    71          3
    72          1
    73         13
    74         32
    75        999
    76         49
    77         48
    78          3
    79         25
    80          1
    81          3
    88          1
    89          1
    90          1
    91          4
    92          5
    93          1
    94          1
   106          1
   107         17
   108          1
   109          2
   121          1
   122        268
   123         17
   124         24
   125          1
   126          1