##TITLE=Library Entry 19395
##JCAMP-DX=Revision 4.10 
##DATA TYPE=MASS SPECTRUM
##SAMPLE DESCRIPTION=Chemical Concepts
##NAMES=HP
##CAS NAME=Hexanoic acid, 4-methylene-, methyl ester
##MOLFORM=C8H14O2
##CAS REGISTRY NO=73805-48-8
##MP= -300
##BP= -300
##MW= 142
##$RETENTION INDEX=1345
##$CONDENSED SPECTRUM=NO
##NPOINTS= 86
##XYDATA=(XY..XY) 1 
    26         34
    27        363
    28         41
    29        214
    30         10
    31         28
    33          6
    34          4
    36          0
    37          6
    38         20
    39        306
    40         68
    41        667
    42         78
    43        272
    44         11
    45         36
    46          0
    47          0
    48          1
    49          3
    50         28
    51         55
    52         29
    53        169
    54        107
    55        999
    56         67
    57         25
    58          4
    59        154
    60          5
    61          4
    62          4
    63          8
    64          1
    65         30
    66         15
    67        482
    68        144
    69        332
    70         23
    71         34
    72          4
    73          2
    74        440
    75         17
    76          1
    77         11
    78          2
    79         25
    80          4
    81         89
    82        531
    83        296
    84         18
    85         61
    86          6
    87         42
    88          6
    91          1
    93          5
    94          0
    95         63
    96          3
    97          2
    98          0
    99         11
   100          4
   101          0
   107          0
   108          0
   109         10
   110        390
   111        185
   112         12
   113         18
   114          3
   125          3
   127         49
   128          3
   141          0
   142         99
   143          9
   144          0