##TITLE=Library Entry 44756
##JCAMP-DX=Revision 4.10 
##DATA TYPE=MASS SPECTRUM
##SAMPLE DESCRIPTION=Institute of Chemistry, SAS, Bratislava, Slovakia
##NAMES=HP
##CAS NAME=Methyl-2-O-methyl.beta.l-arabinopyranoside
##MOLFORM=C7H14O5
##CAS REGISTRY NO=7381-11-5
##MP= -300
##BP= -300
##MW= 178
##$RETENTION INDEX=0
##$CONDENSED SPECTRUM=NO
##NPOINTS= 23
##XYDATA=(XY..XY) 1 
    45        253
    55         22
    57         56
    58         26
    59        184
    60        138
    61        153
    69         30
    71         42
    73         92
    74        999
    85        176
    87        628
    88        184
   100         15
   101         15
   103          7
   114         17
   115         13
   129         12
   130         15
   147         19
   148          2