##TITLE=Library Entry 64946
##JCAMP-DX=Revision 4.10 
##DATA TYPE=MASS SPECTRUM
##SAMPLE DESCRIPTION=W.E. FRANKLIN, SOUTH. REG. RES. CENT., NEW ORLEANS, LA.
, USA
##NAMES=HP
##CAS NAME=2-Hydroxyethyl hydrogen vinylphosphonate
##MOLFORM=C4H9O4P
##CAS REGISTRY NO=73817-41-1
##MP= -300
##BP= -300
##MW= 152
##$RETENTION INDEX=0
##$CONDENSED SPECTRUM=NO
##NPOINTS= 59
##XYDATA=(XY..XY) 1 
    14         13
    15        255
    19         14
    26         11
    27         98
    29        311
    30         36
    31        863
    32        379
    33        119
    41         41
    42         32
    43        189
    45        227
    46          9
    47        700
    48         67
    49         54
    50         91
    52         13
    57         30
    58        109
    61         18
    62        615
    63        279
    64        110
    65        133
    70         69
    71         20
    74         86
    75          7
    77        747
    78         90
    79        453
    80        129
    81        483
    82         42
    83          9
    85          7
    91        252
    92        999
    93        196
    94        166
    95         29
    96        822
    97         43
   104        114
   107        127
   108        105
   109         16
   111         39
   121        217
   122        161
   123         61
   124         36
   135          7
   136          0
   137          3
   152          0