##TITLE=Library Entry 44781
##JCAMP-DX=Revision 4.10 
##DATA TYPE=MASS SPECTRUM
##SAMPLE DESCRIPTION=Institute of Organic Chemistry, Novosibirsk, USSR 1988
##NAMES=HP
##CAS NAME=Methyl 2-O-methyl-.beta.-D-xylopyranoside
##MOLFORM=C7H14O5
##CAS REGISTRY NO=7381-12-6
##MP= -300
##BP= -300
##MW= 178
##$RETENTION INDEX=0
##$CONDENSED SPECTRUM=NO
##NPOINTS= 27
##XYDATA=(XY..XY) 1 
    52         13
    55         18
    57         48
    58         32
    59        161
    60        122
    61         97
    69         37
    71         37
    72         16
    73         48
    74        999
    75         54
    79         13
    85         73
    86         13
    87        583
    88        161
    89         10
   100         24
   101         16
   103         13
   111         29
   115          5
   129         16
   130         18
   147         18