##TITLE=Library Entry 79147
##JCAMP-DX=Revision 4.10 
##DATA TYPE=MASS SPECTRUM
##SAMPLE DESCRIPTION=Japan AIST/NIMC Database- Spectrum MS-IW-7991
##NAMES=HP
##CAS NAME=2-Oxobicyclo(3.2.2)nona-3,6-dien-1-yl benzoate
##MOLFORM=C16H14O3
##CAS REGISTRY NO=73830-87-2
##MP= -300
##BP= -300
##MW= 254
##$RETENTION INDEX=0
##$CONDENSED SPECTRUM=NO
##NPOINTS= 29
##XYDATA=(XY..XY) 1 
    27          5
    28          2
    39          9
    40          1
    41          3
    50          5
    51         24
    52          2
    53          2
    55          8
    63          1
    65          8
    66          1
    74          1
    75          1
    76          5
    77        170
    78         12
    79          2
    91          3
    93          2
   103          1
   104          2
   105        999
   106         78
   107          5
   121          1
   254         17
   255          3