##TITLE=Library Entry 91108
##JCAMP-DX=Revision 4.10 
##DATA TYPE=MASS SPECTRUM
##SAMPLE DESCRIPTION=CBDCOM/ERDEC, Edgewood, MD
##NAMES=HP
##CAS NAME=Morpholinophosphoramidic difluoride
##MOLFORM=C4H8F2NO2P
##CAS REGISTRY NO=73835-19-5
##MP= -300
##BP= -300
##MW= 171
##$RETENTION INDEX=0
##$CONDENSED SPECTRUM=NO
##NPOINTS= 48
##XYDATA=(XY..XY) 1 
    15         99
    27        199
    28        399
    29        119
    30         39
    31         29
    39         49
    40        119
    41        349
    42        129
    43         49
    44         19
    54         49
    55        199
    56        349
    57         59
    58        199
    67         14
    68         14
    69         54
    85        139
    86        139
    87         11
    94          9
    96         15
    97         29
   101         22
   110          9
   112        249
   113         99
   114        999
   115         24
   116          3
   123          6
   126         19
   127        279
   128        999
   129         39
   140         49
   141        249
   142         13
   152          3
   156         29
   169          2
   170         29
   171        249
   172         39
   173          4