##TITLE=Library Entry 18983
##JCAMP-DX=Revision 4.10 
##DATA TYPE=MASS SPECTRUM
##SAMPLE DESCRIPTION=Japan AIST/NIMC Database- Spectrum MS-NW-3003
##NAMES=HP
##CAS NAME=1-Heptyn-3-ol
##MOLFORM=C7H12O
##CAS REGISTRY NO=7383-19-9
##MP= -300
##BP= -300
##MW= 112
##$RETENTION INDEX=0
##$CONDENSED SPECTRUM=NO
##NPOINTS= 74
##XYDATA=(XY..XY) 1 
    14          3
    15         17
    16          2
    17          2
    18          7
    25          5
    26         43
    27        278
    28         58
    29        587
    30         14
    31         18
    32          4
    36          1
    37          9
    38         28
    39        192
    40         37
    41        589
    42         99
    43         93
    44         91
    45         20
    49          3
    50         22
    51         40
    52         54
    53         76
    54         19
    55        999
    56        265
    57        446
    58         51
    59          5
    60          8
    61          3
    62          6
    63         10
    64          3
    65         33
    66         17
    67         40
    68         99
    69         75
    70        380
    71         33
    72          2
    73          3
    74          2
    75          1
    77         46
    78          8
    79        277
    80         18
    81         33
    82          6
    83        302
    84         63
    85         10
    86          3
    87          1
    91         16
    92          2
    93         40
    94         11
    95         10
    96          1
    97         66
    98          5
   107          1
   109          5
   110          1
   111         18
   112          2