##TITLE=Library Entry 61444
##JCAMP-DX=Revision 4.10 
##DATA TYPE=MASS SPECTRUM
##SAMPLE DESCRIPTION=Chemical Concepts
##NAMES=HP
##CAS NAME=Benzenepropanol, .beta.-methyl-
##MOLFORM=C10H14O
##CAS REGISTRY NO=7384-80-7
##MP= -300
##BP= -300
##MW= 150
##$RETENTION INDEX=0
##$CONDENSED SPECTRUM=NO
##NPOINTS= 109
##XYDATA=(XY..XY) 1 
    25          7
    26         58
    28          9
    29         50
    30          6
    31        168
    33          1
    36          0
    37          3
    38         18
    39        168
    40         20
    41        143
    42         13
    43         41
    44          4
    45          6
    49          1
    50         48
    51        105
    52         36
    53         24
    54         17
    55         18
    56          2
    57         28
    58         27
    59         67
    60          3
    61          4
    62         22
    63         85
    64         22
    65        161
    66         17
    67          8
    68         10
    69          6
    70          2
    71         11
    72          4
    73          2
    74         16
    75         18
    76         20
    77        119
    78        108
    79         61
    80         12
    81         16
    82          5
    83          3
    84          2
    85          4
    86          5
    87          7
    88          4
    89         71
    90         33
    91        999
    92        587
    93         69
    94          6
    95          5
    96          1
    97          2
    98          1
    99          1
   100          0
   101          3
   102         22
   103         66
   104         89
   105         37
   106          5
   107         34
   108         33
   109          5
   110          1
   111          3
   112          1
   113          4
   114          4
   115        106
   116         41
   117        660
   118         90
   119         53
   120          8
   121          5
   122          1
   123          2
   124          0
   125          1
   126          1
   127          4
   128          6
   129          7
   130          3
   131         68
   132        227
   133         37
   134          7
   135          4
   148          2
   149          2
   150        316
   151         55
   152          6