##TITLE=Library Entry 42097
##JCAMP-DX=Revision 4.10 
##DATA TYPE=MASS SPECTRUM
##SAMPLE DESCRIPTION=Exported from NIST MS Search
##NAMES=HP
##CAS NAME=Mannopyranoside, methyl 2-acetamido-2-deoxy-3,4,6-tri-O-methyl-,
 .beta.-D-
##MOLFORM=C12H23NO6
##CAS REGISTRY NO=7384-32-9
##MP= -300
##BP= -300
##MW= 277
##$RETENTION INDEX=0
##$CONDENSED SPECTRUM=NO
##NPOINTS= 20
##XYDATA=(XY..XY) 1 
    43        255
    45        335
    58        121
    71        345
    73        999
    75        558
    86        165
    88        228
   101        207
   102        164
   115        707
   128        260
   168         74
   172         20
   185         17
   200         24
   203         41
   214         13
   232          8
   246          7