##TITLE=Library Entry 22326
##JCAMP-DX=Revision 4.10 
##DATA TYPE=MASS SPECTRUM
##SAMPLE DESCRIPTION=Exported from NIST MS Search
##NAMES=HP
##CAS NAME=1-Pentene, 3,4-dimethyl-
##MOLFORM=C7H14
##CAS REGISTRY NO=7385-78-6
##MP= -300
##BP= -300
##MW= 98
##$RETENTION INDEX=638
##$CONDENSED SPECTRUM=NO
##NPOINTS= 66
##XYDATA=(XY..XY) 1 
    12          2
    13          4
    14         17
    15        129
    16          6
    25          2
    26         50
    27        583
    28        113
    29        267
    30          6
    31          1
    32          1
    36          1
    37         13
    38         39
    39        425
    40         67
    41        725
    42         94
    43        739
    44         24
    45          1
    46          1
    49          4
    50         36
    51         58
    52         22
    53        118
    54        122
    55        825
    56        999
    57         61
    58          2
    60          1
    61          2
    62          5
    63         11
    64          2
    65         18
    66          9
    67         51
    68         12
    69         98
    70        593
    71         35
    72          1
    73          1
    74          2
    75          1
    76          1
    77          9
    78          2
    79          8
    80          2
    81         10
    82          2
    83        120
    84          8
    85          1
    91          1
    95          1
    96          1
    97          5
    98          8
    99          1