##TITLE=Library Entry 22327
##JCAMP-DX=Revision 4.10 
##DATA TYPE=MASS SPECTRUM
##SAMPLE DESCRIPTION=Exported from NIST MS Search
##NAMES=HP
##CAS NAME=2-Hexene, 5-methyl-, (E)-
##MOLFORM=C7H14
##CAS REGISTRY NO=7385-82-2
##MP= -300
##BP= -300
##MW= 98
##$RETENTION INDEX=660
##$CONDENSED SPECTRUM=NO
##NPOINTS= 77
##XYDATA=(XY..XY) 1 
    12          1
    13          3
    14          9
    15         85
    16          4
    19          1
    20          1
    24          1
    25          1
    26         36
    27        433
    28         74
    29        225
    30          5
    31          1
    36          1
    37          9
    38         28
    39        328
    40         51
    41        622
    42         71
    43        789
    44         26
    45          1
    46          1
    47          1
    48          1
    49          2
    50         31
    51         49
    52         21
    53         91
    54        135
    55        821
    56        999
    57         89
    58          3
    59          1
    60          1
    61          2
    62          4
    63          9
    64          1
    65         14
    66          7
    67         40
    68         13
    69        195
    70        143
    71          8
    72          1
    73          1
    74          2
    75          1
    76          1
    77         12
    78          2
    79          9
    80          1
    81         15
    82          3
    83         67
    84          4
    85          1
    86          1
    87          1
    89          1
    91          1
    92          1
    93          1
    95          1
    96          1
    97          8
    98        141
    99         11
   100          1