##TITLE=Library Entry 62857
##JCAMP-DX=Revision 4.10 
##DATA TYPE=MASS SPECTRUM
##SAMPLE DESCRIPTION=Japan AIST/NIMC Database- Spectrum MS-IW-2790
##NAMES=HP
##CAS NAME=5-Methyl-3-phenyl-1,3-oxazolidine
##MOLFORM=C10H13NO
##CAS REGISTRY NO=73861-82-2
##MP= -300
##BP= -300
##MW= 163
##$RETENTION INDEX=0
##$CONDENSED SPECTRUM=NO
##NPOINTS= 90
##XYDATA=(XY..XY) 1 
    15          5
    26          3
    27         22
    28         17
    29         14
    30          4
    31          9
    37          4
    38         12
    39         64
    40         10
    41         51
    42         53
    43         12
    44          4
    45          1
    49          1
    50         32
    51        129
    52         24
    53          5
    54          5
    55          6
    56         19
    57          6
    58         11
    59          7
    60          9
    61          2
    62          6
    63         30
    64         25
    65         69
    66         19
    67          3
    68          1
    70          1
    73          2
    74         18
    75          9
    76         17
    77        440
    78         50
    79         22
    80          2
    81          3
    87          1
    88          1
    89          8
    90         18
    91        999
    92        113
    93         32
    94          9
    95          1
   102          2
   103         11
   104        301
   105         74
   106         52
   107          5
   115          7
   116          6
   117         66
   118        199
   119        467
   120        159
   121         16
   122          3
   130         14
   131          6
   132        128
   133         58
   134        201
   135         21
   136          1
   143          1
   144          4
   145          1
   146          3
   147          1
   148        181
   149         18
   150          1
   160          1
   161          1
   162        284
   163        917
   164        103
   165          9