##TITLE=Library Entry 51641
##JCAMP-DX=Revision 4.10 
##DATA TYPE=MASS SPECTRUM
##SAMPLE DESCRIPTION=Japan AIST/NIMC Database- Spectrum MS-NW-6902
##NAMES=HP
##CAS NAME=L-Histidine, methyl ester
##MOLFORM=C7H11N3O2
##CAS REGISTRY NO=7389-87-9
##MP= -300
##BP= -300
##MW= 169
##$RETENTION INDEX=0
##$CONDENSED SPECTRUM=NO
##NPOINTS= 66
##XYDATA=(XY..XY) 1 
    14          1
    15         27
    26          7
    27         13
    28        124
    29         18
    30         13
    31          5
    32          3
    33         53
    39         14
    40         15
    41         17
    42         25
    43         11
    44          3
    45          2
    46          2
    51          3
    52         14
    53          9
    54         75
    55         57
    56         39
    57          7
    59          5
    60          9
    64          1
    65          2
    66          9
    67          6
    68          5
    69         10
    70          1
    71          1
    73          1
    74         10
    79          1
    80          4
    81        259
    82        999
    83        120
    84          6
    88         71
    89          7
    92          1
    93         34
    94          6
    95          2
    96          2
    97          1
   107          3
   108          6
   109         28
   110        265
   111         20
   112          1
   116          1
   120          2
   121          4
   124          1
   137          4
   152          1
   167          2
   169         32
   170          4