##TITLE=Library Entry 77789
##JCAMP-DX=Revision 4.10 
##DATA TYPE=MASS SPECTRUM
##SAMPLE DESCRIPTION=Chemical Concepts
##NAMES=HP
##CAS NAME=Anthracene, 1,2,3,4,4a,9,9a,10-octahydro-
##MOLFORM=C14H18
##CAS REGISTRY NO=7389-11-9
##MP= -300
##BP= -300
##MW= 186
##$RETENTION INDEX=0
##$CONDENSED SPECTRUM=NO
##NPOINTS= 91
##XYDATA=(XY..XY) 1 
    26          1
    27         33
    29         15
    38          3
    39         60
    40          1
    41         72
    42          4
    43          3
    50         10
    51         40
    52         14
    53         30
    54          5
    55         20
    57          2
    58          4
    62          5
    63         27
    64         13
    65         36
    66          8
    67         30
    69         11
    70          5
    71          7
    74          5
    75          9
    76         15
    77         71
    78         75
    79         81
    80        141
    81        176
    82         18
    83          2
    87          3
    88          3
    89         19
    90          4
    91        108
    92         26
    93         13
    94        130
    95        132
    96          9
   101          5
   102         21
   103         63
   104        999
   105        275
   106         34
   107          2
   108          3
   113          2
   115        108
   116         37
   117         75
   118         45
   119          5
   126          6
   127         41
   128        121
   129        134
   130         33
   131         16
   132          5
   139          5
   141         53
   142         31
   143         63
   144         26
   145          7
   151          3
   152          7
   153          6
   154          5
   155          6
   156          3
   157         10
   158         10
   165          4
   171         31
   172          3
   178          4
   182          5
   184         11
   185          9
   186        456
   187         64
   188          6