##TITLE=Library Entry 29378
##JCAMP-DX=Revision 4.10 
##DATA TYPE=MASS SPECTRUM
##SAMPLE DESCRIPTION=Drug Lab
##NAMES=HP
##CAS NAME=Trimipramine
##MOLFORM=C20H26N2
##CAS REGISTRY NO=739-71-9
##MP= -300
##BP= -300
##MW= 294
##$RETENTION INDEX=2211
##$CONDENSED SPECTRUM=NO
##NPOINTS= 151
##XYDATA=(XY..XY) 1 
    40          2
    41         17
    42         74
    43         25
    44         37
    45          4
    50          3
    51         13
    52          4
    53          3
    54          1
    55          6
    56         12
    58        999
    59         39
    60          1
    62          2
    63         13
    64          6
    65         27
    66          2
    67          1
    68          3
    69          2
    70         20
    71         28
    72          1
    74          1
    75          4
    76          7
    77         35
    78         14
    79          3
    80          1
    82          4
    84        174
    85         23
    86         16
    87          2
    89         42
    90         19
    91         81
    92          6
    93          1
    96          2
    97          3
    98          7
    99        158
   100         22
   101          7
   102         10
   103         13
   104          6
   105          8
   106         17
   107          7
   109          1
   113          3
   114          3
   115         31
   116         31
   117         30
   118         19
   119          4
   120          2
   125          1
   126          5
   127         10
   128         24
   129         12
   130         58
   131         13
   132          7
   133          1
   137          1
   138          2
   139         17
   140         13
   141          8
   142          5
   143         22
   144         23
   145          4
   147          3
   150          5
   151         18
   152         47
   153         13
   154         11
   155          2
   156          4
   157          1
   158          3
   163         11
   164         17
   165        108
   166         46
   167         81
   168         16
   169          2
   176         18
   177         24
   178         94
   179         91
   180         51
   181          8
   182          1
   188          1
   189          7
   190         29
   191         94
   192        195
   193        512
   194        308
   195        110
   196         14
   202          3
   203          2
   204         63
   205         28
   206         88
   207         13
   208        404
   209         73
   210          5
   215          1
   216          4
   217         17
   218         44
   219         27
   220        109
   221         24
   222          3
   228          1
   230          3
   231          1
   232         21
   234        376
   235         82
   236         59
   237         10
   238          1
   246          2
   248        347
   249        794
   250        147
   251         14
   252          1
   294        143
   295         32
   296          3