##TITLE=Library Entry 76632
##JCAMP-DX=Revision 4.10 
##DATA TYPE=MASS SPECTRUM
##SAMPLE DESCRIPTION=Chemical Concepts
##NAMES=HP
##CAS NAME=2,4-Bis(4-chlorophenyl)-2-methyl-3-imidazoline-5-thione
##MOLFORM=C16H12Cl2N2S
##CAS REGISTRY NO=7390-88-7
##MP= -300
##BP= -300
##MW= 334
##$RETENTION INDEX=0
##$CONDENSED SPECTRUM=NO
##NPOINTS= 110
##XYDATA=(XY..XY) 1 
    36        207
    38        125
    39        158
    40        116
    41         36
    42        203
    44        150
    45         68
    50        303
    51        409
    52         72
    53         24
    57         23
    58         25
    59        134
    60         30
    61         45
    62         78
    63        140
    64         36
    65         18
    69         60
    70         21
    73        103
    74        153
    75        483
    76        185
    77        548
    78         58
    81         20
    82         40
    84         76
    85         48
    86         42
    87         59
    88         47
    89         45
    91         51
    92         33
    97         39
    98         20
    99        123
   101        427
   102        590
   103        999
   104        105
   111        228
   112        133
   113         69
   114         76
   115         17
   117         59
   118         49
   119         36
   120         32
   123         44
   125         37
   128         71
   131         43
   132         45
   134         20
   137        438
   138        860
   139        200
   140        263
   141         38
   142         26
   143         26
   145         71
   146         24
   149         67
   150         26
   152         23
   155        144
   157         45
   162        203
   163         33
   164         61
   165         26
   166         18
   167         17
   179         20
   180         49
   182        122
   184         31
   196         73
   197        126
   198         42
   199        106
   201         22
   234         38
   236         25
   240        381
   241         67
   242        115
   243         17
   274        125
   275        298
   276        115
   277        188
   278         46
   279         30
   319         37
   321         22
   333         38
   334        227
   335         62
   336        158
   337         32
   338         30