##TITLE=Library Entry 51183
##JCAMP-DX=Revision 4.10 
##DATA TYPE=MASS SPECTRUM
##SAMPLE DESCRIPTION=NIST Mass Spectrometry Data Center, 1998.
##NAMES=HP
##CAS NAME=Oxirane, hexadecyl-
##MOLFORM=C18H36O
##CAS REGISTRY NO=7390-81-0
##MP= -300
##BP= -300
##MW= 268
##$RETENTION INDEX=1900
##$CONDENSED SPECTRUM=NO
##NPOINTS= 129
##XYDATA=(XY..XY) 1 
    15          3
    26          3
    27         78
    29        228
    30          7
    31         38
    37          1
    38          2
    39        116
    40         26
    41        800
    42        174
    43        845
    44         53
    45         53
    46          1
    50          2
    51          5
    52          4
    53         79
    54        228
    55        988
    56        319
    57        760
    58        274
    59         81
    60          3
    63          1
    65         18
    66         72
    67        618
    68        603
    69        674
    70        266
    71        972
    72         73
    73         10
    74          1
    77         14
    78          4
    79         74
    80         55
    81        668
    82        999
    83        705
    84        177
    85        321
    86         28
    87          6
    91          8
    92          1
    93         28
    94         35
    95        537
    96        669
    97        539
    98        102
    99         48
   100          8
   101          3
   105          1
   107          9
   108         14
   109        288
   110        203
   111        224
   112         57
   113         42
   114          5
   115          2
   121          6
   122         10
   123        140
   124        108
   125         83
   126         31
   127         28
   128          3
   129          1
   135          3
   136          5
   137         67
   138         56
   139         24
   140         18
   141          8
   142          1
   143          1
   149          1
   150          1
   151         22
   152         27
   153         10
   154         11
   155          4
   156          1
   165         11
   166         19
   167          6
   168          8
   169          3
   170          1
   179         10
   180         13
   181          3
   182          8
   183          2
   193          8
   194         10
   195          2
   196          2
   197          1
   207          4
   208          8
   209          1
   210          6
   211          3
   213          2
   221          2
   222          6
   223          1
   224          1
   225          2
   235          1
   236          1
   239          1
   250          2
   267          1
   268          1