##TITLE=Library Entry 22840
##JCAMP-DX=Revision 4.10 
##DATA TYPE=MASS SPECTRUM
##SAMPLE DESCRIPTION=N.P.E. VERMEULEN, DEP. PHARM., LEIDEN UNIV., NETH.
##NAMES=HP
##CAS NAME=1,5-Dimethylbarbituric acid
##MOLFORM=C6H8N2O3
##CAS REGISTRY NO=7391-67-5
##MP= -300
##BP= -300
##MW= 156
##$RETENTION INDEX=0
##$CONDENSED SPECTRUM=NO
##NPOINTS= 8
##XYDATA=(XY..XY) 1 
    43         80
    56        999
    70         80
    85        120
    99         30
   113         50
   128         40
   156        620