##TITLE=Library Entry 99208
##JCAMP-DX=Revision 4.10 
##DATA TYPE=MASS SPECTRUM
##SAMPLE DESCRIPTION=NIST Mass Spectrometry Data Center, 1994
##NAMES=HP
##CAS NAME=4-Toluoylacetonitrile
##MOLFORM=C10H9NO
##CAS REGISTRY NO=7391-28-8
##MP= -300
##BP= -300
##MW= 159
##$RETENTION INDEX=0
##$CONDENSED SPECTRUM=NO
##NPOINTS= 62
##XYDATA=(XY..XY) 1 
    12          1
    13          6
    14          4
    15          7
    17          1
    18          1
    26         12
    27         28
    28         10
    29          2
    37         14
    38         38
    39        190
    40         64
    41         52
    42          6
    43          6
    46         25
    49          5
    50         64
    51         78
    52         16
    53         12
    59          8
    61         18
    62         54
    63        135
    64         39
    65        273
    66         15
    67          2
    68          6
    73          3
    74         19
    75         15
    76         13
    77         23
    78          4
    79          3
    85          5
    86         12
    87         11
    88          3
    89         96
    90         57
    91        636
    92         53
   101          1
   102          4
   103          8
   104          3
   105          4
   115          1
   116          2
   119        999
   120         88
   121          5
   128          1
   129          1
   130          5
   159         65
   160          7