##TITLE=Library Entry 20705
##JCAMP-DX=Revision 4.10 
##DATA TYPE=MASS SPECTRUM
##SAMPLE DESCRIPTION=D.HENNEBERG, MAX-PLANCK INSTITUTE, MULHEIM, WEST GERMAN
Y
##NAMES=HP
##CAS NAME=Cyclooctanecarboxylic acid, 1-ethyl-, methyl ester
##MOLFORM=C12H22O2
##CAS REGISTRY NO=7393-18-2
##MP= -300
##BP= -300
##MW= 198
##$RETENTION INDEX=0
##$CONDENSED SPECTRUM=NO
##NPOINTS= 171
##XYDATA=(XY..XY) 1 
    24          1
    25          3
    26         30
    27        365
    28         75
    29        430
    30         16
    31         27
    36          2
    37         10
    38         21
    39        320
    40         69
    41        864
    42        110
    43        297
    44         16
    45         47
    48          1
    49          5
    50         43
    51         41
    52         25
    53        175
    54        101
    55        999
    56         94
    57        348
    58         18
    59        224
    60          8
    61          7
    62          5
    63         14
    64          4
    65         50
    66         26
    67        294
    68         77
    69        521
    70        110
    71        127
    72         10
    73         21
    74         29
    75         12
    76         53
    77         64
    78         15
    79         68
    80         19
    81        206
    82         72
    83        965
    84         82
    85         28
    86          3
    87         81
    88         24
    89          5
    90          1
    91         37
    92          7
    93         27
    94         27
    95        130
    96         61
    97        456
    98         42
    99         14
   100          7
   101         22
   102        328
   103         23
   104         72
   105         30
   106          4
   107         13
   108         12
   109        179
   110        103
   111         27
   112         31
   113         49
   114         13
   115        335
   116         31
   117         11
   118          3
   119         10
   120          3
   121          9
   122         10
   123         29
   124         55
   125         15
   126          4
   127         32
   128         22
   129         17
   130          4
   131          7
   132          7
   133          6
   134          3
   135          7
   136          6
   137         31
   138         67
   139        488
   140         57
   141         54
   142         10
   143         10
   144          4
   145          6
   146          3
   147         10
   148         11
   149        130
   150         17
   151         10
   152          4
   153          3
   154          3
   155          8
   156          5
   157         12
   158          3
   159          4
   160          1
   161          3
   162          4
   163          5
   164          3
   165          6
   166         89
   167         52
   168          7
   169        151
   170         44
   171          7
   172          1
   173          3
   174          1
   175          1
   176          1
   177          3
   178          1
   179          3
   180          1
   181          2
   182          1
   183          8
   184          1
   185          3
   186          1
   187          2
   188          3
   189          2
   190          1
   191          3
   192          1
   193          2
   194          1
   195          1
   196          1
   197          1
   198         42
   199         10
   200          3