##TITLE=Library Entry 20373
##JCAMP-DX=Revision 4.10 
##DATA TYPE=MASS SPECTRUM
##SAMPLE DESCRIPTION=Chemical Concepts
##NAMES=HP
##CAS NAME=1-Tetradecanol, 14-chloro-
##MOLFORM=C14H29ClO
##CAS REGISTRY NO=73937-05-0
##MP= -300
##BP= -300
##MW= 248
##$RETENTION INDEX=0
##$CONDENSED SPECTRUM=NO
##NPOINTS= 138
##XYDATA=(XY..XY) 1 
    26         10
    27        180
    28         15
    29        272
    30          8
    31        331
    36          8
    38          3
    39        177
    40        174
    41        964
    42        238
    43        652
    44         29
    45         27
    49         12
    50          3
    51         12
    52          7
    53         79
    54        153
    55        999
    56        380
    57        291
    58         16
    59          5
    61          0
    62          2
    63         23
    64          4
    65         21
    66         25
    67        282
    68        392
    69        640
    70        284
    71        986
    72         42
    73         22
    75          7
    76          2
    77         25
    78          7
    79         45
    80         22
    81        239
    82        409
    83        602
    84        169
    85         46
    86          7
    87          8
    88          3
    89          6
    90         11
    91         58
    92          9
    93         28
    94         14
    95        148
    96        173
    97        305
    98         84
    99         12
   101          2
   103          7
   104        148
   105         38
   106         54
   107         18
   108          9
   109        108
   110         70
   111        137
   112         46
   113          6
   115          4
   116          3
   117         21
   118         71
   119         24
   120         25
   121         14
   122          7
   123         85
   124         44
   125         72
   126         24
   127          2
   128          1
   129          2
   130         10
   131         37
   132         41
   133         20
   134         13
   135          8
   136          5
   137         51
   138         27
   139         25
   140          9
   143          0
   144         13
   145         25
   146         27
   147         14
   148         10
   149          4
   150          5
   151         11
   152          9
   153         12
   154          3
   158          8
   159         18
   160         19
   161          8
   162          7
   163          0
   164          1
   165          0
   166          5
   172          4
   173         10
   174         14
   175          5
   176          4
   180          1
   181          0
   187          4
   188          3
   189          0
   202         21
   203          0
   204          7
   230         13
   232          5