##TITLE=Library Entry 23130
##JCAMP-DX=Revision 4.10 
##DATA TYPE=MASS SPECTRUM
##SAMPLE DESCRIPTION=H.J. MOECKEL & J. WEISS, HAHN-MEITNER-INST. BERLIN
##NAMES=HP
##CAS NAME=Disulfide, butyl (1-methylpropyl)
##MOLFORM=C8H18S2
##CAS REGISTRY NO=73937-03-8
##MP= -300
##BP= -300
##MW= 178
##$RETENTION INDEX=0
##$CONDENSED SPECTRUM=NO
##NPOINTS= 76
##XYDATA=(XY..XY) 1 
    15         12
    19          2
    21          0
    25          0
    26         14
    27        225
    29        854
    30        169
    33          1
    35         11
    36          2
    37          0
    38          4
    39         96
    40         36
    41        397
    42        459
    44          9
    45         47
    46         28
    47         43
    48          5
    49          2
    50          1
    51          3
    52          2
    53          9
    54         13
    55         54
    56         80
    57        999
    58        477
    59         59
    60         17
    61         26
    62          2
    63          0
    64         14
    65          5
    66         29
    68          1
    72          0
    73          6
    74          0
    75          1
    77          0
    78          3
    79         28
    80          1
    81          1
    86          1
    87         32
    88         14
    89         21
    90          3
    91          1
    92          1
    93          7
    94          0
    95          0
   107          0
   120          0
   121         17
   122        424
   123         29
   124         35
   125          2
   126          0
   135          0
   149          0
   177          6
   178        150
   179         19
   180         13
   181          1
   182          0