##TITLE=Library Entry 6097
##JCAMP-DX=Revision 4.10 
##DATA TYPE=MASS SPECTRUM
##SAMPLE DESCRIPTION=Chemical Concepts
##NAMES=HP
##CAS NAME=Decanoic acid, 2-ethylhexyl ester
##MOLFORM=C18H36O2
##CAS REGISTRY NO=73947-30-5
##MP= -300
##BP= -300
##MW= 284
##$RETENTION INDEX=1885
##$CONDENSED SPECTRUM=NO
##NPOINTS= 99
##XYDATA=(XY..XY) 1 
    26         24
    27        350
    28        107
    29        695
    30         20
    31         43
    37          2
    39        176
    41        986
    42        258
    43        999
    44         39
    45         19
    47          1
    50          2
    51          6
    52          5
    53         46
    54         50
    55        588
    56        259
    57        897
    58         47
    59         19
    60         91
    61         53
    62          2
    65          7
    66          5
    67         62
    68         44
    69        183
    70        675
    71        485
    72         32
    73         77
    74         32
    75          3
    77          4
    78          2
    79         11
    80          4
    81         56
    82         58
    83        232
    84        155
    85         99
    86         19
    87         53
    88          4
    89          8
    91          1
    93          4
    95         50
    96          7
    97         37
    98         28
    99         10
   100          6
   101         17
   102          2
   103          6
   107          2
   108          1
   109          3
   110         10
   111         21
   112        216
   113         44
   114          5
   115         15
   116          2
   117          1
   123          1
   125          3
   126          2
   127          3
   129         44
   130          4
   135          3
   136          1
   137          5
   139          3
   141          1
   142          2
   143         14
   144          2
   152          1
   153          3
   155        222
   156         26
   157         10
   158          1
   172         34
   173         66
   174          8
   186          1
   187          1
   198          2