##TITLE=Library Entry 38488
##JCAMP-DX=Revision 4.10 
##DATA TYPE=MASS SPECTRUM
##SAMPLE DESCRIPTION=CCC 0016
##NAMES=HP
##CAS NAME=Borinic acid, diethyl-, methyl ester
##MOLFORM=C5H13BO
##CAS REGISTRY NO=7397-46-8
##MP= -300
##BP= -300
##MW= 100
##$RETENTION INDEX=0
##$CONDENSED SPECTRUM=NO
##NPOINTS= 67
##XYDATA=(XY..XY) 1 
     2          3
    10          2
    11          9
    12          4
    13         12
    14         11
    15        190
    16          3
    23          1
    24          2
    25          8
    26         40
    27        103
    28         46
    29         94
    30          2
    31          4
    32          2
    33          1
    34          1
    35          1
    36         12
    37         37
    38         17
    39         62
    40         31
    41         60
    42        177
    43        614
    44          8
    45          3
    46          1
    47          1
    48          1
    49          4
    50          6
    51          6
    52          9
    53         28
    54          8
    55         23
    56         41
    57         81
    58          3
    59          4
    60          1
    61          2
    62          1
    63          1
    64          1
    65          2
    66          3
    67          8
    68         13
    69         39
    70        255
    71        999
    72         33
    73          1
    83          1
    84          3
    85         11
    86          2
    87          2
    99          3
   100         10
   101          1