##TITLE=Library Entry 114061
##JCAMP-DX=Revision 4.10 
##DATA TYPE=MASS SPECTRUM
##SAMPLE DESCRIPTION=A.A.Kutin, Moscow, Russia
##NAMES=HP
##CAS NAME=4-Amino-3-hydroxy-naphthalene-2-carboxylic acid methyl ester
##MOLFORM=C12H11NO3
##CAS REGISTRY NO=7399-72-6
##MP= -300
##BP= -300
##MW= 217
##$RETENTION INDEX=0
##$CONDENSED SPECTRUM=NO
##NPOINTS= 85
##XYDATA=(XY..XY) 1 
    33         50
    34          6
    36          9
    38         15
    39         55
    40         34
    41         24
    42          8
    43         23
    44         57
    45         10
    50         46
    51        132
    52         82
    53         34
    54         10
    55         13
    56          5
    57         17
    59          2
    61          3
    62         20
    63         62
    64         51
    65        113
    67          1
    69          6
    70          3
    71          5
    74         40
    75         93
    76         79
    77        153
    78         81
    79         83
    80          1
    84          1
    86         10
    87         14
    88          6
    89         20
    90          6
    91         15
    93         51
    98          3
    99          4
   100         22
   101        132
   102        212
   103         92
   104         21
   105         18
   109          4
   112          3
   113         27
   114          4
   115          8
   116          2
   117          6
   118          2
   120          5
   125         10
   126          2
   127         38
   128        235
   129        999
   130        144
   131          8
   132         18
   133         15
   140         11
   156         27
   157         59
   158         22
   159          3
   161          4
   184         67
   185        489
   186         72
   187          7
   188          1
   189         69
   190          6
   217        225
   218         23