##TITLE=Library Entry 97537
##JCAMP-DX=Revision 4.10 
##DATA TYPE=MASS SPECTRUM
##SAMPLE DESCRIPTION=NIST Mass Spectrometry Data Center, 1990.
##NAMES=HP
##CAS NAME=o-Isopropenyltoluene
##MOLFORM=C10H12
##CAS REGISTRY NO=7399-49-7
##MP= -300
##BP= -300
##MW= 132
##$RETENTION INDEX=1117
##$CONDENSED SPECTRUM=NO
##NPOINTS= 56
##XYDATA=(XY..XY) 1 
    15         17
    26          9
    27         42
    28         26
    37          7
    38         29
    39        177
    40         18
    41         30
    50         74
    51        153
    52         39
    53         35
    54          5
    58         43
    61         14
    62         53
    63        159
    64         88
    65        195
    66         12
    73          5
    74         40
    75         39
    76         32
    77        107
    78         53
    79         24
    85          5
    86         15
    87         20
    88         12
    89        103
    90          5
    91        483
    92        157
    93         10
    98          6
   101         10
   102         45
   103         43
   104         34
   105         31
   113          7
   115        712
   116        199
   117        999
   118         99
   126          8
   127         29
   128         57
   129         61
   130         23
   131        183
   132        775
   133         81