##TITLE=Library Entry 36
##JCAMP-DX=Revision 4.10 
##DATA TYPE=MASS SPECTRUM
##SAMPLE DESCRIPTION=D.HENNEBERG, MAX-PLANCK INSTITUTE, MULHEIM, WEST GERMAN
Y
##NAMES=HP
##CAS NAME=Methane
##MOLFORM=CH4
##CAS REGISTRY NO=74-82-8
##MP= -300
##BP= -300
##MW= 16
##$RETENTION INDEX=100
##$CONDENSED SPECTRUM=NO
##NPOINTS= 6
##XYDATA=(XY..XY) 1 
    12         38
    13        106
    14        204
    15        887
    16        999
    17         16