##TITLE=Library Entry 67308
##JCAMP-DX=Revision 4.10 
##DATA TYPE=MASS SPECTRUM
##SAMPLE DESCRIPTION=Exported from NIST MS Search
##NAMES=HP
##CAS NAME=Methane, bromo-
##MOLFORM=CH3Br
##CAS REGISTRY NO=74-83-9
##MP= -300
##BP= -300
##MW= 94
##$RETENTION INDEX=429
##$CONDENSED SPECTRUM=NO
##NPOINTS= 19
##XYDATA=(XY..XY) 1 
    12          5
    13          9
    14         21
    15        466
    16          6
    46         14
    47         25
    48         11
    79         63
    80         16
    81         63
    82         16
    91         68
    92         40
    93        209
    94        999
    95        149
    96        942
    97         11