##TITLE=Library Entry 50
##JCAMP-DX=Revision 4.10 
##DATA TYPE=MASS SPECTRUM
##SAMPLE DESCRIPTION=Exported from NIST MS Search
##NAMES=HP
##CAS NAME=Acetylene
##MOLFORM=C2H2
##CAS REGISTRY NO=74-86-2
##MP= -300
##BP= -300
##MW= 26
##$RETENTION INDEX=157
##$CONDENSED SPECTRUM=NO
##NPOINTS= 8
##XYDATA=(XY..XY) 1 
    12          7
    13         32
    14          1
    24         50
    25        191
    26        999
    27         22
    28          1