##TITLE=Library Entry 134
##JCAMP-DX=Revision 4.10 
##DATA TYPE=MASS SPECTRUM
##SAMPLE DESCRIPTION=Exported from NIST MS Search
##NAMES=HP
##CAS NAME=Ethane
##MOLFORM=C2H6
##CAS REGISTRY NO=74-84-0
##MP= -300
##BP= -300
##MW= 30
##$RETENTION INDEX=200
##$CONDENSED SPECTRUM=NO
##NPOINTS= 14
##XYDATA=(XY..XY) 1 
     2          2
    12          4
    13         10
    14         30
    15         44
    16          1
    24          5
    25         35
    26        232
    27        332
    28        999
    29        215
    30        262
    31          5