##TITLE=Library Entry 28050
##JCAMP-DX=Revision 4.10 
##DATA TYPE=MASS SPECTRUM
##SAMPLE DESCRIPTION=Japan AIST/NIMC Database- Spectrum MS-NW-8714
##NAMES=HP
##CAS NAME=Borane, compd. with dimethylamine (1:1)
##MOLFORM=C2H10BN
##CAS REGISTRY NO=74-94-2
##MP= -300
##BP= -300
##MW= 59
##$RETENTION INDEX=0
##$CONDENSED SPECTRUM=NO
##NPOINTS= 35
##XYDATA=(XY..XY) 1 
    10          1
    11          5
    12          9
    13         26
    14          4
    15         31
    18         37
    24          1
    25          7
    26         31
    27        112
    28        197
    29         41
    30         90
    31          2
    37          6
    38         21
    39         50
    40        169
    41        135
    42        395
    43         40
    44        459
    45        176
    46         11
    50          2
    51          7
    52          8
    53         22
    54         87
    55        114
    56        278
    57        350
    58        999
    59         33