##TITLE=Library Entry 415
##JCAMP-DX=Revision 4.10 
##DATA TYPE=MASS SPECTRUM
##SAMPLE DESCRIPTION=Exported from NIST MS Search
##NAMES=HP
##CAS NAME=Propane
##MOLFORM=C3H8
##CAS REGISTRY NO=74-98-6
##MP= -300
##BP= -300
##MW= 44
##$RETENTION INDEX=300
##$CONDENSED SPECTRUM=NO
##NPOINTS= 25
##XYDATA=(XY..XY) 1 
    12          3
    13          6
    14         22
    15         72
    16          4
    19          7
    20          8
    21          1
    24          1
    25          5
    26         91
    27        419
    28        587
    29        999
    30         22
    36          3
    37         30
    38         53
    39        189
    40         28
    41        134
    42         60
    43        231
    44        274
    45          9