##TITLE=Library Entry 1974
##JCAMP-DX=Revision 4.10 
##DATA TYPE=MASS SPECTRUM
##SAMPLE DESCRIPTION=Exported from NIST MS Search
##NAMES=HP
##CAS NAME=Propyne
##MOLFORM=C3H4
##CAS REGISTRY NO=74-99-7
##MP= -300
##BP= -300
##MW= 40
##$RETENTION INDEX=313
##$CONDENSED SPECTRUM=NO
##NPOINTS= 14
##XYDATA=(XY..XY) 1 
    12         17
    13         17
    14         12
    15         11
    24         11
    25         25
    26         25
    36         53
    37        198
    38        285
    39        791
    40        999
    41         35
    42          2