##TITLE=Library Entry 389
##JCAMP-DX=Revision 4.10 
##DATA TYPE=MASS SPECTRUM
##SAMPLE DESCRIPTION=NIST Mass Spectrometry Data Center, 1994
##NAMES=HP
##CAS NAME=Ethyl bromide
##MOLFORM=C2H5Br
##CAS REGISTRY NO=74-96-4
##MP= -300
##BP= -300
##MW= 108
##$RETENTION INDEX=522
##$CONDENSED SPECTRUM=NO
##NPOINTS= 29
##XYDATA=(XY..XY) 1 
    12         10
    13         21
    14         39
    15         34
    16          0
    24         20
    25         98
    26        435
    27        947
    28        290
    29        999
    30         21
    31          1
    54          5
    79         86
    80         35
    81         84
    82         27
    83          2
    84          0
    91         11
    92         11
    93         43
    94         10
    95         34
   108        603
   109         13
   110        590
   111         12