##TITLE=Library Entry 12087
##JCAMP-DX=Revision 4.10 
##DATA TYPE=MASS SPECTRUM
##SAMPLE DESCRIPTION=MASS SPECTRA OF ORGANIC COMPOUNDS, CSIRO, B.H. KENNETT
 ET AL
##NAMES=HP
##CAS NAME=Dihydroedulan IIA
##MOLFORM=C13H22O
##CAS REGISTRY NO=74006-62-5
##MP= -300
##BP= -300
##MW= 194
##$RETENTION INDEX=1284
##$CONDENSED SPECTRUM=NO
##NPOINTS= 33
##XYDATA=(XY..XY) 1 
    27        160
    29        300
    39        200
    41        460
    43        999
    51         40
    53        130
    55        350
    57        120
    65         80
    67        160
    69        140
    77        150
    79        260
    81        130
    91        210
    93        270
    94        120
    95        120
   105        110
   107        200
   109        170
   119         70
   121         70
   123         60
   125        230
   135        480
   137        240
   150        120
   151         70
   161         20
   179        410
   194        110