##TITLE=Library Entry 63998
##JCAMP-DX=Revision 4.10 
##DATA TYPE=MASS SPECTRUM
##SAMPLE DESCRIPTION=Japan AIST/NIMC Database- Spectrum MS-IW-5811
##NAMES=HP
##CAS NAME=4'-Methylazobenzene-4-carboxylic acid
##MOLFORM=C14H12N2O2
##CAS REGISTRY NO=7400-26-2
##MP= -300
##BP= -300
##MW= 240
##$RETENTION INDEX=0
##$CONDENSED SPECTRUM=NO
##NPOINTS= 87
##XYDATA=(XY..XY) 1 
    17          8
    18          1
    26          1
    27          6
    28          9
    31          1
    37          1
    38          4
    39         46
    40          3
    41         13
    43          1
    44          4
    45          3
    50         16
    51         30
    52          7
    53          4
    55          1
    57          2
    61          1
    62          5
    63         20
    64          9
    65        239
    66         13
    67          1
    69          1
    71          1
    74          4
    75         14
    76         29
    77         13
    78          5
    79          2
    83          1
    85          1
    89         21
    90         12
    91        999
    92         89
    93         18
    94          1
    97          1
   102          1
   103          8
   104         48
   105          7
   106          7
   107          4
   111          1
   115          2
   119        373
   120         34
   121        208
   122         15
   123          1
   127          1
   128          2
   135          1
   137          2
   139          1
   141          2
   149         24
   150          2
   151          3
   152         22
   153          4
   163          1
   164          1
   165         20
   166          8
   167          9
   168          2
   193          1
   195          3
   196          5
   197          3
   211          3
   212          1
   223          6
   224          1
   238          1
   239          2
   240        541
   241         89
   242          9