##TITLE=Library Entry 16649
##JCAMP-DX=Revision 4.10 
##DATA TYPE=MASS SPECTRUM
##SAMPLE DESCRIPTION=NIST Mass Spectrometry Data Center, 1994
##NAMES=HP
##CAS NAME=Dimethyl 3-thiaadipate
##MOLFORM=C7H12O4S
##CAS REGISTRY NO=7400-45-5
##MP= -300
##BP= -300
##MW= 192
##$RETENTION INDEX=0
##$CONDENSED SPECTRUM=NO
##NPOINTS= 107
##XYDATA=(XY..XY) 1 
    12          2
    13          6
    14         47
    15        469
    16          7
    17          2
    18          3
    26         34
    27        143
    28        109
    29        127
    30         19
    31         51
    32          4
    33         10
    34          4
    35          8
    36          0
    37          1
    38          1
    39         10
    40          0
    41         32
    42        110
    43        175
    44          0
    45        999
    46        239
    47         69
    48         13
    49          6
    50          0
    51          7
    53          3
    55        299
    56         23
    57         37
    58         90
    59        427
    60         49
    61         61
    62          4
    63          5
    65          0
    66          0
    67          0
    68          0
    69          1
    70          0
    71          4
    73         96
    74        274
    75         30
    76          0
    77         81
    78          3
    79          3
    80          0
    81          0
    84          0
    85          3
    87        202
    88         22
    89         12
    90          0
    91         31
    92          1
    93          1
    95          0
    98          1
    99          2
   100         15
   101         69
   102          7
   103         15
   104          6
   105          7
   106          8
   107          0
   108          0
   113          0
   114          0
   116         12
   118         53
   119        149
   120         10
   121          8
   122          0
   125          0
   127         89
   128         30
   129         57
   130          6
   131          0
   132         52
   133        187
   134         13
   135          9
   136          0
   160        230
   161         30
   162         14
   163          1
   192         84
   193          6
   194          4
   195          0