##TITLE=Library Entry 4491
##JCAMP-DX=Revision 4.10 
##DATA TYPE=MASS SPECTRUM
##SAMPLE DESCRIPTION=Chemical Concepts
##NAMES=HP
##CAS NAME=6-Oxa-bicyclo[3.1.0]hexan-3-one
##MOLFORM=C5H6O2
##CAS REGISTRY NO=74017-10-0
##MP= -300
##BP= -300
##MW= 98
##$RETENTION INDEX=0
##$CONDENSED SPECTRUM=NO
##NPOINTS= 53
##XYDATA=(XY..XY) 1 
    25         14
    26        100
    27        269
    28        127
    29        227
    30          8
    31         73
    33          4
    34          1
    35          0
    36          4
    37         39
    38         63
    39        384
    40         82
    41        853
    42        999
    43        302
    44         47
    45         50
    46          3
    47          4
    48          2
    49         14
    50         36
    51         27
    52         17
    53         25
    54         11
    55        269
    56         26
    57         32
    58          8
    59         20
    60          9
    61         16
    62          3
    63          2
    64          0
    65          0
    66          1
    67          1
    68         25
    69        315
    70         63
    71          9
    81          9
    82          3
    83          6
    97         28
    98        731
    99         44
   100          4