##TITLE=Library Entry 98309
##JCAMP-DX=Revision 4.10 
##DATA TYPE=MASS SPECTRUM
##SAMPLE DESCRIPTION=V.Zaikin,Topchiev Inst.Petrochem.Synth.,Moscow
##NAMES=HP
##CAS NAME=Butanoic acid, 3-phenylpropyl ester
##MOLFORM=C13H18O2
##CAS REGISTRY NO=7402-29-1
##MP= -300
##BP= -300
##MW= 206
##$RETENTION INDEX=1535
##$CONDENSED SPECTRUM=NO
##NPOINTS= 64
##XYDATA=(XY..XY) 1 
    26          3
    27          9
    28          1
    29          2
    35          1
    36         10
    38          3
    39         12
    40          2
    41         22
    42          3
    43         52
    44          4
    50          5
    51         12
    52          7
    53          2
    55          3
    57          2
    58          2
    60          5
    62          1
    63          6
    64          2
    65         24
    66          2
    69          2
    70          2
    71         53
    72          3
    73          3
    74          2
    75          4
    76          3
    77         22
    78         18
    79         17
    80          1
    85          1
    87          1
    89         10
    90          5
    91        210
    92         25
    93          3
   102          4
   103         26
   104         16
   105         27
   106          3
   107          2
   115         25
   116         10
   117        706
   118        999
   119         98
   120          6
   133          2
   134          1
   135          1
   155          1
   157          1
   206          5
   208          5