##TITLE=Library Entry 87091
##JCAMP-DX=Revision 4.10 
##DATA TYPE=MASS SPECTRUM
##SAMPLE DESCRIPTION=NIST Mass Spectrometry Data Center
##NAMES=HP
##CAS NAME=1,4-Dipropionyloxybenzene
##MOLFORM=C12H14O4
##CAS REGISTRY NO=7402-28-0
##MP= -300
##BP= -300
##MW= 222
##$RETENTION INDEX=0
##$CONDENSED SPECTRUM=NO
##NPOINTS= 43
##XYDATA=(XY..XY) 1 
    26          6
    27         26
    29         83
    30          1
    38          2
    39          5
    42          3
    50          3
    51          4
    52          6
    53         18
    54         20
    55         16
    56         12
    57        286
    58          9
    62          2
    63         10
    64          6
    65          9
    66          1
    77          1
    80          1
    81         24
    82         14
    91          1
    93          7
    94          1
   103          1
   107          5
   108          1
   109         12
   110        999
   111         78
   112          6
   121          2
   149          6
   165          2
   166        200
   167         20
   168          2
   222         29
   223          4