##TITLE=Library Entry 76531
##JCAMP-DX=Revision 4.10 
##DATA TYPE=MASS SPECTRUM
##SAMPLE DESCRIPTION=Humboldt-Universitat zu Berlin, Department of Chemistry
, Analytical Group
##NAMES=HP
##CAS NAME=2-Oxazoleacetic acid, 5-phenyl-, methyl ester
##MOLFORM=C12H11NO3
##CAS REGISTRY NO=74048-06-9
##MP= -300
##BP= -300
##MW= 217
##$RETENTION INDEX=0
##$CONDENSED SPECTRUM=NO
##NPOINTS= 118
##XYDATA=(XY..XY) 1 
    12          3
    13          8
    15        513
    16          9
    17          2
    18          4
    26        125
    27         47
    28         42
    29         87
    30         19
    31         23
    32          2
    33          2
    37         10
    38         21
    39         66
    40         15
    41         28
    42         56
    43         17
    44          6
    45          6
    46          3
    50         72
    51        216
    52         78
    53        103
    54         15
    55          6
    56          2
    57         20
    59        168
    60         12
    61         11
    62         32
    63         74
    64         18
    65          8
    66          2
    67          3
    68         42
    69         16
    70          4
    71          2
    72          2
    73          4
    74         28
    75         24
    77        562
    78         45
    79         13
    81          4
    82          2
    83          2
    84          4
    85          3
    86          6
    87          9
    88         10
    89         92
    90         25
    91         13
    92          2
    93          2
    95          1
    97          2
    98          2
    99          2
   101         11
   103        999
   104        107
   105        286
   106         22
   107          2
   112          2
   114          3
   115          6
   116          7
   117          7
   118          5
   119          3
   121          1
   127          1
   128          4
   129         11
   130         25
   131         11
   132          7
   133          5
   134          2
   141          1
   144          2
   145          1
   146          3
   147          1
   149          1
   156          3
   158        396
   159         58
   160         16
   161          5
   162          1
   165          1
   167          2
   172          3
   173          1
   175         60
   176          6
   177          1
   185         12
   186          2
   189          2
   200          1
   217        241
   218         55
   219          6
   220          1