##TITLE=Library Entry 94787
##JCAMP-DX=Revision 4.10 
##DATA TYPE=MASS SPECTRUM
##SAMPLE DESCRIPTION=Institute of Organic Chemistry, Novosibirsk, USSR 1988
##NAMES=HP
##CAS NAME=Acetyl 2,3,4-tri-O-acetyl-6-deoxy-.alpha.-D-glucopyranoside
##MOLFORM=C14H20O9
##CAS REGISTRY NO=7404-35-5
##MP= -300
##BP= -300
##MW= 332
##$RETENTION INDEX=0
##$CONDENSED SPECTRUM=NO
##NPOINTS= 56
##XYDATA=(XY..XY) 1 
    55         33
    56         30
    57         32
    58         24
    60         22
    61         24
    69         32
    70         24
    71         82
    73        199
    74         12
    82         61
    83        189
    84         26
    85         24
    86         11
    99         71
   100        129
   101         22
   102         59
   103        219
   104         11
   110         11
   111        209
   112         26
   113         38
   115        999
   116         90
   117         11
   126         16
   127         36
   128         30
   129         42
   140         11
   142        229
   143         32
   144         26
   145         50
   153        159
   154         11
   157        719
   158         79
   159         11
   170          8
   171         36
   184        249
   185         33
   186         13
   200          2
   201          3
   203          3
   213         24
   230          6
   231          1
   273         32
   289          1