##TITLE=Library Entry 85018
##JCAMP-DX=Revision 4.10 
##DATA TYPE=MASS SPECTRUM
##SAMPLE DESCRIPTION=LAC, NIDDK, NIH, Bethesda, MD 20892
##NAMES=HP
##CAS NAME=4-Methylmannonic phenylhydrazide
##MOLFORM=C13H20N2O6
##CAS REGISTRY NO=7404-33-3
##MP= -300
##BP= -300
##MW= 300
##$RETENTION INDEX=0
##$CONDENSED SPECTRUM=NO
##NPOINTS= 188
##XYDATA=(XY..XY) 1 
    41         83
    42         61
    43        201
    44         92
    45        279
    46         10
    47         12
    48          0
    49         34
    50         34
    51        109
    52         38
    53         26
    54         22
    55         63
    56         33
    57         90
    58         33
    59         78
    60         86
    61         66
    62          9
    63         33
    64         37
    65        271
    66         65
    67         10
    68         10
    69         38
    70         15
    71        128
    72         14
    73         86
    74         58
    75        198
    76         20
    77        221
    78         72
    79         37
    80         23
    81         13
    82          6
    83         13
    84         38
    85         49
    86         30
    87        172
    88         35
    89          8
    90          9
    91         68
    92        463
    93        501
    94         44
    95          6
    96          4
    97         20
    98         51
    99         36
   100          9
   101          6
   102          6
   103         14
   104         14
   105         94
   106         41
   107        184
   108        999
   109         99
   110          8
   111          6
   112         20
   113          9
   114          4
   115         12
   116         31
   117         17
   118          8
   119         25
   120         19
   121          9
   122         12
   123          1
   124          1
   125          7
   126          4
   127          6
   128          1
   129         10
   130          7
   131          6
   132          5
   133          5
   134        123
   135         20
   136          9
   137          3
   139          2
   140          2
   141          1
   142          2
   143          3
   144          2
   145          6
   146          4
   147         22
   148         10
   149         10
   150          3
   151          2
   152          2
   153          1
   154          1
   157          5
   158          2
   159          3
   160          4
   161         10
   162          4
   163          3
   164         70
   165         32
   166         11
   167          4
   168          3
   169          4
   170          1
   171          5
   172          5
   173         33
   174         30
   175         10
   176          3
   177         13
   178         38
   179          6
   180          1
   181          0
   183          0
   184          2
   185          3
   186          2
   187          2
   188          2
   189          4
   190          2
   191          1
   192          0
   193          3
   194         20
   195          4
   196          1
   201          2
   202          8
   203          4
   204         13
   205          1
   206          0
   207          4
   208          1
   213          1
   214          2
   215          1
   219          0
   220          1
   221          1
   222          0
   223          0
   230          0
   232          3
   233          1
   239          3
   240          0
   250          2
   251          8
   252          1
   253          0
   264          0
   266          0
   268         34
   269         10
   270          1
   282         10
   283          1
   284          2
   300        195
   301         33
   302          4