##TITLE=Library Entry 17353
##JCAMP-DX=Revision 4.10 
##DATA TYPE=MASS SPECTRUM
##SAMPLE DESCRIPTION=LAC, NIDDK, NIH, Bethesda, MD 20892
##NAMES=HP
##CAS NAME=4-Methylmannonic.delta.- lactone
##MOLFORM=C7H12O6
##CAS REGISTRY NO=7404-25-3
##MP= -300
##BP= -300
##MW= 192
##$RETENTION INDEX=0
##$CONDENSED SPECTRUM=NO
##NPOINTS= 105
##XYDATA=(XY..XY) 1 
    42        716
    43        643
    44        171
    45        999
    46         22
    47         42
    48          5
    52          7
    53         42
    54         73
    55        186
    56        232
    57        513
    58        384
    59        373
    60        585
    61        226
    62          9
    63          9
    65          3
    66          3
    67          6
    68         53
    69        152
    70         68
    71        803
    72        120
    73        486
    74        382
    75        635
    76        108
    77         18
    78          7
    79          2
    81         10
    82          7
    83         47
    84         65
    85        264
    86        133
    87        838
    88        315
    89         50
    90        166
    91         17
    92          3
    93          3
    95          4
    96          4
    97         25
    98          2
    99        330
   100         34
   101         26
   102         35
   103        105
   104         20
   105        101
   106          7
   107          1
   109          1
   111         27
   112         11
   113         42
   114          9
   115         35
   116          4
   117        235
   118         19
   119          5
   121          1
   122          4
   123          0
   124          3
   125          8
   126          4
   127          3
   128          0
   129         14
   130         11
   131         17
   132          4
   133         23
   134          0
   135          4
   139          0
   142          1
   143          4
   145         63
   146         24
   147         34
   148          0
   149         10
   157         29
   158          1
   160          1
   161         23
   162         34
   163          2
   174        585
   175        171
   176         16
   177          3
   192         11
   193          1