##TITLE=Library Entry 7719
##JCAMP-DX=Revision 4.10 
##DATA TYPE=MASS SPECTRUM
##SAMPLE DESCRIPTION=James Little, Eastman Chemical Co.
##NAMES=HP
##CAS NAME=1-Dodecanol, 2-octyl-, acetate
##MOLFORM=C22H44O2
##CAS REGISTRY NO=74051-84-6
##MP= -300
##BP= -300
##MW= 340
##$RETENTION INDEX=0
##$CONDENSED SPECTRUM=NO
##NPOINTS= 157
##XYDATA=(XY..XY) 1 
    26          2
    27         37
    28          8
    29        114
    30          3
    31          3
    38          1
    39         35
    40         10
    41        356
    42         76
    43        999
    44         28
    45          4
    50          1
    51          2
    52          1
    53         24
    54         67
    55        525
    56        434
    57        711
    58         38
    59          4
    60          2
    61         65
    62          2
    63          1
    65          6
    66         10
    67        122
    68         99
    69        490
    70        283
    71        391
    72         24
    73         26
    74         54
    75          5
    77          5
    78          1
    79         20
    80          9
    81        101
    82        143
    83        517
    84        184
    85        264
    86         18
    87          1
    89          1
    91          3
    92          1
    93          5
    94          4
    95         59
    96        112
    97        513
    98        170
    99         76
   100          8
   101          1
   105          1
   107          1
   108          1
   109         23
   110         62
   111        334
   112        104
   113         44
   114          5
   121          1
   122          1
   123         12
   124         39
   125        140
   126        134
   127         35
   128          4
   135          1
   136          1
   137          8
   138         65
   139        176
   140         84
   141         21
   142          6
   150          1
   151          3
   152         21
   153         36
   154        134
   155         43
   156          7
   157          1
   165          2
   166         48
   167        100
   168         48
   169         11
   170          5
   171          1
   178          1
   179          1
   180         13
   181         19
   182         69
   183         27
   184          4
   185          1
   192          1
   193          1
   194          7
   195          9
   196         11
   197          4
   198          2
   199          3
   208          6
   209          9
   210          9
   211          4
   212          1
   213          1
   220          1
   222          3
   223          8
   224          6
   225          2
   227          3
   228          5
   229          1
   236          2
   237          4
   238          5
   239          1
   241          1
   250          1
   251          6
   252         33
   253          6
   254          1
   256          4
   257          1
   265          1
   266          1
   267          1
   278          1
   279          6
   280         66
   281         15
   282          2
   297          1
   309          1
   310          1
   322          2
   325          1