##TITLE=Library Entry 80879
##JCAMP-DX=Revision 4.10 
##DATA TYPE=MASS SPECTRUM
##SAMPLE DESCRIPTION=Chemical Concepts
##NAMES=HP
##CAS NAME=4,5-Dimethyl-1-phenyl-hex-4-en-1-one
##MOLFORM=C14H18O
##CAS REGISTRY NO=74055-21-3
##MP= -300
##BP= -300
##MW= 202
##$RETENTION INDEX=0
##$CONDENSED SPECTRUM=NO
##NPOINTS= 155
##XYDATA=(XY..XY) 1 
    26          3
    27         90
    28          8
    29         77
    30          2
    31          1
    34          2
    37          2
    38          7
    39        139
    40         25
    41        300
    42         28
    43        102
    44          5
    45          2
    47          1
    49          2
    50         45
    51        184
    52         25
    54         32
    55        308
    56         19
    57         21
    58          2
    59          2
    60          1
    61          1
    62          5
    63         14
    64          5
    65         35
    66         10
    67        109
    68         12
    69         30
    70         23
    71          4
    72          1
    73          1
    74          9
    75         12
    76         26
    77        527
    78        157
    79         43
    80         18
    81         54
    82         54
    83        121
    84          9
    85          3
    86          1
    87          1
    88          1
    89          7
    90          4
    91         85
    92         32
    93          6
    94          3
    95          8
    96         15
    97         16
    98          3
    99          2
   101          2
   102          6
   103         14
   104          8
   105        999
   106        100
   107         14
   108          2
   109         21
   110          2
   111          2
   113          1
   114          2
   115         20
   116          6
   117         33
   118         16
   119          5
   120        955
   121        109
   122          8
   123          2
   124          1
   125          2
   126          1
   127          6
   128         11
   129         17
   130          6
   131         20
   132          4
   133         42
   134          5
   135          2
   139          1
   140          2
   141         11
   142          5
   143          9
   144         43
   145         28
   146          5
   147          3
   148          2
   149          2
   150          2
   151          1
   152          3
   153          5
   154          6
   155          6
   156          2
   157          5
   158         11
   159         51
   160          9
   161          2
   162          1
   163          1
   164          1
   165          2
   166          1
   167          3
   168          8
   169         64
   170         10
   171          3
   172          7
   173         12
   174          3
   175          2
   179          1
   180          1
   181          1
   182          4
   184        317
   185         57
   186          6
   187        125
   188         19
   189          2
   190          2
   200          1
   201          2
   202        190
   203         33
   204          4
   205          1