##TITLE=Library Entry 80916
##JCAMP-DX=Revision 4.10 
##DATA TYPE=MASS SPECTRUM
##SAMPLE DESCRIPTION=Chemical Concepts
##NAMES=HP
##CAS NAME=2,2,3-Trimethyl-1-phenyl-cyclopent-3-enol
##MOLFORM=C14H18O
##CAS REGISTRY NO=74055-15-5
##MP= -300
##BP= -300
##MW= 202
##$RETENTION INDEX=0
##$CONDENSED SPECTRUM=NO
##NPOINTS= 149
##XYDATA=(XY..XY) 1 
    26          3
    27         62
    28          5
    29         37
    31          3
    38          4
    39         94
    40         14
    41        154
    42         16
    43        126
    44          6
    45          3
    48          3
    49          2
    50         23
    51        102
    52         26
    53         66
    54         17
    55        180
    56         15
    57         21
    58          5
    59          5
    62          8
    63         24
    64         11
    65         45
    66         12
    67         72
    68          9
    69         26
    70         24
    71         10
    72          4
    73          2
    74          9
    75         14
    76         25
    77        438
    78        153
    79         76
    80          9
    81         93
    82         43
    83         92
    84         10
    85          6
    86          9
    87          6
    88          4
    89         17
    90          6
    91        168
    92         33
    93         12
    94          5
    95         15
    96         33
    97         17
    98          3
    99          4
   100          2
   101          8
   102         18
   103         36
   104         12
   105        999
   106         90
   107         22
   108          4
   109         38
   110          4
   111          4
   112          3
   113          6
   114          3
   115         87
   116         25
   117         81
   118         22
   119          9
   120        953
   121         94
   122          9
   123          4
   124          2
   125          5
   126          6
   127         27
   128         66
   129        126
   130         22
   131         47
   132         12
   133         47
   134          8
   135          2
   136         11
   137          4
   138         37
   139         20
   140         35
   141         76
   142         49
   143          9
   145          7
   146          3
   147          7
   149          2
   150          6
   152         20
   153         23
   154         25
   155         17
   156          6
   157         14
   158         19
   159         77
   160         17
   161          4
   163          2
   164          2
   165         13
   166          6
   167         12
   168         13
   169        116
   170         20
   171          8
   172          9
   173         16
   174          4
   175          3
   181          2
   182          2
   183          7
   184        502
   185         88
   186          8
   187        153
   188         22
   189          2
   200          2
   201          3
   202        182
   203         31
   204          3