##TITLE=Library Entry 7432
##JCAMP-DX=Revision 4.10 
##DATA TYPE=MASS SPECTRUM
##SAMPLE DESCRIPTION=Chemical Concepts
##NAMES=HP
##CAS NAME=1,2,2,3-Tetramethylcyclopent-3-enol
##MOLFORM=C9H16O
##CAS REGISTRY NO=74055-14-4
##MP= -300
##BP= -300
##MW= 140
##$RETENTION INDEX=0
##$CONDENSED SPECTRUM=NO
##NPOINTS= 79
##XYDATA=(XY..XY) 1 
    26          8
    27        180
    28         22
    29        112
    30          2
    31         22
    37          3
    38         14
    39        266
    40         41
    41        394
    42         43
    43        999
    44         25
    45         32
    50         19
    51         60
    52         23
    53        131
    54         46
    55        733
    56         49
    57         62
    58         83
    59         38
    60          2
    61          4
    62          5
    63         17
    64          4
    65         55
    66         19
    67        309
    68         24
    69        178
    70         91
    71         78
    72          7
    73          2
    74          2
    75          4
    77         77
    78         16
    79        115
    80         16
    81        173
    82        404
    83        396
    84         31
    85         18
    86          7
    87          2
    89          3
    91        116
    92         20
    93         33
    94         19
    95         43
    96         45
    97        388
    98         47
    99          4
   103          7
   105         34
   107        565
   108         73
   109         25
   110         20
   111         11
   112          2
   121          9
   122        561
   123        104
   124          8
   125        385
   126         30
   127          2
   140        115
   141         12