##TITLE=Library Entry 97847
##JCAMP-DX=Revision 4.10 
##DATA TYPE=MASS SPECTRUM
##SAMPLE DESCRIPTION=Chemical Concepts
##NAMES=HP
##CAS NAME=1(4H)-Naphthalenone, 4a,5,8,8a-tetrahydro-4-hydroxy-, (4.alpha.,4
a.beta.,8a.beta.)-
##MOLFORM=C10H12O2
##CAS REGISTRY NO=74069-53-7
##MP= -300
##BP= -300
##MW= 164
##$RETENTION INDEX=0
##$CONDENSED SPECTRUM=NO
##NPOINTS= 111
##XYDATA=(XY..XY) 1 
    26         50
    27        183
    28          5
    29        106
    30         10
    31         32
    37          6
    38         30
    39        345
    40         62
    41        166
    42         27
    43         70
    44          9
    45         10
    47          3
    49          3
    50         74
    51        182
    52        102
    53        193
    54         88
    55        544
    56        278
    57        161
    58         17
    59          3
    60          6
    61          5
    62         17
    63         73
    64         17
    65        130
    66         97
    67         64
    68        111
    69         73
    70        215
    71         29
    72          4
    73         15
    74         15
    75         15
    76         10
    77        433
    78        162
    79        451
    80        106
    81        161
    82         85
    83         31
    84        464
    85         31
    86         36
    87          6
    88          2
    89         17
    90         13
    91        246
    92         54
    93         31
    94        133
    95         90
    96         16
    97         15
    98          6
    99          2
   101          2
   102         10
   103         73
   104         38
   105         86
   106          8
   107        119
   108         33
   109         33
   110        208
   111         18
   112          3
   113          2
   114          2
   115         84
   116         53
   117        523
   118        999
   119        149
   120         32
   121         23
   122         12
   123         35
   124          3
   127         47
   128         32
   129         36
   130         10
   131         95
   132         13
   133         19
   134          4
   135         17
   136         12
   137          3
   141          3
   144          4
   145        172
   146        169
   147         31
   148          6
   162          2
   163          5
   164          4