##TITLE=Library Entry 21205
##JCAMP-DX=Revision 4.10 
##DATA TYPE=MASS SPECTRUM
##SAMPLE DESCRIPTION=RALPH O. MUMMA
##NAMES=HP
##CAS NAME=L-Valine, N-[(2,4-dichlorophenoxy)acetyl]-
##MOLFORM=C13H15Cl2NO4
##CAS REGISTRY NO=7407-66-1
##MP= -300
##BP= -300
##MW= 319
##$RETENTION INDEX=0
##$CONDENSED SPECTRUM=NO
##NPOINTS= 56
##XYDATA=(XY..XY) 1 
    41        390
    42        610
    43        999
    45        460
    55        999
    56        540
    57        440
    59        500
    63        610
    69        330
    70        850
    72        980
    73        330
    74        740
    75        610
    84        830
    98        999
    99        780
   100        780
   109        650
   111        780
   113        390
   114        650
   115        999
   133        590
   134         60
   135        410
   145        850
   146        130
   147        700
   158        240
   161        300
   162        800
   163        170
   164        520
   175        600
   176        130
   177        460
   184        480
   185         70
   186        170
   219         70
   220         60
   221         50
   238        130
   239         20
   240         40
   274        280
   275         60
   276        190
   284        700
   285        130
   286        250
   319         60
   320         20
   321         50