##TITLE=Library Entry 72182
##JCAMP-DX=Revision 4.10 
##DATA TYPE=MASS SPECTRUM
##SAMPLE DESCRIPTION=Japan AIST/NIMC Database- Spectrum MS-IW-3551
##NAMES=HP
##CAS NAME=Butanoic acid, 2-ethyl-, 2-methylpropyl ester
##MOLFORM=C10H20O2
##CAS REGISTRY NO=74082-06-7
##MP= -300
##BP= -300
##MW= 172
##$RETENTION INDEX=1083
##$CONDENSED SPECTRUM=NO
##NPOINTS= 76
##XYDATA=(XY..XY) 1 
    15          5
    17          1
    18          4
    26          6
    27        118
    28         23
    29        248
    30          6
    31         11
    32          1
    33          2
    37          1
    38          4
    39        100
    40         17
    41        377
    42         64
    43        690
    44         23
    45         18
    47          4
    50          2
    51          4
    52          1
    53         16
    54          6
    55        178
    56        647
    57        582
    58         25
    59          8
    60         12
    61          2
    65          1
    67          3
    68          3
    69         28
    70         62
    71        976
    72         62
    73        100
    74          8
    75          5
    78          1
    81          1
    83          9
    84          1
    85          7
    86          2
    87        167
    88        323
    89         44
    90          3
    97          4
    98          7
    99        999
   100         70
   101         38
   102          2
   103          1
   105          1
   113          1
   114          3
   115          7
   116         32
   117        670
   118         45
   119          4
   129         21
   130          2
   142          5
   143          3
   144         93
   145          9
   157          3
   172          1