##TITLE=Library Entry 1277
##JCAMP-DX=Revision 4.10 
##DATA TYPE=MASS SPECTRUM
##SAMPLE DESCRIPTION=Japan AIST/NIMC Database- Spectrum MS-NW-7672
##NAMES=HP
##CAS NAME=3-Nitrobenzylamine
##MOLFORM=C7H8N2O2
##CAS REGISTRY NO=7409-18-9
##MP= -300
##BP= -300
##MW= 152
##$RETENTION INDEX=0
##$CONDENSED SPECTRUM=NO
##NPOINTS= 86
##XYDATA=(XY..XY) 1 
    12          1
    14          1
    15          3
    16          3
    25          1
    26          9
    27         36
    28        249
    29        119
    30        999
    31         14
    39         88
    40         14
    41         17
    42          7
    43          2
    44          2
    46         11
    49          9
    50        140
    51        188
    52         67
    53         22
    54         27
    55          3
    56          1
    57          1
    60          1
    61         11
    62         31
    63         97
    64         25
    65         21
    66         22
    67         15
    68          2
    73          8
    74         44
    75         36
    76         74
    77        486
    78        152
    79         92
    80         12
    81          1
    85          2
    86          6
    87          7
    88          3
    89        105
    90         53
    91         23
    92          9
    93         30
    94         16
    95          3
    99          1
   100          2
   102          5
   103         12
   104        147
   105        278
   106        183
   107        733
   108        101
   109          8
   116         13
   117          3
   118          2
   119          2
   120          2
   121          5
   122          3
   123          1
   124         11
   125         13
   126          1
   134          3
   135         14
   136         14
   137          1
   149          3
   150          2
   151        110
   152         28
   153          5