##TITLE=Library Entry 57286
##JCAMP-DX=Revision 4.10 
##DATA TYPE=MASS SPECTRUM
##SAMPLE DESCRIPTION=Chemical Concepts
##NAMES=HP
##CAS NAME=1,3-Dioxolane, 2-heptyl-4-methyl-
##MOLFORM=C11H22O2
##CAS REGISTRY NO=74094-61-4
##MP= -300
##BP= -300
##MW= 186
##$RETENTION INDEX=0
##$CONDENSED SPECTRUM=NO
##NPOINTS= 76
##XYDATA=(XY..XY) 1 
    26          5
    27         64
    28         12
    29         83
    30          2
    31        125
    33          0
    37          0
    38          1
    39         42
    40          7
    41        177
    42         27
    43         42
    44          6
    45         13
    47          1
    50          0
    51          1
    52          0
    53          7
    54          5
    55         40
    56         11
    57         34
    58         17
    59        259
    60          8
    61          0
    65          1
    66          1
    67         11
    68          9
    69         19
    70          5
    71         19
    72          1
    73          1
    75          0
    77          0
    79          1
    80          0
    81          7
    82          7
    83          6
    84          2
    85          7
    86          0
    87        999
    88         42
    89          5
    95          4
    96          0
    97          0
    99          3
   100          2
   101          1
   102          1
   109          4
   110         10
   111          4
   112          1
   113          6
   114          0
   115          0
   125          0
   127          5
   128          0
   141          0
   142          2
   143          0
   156          0
   171          2
   185         20
   186          3
   187          0