##TITLE=Library Entry 54366
##JCAMP-DX=Revision 4.10 
##DATA TYPE=MASS SPECTRUM
##SAMPLE DESCRIPTION=Japan AIST/NIMC Database- Spectrum MS-NW-2381
##NAMES=HP
##CAS NAME=Glycyl-L-glutamic acid
##MOLFORM=C7H12N2O5
##CAS REGISTRY NO=7412-78-4
##MP= -300
##BP= -300
##MW= 204
##$RETENTION INDEX=0
##$CONDENSED SPECTRUM=NO
##NPOINTS= 149
##XYDATA=(XY..XY) 1 
    12          3
    13          3
    14         17
    15         22
    16          8
    17         39
    18        152
    24          1
    25          6
    26         68
    27        194
    28        549
    29        147
    30        649
    31         15
    32          4
    33          1
    34          2
    36          1
    37         10
    38         19
    39         85
    40         49
    41        353
    42        249
    43         93
    44        121
    45         31
    46          4
    47          1
    50          4
    51         11
    52         29
    53         27
    54        113
    55        267
    56        346
    57         62
    58         43
    59          9
    60         15
    61          3
    62          1
    63          1
    64          3
    65          4
    66         13
    67         17
    68         66
    69        156
    70         69
    71         13
    72          6
    73         21
    74         17
    75          2
    76          1
    77          3
    78          3
    79          4
    80          6
    81          8
    82         44
    83        248
    84        999
    85        230
    86         31
    87          3
    91          2
    92          3
    93          5
    94          6
    95         35
    96         16
    97        442
    98         67
    99         43
   100          7
   101          8
   102         20
   103          2
   104          1
   105          3
   106          2
   107          4
   108          3
   109          6
   110          9
   111         92
   112         70
   113         42
   114         28
   115         40
   116          4
   117          2
   118          1
   119          1
   120          3
   121          2
   122          6
   123          7
   124         10
   125        144
   126        366
   127         79
   128          6
   129          5
   130          4
   131          1
   134          1
   135          2
   136          2
   137          2
   138          6
   139         71
   140        184
   141         17
   142          2
   143         13
   144          4
   148          1
   149          1
   150          5
   151          3
   152          3
   153          2
   154          1
   157          2
   158          1
   161          1
   163          1
   164          2
   165          1
   166          7
   167          3
   168        723
   169         66
   170          7
   177          1
   178          1
   179          3
   180          1
   181          1
   182          3
   184          1
   186         25
   187          3
   204          1
   205          2