##TITLE=Library Entry 22504
##JCAMP-DX=Revision 4.10 
##DATA TYPE=MASS SPECTRUM
##SAMPLE DESCRIPTION=Dennis Rohrbaugh, CBDCOM/ERDEC, Edgewood, MD
##NAMES=HP
##CAS NAME=n-Butyl trifluoromethyl sulfide
##MOLFORM=C5H9F3S
##CAS REGISTRY NO=7412-26-2
##MP= -300
##BP= -300
##MW= 158
##$RETENTION INDEX=0
##$CONDENSED SPECTRUM=NO
##NPOINTS= 27
##XYDATA=(XY..XY) 1 
    45        232
    46        127
    47        311
    55        190
    56        999
    57        467
    58        109
    59        118
    60         84
    69        518
    70         35
    71         50
    72         18
    73         13
    82         35
    83         27
    85         11
    89        252
   115        345
   116         15
   117         17
   129        135
   139         87
   157         19
   158        439
   159        131
   160         27