##TITLE=Library Entry 14457
##JCAMP-DX=Revision 4.10 
##DATA TYPE=MASS SPECTRUM
##SAMPLE DESCRIPTION=A. Brossi, LC, NIDDK, NIH, Bethesda, MD 20892
##NAMES=HP
##CAS NAME=Tetrahydrooxycolchicine
##MOLFORM=C22H29NO7
##CAS REGISTRY NO=74120-06-2
##MP= -300
##BP= -300
##MW= 419
##$RETENTION INDEX=0
##$CONDENSED SPECTRUM=NO
##NPOINTS= 219
##XYDATA=(XY..XY) 1 
    42         76
    43        999
    44         60
    45         23
    51          4
    53         17
    54         10
    55         45
    56         64
    57         26
    58         57
    59         41
    60         16
    65         13
    66          3
    67          9
    68          3
    69          4
    70          9
    71          4
    72          3
    74          4
    75          3
    76          3
    77         27
    78         11
    79         11
    80          4
    81          3
    82          3
    84          4
    85          4
    86          3
    89          9
    90          4
    91         34
    92          5
    93          4
    94          3
    96          3
    98          3
   100         18
   102          9
   103         21
   104          9
   105         12
   106          4
   107          4
   108          3
   115         59
   116         14
   117         19
   118         10
   119          5
   120          3
   121          5
   127         19
   128         37
   129         29
   130         13
   131         24
   132         12
   133          6
   134          3
   135          3
   136          3
   137          3
   139          3
   141         22
   142          9
   143         16
   144         20
   145         26
   146         10
   147         11
   148          4
   149          3
   150          3
   151          8
   152          9
   153         11
   154          4
   155         10
   156         10
   157         21
   158         18
   159         25
   160         15
   161         20
   162          3
   163          4
   165         13
   166          3
   167          5
   168          5
   169         11
   170          9
   171         23
   172         12
   173         29
   174         17
   175         24
   176          6
   177          5
   179          3
   181         39
   182          9
   183         14
   184         10
   185         20
   186         16
   187         28
   188         33
   189         35
   190         15
   191         18
   192          3
   193          3
   195          5
   196          3
   197          6
   198          5
   199         21
   200         17
   201         33
   202         24
   203         27
   204         17
   205         35
   206         10
   207         14
   211          6
   212          6
   213         17
   214         26
   215         38
   216         30
   217         41
   218         30
   219         50
   220         14
   221         16
   222          6
   225          4
   226          4
   227         30
   228         21
   229         27
   230         28
   231         96
   232         30
   233         26
   234          5
   235          3
   240          3
   241         18
   242         14
   243         32
   244         24
   245        126
   246         37
   247         20
   248         73
   249         26
   255          4
   256          3
   257         20
   258         25
   259         65
   260         21
   261         14
   262         39
   263         11
   269         10
   271         11
   272         13
   273         81
   274         25
   275         10
   276         17
   277          3
   280          3
   285         10
   286         34
   287         25
   288         34
   289         20
   290        748
   291        149
   292         26
   293          3
   299          4
   300          8
   301         31
   302         41
   303         28
   304         90
   305         21
   306          4
   316          3
   317         26
   318        122
   319         25
   320          6
   332         72
   333         15
   334         47
   335          8
   345          9
   346         27
   347          3
   348          8
   349         15
   360         15
   377        179
   378         39
   379          3
   419         40
   420          9