##TITLE=Library Entry 72380
##JCAMP-DX=Revision 4.10 
##DATA TYPE=MASS SPECTRUM
##SAMPLE DESCRIPTION=D.HENNEBERG, MAX-PLANCK INSTITUTE, MULHEIM, WEST GERMAN
Y
##NAMES=HP
##CAS NAME=D-Gulonic acid, .gamma.-lactone, cyclic 2,3:5,6-bis(ethylboronate
)
##MOLFORM=C10H16B2O6
##CAS REGISTRY NO=74128-60-2
##MP= -300
##BP= -300
##MW= 254
##$RETENTION INDEX=0
##$CONDENSED SPECTRUM=NO
##NPOINTS= 138
##XYDATA=(XY..XY) 1 
    26          4
    27         16
    28         13
    29         27
    30          0
    31          2
    38          0
    39         17
    40          8
    41         27
    42         36
    43        115
    44          5
    45          8
    49          0
    50          1
    51          2
    52          2
    53         14
    54         11
    55         31
    56         13
    57         38
    58          1
    59          2
    62          0
    63          0
    64          0
    65          1
    66          2
    67          6
    68         15
    69         46
    70         90
    71         24
    72          2
    73          1
    75          0
    76          0
    77          0
    78          1
    79          2
    80          1
    81         16
    82         12
    83         61
    84         13
    85          5
    86          3
    87          3
    91          0
    92          0
    93          0
    94          1
    95          5
    96         16
    97         47
    98        329
    99        999
   100         56
   101          7
   102          0
   103          0
   104          0
   107          0
   108          1
   109          8
   110         49
   111        164
   112         31
   113          7
   114          2
   115          1
   116          0
   121          0
   122          3
   123         12
   124         31
   125         23
   126          7
   127         12
   128          9
   129          5
   134          0
   135          1
   136          2
   137          6
   138          6
   139          8
   140          7
   141         18
   142          2
   143          1
   149          0
   150          1
   151          3
   152          3
   153          5
   154          5
   155         14
   156         54
   157          3
   158          0
   162          0
   163          1
   165          0
   166          0
   167          1
   168          1
   169          2
   170          1
   178          0
   179          1
   180          2
   181          2
   182          0
   183          0
   192          0
   193          5
   194         11
   195          4
   196          5
   197         11
   198          1
   199          0
   206          0
   207          2
   208          5
   209          3
   210          2
   211          0
   223          0
   224          2
   225          5
   226          0
   235          0
   236          1
   254          0