##TITLE=Library Entry 24393
##JCAMP-DX=Revision 4.10 
##DATA TYPE=MASS SPECTRUM
##SAMPLE DESCRIPTION=Div. of Experiment Therapeutics WRAIR, WRAMC, Washingto
n DC 20307
##NAMES=HP
##CAS NAME=dl-2,3-Bis[hexadecyloxy]iodopropane
##MOLFORM=C35H71IO2
##CAS REGISTRY NO=74123-25-4
##MP= -300
##BP= -300
##MW= 650
##$RETENTION INDEX=0
##$CONDENSED SPECTRUM=NO
##NPOINTS= 164
##XYDATA=(XY..XY) 1 
    41        397
    42        110
    43        704
    44         53
    45          5
    46          0
    47          1
    49          4
    50          0
    51          3
    52          0
    53         16
    54         39
    55        432
    56        158
    57        999
    58         17
    59        178
    60          5
    61          5
    63          1
    65          3
    66          5
    67         71
    68         60
    69        341
    70         98
    71        579
    72         38
    73         10
    74          8
    75        191
    76          4
    77         10
    78          0
    79          8
    80          4
    81         56
    82         71
    83        253
    84         49
    85        449
    86         30
    87          4
    88          0
    89          3
    91          2
    93          3
    94          2
    95         43
    96         34
    97        177
    98         27
    99        137
   100         10
   101          0
   105          0
   107          1
   108          1
   109         23
   110         12
   111         72
   112          3
   113         88
   114          6
   115          1
   121          2
   122          0
   123         11
   124          5
   125         27
   126          2
   127         63
   128          7
   129          0
   135          1
   136          0
   137          6
   138          3
   139          9
   140          3
   141         40
   142          4
   149          0
   151          2
   152          1
   153          4
   154          6
   155         29
   156          3
   165          2
   166          1
   167          3
   168          0
   169         23
   170          2
   171          5
   179          1
   180          0
   181          0
   183         11
   185         11
   193          0
   194          1
   195          0
   196          1
   197          1
   199          1
   201          1
   203          0
   207          0
   211          0
   213          1
   221          1
   222          6
   223          3
   224          1
   225         40
   226          6
   227          1
   239          4
   241          5
   242          1
   251          0
   253         20
   254          2
   255         15
   256          2
   257          1
   263          2
   267          3
   269         16
   270          3
   271          1
   278          0
   279          4
   281         24
   283        423
   284         74
   285          8
   286          1
   297          2
   299         68
   300         14
   301          3
   309          2
   311          4
   312          0
   313          1
   327          0
   351          0
   395         13
   396          2
   409          4
   410          0
   495          0
   522          2
   523         42
   524         14
   525          4
   526          0
   551          1
   650          4
   651          1