##TITLE=Library Entry 18155
##JCAMP-DX=Revision 4.10 
##DATA TYPE=MASS SPECTRUM
##SAMPLE DESCRIPTION=A.A.Kutin, Moscow, Russia
##NAMES=HP
##CAS NAME=3H-1,2,3-Triazolo[4,5-d]pyrimidine, 1,4-diphenyl-
##MOLFORM=C16H11N5
##CAS REGISTRY NO=74136-42-8
##MP= -300
##BP= -300
##MW= 273
##$RETENTION INDEX=0
##$CONDENSED SPECTRUM=NO
##NPOINTS= 56
##XYDATA=(XY..XY) 1 
    37         19
    38         94
    39        292
    40         76
    41         13
    43         12
    44         10
    50        256
    51        999
    52         92
    53          5
    61         15
    62        112
    63        237
    64        103
    65        108
    66          1
    74         58
    75        118
    76        182
    77        983
    78         44
    86          1
    87         32
    88        179
    89        180
    90         28
    91         44
    99          5
   100         19
   101         20
   102          8
   103         58
   104         39
   109         33
   113          1
   114        174
   115        345
   116         33
   117          4
   118         45
   123          5
   127         28
   128         32
   141         33
   142        397
   143         25
   165          1
   190         17
   217         13
   218         72
   219          7
   244        152
   245        161
   246         14
   273         31