##TITLE=Library Entry 86947
##JCAMP-DX=Revision 4.10 
##DATA TYPE=MASS SPECTRUM
##SAMPLE DESCRIPTION=C.Djerassi ET AL.J.Org.Chem.,31,1599(1966)
##NAMES=HP
##CAS NAME=3,11-Diazabicyclo[4.4.1]undecan-4-one, 11-methyl-
##MOLFORM=C10H18N2O
##CAS REGISTRY NO=7415-70-5
##MP= -300
##BP= -300
##MW= 182
##$RETENTION INDEX=0
##$CONDENSED SPECTRUM=NO
##NPOINTS= 64
##XYDATA=(XY..XY) 1 
    41        436
    42        995
    43        137
    44        160
    45        122
    50          8
    51         29
    52         29
    53         74
    54        111
    55        182
    56        214
    57        496
    58         72
    59         12
    60         14
    65         19
    66         21
    67         96
    68        111
    69         49
    70        229
    71         79
    72         17
    73         40
    77         17
    79         27
    80         17
    81         70
    82        216
    83        205
    84         85
    85         19
    91          8
    93          8
    94         62
    95         40
    96        209
    97        122
    98         57
    99         27
   108         34
   109        169
   110        999
   111        115
   112         36
   113          8
   122         17
   123         17
   124        286
   125        111
   126         27
   128         19
   136          8
   139         44
   140         19
   141          6
   151          8
   152          6
   153          8
   167         27
   181          8
   182        235
   183         47