##TITLE=Library Entry 15706
##JCAMP-DX=Revision 4.10 
##DATA TYPE=MASS SPECTRUM
##SAMPLE DESCRIPTION=TAT 0640
##NAMES=HP
##CAS NAME=Morphinan-6-one, 7,8-didehydro-4,5.alpha.-epoxy-14-hydroxy-3-meth
oxy-17-methyl-, cyclic ethylene acetal
##MOLFORM=C20H23NO5
##CAS REGISTRY NO=7415-43-2
##MP= -300
##BP= -300
##MW= 357
##$RETENTION INDEX=0
##$CONDENSED SPECTRUM=NO
##NPOINTS= 191
##XYDATA=(XY..XY) 1 
    41        220
    42        800
    43        480
    44        999
    45        150
    46         30
    47         30
    50         50
    51        130
    52         60
    53        120
    54         80
    55        320
    56        110
    57        110
    58        270
    59         40
    60         40
    62         30
    63        110
    64         50
    65        130
    66         40
    67         70
    68         80
    69         90
    70        950
    71        110
    72         50
    73         70
    74         30
    75         50
    76         60
    77        170
    78         60
    79         90
    80         30
    81         50
    82         80
    83         40
    84         40
    86         30
    87         30
    88         30
    89         80
    90         40
    91        120
    92         40
    93         50
    94         60
    95         90
    96         60
    97         50
    98        170
    99        140
   100         30
   101         40
   102         70
   103         80
   104         30
   105         40
   107         40
   108         40
   109         40
   110         70
   111         10
   112         40
   113         40
   114         50
   115        260
   116         80
   117         60
   118         40
   119         30
   121        130
   122         10
   126        220
   127        140
   128        190
   129         80
   130         40
   131         70
   132         40
   137         30
   138         60
   139        130
   140         60
   141        100
   142         70
   143         60
   144         80
   145         60
   146         40
   147         30
   150         30
   151         70
   152        130
   153         90
   154         70
   155        100
   156         60
   157         50
   158         50
   159         50
   160         30
   161         50
   162         40
   163         30
   165         80
   166         40
   167         60
   168         80
   169         60
   170         60
   171         60
   172         50
   173         50
   174         50
   175         90
   176         30
   178         30
   179         50
   180         40
   181         80
   182        100
   183         70
   184         70
   185        110
   186         60
   187         60
   188         90
   189         50
   190         40
   191         20
   192         30
   193         30
   194         40
   195         50
   196         50
   197         60
   198         60
   199         90
   200         80
   201         60
   202         40
   207         30
   208         30
   209         60
   210         50
   211         80
   212         70
   213         70
   214        130
   215         90
   216         60
   217         10
   223         80
   224         60
   225         60
   226         60
   227         50
   228         80
   229        180
   230        140
   231         40
   237         40
   238         80
   239         50
   240         50
   241         40
   242         40
   251         30
   252         70
   253         40
   254         40
   255         30
   256         50
   266         50
   267         30
   268         30
   270         30
   282         30
   284         30
   300         90
   301         30
   310         50
   311         40
   312         30
   339         40
   357        140
   358         20