##TITLE=Library Entry 53972
##JCAMP-DX=Revision 4.10 
##DATA TYPE=MASS SPECTRUM
##SAMPLE DESCRIPTION=A.Pleshkova, Nesmeyanov Inst.Org.Elem.Cpds, Moscow
##NAMES=HP
##CAS NAME=Lysine, 3TMS derivative
##MOLFORM=C15H38N2O2Si3
##CAS REGISTRY NO=7415-18-1
##MP= -300
##BP= -300
##MW= 362
##$RETENTION INDEX=1945
##$CONDENSED SPECTRUM=NO
##NPOINTS= 55
##XYDATA=(XY..XY) 1 
    45        131
    46          7
    47          5
    57         56
    58          4
    59        103
    60          7
    61          4
    73        965
    74         83
    75         34
    76          2
    84        999
    85         89
    86         36
    87          2
   100         82
   101          9
   102        257
   103         25
   104          9
   115         76
   116          9
   117          4
   128         94
   129         16
   130          4
   145         56
   146          7
   147        179
   148         29
   149         15
   150          2
   156        363
   157         34
   158         11
   159          2
   245         11
   246         18
   247          4
   248          2
   257         16
   258         18
   259          4
   260          2
   271          4
   272          2
   290          9
   291          4
   292          2
   347          5
   362         47
   363         16
   364          7
   365          2