##TITLE=Library Entry 73593
##JCAMP-DX=Revision 4.10 
##DATA TYPE=MASS SPECTRUM
##SAMPLE DESCRIPTION=NIST Mass Spectrometry Data Center, 1990.
##NAMES=HP
##CAS NAME=Indol-4(5H)-one, 3-ethyl-6,7-dihydro-2-methyl-5-(morpholinomethyl
)-
##MOLFORM=C16H24N2O2
##CAS REGISTRY NO=7416-34-4
##MP= -300
##BP= -300
##MW= 276
##$RETENTION INDEX=2493
##$CONDENSED SPECTRUM=NO
##NPOINTS= 95
##XYDATA=(XY..XY) 1 
    14          8
    27         20
    28        126
    29         39
    30         16
    32         16
    39         19
    40          8
    41         38
    42        101
    43         21
    44         42
    45          6
    51         15
    52         12
    53         15
    54         14
    55         24
    56        109
    57         26
    58          6
    63          7
    64          8
    65         19
    66          7
    67          7
    68         11
    69          7
    70         46
    71         24
    72         24
    73          5
    77         46
    78         15
    79         24
    80         11
    81          6
    82          7
    84          6
    86         17
    87         14
    88          4
    91         29
    92          7
    93         13
    94          8
    98         77
   100        999
   101         66
   102         26
   103         10
   104          7
   105         11
   106         13
   107         11
   115         10
   117         16
   118         22
   119         13
   120         77
   121         29
   122          8
   123          8
   126         15
   130         18
   131         18
   132         34
   133         15
   134         12
   143          7
   144         18
   145          9
   146         30
   147         35
   148         36
   149         12
   150          7
   158          9
   159         10
   160         61
   161         16
   162         22
   163          8
   174        120
   175        181
   176        218
   177         35
   188         11
   189         58
   190         14
   191          6
   245          8
   274          5
   276        110
   277         20