##TITLE=Library Entry 59390
##JCAMP-DX=Revision 4.10 
##DATA TYPE=MASS SPECTRUM
##SAMPLE DESCRIPTION=Japan AIST/NIMC Database- Spectrum MS-IW-2832
##NAMES=HP
##CAS NAME=2-(Benzylthio)-2-methylpropane
##MOLFORM=C11H16S
##CAS REGISTRY NO=7417-73-4
##MP= -300
##BP= -300
##MW= 180
##$RETENTION INDEX=0
##$CONDENSED SPECTRUM=NO
##NPOINTS= 74
##XYDATA=(XY..XY) 1 
    15          1
    26          1
    27         12
    28          5
    29         69
    30          1
    32          2
    34          1
    37          1
    38          4
    39         45
    40          4
    41        126
    42          5
    43          1
    44          2
    45         73
    46          2
    47          6
    49          9
    50          7
    51         23
    52          5
    53          4
    54          1
    55         13
    56         14
    57        654
    58         28
    59         14
    60          1
    61          3
    62          4
    63         16
    64          5
    65         66
    66          4
    69          3
    71          2
    73          1
    74          4
    75          2
    76          1
    77         30
    78         10
    79         11
    80          1
    87          1
    88          2
    89         25
    90          8
    91        999
    92         84
    93          3
    97          1
   105          1
   106          1
   107          2
   108          3
   121         19
   122          8
   123         19
   124        388
   125         33
   126         18
   127          1
   131          1
   151          1
   165          9
   166          1
   180        344
   181         44
   182         17
   183          2