##TITLE=Library Entry 61816
##JCAMP-DX=Revision 4.10 
##DATA TYPE=MASS SPECTRUM
##SAMPLE DESCRIPTION=Japan AIST/NIMC Database- Spectrum MS-NW-5454
##NAMES=HP
##CAS NAME=Benzeneethanol, 2-methoxy-
##MOLFORM=C9H12O2
##CAS REGISTRY NO=7417-18-7
##MP= -300
##BP= -300
##MW= 152
##$RETENTION INDEX=1645
##$CONDENSED SPECTRUM=NO
##NPOINTS= 91
##XYDATA=(XY..XY) 1 
    14          2
    15         11
    17          3
    18         11
    26          6
    27         25
    28         19
    29         16
    30          3
    31         34
    32          1
    37          3
    38         13
    39         77
    40          8
    41         17
    42          2
    43          7
    44          2
    45          8
    46          1
    49          2
    50         29
    51         82
    52         45
    53         19
    54          2
    55          6
    57          1
    59          1
    61          4
    62         13
    63         45
    64         13
    65        147
    66         10
    67          2
    68          2
    71          1
    72          1
    73          1
    74          8
    75          8
    76          7
    77        107
    78         80
    79         32
    80          4
    81          2
    84          2
    85          1
    86          2
    87          2
    88          1
    89         37
    90         23
    91        999
    92         91
    93         76
    94          8
    95          1
    98          1
   101          2
   102          4
   103         12
   104          3
   105         11
   106          4
   107         71
   108         15
   109          3
   115          1
   117          1
   118          4
   119         20
   120         21
   121        972
   122        263
   123         22
   124          2
   131          1
   133          3
   134         10
   135          6
   136          2
   149          2
   150          5
   151          4
   152        468
   153         50
   154          5