##TITLE=Library Entry 65758
##JCAMP-DX=Revision 4.10 
##DATA TYPE=MASS SPECTRUM
##SAMPLE DESCRIPTION=V.A.Korolev, Moscow, Russia
##NAMES=HP
##CAS NAME=4-Aminopyridine-3-carboxylic acid
##MOLFORM=C6H6N2O2
##CAS REGISTRY NO=7418-65-7
##MP= -300
##BP= -300
##MW= 138
##$RETENTION INDEX=0
##$CONDENSED SPECTRUM=NO
##NPOINTS= 65
##XYDATA=(XY..XY) 1 
    34         13
    36         24
    37        178
    38        565
    39        981
    40        291
    41        581
    42        216
    43        296
    44        178
    45        658
    46         31
    47         28
    48          6
    49         34
    50        150
    51        116
    52        366
    53        216
    54         76
    55        118
    56         39
    57         89
    58         12
    62         13
    63         38
    64        131
    65        538
    66        697
    67        262
    68        120
    69         75
    70         51
    71         58
    72          5
    73         21
    74          6
    75         13
    76         23
    77         31
    78         14
    79         14
    80          5
    81         23
    82         17
    83         32
    84         29
    85         10
    91         30
    92        153
    93        999
    94        162
    95         24
    96          7
   110          4
   111          7
   119         19
   120        964
   121        147
   122         16
   123          5
   137          4
   138        902
   139         99
   140          9