##TITLE=Library Entry 46222
##JCAMP-DX=Revision 4.10 
##DATA TYPE=MASS SPECTRUM
##SAMPLE DESCRIPTION=Chemical Concepts
##NAMES=HP
##CAS NAME=Hydrazinecarbothioamide, 2-[(2-bromophenyl)methylene]-
##MOLFORM=C8H8BrN3S
##CAS REGISTRY NO=7420-34-0
##MP= -300
##BP= -300
##MW= 257
##$RETENTION INDEX=0
##$CONDENSED SPECTRUM=NO
##NPOINTS= 127
##XYDATA=(XY..XY) 1 
    27         23
    28          5
    29         22
    33         11
    34          5
    37         12
    38         25
    39        107
    40          7
    41         40
    42         29
    43        939
    44         27
    45         12
    47         14
    48         28
    49         11
    50        137
    51         89
    52         20
    55         34
    56         16
    57         60
    58          7
    59         48
    60        385
    61         29
    62         68
    63        167
    64         38
    65        112
    66         12
    67         12
    69         32
    70         12
    71         32
    73         14
    74         64
    75        195
    76        999
    77        110
    78         53
    81         16
    82          8
    83         21
    84         12
    85         20
    86         12
    87         17
    88         15
    89        276
    90        123
    91         69
    92        261
    93         26
    95         13
    96          6
    97         20
    99          7
   101          9
   102        328
   103         86
   104         27
   105          6
   108          6
   109         17
   111         13
   113          6
   117         25
   118        203
   119        347
   120         33
   121         10
   123          9
   125          7
   128          5
   129          5
   131          5
   134         10
   135         16
   136         18
   137          5
   144          6
   146         27
   147          6
   149         66
   150          9
   151          5
   155         65
   156         17
   157         66
   158         17
   161         88
   162         11
   163          5
   169         13
   170          9
   171         17
   172          7
   173          7
   178        311
   179         38
   180         16
   181         48
   182        349
   183         82
   184        357
   185         37
   186         20
   191          2
   197         50
   198          8
   199         49
   200          7
   223          2
   224         11
   225          3
   226         14
   228          5
   240         12
   242         12
   256         11
   257        360
   258         55
   259        363
   260         47
   261         19