##TITLE=Library Entry 96812
##JCAMP-DX=Revision 4.10 
##DATA TYPE=MASS SPECTRUM
##SAMPLE DESCRIPTION=NIST Mass Spectrometry Data Center, 1998.
##NAMES=HP
##CAS NAME=3-Bromo-7-nitroindazole
##MOLFORM=C7H4BrN3O2
##CAS REGISTRY NO=74209-34-0
##MP= -300
##BP= -300
##MW= 241
##$RETENTION INDEX=0
##$CONDENSED SPECTRUM=NO
##NPOINTS= 29
##XYDATA=(XY..XY) 1 
    30         71
    37         25
    38         56
    50         42
    51         35
    52         94
    61         80
    62        145
    63         67
    64         53
    65         76
    75         46
    76         80
    77        127
    86         70
    87        164
    88        116
    89         99
   103         10
   104        138
   105         74
   115         19
   116        999
   117         47
   132         92
   211        155
   213        176
   241        419
   243        426