##TITLE=Library Entry 9343
##JCAMP-DX=Revision 4.10 
##DATA TYPE=MASS SPECTRUM
##SAMPLE DESCRIPTION=Chemical Concepts
##NAMES=HP
##CAS NAME=Hydrazinecarbothioamide, 2-[(3-bromophenyl)methylene]-
##MOLFORM=C8H8BrN3S
##CAS REGISTRY NO=7420-35-1
##MP= -300
##BP= -300
##MW= 257
##$RETENTION INDEX=0
##$CONDENSED SPECTRUM=NO
##NPOINTS= 132
##XYDATA=(XY..XY) 1 
    27         39
    29         47
    31         23
    33         12
    34         12
    37         17
    38         34
    39        105
    40         10
    41        106
    42         55
    43        999
    44         53
    45         55
    47         13
    48         25
    49         17
    50        180
    51        100
    52         24
    53         13
    54         29
    55        147
    56         45
    57        152
    58         14
    59         66
    60        398
    61         44
    62         83
    63        169
    64         36
    65         84
    66         14
    67         59
    68         38
    69        132
    70         44
    71         86
    73         60
    74        119
    76        895
    77        112
    78         41
    79         22
    80         18
    81         66
    82         54
    83        103
    84         51
    85         60
    86         18
    87         32
    88         22
    89        254
    90        107
    91         87
    92        171
    93         34
    94         16
    95         54
    96         51
    97         87
    98         41
    99         24
   100         17
   101         18
   102        334
   103         77
   104         24
   105         12
   107         14
   109         34
   110         27
   111         47
   112         20
   113         15
   115         18
   116         19
   117         29
   118        222
   119        131
   120         18
   121         17
   123         25
   124         19
   125         23
   127         13
   129         26
   135         18
   137         18
   138         16
   139         14
   141         21
   149         28
   152         19
   155        169
   156         32
   157        165
   158         30
   161         12
   168         12
   169         18
   170         18
   171         91
   172         13
   173         78
   181        105
   182        225
   183        138
   184        232
   185         45
   186         22
   197         92
   198         70
   199         93
   200         63
   201         13
   223         21
   224         16
   225         21
   226         20
   240         79
   241         11
   242         79
   243         10
   256         14
   257        339
   258         52
   259        346
   260         42
   261         18