##TITLE=Library Entry 33235
##JCAMP-DX=Revision 4.10 
##DATA TYPE=MASS SPECTRUM
##SAMPLE DESCRIPTION=NIST Mass Spectrometry Data Center, 1990.
##NAMES=HP
##CAS NAME=1,2,4-Methenocyclopenta[cd]pentalene-5-carboxaldehyde, 2,2a,3,3,4
,7-hexachlorodecahydro-, (1.alpha.,2.beta.,2a.beta.,4.beta.,4a.beta.,5.beta.
,6a.beta.,6b.beta.,7R*)-
##MOLFORM=C12H8Cl6O
##CAS REGISTRY NO=7421-93-4
##MP= -300
##BP= -300
##MW= 378
##$RETENTION INDEX=2261
##$CONDENSED SPECTRUM=NO
##NPOINTS= 161
##XYDATA=(XY..XY) 1 
    27         42
    29        183
    39        123
    40         32
    41         55
    50         51
    51         76
    55         25
    57         30
    61         41
    62         64
    63         96
    65        154
    66        281
    67        999
    68         74
    69         36
    72         31
    73        153
    74         95
    75        139
    77        118
    79         68
    81         18
    83         36
    84         46
    85         92
    86        103
    87         87
    89         40
    91         23
    94         76
    95        147
    96         45
    97         75
    98         55
    99        118
   100         41
   101        142
   102         38
   103         63
   104         41
   105         46
   107         62
   108         57
   109        103
   110         51
   111        103
   112         30
   113         75
   115         37
   117         20
   119         33
   120         34
   121         55
   122         45
   123         67
   125         34
   126         29
   133         82
   134         35
   135         72
   136         30
   137        110
   138         66
   139        132
   140         28
   141         30
   143         36
   145         54
   146         45
   147        106
   148         44
   149        122
   150         25
   151         48
   159         61
   161         53
   162         39
   167         26
   169         57
   170         36
   171         61
   172         46
   173        218
   174         63
   175         89
   180         40
   181         56
   182         66
   183         97
   184         52
   185        139
   186         23
   187         91
   193         50
   194         50
   195         48
   196         79
   197         32
   198         41
   203         48
   204         43
   205         49
   206         41
   207        107
   208         55
   209        188
   210         49
   211         93
   213         30
   214         33
   215         52
   216         46
   217        136
   218         42
   219        122
   220         29
   221         45
   229         33
   230         30
   237         30
   242         27
   243        191
   244         81
   245        182
   246         73
   247         74
   248        246
   249         46
   250        353
   251         94
   252        239
   253         77
   254         96
   255         44
   256         63
   257         22
   258         51
   260         25
   265         26
   277         62
   278         28
   279        168
   280         43
   281        152
   282         31
   283         67
   307         33
   309         39
   315         45
   317         65
   319         39
   343        256
   344         40
   345        434
   346         56
   347        283
   348         35
   349         97
   351         27