##TITLE=Library Entry 96652
##JCAMP-DX=Revision 4.10 
##DATA TYPE=MASS SPECTRUM
##SAMPLE DESCRIPTION=Chemical Concepts
##NAMES=HP
##CAS NAME=Bicyclo[3.2.0]hepta-3,6-diene-1-carbonitrile
##MOLFORM=C8H7N
##CAS REGISTRY NO=74212-80-9
##MP= -300
##BP= -300
##MW= 117
##$RETENTION INDEX=0
##$CONDENSED SPECTRUM=NO
##NPOINTS= 92
##XYDATA=(XY..XY) 1 
    25         11
    26         83
    27        164
    28         33
    29         19
    30          1
    31         17
    32          0
    36          4
    37         98
    38        158
    39        370
    40         53
    41         46
    42          4
    43         27
    44          7
    45         42
    46          3
    47          1
    48          2
    49         19
    50        110
    51        135
    52         64
    53         26
    54         20
    55          7
    56          1
    57          2
    58          6
    59          3
    60          6
    61         52
    62         99
    63        251
    64        234
    65        103
    66        126
    67         14
    68          8
    69          3
    70          2
    71          0
    72          1
    73         16
    74         17
    75         36
    76         34
    77         37
    78         14
    79          4
    80         16
    81          6
    82         25
    83          2
    84          2
    85          7
    86         12
    87         20
    88         37
    89        482
    90        699
    91        429
    92         29
    93          2
    94          0
    95          0
    96          2
    97          4
    98          0
    99          2
   100          2
   101          1
   102          4
   103          6
   104          2
   105          1
   106          0
   107          1
   108          0
   109          0
   110          4
   111          2
   112          1
   113          0
   114         11
   115         12
   116        999
   117        700
   118         62
   119          2