##TITLE=Library Entry 73879
##JCAMP-DX=Revision 4.10 
##DATA TYPE=MASS SPECTRUM
##SAMPLE DESCRIPTION=ATLAS OF MASS SPECTRA OF ORGANIC COMPOUNDS, V. A. KOPTY
UG, ED.
##NAMES=HP
##CAS NAME=Hydrazine, 1,1-dibutyl-
##MOLFORM=C8H20N2
##CAS REGISTRY NO=7422-80-2
##MP= -300
##BP= -300
##MW= 144
##$RETENTION INDEX=0
##$CONDENSED SPECTRUM=NO
##NPOINTS= 25
##XYDATA=(XY..XY) 1 
    27         55
    28         30
    29        143
    30         35
    31         12
    39         26
    41        121
    42         37
    43         48
    44         45
    45        513
    46         29
    55         20
    56         12
    57        141
    58         18
    59        152
    70         12
    84         16
    86         12
    87         10
   101        999
   102        101
   144        177
   145         29