##TITLE=Library Entry 16008
##JCAMP-DX=Revision 4.10 
##DATA TYPE=MASS SPECTRUM
##SAMPLE DESCRIPTION=ATLAS OF MASS SPECTRA OF ORGANIC COMPOUNDS, V. A. KOPTY
UG, ED.
##NAMES=HP
##CAS NAME=Propanal, dimethylhydrazone
##MOLFORM=C5H12N2
##CAS REGISTRY NO=7422-93-7
##MP= -300
##BP= -300
##MW= 100
##$RETENTION INDEX=785
##$CONDENSED SPECTRUM=NO
##NPOINTS= 25
##XYDATA=(XY..XY) 1 
    27        158
    28        267
    29        111
    30         91
    39         69
    40         33
    41        106
    42        454
    43        661
    44        999
    45        491
    46         27
    54         26
    55         24
    56        103
    57         35
    58        157
    59         28
    71         59
    72         15
    85        346
    86         22
    99         90
   100        724
   101         64