##TITLE=Library Entry 38146
##JCAMP-DX=Revision 4.10 
##DATA TYPE=MASS SPECTRUM
##SAMPLE DESCRIPTION=ATLAS OF MASS SPECTRA OF ORGANIC COMPOUNDS, V. A. KOPTY
UG, ED.
##NAMES=HP
##CAS NAME=Acetaldehyde, propylhydrazone
##MOLFORM=C5H12N2
##CAS REGISTRY NO=7422-88-0
##MP= -300
##BP= -300
##MW= 100
##$RETENTION INDEX=820
##$CONDENSED SPECTRUM=NO
##NPOINTS= 22
##XYDATA=(XY..XY) 1 
    28         15
    29         67
    30        670
    31         18
    39         35
    40         16
    41         93
    42        268
    43         78
    44         37
    54          6
    55          9
    56         25
    57         37
    58         40
    69         13
    71        999
    72         50
    85         25
    99          8
   100        289
   101         45