##TITLE=Library Entry 107438
##JCAMP-DX=Revision 4.10 
##DATA TYPE=MASS SPECTRUM
##SAMPLE DESCRIPTION=Pu Leung, NIH, Bethesda, MD
##NAMES=HP
##CAS NAME=Sulfometuron methyl ester
##MOLFORM=C15H16N4O5S
##CAS REGISTRY NO=74222-97-2
##MP= -300
##BP= -300
##MW= 364
##$RETENTION INDEX=0
##$CONDENSED SPECTRUM=NO
##NPOINTS= 150
##XYDATA=(XY..XY) 1 
    41         35
    42        128
    43         92
    44          9
    45          5
    46          1
    47          7
    48          7
    49         36
    50         63
    51         40
    52         19
    53         31
    54         45
    55         23
    56          4
    57          6
    58          3
    59         14
    60          2
    61          2
    62          3
    63         24
    64         33
    65         28
    66         50
    67        100
    68         13
    69         20
    70         11
    71          3
    72          1
    73          3
    74         14
    75         18
    76         78
    77        138
    78         15
    79         21
    80         26
    81         34
    82         44
    83         42
    84         23
    85          2
    86         12
    87          1
    88          2
    89          2
    90        102
    91         14
    92         73
    93         14
    94          3
    95         86
    96        195
    97         16
    98          1
    99          1
   102         14
   103          2
   104         28
   105         26
   106         24
   107         66
   108         31
   109          9
   110          2
   111          2
   112          1
   113          1
   115          1
   117          1
   118          7
   119         19
   120         95
   121         15
   122         18
   123        999
   124         92
   125          6
   128          1
   129          1
   133          1
   134          3
   135         59
   136          6
   137          1
   140          1
   141          1
   146         21
   147          2
   148          6
   149        324
   150        173
   151        171
   152         89
   153          9
   154          1
   163          1
   164          2
   165          8
   166          5
   167          1
   168          1
   169          1
   170          2
   177         10
   178          1
   183          2
   184          7
   185          1
   186         12
   187          1
   193          1
   196          1
   197          2
   198         28
   199         48
   200          4
   201          2
   210         68
   211          6
   212          4
   213          4
   215          1
   224          1
   226          1
   229          4
   238          1
   239          1
   241        399
   242         59
   243          5
   256          1
   257          2
   258          1
   267          1
   282          1
   299          4
   300         62
   301         10
   302          1
   305          2
   331          1
   333         10
   334          1
   335          1
   364         10
   365          2