##TITLE=Library Entry 17335
##JCAMP-DX=Revision 4.10 
##DATA TYPE=MASS SPECTRUM
##SAMPLE DESCRIPTION=ATLAS OF MASS SPECTRA OF ORGANIC COMPOUNDS, V. A. KOPTY
UG, ED.
##NAMES=HP
##CAS NAME=Hydrazine, 1-methyl-1-(2-propynyl)-
##MOLFORM=C4H8N2
##CAS REGISTRY NO=7422-82-4
##MP= -300
##BP= -300
##MW= 84
##$RETENTION INDEX=0
##$CONDENSED SPECTRUM=NO
##NPOINTS= 31
##XYDATA=(XY..XY) 1 
    26         15
    27         40
    28        154
    29         74
    30         35
    31          9
    37         39
    38         69
    39        227
    40         35
    41         50
    42         95
    43        118
    44         67
    45        999
    46         31
    51          9
    52         18
    53         13
    54         40
    55         25
    56         15
    57          5
    59         14
    66         37
    67         10
    68          9
    69          4
    83         65
    84        345
    85         31