##TITLE=Library Entry 11075
##JCAMP-DX=Revision 4.10 
##DATA TYPE=MASS SPECTRUM
##SAMPLE DESCRIPTION=NIST Mass Spectrometry Data Center
##NAMES=HP
##CAS NAME=2-Cyclohexen-1-one, 3,5,5-trimethyl-4-(3-oxobutyl)-
##MOLFORM=C13H20O2
##CAS REGISTRY NO=74233-41-3
##MP= -300
##BP= -300
##MW= 208
##$RETENTION INDEX=1682
##$CONDENSED SPECTRUM=NO
##NPOINTS= 89
##XYDATA=(XY..XY) 1 
    15          1
    27         66
    28         26
    29         52
    37          3
    38         12
    39        220
    40         45
    41        351
    42         36
    43        999
    44         21
    45         30
    46          3
    50         15
    51         64
    52         37
    53        156
    54         24
    55        140
    56         21
    57         13
    58         81
    59          7
    62          4
    63         21
    64          7
    65        118
    66         69
    67        323
    68         26
    69         94
    71         37
    76          3
    77        185
    78         39
    79        293
    80         74
    81        225
    82        123
    83         32
    89          3
    90          3
    91        127
    92         22
    93         85
    94         63
    95        451
    96         48
    97          9
   103          8
   105         40
   106         15
   107        234
   108        251
   109        971
   110        100
   111         14
   119         21
   121         42
   122         61
   123        428
   124         69
   125          9
   133         19
   134         27
   135        919
   136        109
   137         74
   138        244
   139         24
   147         10
   148          6
   149         11
   150         47
   151        831
   152        103
   153          7
   160          3
   165          6
   166          3
   175         43
   176          6
   190          9
   193         38
   194          4
   208        211
   209         26
   210          3