##TITLE=Library Entry 2742
##JCAMP-DX=Revision 4.10 
##DATA TYPE=MASS SPECTRUM
##SAMPLE DESCRIPTION=NIST Mass Spectrometry Data Center, 1990.
##NAMES=HP
##CAS NAME=1-Hexene, 3,5-dimethyl-
##MOLFORM=C8H16
##CAS REGISTRY NO=7423-69-0
##MP= -300
##BP= -300
##MW= 112
##$RETENTION INDEX=700
##$CONDENSED SPECTRUM=NO
##NPOINTS= 31
##XYDATA=(XY..XY) 1 
    27        257
    28        131
    29        215
    32         21
    39        412
    41        999
    42        129
    43        237
    44         31
    50         31
    51         62
    52         32
    53        165
    54        114
    55        962
    56        770
    57        660
    58         31
    65         29
    66         16
    67         95
    68         78
    69        532
    70        553
    71         44
    77         24
    79         26
    81         20
    83        275
    84         89
    97         72