##TITLE=Library Entry 76906
##JCAMP-DX=Revision 4.10 
##DATA TYPE=MASS SPECTRUM
##SAMPLE DESCRIPTION=ROCHAC, 51( ),711(1977); T. PLUCINSKI, ACADEMY OF SCIEN
CES OFTHE LATVIAN SSR, RIGA, USSR
##NAMES=HP
##CAS NAME=2-Pyridinecarboxaldehyde, O-acetyloxime, (E)-
##MOLFORM=C8H8N2O2
##CAS REGISTRY NO=74231-53-1
##MP= -300
##BP= -300
##MW= 164
##$RETENTION INDEX=0
##$CONDENSED SPECTRUM=NO
##NPOINTS= 29
##XYDATA=(XY..XY) 1 
    40        100
    41         30
    42         70
    43        150
    44        370
    45         50
    49         20
    50        110
    51        120
    52        100
    53         40
    58         10
    60         60
    64         40
    65         30
    74         90
    75         50
    76        120
    77        520
    78        120
    79        170
    92         60
   103         40
   104        999
   105        110
   121         40
   122        350
   123         30
   149         30