##TITLE=Library Entry 22708
##JCAMP-DX=Revision 4.10 
##DATA TYPE=MASS SPECTRUM
##SAMPLE DESCRIPTION=ATLAS OF MASS SPECTRA OF ORGANIC COMPOUNDS, V. A. KOPTY
UG, ED.
##NAMES=HP
##CAS NAME=2-Propanone, (1-methylethyl)hydrazone
##MOLFORM=C6H14N2
##CAS REGISTRY NO=7423-01-0
##MP= -300
##BP= -300
##MW= 114
##$RETENTION INDEX=828
##$CONDENSED SPECTRUM=NO
##NPOINTS= 26
##XYDATA=(XY..XY) 1 
    27        114
    28        169
    29         69
    30        129
    31         29
    32         29
    39         97
    40         34
    41        197
    42        217
    43        120
    44         94
    54         37
    55         69
    56        999
    57        174
    58        111
    71         57
    72         46
    82         10
    83          9
    99        886
   100          7
   113         18
   114        315
   115         31