##TITLE=Library Entry 87429
##JCAMP-DX=Revision 4.10 
##DATA TYPE=MASS SPECTRUM
##SAMPLE DESCRIPTION=Chemical Concepts
##NAMES=HP
##CAS NAME=N-Maleoyl-.beta.-alanine
##MOLFORM=C7H7NO4
##CAS REGISTRY NO=7423-55-4
##MP= -300
##BP= -300
##MW= 169
##$RETENTION INDEX=0
##$CONDENSED SPECTRUM=NO
##NPOINTS= 47
##XYDATA=(XY..XY) 1 
    25         14
    26        165
    27         72
    28         95
    29         18
    39         20
    40         32
    41         55
    42         80
    43         39
    44         53
    45         59
    52         21
    53        104
    54        463
    55        160
    56        118
    57         22
    60         47
    66         18
    67         28
    68         33
    69         42
    70        259
    71         28
    72         14
    73         30
    80         63
    81         18
    82        509
    83         24
    86         13
    88         62
    95         39
    96        110
    97         19
    98         30
    99         16
   110        999
   111         53
   123        828
   124         78
   125         39
   141         16
   151         86
   152         18
   169         12