##TITLE=Library Entry 76907
##JCAMP-DX=Revision 4.10 
##DATA TYPE=MASS SPECTRUM
##SAMPLE DESCRIPTION=ROCHAC, 51( ),711(1977); T. PLUCINSKI, ACADEMY OF SCIEN
CES OFTHE LATVIAN SSR, RIGA, USSR
##NAMES=HP
##CAS NAME=4-Pyridinecarboxaldehyde, O-acetyloxime, (E)-
##MOLFORM=C8H8N2O2
##CAS REGISTRY NO=74231-54-2
##MP= -300
##BP= -300
##MW= 164
##$RETENTION INDEX=0
##$CONDENSED SPECTRUM=NO
##NPOINTS= 35
##XYDATA=(XY..XY) 1 
    40        180
    41        100
    42        360
    43        450
    44        820
    45        130
    48         40
    49        120
    50        550
    51        360
    52        180
    53        110
    58         20
    60        120
    61         20
    62         40
    63         60
    64        360
    65         50
    66         10
    74         40
    75        250
    76        360
    77        950
    78        260
    79        100
    92         30
   103        120
   104        999
   105        270
   106        130
   107         20
   121         40
   122        320
   123         30