##TITLE=Library Entry 45603
##JCAMP-DX=Revision 4.10 
##DATA TYPE=MASS SPECTRUM
##SAMPLE DESCRIPTION=Chuck Anderson, Aldrich Chemical Co.
##NAMES=HP
##CAS NAME=Methyl 3,3-dimethoxypropionate
##MOLFORM=C6H12O4
##CAS REGISTRY NO=7424-91-1
##MP= -300
##BP= -300
##MW= 148
##$RETENTION INDEX=0
##$CONDENSED SPECTRUM=NO
##NPOINTS= 77
##XYDATA=(XY..XY) 1 
    12          0
    13          0
    14          4
    15        105
    16          1
    17          0
    18          0
    19          0
    25          0
    26          7
    27         31
    28         30
    29         78
    30          9
    31         90
    32          2
    33          3
    36          0
    37          0
    38          0
    39          1
    40          0
    41          8
    42         19
    43         34
    44          2
    45         18
    46          0
    47         78
    48          1
    49          0
    53          1
    54          1
    55          2
    56          0
    57         11
    58         36
    59         91
    60          2
    61          2
    68          0
    69          6
    70          0
    71          3
    72          0
    73          1
    74          3
    75        999
    76         34
    77          5
    78          0
    83          0
    84          0
    85         29
    86          1
    87          3
    88          6
    89          0
    91          2
   100          0
   101         43
   102          2
   103          3
   104          0
   105         11
   106          0
   115          1
   116          1
   117        199
   118         19
   119          2
   120          0
   133         40
   134          2
   135          0
   147          2
   148          0