##TITLE=Library Entry 44862
##JCAMP-DX=Revision 4.10 
##DATA TYPE=MASS SPECTRUM
##SAMPLE DESCRIPTION=Japan AIST/NIMC Database- Spectrum MS-NW-2500
##NAMES=HP
##CAS NAME=Fenclonine
##MOLFORM=C9H10ClNO2
##CAS REGISTRY NO=7424-00-2
##MP= -300
##BP= -300
##MW= 199
##$RETENTION INDEX=0
##$CONDENSED SPECTRUM=NO
##NPOINTS= 105
##XYDATA=(XY..XY) 1 
    15          5
    17          4
    18         23
    19          4
    26          1
    27          6
    28         37
    29          9
    30         19
    36          7
    37          3
    38          5
    39         20
    40          3
    41          7
    42         17
    43         13
    44         10
    45          5
    46         65
    47          1
    49          2
    50         12
    51         16
    52          3
    53          1
    54          1
    56          7
    57          1
    58         22
    59         19
    60          2
    61          3
    62          9
    63         26
    64          6
    65         16
    66          1
    73          7
    74        999
    75         40
    76          8
    77         14
    78          4
    85          2
    86          2
    87          3
    88          2
    89         56
    90         22
    91         87
    92          9
    93          1
    97          1
    99         15
   100          1
   101         12
   102         10
   103          5
   104          2
   111          2
   112          2
   113          1
   114          1
   115          2
   116         24
   117         23
   118         42
   119         69
   120          6
   123          1
   124          2
   125        214
   126         75
   127         73
   128         24
   129          2
   130          3
   131          1
   136          3
   137          6
   138         12
   139          3
   140          4
   150          1
   151          8
   152         10
   153         32
   154        108
   155         18
   156         35
   157          3
   163          2
   164          2
   165          3
   166          1
   167          1
   180          1
   181          4
   182          2
   183          1
   197          1
   199         17
   200          2
   201          6