##TITLE=Library Entry 31194
##JCAMP-DX=Revision 4.10 
##DATA TYPE=MASS SPECTRUM
##SAMPLE DESCRIPTION=VERIFINN
##NAMES=HP
##CAS NAME=Ethanol, 2,2'-[1,4-butanediylbis(thio)]bis-
##MOLFORM=C8H18O2S2
##CAS REGISTRY NO=7425-93-6
##MP= -300
##BP= -300
##MW= 210
##$RETENTION INDEX=0
##$CONDENSED SPECTRUM=NO
##NPOINTS= 58
##XYDATA=(XY..XY) 1 
    27        350
    29        301
    31        241
    39        103
    41        163
    43        804
    45        957
    46        172
    47        373
    53        104
    55        755
    59        215
    60        341
    61        999
    63         44
    67         51
    71         40
    73        151
    75         56
    77         71
    79         96
    85        138
    86        112
    87        824
    88        424
    89        343
    91        799
    93         50
   101         58
   103         72
   104         34
   105         25
   113         12
   115        448
   116         32
   117         36
   119        102
   120         38
   121        201
   123         22
   131         41
   133        460
   134          9
   135         85
   137          7
   147         75
   148         15
   149         10
   151        194
   153         14
   165        863
   166         95
   167         88
   168         10
   192        158
   193         14
   194         14
   210         60