##TITLE=Library Entry 25175
##JCAMP-DX=Revision 4.10 
##DATA TYPE=MASS SPECTRUM
##SAMPLE DESCRIPTION=Z. Moldovan, Inst. Isotop. Mol. Technol., Cluj-Napoca,
 Romania
##NAMES=HP
##CAS NAME=2-Ethylhexyl 2-ethylhexanoate
##MOLFORM=C16H32O2
##CAS REGISTRY NO=7425-14-1
##MP= -300
##BP= -300
##MW= 256
##$RETENTION INDEX=0
##$CONDENSED SPECTRUM=NO
##NPOINTS= 69
##XYDATA=(XY..XY) 1 
    27        116
    29        286
    30          9
    31         18
    39         54
    40         18
    41        446
    42         90
    43        464
    44        286
    45         18
    53         27
    54         18
    55        304
    56        160
    57        999
    58         54
    59         18
    67         18
    68         18
    69         98
    70        625
    71        300
    72         18
    73         63
    74          9
    81          9
    82         36
    83        170
    84        107
    85         18
    87         45
    88        250
    89         27
    97         27
    98         18
    99        188
   100         18
   101         36
   102          9
   103          9
   111          9
   112        330
   113        107
   114          9
   115         27
   116         36
   117          9
   127        259
   128         18
   129          9
   144         18
   145        160
   146         18
   157         19
   158          2
   159          1
   170          3
   171          1
   172          0
   185          0
   199          1
   201         14
   202         18
   213          0
   227          1
   228          4
   229          0
   256          0