##TITLE=Library Entry 37819
##JCAMP-DX=Revision 4.10 
##DATA TYPE=MASS SPECTRUM
##SAMPLE DESCRIPTION=Chemical Concepts
##NAMES=HP
##CAS NAME=1-Morpholin-4-yl-2-(2-morpholin-4-yl-2-oxoethoxy)-ethanone
##MOLFORM=C12H20N2O5
##CAS REGISTRY NO=74267-28-0
##MP= -300
##BP= -300
##MW= 272
##$RETENTION INDEX=0
##$CONDENSED SPECTRUM=NO
##NPOINTS= 143
##XYDATA=(XY..XY) 1 
    26         15
    27        107
    28        276
    29        307
    30        138
    31        188
    33          2
    38         12
    39        148
    40         76
    41        125
    42        569
    43        316
    44        194
    45        225
    46          9
    49         11
    50         14
    51         25
    52         28
    53         15
    54         49
    55        236
    56        578
    57        302
    58        114
    59        444
    60         59
    61        119
    62          3
    63          6
    64          5
    65         22
    66          9
    67         16
    68         19
    69        110
    70        999
    71        108
    72        117
    73         34
    74          7
    75          5
    76          3
    77         11
    78         30
    79         38
    80         20
    81         32
    82         13
    83        129
    84         27
    85        303
    86        807
    87        274
    88         83
    89         73
    90          4
    91          7
    92         28
    93         61
    94         11
    95         19
    96         10
    97         27
    98         71
    99        397
   100        608
   101         61
   102          7
   103          4
   104          4
   105          5
   106         12
   107          6
   108         38
   109         15
   110          5
   111         15
   112         10
   113          9
   114        849
   115         56
   116         18
   117         31
   118         16
   119         12
   120         14
   121         11
   122          6
   123          8
   125          3
   126          7
   127        187
   128        305
   129        871
   130         76
   131          8
   132          3
   133          2
   134          3
   135          5
   136          4
   137          7
   141         15
   142         20
   143          8
   144        130
   145         19
   146         31
   147         17
   156         19
   157          9
   158        710
   159         63
   160          9
   167          7
   168         12
   169         22
   170          4
   185         20
   186        619
   187         60
   188         22
   189          3
   199          4
   200          2
   201          4
   202          7
   203          3
   204         32
   205          5
   218         20
   219          3
   229         13
   230          3
   231         13
   232          4
   242         33
   243          5
   272         18
   273         19
   274          3