##TITLE=Library Entry 76950
##JCAMP-DX=Revision 4.10 
##DATA TYPE=MASS SPECTRUM
##SAMPLE DESCRIPTION=W.J.IRWIN UNIV. OF ASTON IN BIRMINGHAM, BIRMINGHAM, UK
##NAMES=HP
##CAS NAME=2-Oxazolidinone, 3,5-diphenyl-
##MOLFORM=C15H13NO2
##CAS REGISTRY NO=7426-72-4
##MP= -300
##BP= -300
##MW= 239
##$RETENTION INDEX=0
##$CONDENSED SPECTRUM=NO
##NPOINTS= 30
##XYDATA=(XY..XY) 1 
    39        100
    41         40
    44         40
    50         60
    51        200
    52         50
    63         70
    64         50
    65         80
    77        680
    78        100
    89         30
    90         30
    91        270
    92        120
   103         50
   104        999
   105        130
   113         30
   116         30
   117         30
   118         30
   119         30
   165         30
   167         30
   193         30
   194        620
   195        140
   196         30
   239        220