##TITLE=Library Entry 50286
##JCAMP-DX=Revision 4.10 
##DATA TYPE=MASS SPECTRUM
##SAMPLE DESCRIPTION=Chuck Anderson, Aldrich Chemical Co.
##NAMES=HP
##CAS NAME=Cyclohexane,1,2-dibromo-,trans-
##MOLFORM=C6H10Br2
##CAS REGISTRY NO=7429-37-0
##MP= -300
##BP= -300
##MW= 240
##$RETENTION INDEX=0
##$CONDENSED SPECTRUM=NO
##NPOINTS= 75
##XYDATA=(XY..XY) 1 
    14          0
    15          2
    25          0
    26         13
    27         82
    28         18
    29         20
    30          0
    36          0
    37          3
    38         11
    39        100
    40         14
    41         80
    42          4
    43          0
    44          0
    49          1
    50         16
    51         26
    52         13
    53         73
    54         31
    55         26
    56          1
    61          0
    62          1
    63          4
    64          0
    65         17
    66          9
    67         26
    68          1
    73          0
    74          2
    75          1
    76          0
    77         35
    78          7
    79        158
    80         19
    81        999
    82         67
    83          3
    93          2
    95          2
   104          0
   105          1
   106          1
   107          4
   108          1
   109          2
   117          1
   119         15
   120          0
   121         14
   122          0
   131          1
   132          1
   133          2
   134          1
   135          1
   145          0
   147          0
   160          0
   161        129
   162          7
   163        118
   164          7
   186          0
   240          4
   242          8
   243          0
   244          3
   245          0