##TITLE=Library Entry 39002
##JCAMP-DX=Revision 4.10 
##DATA TYPE=MASS SPECTRUM
##SAMPLE DESCRIPTION=Japan AIST/NIMC Database- Spectrum MS-IW-1310
##NAMES=HP
##CAS NAME=2-Methoxycyclohexanone
##MOLFORM=C7H12O2
##CAS REGISTRY NO=7429-44-9
##MP= -300
##BP= -300
##MW= 128
##$RETENTION INDEX=0
##$CONDENSED SPECTRUM=NO
##NPOINTS= 62
##XYDATA=(XY..XY) 1 
    14          1
    15         15
    26          7
    27         59
    28         36
    29         69
    30          4
    31         11
    32          2
    33          2
    37          1
    38          5
    39         66
    40         14
    41        260
    42         53
    43         46
    44          5
    45         63
    46          1
    50          3
    51          5
    52          2
    53         18
    54          5
    55         47
    56          9
    57         49
    58        115
    59          7
    63          1
    65          4
    66          2
    67         40
    68         36
    69         30
    70          9
    71        999
    72         78
    73          5
    74          2
    77          1
    79          2
    81          1
    83          5
    84        424
    85         46
    86          3
    87          4
    95          2
    96          3
    97          6
    98        222
    99         21
   100         19
   101          2
   111          1
   126          1
   127          1
   128        115
   129         15
   130          1