##TITLE=Library Entry 22521
##JCAMP-DX=Revision 4.10 
##DATA TYPE=MASS SPECTRUM
##SAMPLE DESCRIPTION=Zaikin V.G., TIPS RAS, Moscow, Russia
##NAMES=HP
##CAS NAME=3-Chlropropionic acid, nonyl ester
##MOLFORM=C12H23ClO2
##CAS REGISTRY NO=74306-05-1
##MP= -300
##BP= -300
##MW= 234
##$RETENTION INDEX=1596
##$CONDENSED SPECTRUM=NO
##NPOINTS= 93
##XYDATA=(XY..XY) 1 
    25          3
    26         27
    27        165
    28          3
    29        149
    30          7
    31          7
    35          3
    36         32
    38         15
    39         67
    40         18
    41        405
    42        224
    43        548
    44         43
    45         12
    49          4
    50          6
    51         10
    52         17
    53         29
    54         71
    55        715
    56        999
    57        316
    58         12
    61          3
    62          9
    63        341
    64          9
    65        100
    66          6
    67         67
    68        193
    69        699
    70        874
    71        180
    72         21
    73         76
    74          4
    77          3
    78          4
    79         33
    80          3
    81         26
    82        180
    83        584
    84        565
    85         99
    86          5
    87          3
    89          3
    90          4
    91        673
    92         19
    93        187
    94          5
    95         14
    96         55
    97        525
    98        588
    99         37
   101          5
   106         10
   108         14
   109        660
   110         21
   111        201
   112          5
   113          6
   119          8
   121         13
   123          3
   124          7
   125          6
   126        191
   127         21
   129         25
   135          9
   137          3
   141          4
   143          8
   146         15
   148          6
   149         15
   150          3
   151          5
   159          3
   164         16
   166          5
   171          8
   199          7