##TITLE=Library Entry 53030
##JCAMP-DX=Revision 4.10 
##DATA TYPE=MASS SPECTRUM
##SAMPLE DESCRIPTION=Zaikin V.G., TIPS RAS, Moscow, Russia
##NAMES=HP
##CAS NAME=3-Chlropropionic acid, undecyl ester
##MOLFORM=C14H27ClO2
##CAS REGISTRY NO=74306-07-3
##MP= -300
##BP= -300
##MW= 262
##$RETENTION INDEX=1803
##$CONDENSED SPECTRUM=NO
##NPOINTS= 140
##XYDATA=(XY..XY) 1 
    25          4
    26         28
    27        142
    28          3
    29        150
    30          7
    31          6
    35          4
    36         33
    37          4
    38         16
    39         72
    40         21
    41        460
    42        201
    43        622
    44         38
    45         10
    49          3
    50          5
    51          7
    52          9
    53         32
    54         88
    55        788
    56        760
    57        547
    58         22
    61          2
    62          8
    63        289
    64          9
    65         92
    66         10
    67        120
    68        263
    69        913
    70        917
    71        256
    72         24
    73        123
    74          8
    75          2
    77          5
    78          3
    79         23
    80          6
    81         57
    82        372
    83        999
    84        671
    85        159
    86          9
    87          3
    89          4
    90          4
    91        637
    92         21
    93        184
    94          8
    95         27
    96        123
    97        810
    98        341
    99         38
   100          3
   101          7
   105          1
   106         10
   107          3
   108         16
   109        975
   110         82
   111        625
   112        185
   113         31
   114          5
   115          5
   119         10
   120          1
   121         13
   122          2
   123         10
   124         22
   125        149
   126        450
   127         54
   128          7
   129         35
   130          3
   132          1
   133          2
   134          1
   135         11
   136          2
   137          4
   138          2
   139          4
   140          2
   141          4
   142          2
   143          6
   145          3
   146         21
   147          3
   148          8
   149         19
   150          4
   151          6
   152          7
   153          3
   154        223
   155         35
   156          2
   159          6
   160          2
   161          2
   162          1
   163          2
   164         30
   165          3
   166          9
   167          2
   169          4
   171          7
   172          1
   173          1
   174          1
   176          1
   177          1
   178          2
   179          1
   181          2
   190          2
   197          3
   199         18
   200          2
   227         48
   228          8
   263          1