##TITLE=Library Entry 19643
##JCAMP-DX=Revision 4.10 
##DATA TYPE=MASS SPECTRUM
##SAMPLE DESCRIPTION=V.Zaikin,Topchiev Inst.Petrochem.Synth.,Moscow
##NAMES=HP
##CAS NAME=Propanoic acid, 3-chloro-, decyl ester
##MOLFORM=C13H25ClO2
##CAS REGISTRY NO=74306-06-2
##MP= -300
##BP= -300
##MW= 248
##$RETENTION INDEX=1700
##$CONDENSED SPECTRUM=NO
##NPOINTS= 98
##XYDATA=(XY..XY) 1 
    27        210
    28         80
    29        417
    30         12
    31         20
    35          2
    36          8
    37          5
    38          5
    39        143
    40         43
    41        779
    42        374
    43        930
    44         63
    45         14
    49         14
    50         11
    51         15
    52          7
    53         49
    54        104
    55        999
    56        886
    57        578
    58         26
    61          7
    62          9
    63        344
    64          7
    65        127
    66          9
    67         88
    68        220
    69        640
    70        816
    71        206
    72         10
    73         78
    74          3
    77          6
    79          3
    80          2
    81         38
    82        194
    83        564
    84        404
    85        100
    86          7
    87          3
    89          5
    90          2
    91        461
    92         23
    93        158
    94          5
    95         19
    96         68
    97        367
    98        239
    99         35
   100          3
   101          5
   106          6
   107          4
   108         10
   109        439
   110         29
   111        275
   112        289
   113         35
   114          2
   119          7
   121         15
   123          5
   125          7
   127          4
   129         13
   130          2
   132          5
   135          7
   137          4
   138          6
   139          5
   140        135
   141         20
   146          8
   148          4
   149          9
   150          3
   155          5
   157          6
   163         16
   165          5
   166          5
   185          8
   186          2
   213          7