##TITLE=Library Entry 37642
##JCAMP-DX=Revision 4.10 
##DATA TYPE=MASS SPECTRUM
##SAMPLE DESCRIPTION=V.Zaikin,Topchiev Inst.Petrochem.Synth.,Moscow
##NAMES=HP
##CAS NAME=3-Chloropropionic acid, pentyl ester
##MOLFORM=C8H15ClO2
##CAS REGISTRY NO=74306-03-9
##MP= -300
##BP= -300
##MW= 178
##$RETENTION INDEX=1191
##$CONDENSED SPECTRUM=NO
##NPOINTS= 61
##XYDATA=(XY..XY) 1 
    27        124
    28         83
    29        206
    30         15
    31         22
    36          6
    38         10
    39        124
    40         24
    41        272
    42        589
    43        374
    44         48
    45         24
    46          3
    49          8
    50          3
    51         19
    53         13
    54         10
    55        479
    56         40
    57         45
    58          7
    59          2
    61          5
    62         15
    63        347
    64         14
    65        127
    67          5
    68         10
    69        120
    70        999
    71        129
    72          4
    73         52
    76          4
    85         35
    87         10
    90          8
    91        703
    92         20
    93        246
    94          7
    95          3
    97          7
   106          9
   107          3
   108         32
   109        285
   110         10
   111         85
   112          4
   115          7
   121         29
   123         10
   135         10
   137          4
   149         12
   151          4