##TITLE=Library Entry 19626
##JCAMP-DX=Revision 4.10 
##DATA TYPE=MASS SPECTRUM
##SAMPLE DESCRIPTION=V.Zaikin,Topchiev Inst.Petrochem.Synth.,Moscow
##NAMES=HP
##CAS NAME=3-Chloropropionic acid, dodecyl ester
##MOLFORM=C15H29ClO2
##CAS REGISTRY NO=74316-16-8
##MP= -300
##BP= -300
##MW= 276
##$RETENTION INDEX=1904
##$CONDENSED SPECTRUM=NO
##NPOINTS= 119
##XYDATA=(XY..XY) 1 
    27        264
    28         74
    29        415
    30          8
    31         16
    35          2
    36         15
    37          7
    38          7
    39        154
    40         36
    41        840
    42        288
    43        892
    44         77
    45         17
    49          4
    50          6
    51         10
    52          4
    53         57
    54        128
    55        999
    56        656
    57        629
    58         28
    59          3
    60          2
    61          6
    62         11
    63        375
    64         13
    65        155
    66         14
    67        133
    68        252
    69        755
    70        596
    71        283
    72         21
    73        100
    74          8
    76          3
    77          4
    78          2
    79         11
    80          5
    81         59
    82        316
    83        745
    84        449
    85        140
    86         13
    87          4
    89          6
    90          6
    91        464
    92         21
    93        160
    94         10
    95         25
    96        107
    97        496
    98        273
    99         42
   100          4
   101          4
   103          4
   104          2
   105          2
   106          4
   107          4
   108         14
   109        578
   110         67
   111        430
   112        142
   113         38
   114          4
   115          6
   117          2
   119          8
   121         11
   122          4
   123          6
   124         13
   125         92
   126         76
   127         26
   128          4
   129         10
   134          2
   135          5
   137          5
   138         10
   139         29
   140        201
   141         25
   142          2
   143          4
   146          5
   148          4
   149          9
   150          5
   151          4
   159          5
   161          3
   164         19
   166         11
   167          4
   168        119
   169         22
   178          2
   185          3
   186          3
   211          2
   213          5
   241         24
   242          4