##TITLE=Library Entry 7747
##JCAMP-DX=Revision 4.10 
##DATA TYPE=MASS SPECTRUM
##SAMPLE DESCRIPTION=V.G.Zaikin, Petrochem. Synth. Inst., Moscow
##NAMES=HP
##CAS NAME=Trichloroacetic acid, dodecyl ester
##MOLFORM=C14H25Cl3O2
##CAS REGISTRY NO=74339-50-7
##MP= -300
##BP= -300
##MW= 330
##$RETENTION INDEX=1990
##$CONDENSED SPECTRUM=NO
##NPOINTS= 81
##XYDATA=(XY..XY) 1 
    26         28
    27        147
    28         48
    29        291
    30         11
    31          8
    35         17
    36         75
    37         12
    38         49
    39        191
    40         61
    41        815
    42        278
    43        999
    44        151
    45         10
    47         28
    48         11
    49         15
    50         18
    51         23
    52         11
    53         59
    54        112
    55        909
    56        608
    57        925
    58         41
    63         16
    65         14
    66         14
    67        131
    68        225
    69        816
    70        564
    71        469
    72         29
    75          6
    76          8
    77         11
    78          8
    79         15
    80          6
    81         59
    82        259
    83        765
    84        378
    85        288
    86         19
    87          5
    91          7
    93          5
    95         25
    96         69
    97        528
    98        219
    99         69
   109          8
   110         39
   111        299
   112        128
   113         41
   114          4
   117         71
   118          5
   119         71
   120          5
   121         21
   124         11
   125         76
   126         47
   127         18
   139         15
   140         96
   141          9
   167         12
   168         45
   169          6
   213          8
   214          1