##TITLE=Library Entry 25774
##JCAMP-DX=Revision 4.10 
##DATA TYPE=MASS SPECTRUM
##SAMPLE DESCRIPTION=Zaikin V.G., TIPS RAS, Moscow, Russia
##NAMES=HP
##CAS NAME=Trichloroacetic acid, undecyl ester
##MOLFORM=C13H23Cl3O2
##CAS REGISTRY NO=74339-49-4
##MP= -300
##BP= -300
##MW= 316
##$RETENTION INDEX=1887
##$CONDENSED SPECTRUM=NO
##NPOINTS= 112
##XYDATA=(XY..XY) 1 
    25          2
    26         15
    27         76
    28          2
    29        171
    30          5
    31          2
    35         12
    36         78
    37          6
    38         32
    39         80
    40         23
    41        566
    42        189
    43        902
    44         61
    45          4
    47         11
    48          5
    49          6
    50          6
    51          6
    52          5
    53         37
    54         75
    55        887
    56        645
    57        999
    58         39
    63          4
    65          8
    66          8
    67        102
    68        230
    69        921
    70        712
    71        462
    72         24
    73          1
    75          1
    76          9
    77          5
    78          5
    79         14
    80          5
    81         47
    82        331
    83        996
    84        566
    85        379
    86         27
    87          4
    91          5
    92          1
    93          3
    94          3
    95         22
    96         78
    97        849
    98        272
    99         77
   100          5
   101          2
   105          2
   107          1
   109          6
   110         81
   111        280
   112        139
   113         33
   114          8
   115          1
   117        120
   118          1
   119        118
   120          2
   121         39
   123          6
   124         10
   125         75
   126        205
   127         27
   128         22
   129          7
   130         13
   131          3
   132          2
   133          2
   134          1
   135          3
   139          1
   145          4
   147          6
   149          2
   151          1
   152          5
   153         12
   154         78
   155         11
   163          7
   165          8
   167          2
   169          1
   177          1
   181          6
   189          1
   191          1
   199         22
   200          2
   203          3
   205          3