##TITLE=Library Entry 7756
##JCAMP-DX=Revision 4.10 
##DATA TYPE=MASS SPECTRUM
##SAMPLE DESCRIPTION=V.G.Zaikin, Petrochem. Synth. Inst., Moscow
##NAMES=HP
##CAS NAME=Trichloroacetic acid, hexadecyl ester
##MOLFORM=C18H33Cl3O2
##CAS REGISTRY NO=74339-54-1
##MP= -300
##BP= -300
##MW= 386
##$RETENTION INDEX=2405
##$CONDENSED SPECTRUM=NO
##NPOINTS= 97
##XYDATA=(XY..XY) 1 
    26         19
    27        119
    28         41
    29        229
    30          9
    31          6
    35         19
    36        107
    37         12
    38         51
    39        142
    40         48
    41        723
    42        225
    43        999
    44        148
    45          6
    47         18
    48          6
    49         18
    50         19
    51         19
    52         11
    53         58
    54        115
    55        849
    56        441
    57        995
    58         55
    59          6
    61          5
    63         13
    64          5
    65         13
    66         18
    67        119
    68        179
    69        735
    70        391
    71        519
    72         29
    75          8
    76         10
    77         17
    78         11
    79         17
    80         11
    81         75
    82        199
    83        719
    84        251
    85        286
    86         18
    91         16
    93         13
    95         51
    96         86
    97        605
    98        149
    99         72
   100          8
   105         16
   109         18
   110         51
   111        318
   112        111
   113         46
   117         46
   118          5
   119         43
   120          6
   121         19
   124         13
   125        145
   126         51
   127         29
   128         22
   130         12
   138         11
   139         59
   140         32
   141         22
   152          6
   153         38
   154         20
   155         20
   166          5
   167         18
   168         15
   169          5
   181         13
   182          8
   196         21
   197          6
   223          3
   224         11
   225          2