##TITLE=Library Entry 7750
##JCAMP-DX=Revision 4.10 
##DATA TYPE=MASS SPECTRUM
##SAMPLE DESCRIPTION=V.G.Zaikin, Petrochem. Synth. Inst., Moscow
##NAMES=HP
##CAS NAME=Trichloroacetic acid, tetradecyl ester
##MOLFORM=C16H29Cl3O2
##CAS REGISTRY NO=74339-52-9
##MP= -300
##BP= -300
##MW= 358
##$RETENTION INDEX=2196
##$CONDENSED SPECTRUM=NO
##NPOINTS= 87
##XYDATA=(XY..XY) 1 
    26         29
    27        125
    28         39
    29        287
    30          9
    31          9
    35         19
    36         89
    37         19
    38         46
    39        179
    40         55
    41        806
    42        248
    43        999
    44        150
    45         17
    47         23
    48         11
    49         12
    50         12
    51         22
    52         11
    53         59
    54        129
    55        916
    56        530
    57        988
    58         55
    63         17
    65         11
    66         12
    67        142
    68        209
    69        777
    70        478
    71        503
    72         26
    73          7
    76         11
    77         19
    78          9
    79         23
    80          9
    81         75
    82        242
    83        808
    84        319
    85        276
    86         27
    87          8
    91         18
    93          6
    94          6
    95         42
    96         93
    97        608
    98        192
    99         71
   100         11
   105         11
   109         19
   110         38
   111        345
   112        115
   113         58
   117         61
   118          2
   119         61
   120          3
   121         19
   124         16
   125        159
   126         69
   127         32
   128         23
   138         14
   139         56
   140         43
   141         18
   153         18
   168         48
   169          8
   195          7
   196         31
   197         10
   241          5