##TITLE=Library Entry 7748
##JCAMP-DX=Revision 4.10 
##DATA TYPE=MASS SPECTRUM
##SAMPLE DESCRIPTION=V.G.Zaikin, Petrochem. Synth. Inst., Moscow
##NAMES=HP
##CAS NAME=Trichloroacetic acid, tridecyl ester
##MOLFORM=C15H27Cl3O2
##CAS REGISTRY NO=74339-51-8
##MP= -300
##BP= -300
##MW= 344
##$RETENTION INDEX=2095
##$CONDENSED SPECTRUM=NO
##NPOINTS= 82
##XYDATA=(XY..XY) 1 
    26         28
    27        136
    28         56
    29        297
    30         16
    31          5
    35         16
    36         82
    37         12
    38         59
    39        179
    40         56
    41        830
    42        259
    43        999
    44        148
    45         11
    47         21
    48         11
    49         15
    50         15
    51         21
    52          8
    53         69
    54        109
    55        912
    56        588
    57        985
    58         45
    63         15
    65         15
    66         13
    67        138
    68        225
    69        819
    70        539
    71        477
    72         25
    76         11
    77         12
    78          6
    79         19
    80          8
    81         66
    82        261
    83        795
    84        345
    85        299
    86         21
    87          7
    89          4
    91         10
    93         12
    95         33
    96         79
    97        579
    98        198
    99         75
   100          6
   105          6
   109         16
   110         29
   111        319
   112        122
   113         39
   117         65
   119         63
   121         18
   124         15
   125        138
   126        167
   127         21
   128         21
   139         29
   140         29
   141         11
   153          3
   154         55
   155          3
   181         11
   182         39
   183          3