##TITLE=Library Entry 7751
##JCAMP-DX=Revision 4.10 
##DATA TYPE=MASS SPECTRUM
##SAMPLE DESCRIPTION=V.G.Zaikin, Petrochem. Synth. Inst., Moscow
##NAMES=HP
##CAS NAME=Trichloroacetic acid, pentadecyl ester
##MOLFORM=C17H31Cl3O2
##CAS REGISTRY NO=74339-53-0
##MP= -300
##BP= -300
##MW= 372
##$RETENTION INDEX=2301
##$CONDENSED SPECTRUM=NO
##NPOINTS= 93
##XYDATA=(XY..XY) 1 
    25          3
    26         29
    27        119
    28         53
    29        244
    30         11
    35         12
    36        109
    37         12
    38         58
    39        153
    40         47
    41        761
    42        231
    43        999
    44        143
    45          8
    47         15
    48          8
    49         15
    50         13
    51         22
    52         10
    53         61
    54        115
    55        881
    56        479
    57        961
    58         49
    59          7
    63         11
    65         12
    66         12
    67        130
    68        185
    69        749
    70        409
    71        499
    72         29
    76         11
    77         13
    78          9
    79         19
    80         12
    81         85
    82        228
    83        755
    84        274
    85        285
    86         21
    87          6
    89          6
    91         13
    93         11
    94          9
    95         41
    96         89
    97        597
    98        175
    99         74
   100          8
   105          8
   109         17
   110         33
   111        321
   112        109
   113         49
   114          5
   117         42
   118          3
   119         49
   120          3
   121         15
   123          5
   124         21
   125        132
   126         69
   127         35
   128         23
   130         12
   138         11
   139         58
   140         31
   141         15
   153         28
   154         23
   155          7
   167         11
   182         26
   183          1
   209          5
   210         21
   211          3