##TITLE=Library Entry 19124
##JCAMP-DX=Revision 4.10 
##DATA TYPE=MASS SPECTRUM
##SAMPLE DESCRIPTION=S.A. Rang et al., IR & MS of Unsatd. Hydrocarbons, 1977
##NAMES=HP
##CAS NAME=5-Decene, (E)-
##MOLFORM=C10H20
##CAS REGISTRY NO=7433-56-9
##MP= -300
##BP= -300
##MW= 140
##$RETENTION INDEX=984
##$CONDENSED SPECTRUM=NO
##NPOINTS= 78
##XYDATA=(XY..XY) 1 
    15          3
    25          0
    26          5
    27        121
    28         24
    29        109
    30          2
    36          0
    37          0
    38          2
    39        102
    40         16
    41        383
    42        147
    43        198
    44          7
    45          0
    50          2
    51          7
    52          5
    53         43
    54         79
    55        999
    56        377
    57        108
    58          5
    59          0
    63          1
    64          0
    65         10
    66          6
    67         66
    68         29
    69        319
    70        275
    71         43
    72          2
    73          0
    74          0
    75          0
    77          8
    78          2
    79         10
    80          2
    81         19
    82         19
    83        100
    84         95
    85         25
    86          1
    87          0
    88          0
    91          2
    92          0
    93          1
    94          0
    95          5
    96          9
    97        105
    98         39
    99          5
   100          0
   101          0
   105          0
   107          0
   109          1
   110          2
   111         30
   112         15
   113          2
   114          0
   123          0
   125          0
   138          0
   139          0
   140        166
   141         17
   142          1