##TITLE=Library Entry 26899
##JCAMP-DX=Revision 4.10 
##DATA TYPE=MASS SPECTRUM
##SAMPLE DESCRIPTION=Japan AIST/NIMC Database- Spectrum MS-IW-3552
##NAMES=HP
##CAS NAME=Hexanoic acid, 2-ethyl-, 2-methylpropyl ester
##MOLFORM=C12H24O2
##CAS REGISTRY NO=7434-89-1
##MP= -300
##BP= -300
##MW= 200
##$RETENTION INDEX=1248
##$CONDENSED SPECTRUM=NO
##NPOINTS= 93
##XYDATA=(XY..XY) 1 
    15          3
    18          2
    26          3
    27         93
    28         20
    29        226
    30          5
    31          9
    33          1
    38          2
    39         72
    40         13
    41        385
    42         53
    43        251
    44          9
    45         19
    47          2
    50          1
    51          2
    52          1
    53         17
    54          9
    55        203
    56        523
    57        999
    58         71
    59         14
    60          3
    65          2
    66          1
    67          8
    68          7
    69         48
    70         57
    71         23
    72          5
    73        204
    74         12
    75          3
    77          1
    79          1
    80          1
    81          4
    82          2
    83         20
    84          3
    85         12
    86          2
    87        128
    88        643
    89         99
    90          6
    91          1
    95          1
    96          1
    97         23
    98         23
    99        299
   100         23
   101        125
   102          9
   103         13
   104          1
   109          3
   111          3
   113          4
   114         13
   115         92
   116        121
   117         31
   118          2
   125          3
   126          2
   127        636
   128         57
   129         21
   130          9
   131          1
   142          1
   143          9
   144        215
   145        703
   146         63
   147          5
   157          8
   158          3
   170          1
   171          3
   172         37
   173          4
   185          4
   200          1