##TITLE=Library Entry 41271
##JCAMP-DX=Revision 4.10 
##DATA TYPE=MASS SPECTRUM
##SAMPLE DESCRIPTION=NIST Mass Spectrometry Data Center
##NAMES=HP
##CAS NAME=.alpha.-Ketoisovaleric acid, TMS derivative
##MOLFORM=C8H16O3Si
##CAS REGISTRY NO=74367-70-7
##MP= -300
##BP= -300
##MW= 188
##$RETENTION INDEX=1048
##$CONDENSED SPECTRUM=NO
##NPOINTS= 71
##XYDATA=(XY..XY) 1 
    14          2
    15         10
    16          2
    18          3
    26          4
    27         50
    28         35
    29         13
    30          1
    31          5
    37          1
    38          3
    39         28
    40          5
    41         69
    42         18
    43        188
    44         30
    45        137
    46         11
    47         31
    48          1
    49          1
    50          1
    51          1
    53          5
    54          1
    55         15
    56          4
    57          7
    58         35
    59         40
    60          8
    61         18
    62          2
    63          1
    67          1
    69          4
    70         10
    71         33
    72         13
    73        999
    74         87
    75        277
    76         20
    77         13
    78          1
    85          5
    87          1
    89          1
    99          4
   101         85
   102          9
   103          7
   111          1
   113          5
   114          1
   115          1
   116         19
   117         21
   118          2
   119          1
   127          2
   129        154
   130         16
   131          8
   144         28
   145          5
   146          1
   171          1
   173          3