##TITLE=Library Entry 114739
##JCAMP-DX=Revision 4.10 
##DATA TYPE=MASS SPECTRUM
##SAMPLE DESCRIPTION=R.S.BANDURSKI MICHIGAN STATE UNIV., EAST LANSING, MICH.
, USA
##NAMES=HP
##CAS NAME=1H-Indole-1-acetic acid, TMS derivative
##MOLFORM=C13H17NO2Si
##CAS REGISTRY NO=74367-53-6
##MP= -300
##BP= -300
##MW= 247
##$RETENTION INDEX=1917
##$CONDENSED SPECTRUM=NO
##NPOINTS= 95
##XYDATA=(XY..XY) 1 
    30          4
    31          3
    38          2
    39         12
    40          2
    41          8
    42          9
    43         21
    44         17
    45         91
    46          3
    47         16
    48          1
    50         10
    51         27
    52          8
    53          3
    55          5
    57          1
    58          8
    59          2
    60          3
    61          6
    62          5
    63         20
    64          3
    65          6
    70          2
    72         13
    73        643
    74         60
    75        103
    76         16
    77        143
    78         11
    86          1
    87          3
    88          5
    89         15
    90          6
    91          3
   100          1
   101         16
   102         38
   103         94
   104         10
   105          2
   106          5
   107          2
   114          1
   115          3
   116         50
   117         10
   118          2
   127          2
   128         25
   129         57
   130        999
   131        116
   132          4
   133          1
   142          2
   143          3
   144         10
   145          4
   146          1
   147          6
   148          1
   156          2
   157          2
   158          2
   159          1
   170          2
   171          1
   172          3
   174         10
   175          1
   186          2
   187          1
   188         19
   189          4
   190          1
   200          2
   201          2
   202        133
   203         25
   204         19
   232         88
   233         13
   234          3
   246          2
   247        324
   248         64
   249         15
   250          2