##TITLE=Library Entry 62883
##JCAMP-DX=Revision 4.10 
##DATA TYPE=MASS SPECTRUM
##SAMPLE DESCRIPTION=Japan AIST/NIMC Database- Spectrum MS-IW-2417
##NAMES=HP
##CAS NAME=s-Benzyl-L-cysteine-p-nitroanilide
##MOLFORM=C16H17N3O3S
##CAS REGISTRY NO=7436-62-6
##MP= -300
##BP= -300
##MW= 331
##$RETENTION INDEX=0
##$CONDENSED SPECTRUM=NO
##NPOINTS= 162
##XYDATA=(XY..XY) 1 
    15          2
    16          2
    26          1
    27          6
    28          3
    29          1
    30         40
    32          2
    33          1
    34          2
    37          2
    38          7
    39         32
    40          4
    41         11
    42         27
    43        122
    44         71
    45         27
    46          3
    47          6
    48          7
    49          1
    50         14
    51         23
    52         10
    53          5
    54          2
    55         14
    56          1
    57          5
    58          4
    59         25
    60          2
    61          5
    62          9
    63         30
    64         17
    65        104
    66          9
    67          1
    69          2
    70          2
    73         10
    74         25
    75         26
    76        143
    77         30
    78         15
    79          9
    80          6
    81          2
    85          2
    86          4
    87          4
    88          5
    89         23
    90         23
    91        999
    92        123
    93         22
    94          2
    97          1
   102          2
   103          7
   104          4
   105         15
   106         22
   107          8
   108         22
   109          3
   115          4
   116          1
   117          3
   118          4
   119          7
   120         13
   121         18
   122         57
   123         23
   124         32
   125          3
   126          2
   130          2
   131          4
   132          6
   133          3
   134          8
   135          5
   136          2
   137         93
   138        126
   139         46
   140          7
   141          1
   146          1
   147          6
   148          6
   149         48
   150          6
   151          2
   152          1
   161          3
   162          6
   163          6
   164         14
   165         20
   166        478
   167         54
   168         22
   169          3
   175          1
   176          9
   177        118
   178         16
   179          6
   180          4
   181          2
   182          1
   190          1
   191          1
   192         20
   193         10
   194        103
   195         11
   196          1
   206          1
   207         17
   208          6
   209         21
   210          3
   211          2
   223         45
   224          6
   225          3
   227          1
   240          8
   241         10
   242          1
   256          5
   257          1
   258          1
   272         11
   273          2
   281          1
   284          1
   288          4
   289          1
   295          1
   298          1
   301          9
   302          2
   314        124
   315         23
   316          8
   317          1
   329          2
   330          1
   331        126
   332         24
   333          9
   334          1