##TITLE=Library Entry 43985
##JCAMP-DX=Revision 4.10 
##DATA TYPE=MASS SPECTRUM
##SAMPLE DESCRIPTION=R.S.BANDURSKI MICHIGAN STATE UNIV., EAST LANSING, MICH.
, USA
##NAMES=HP
##CAS NAME=1H-Indole, 1-(trimethylsilyl)-3-[2-[(trimethylsilyl)oxy]-1-propen
yl]-
##MOLFORM=C17H27NOSi2
##CAS REGISTRY NO=74367-61-6
##MP= -300
##BP= -300
##MW= 317
##$RETENTION INDEX=0
##$CONDENSED SPECTRUM=NO
##NPOINTS= 132
##XYDATA=(XY..XY) 1 
    31          3
    43         36
    44         31
    45        223
    46         11
    47         12
    50          1
    51          1
    53          2
    57          5
    58          9
    59         15
    60          1
    61          4
    63          1
    70          2
    71          2
    72          9
    73        999
    74         77
    75         51
    76          1
    77          3
    78          1
    84          2
    85          3
    86          1
    87          1
    91          1
   100          1
   101          3
   102          3
   103          1
   105          2
   113          1
   115          6
   119          1
   120          1
   125          1
   126          1
   127          8
   128         10
   129          4
   130          5
   131          2
   133          2
   134          1
   140          1
   141          2
   142          1
   143          5
   144          4
   146          1
   147          9
   148          2
   153          1
   154         10
   155          6
   156          5
   157          2
   158          1
   159          2
   160          2
   161          1
   162          1
   167          3
   168          4
   169          3
   170          7
   171          2
   172          3
   173          1
   174          3
   183          1
   184          4
   185          1
   186         13
   187          4
   188          1
   196          3
   197          1
   198          3
   199          4
   200         12
   201          7
   202         25
   203          3
   204          1
   210          1
   212          4
   213          2
   214         21
   215          5
   216          9
   217          2
   218          1
   225          2
   226          8
   227         17
   228         10
   229         12
   230          4
   231          1
   232          3
   238          1
   242          4
   243          2
   244         30
   245         12
   246         12
   247          3
   256          1
   258          5
   259          1
   270          1
   272          3
   273          1
   274         19
   275          3
   276          1
   301          1
   302         20
   303          1
   304          1
   314          1
   315          2
   316         20
   317        499
   318        136
   319         49
   320          8
   321          1