##TITLE=Library Entry 97054
##JCAMP-DX=Revision 4.10 
##DATA TYPE=MASS SPECTRUM
##SAMPLE DESCRIPTION=NIST Mass Spectrometry Data Center
##NAMES=HP
##CAS NAME=Nonadecanoic acid, TMS derivative
##MOLFORM=C22H46O2Si
##CAS REGISTRY NO=74367-35-4
##MP= -300
##BP= -300
##MW= 370
##$RETENTION INDEX=2346
##$CONDENSED SPECTRUM=NO
##NPOINTS= 202
##XYDATA=(XY..XY) 1 
    15          1
    26          2
    27         21
    29         68
    30          1
    31          1
    34          1
    37          1
    39         21
    40          5
    41        224
    42         51
    43        384
    44         22
    45         56
    46          4
    47         25
    48          1
    51          1
    52          1
    53         11
    54         17
    55        289
    56         61
    57        204
    58         26
    59         23
    60          9
    61         43
    62          2
    63          2
    65          3
    66          2
    67         43
    68         12
    69        118
    70         27
    71         58
    72         32
    73        838
    74         73
    75        630
    76         48
    77         26
    78          2
    79         12
    80          3
    81         48
    82         12
    83         84
    84         28
    85         31
    86         10
    87         10
    88          5
    89         25
    90          4
    91          8
    93         12
    94          3
    95         45
    96          9
    97         65
    98         40
    99         21
   100          3
   101          9
   102          2
   103          5
   105         16
   106          2
   107         11
   108          1
   109         18
   110          3
   111         28
   112         16
   113          6
   114          3
   115         11
   116         67
   117        999
   118        100
   119         45
   120          2
   121         12
   123          7
   124          2
   125         12
   126          3
   127          3
   129        469
   130         55
   131        105
   132        500
   133        111
   134         27
   135          9
   136          1
   137          2
   139          2
   140          1
   141          3
   142          2
   143         28
   144          6
   145        361
   146         47
   147         17
   148          3
   149          2
   150          1
   152          1
   153          2
   154          2
   155          3
   156          1
   157          9
   158          2
   159         26
   160          5
   161          2
   163          3
   165          1
   167          2
   168          2
   169          2
   171         22
   172          3
   173          8
   174          7
   179          1
   180          1
   181          2
   183          1
   185         31
   186          5
   187         25
   188          6
   189          2
   195          2
   199          7
   200          2
   201         64
   202          9
   203          3
   209          1
   210          1
   213          7
   214          1
   215          6
   216          2
   224          2
   227          8
   228          2
   229          4
   230          1
   237          2
   241          9
   242          2
   243          8
   244          2
   252          2
   255          8
   256          1
   257          7
   258          2
   269          8
   270          1
   271          8
   272          3
   280          1
   283          2
   285          7
   286          3
   297          2
   298          2
   299          3
   311         23
   312          8
   313          6
   314          1
   325          4
   326          1
   327         27
   328          8
   329          2
   339          1
   341          4
   342          1
   353          1
   354          1
   355        553
   356        148
   357         38
   358          6
   359          1
   369          4
   370         72
   371         24
   372          7
   373          1