##TITLE=Library Entry 97116
##JCAMP-DX=Revision 4.10 
##DATA TYPE=MASS SPECTRUM
##SAMPLE DESCRIPTION=NIST Mass Spectrometry Data Center
##NAMES=HP
##CAS NAME=Behenic acid, TMS derivative
##MOLFORM=C25H52O2Si
##CAS REGISTRY NO=74367-36-5
##MP= -300
##BP= -300
##MW= 412
##$RETENTION INDEX=2644
##$CONDENSED SPECTRUM=NO
##NPOINTS= 235
##XYDATA=(XY..XY) 1 
    27         10
    28          2
    29         38
    30          1
    31          1
    39         13
    41        155
    42         40
    43        320
    44         15
    45         33
    46          2
    47         14
    48          1
    49          1
    51          1
    52          1
    53         11
    54         18
    55        274
    56         65
    57        275
    58         25
    59         22
    60          6
    61         33
    62          2
    63          1
    65          2
    66          2
    67         50
    68         17
    69        135
    70         32
    71         87
    72         32
    73        784
    74         81
    75        551
    76         40
    77         26
    78          1
    79         13
    80          3
    81         50
    82         14
    83         97
    84         31
    85         47
    86          9
    87          7
    88          4
    89         26
    90          4
    91          8
    92          1
    93         13
    94          3
    95         50
    96         11
    97         79
    98         46
    99         21
   100          3
   101         10
   102          2
   103          4
   105         14
   106          1
   107         10
   108          2
   109         21
   110          5
   111         37
   112         16
   113          7
   114          2
   115         10
   116         64
   117        999
   118        100
   119         42
   120          2
   121         13
   122          2
   123          8
   124          3
   125         11
   126          4
   127          4
   129        491
   130         63
   131        100
   132        584
   133        150
   134         33
   135         14
   136          2
   137          3
   138          2
   139          5
   140          2
   141          3
   142          2
   143         34
   145        451
   146         59
   147         21
   148          1
   149          5
   150          1
   151          1
   152          1
   153          3
   154          5
   155          4
   156          1
   157          9
   158          2
   159         31
   160          5
   161          2
   163          2
   165          1
   166          1
   167          2
   168          2
   169          1
   171         26
   172          4
   173          9
   174          8
   175          1
   177          1
   181          1
   182          1
   183          1
   185         39
   186          6
   187         30
   188          9
   189          2
   191          1
   195          1
   196          1
   197          1
   199          9
   200          2
   201         74
   202         12
   203          4
   209          1
   210          1
   213          7
   214          1
   215          5
   216          1
   223          1
   224          1
   227         11
   228          2
   229          4
   230          1
   237          1
   241         12
   242          2
   243          8
   244          2
   251          1
   255          9
   256          2
   257         10
   258          2
   259          1
   265          1
   266          1
   267          1
   269          9
   270          2
   271          4
   272          1
   279          2
   280          1
   283          7
   284          2
   285          4
   286          1
   293          1
   294          1
   297          8
   298          2
   299          4
   300          2
   311          5
   312          1
   313         10
   314          3
   315          1
   321          1
   322          1
   323          1
   325          3
   326          1
   327          7
   328          2
   329          1
   339          3
   340          1
   341          3
   342          1
   353         36
   354         11
   355          8
   356          3
   357          1
   367          5
   368          1
   369         36
   370         10
   371          3
   381          1
   383          7
   384          2
   385          1
   395          3
   397        670
   398        216
   399         59
   400         10
   401          1
   411          6
   412        154
   413         51
   414         14
   415          3