##TITLE=Library Entry 42454
##JCAMP-DX=Revision 4.10 
##DATA TYPE=MASS SPECTRUM
##SAMPLE DESCRIPTION=NIST Mass Spectrometry Data Center
##NAMES=HP
##CAS NAME=2-Ketoisocaproic acid, TMS derivative
##MOLFORM=C9H18O3Si
##CAS REGISTRY NO=74367-71-8
##MP= -300
##BP= -300
##MW= 202
##$RETENTION INDEX=1122
##$CONDENSED SPECTRUM=NO
##NPOINTS= 97
##XYDATA=(XY..XY) 1 
    15          4
    26          2
    27         30
    28          7
    29         46
    30          2
    31          4
    37          1
    38          4
    39         59
    40         11
    41        146
    42         43
    43        144
    44         30
    45        184
    46         14
    47         44
    48          2
    49          2
    50          2
    51          3
    52          1
    53         13
    54          3
    55         29
    56         14
    57        247
    58         79
    59         50
    60         13
    61         33
    62          2
    63          1
    65          1
    66          1
    67          3
    68          4
    69         31
    70          7
    71          7
    73        999
    74        193
    75        381
    76         27
    77         14
    83         10
    84          6
    85        100
    86          7
    87          2
    88          2
    89          5
    90          1
    91          2
    95          1
    97          1
    99          3
   101        187
   102         19
   103         15
   104          1
   111          1
   112          1
   113          2
   115         13
   116         89
   117         86
   118         11
   119          4
   125          1
   127          4
   128          1
   129          4
   130         11
   131         28
   132          3
   133          2
   141          1
   143        107
   144         17
   145        451
   146         51
   147         22
   148          1
   156          1
   157          2
   158         43
   159          9
   160          2
   169         12
   170          2
   171          2
   187         20
   188          3
   189          1
   202          1