##TITLE=Library Entry 62891
##JCAMP-DX=Revision 4.10 
##DATA TYPE=MASS SPECTRUM
##SAMPLE DESCRIPTION=MASS SPECTROMETRY CENTER, UNIV. OF UTAH ALDRICH 85718-1
##NAMES=HP
##CAS NAME=Propanamide, 2-amino-N-2-naphthalenyl-3-[(phenylmethyl)thio]-, (R
)-
##MOLFORM=C20H20N2OS
##CAS REGISTRY NO=7436-63-7
##MP= -300
##BP= -300
##MW= 336
##$RETENTION INDEX=0
##$CONDENSED SPECTRUM=NO
##NPOINTS= 162
##XYDATA=(XY..XY) 1 
    12          6
    14          1
    15         38
    19          1
    20          2
    26         16
    27         61
    28         66
    29         43
    30        156
    32          9
    33         13
    34         27
    36          8
    37         12
    38         22
    39        134
    40         28
    41         61
    42        177
    43        210
    44        137
    45        147
    46         29
    47         24
    48         25
    49          2
    50         38
    51         69
    52         27
    53         12
    54          6
    55         56
    56         12
    57         24
    58         15
    59         46
    60          6
    61         16
    62         40
    63        103
    64         29
    65        217
    66         21
    67          9
    69         18
    70         14
    71         24
    72          1
    73         22
    74         64
    75         63
    76        105
    77         81
    78         32
    79         21
    80          1
    81          8
    82          1
    83          7
    85          4
    86         11
    87         19
    88         30
    89         69
    90         30
    91        999
    92        136
    93          9
    95          2
    97          6
    99          2
   100          1
   101         21
   102         11
   103         10
   104          9
   105         12
   106         12
   113         30
   114         66
   115        407
   116        124
   117         27
   121         34
   122         15
   123         18
   124         36
   125          8
   126         32
   127        145
   128         36
   129         13
   130         10
   131          1
   132          8
   137          4
   138          6
   139          9
   140         62
   141         55
   142         75
   143        688
   144        252
   145         27
   147         11
   149         31
   150          3
   153          7
   154         29
   155          9
   156         25
   157          5
   161          3
   164          1
   166        701
   167         97
   168         59
   169        105
   170         35
   171         51
   172         11
   173         14
   174        110
   175         16
   176          4
   177         18
   178          1
   180          1
   181          8
   182        528
   183         80
   184         14
   185          8
   194          1
   195         15
   196         15
   197        126
   198        113
   199        100
   200         19
   210         10
   211         31
   212         74
   213         15
   214         23
   215          3
   228         52
   229          9
   230          2
   232          5
   245          1
   246          1
   261          8
   293        256
   294         56
   295         19
   319         43
   320         12
   336         67
   337         17
   338          1