##TITLE=Library Entry 97065
##JCAMP-DX=Revision 4.10 
##DATA TYPE=MASS SPECTRUM
##SAMPLE DESCRIPTION=NIST Mass Spectrometry Data Center
##NAMES=HP
##CAS NAME=Pentadecanoic acid, TMS derivative
##MOLFORM=C18H38O2Si
##CAS REGISTRY NO=74367-22-9
##MP= -300
##BP= -300
##MW= 314
##$RETENTION INDEX=1950
##$CONDENSED SPECTRUM=NO
##NPOINTS= 177
##XYDATA=(XY..XY) 1 
    15          2
    26          1
    27         28
    28          7
    29         81
    30          3
    31          2
    39         23
    40          5
    41        228
    42         48
    43        308
    44         22
    45         74
    46          5
    47         36
    48          2
    49          1
    51          1
    52          1
    53         16
    54         17
    55        262
    56         50
    57        114
    58         22
    59         30
    60         11
    61         51
    62          4
    63          2
    65          3
    66          1
    67         40
    68          8
    69         94
    70         18
    71         30
    72         36
    73        890
    74         87
    75        733
    76         50
    77         35
    78          1
    79         14
    80          2
    81         43
    82          8
    83         54
    84         24
    85         19
    86         11
    87          8
    88          6
    89         27
    90          5
    91          9
    92          1
    93         10
    94          1
    95         40
    96          7
    97         41
    98         34
    99         20
   100          2
   101         11
   102          3
   103          4
   105         21
   106          3
   107          8
   109         13
   110          3
   111         18
   112         12
   113          4
   114          1
   115         11
   116         70
   117        999
   118         96
   119         40
   120          2
   121          8
   122          1
   123          6
   124          2
   125          6
   126          3
   127          3
   129        441
   130         61
   131        128
   132        416
   133         78
   134         20
   135          7
   136          1
   137          1
   138          1
   139          2
   140          1
   141          2
   142          2
   143         30
   144          6
   145        251
   146         35
   147         12
   148          1
   149          2
   151          1
   153          2
   154          3
   155          2
   157          9
   158          1
   159         21
   160          3
   167          1
   168          3
   169          1
   171         16
   172          2
   173          6
   174          3
   177          1
   180          1
   181          2
   182          1
   185         24
   186          5
   187         19
   188          5
   189          2
   195          1
   196          1
   199          8
   200          2
   201         40
   202          6
   203          2
   213          6
   214          1
   215          6
   216          2
   225          1
   227          6
   228          1
   229          6
   230          1
   231          1
   241          4
   242          1
   243          5
   255         26
   256          6
   257          8
   258          2
   269          4
   271         24
   272          5
   273          2
   285          5
   286          1
   297          2
   299        545
   300        122
   301         30
   302          6
   313          3
   314         30
   315          8
   316          2
   317          1