##TITLE=Library Entry 44039
##JCAMP-DX=Revision 4.10 
##DATA TYPE=MASS SPECTRUM
##SAMPLE DESCRIPTION=R.S.BANDURSKI MICHIGAN STATE UNIV., EAST LANSING, MICH.
, USA
##NAMES=HP
##CAS NAME=1H-Indole-3-carboxylic acid, 2-ethoxy-1-(trimethylsilyl)-5-[(trim
ethylsilyl)oxy]-, ethyl ester
##MOLFORM=C19H31NO4Si2
##CAS REGISTRY NO=74367-46-7
##MP= -300
##BP= -300
##MW= 393
##$RETENTION INDEX=0
##$CONDENSED SPECTRUM=NO
##NPOINTS= 276
##XYDATA=(XY..XY) 1 
    30          1
    31          4
    32         18
    39          3
    40          1
    41          7
    42          3
    43         14
    44         14
    45        106
    46          7
    47          8
    49          1
    50          1
    51          2
    53          1
    54          1
    55          6
    56          7
    57         14
    58         11
    59         29
    60          2
    61          6
    63          2
    65          2
    67          2
    68          1
    69          4
    70          2
    71          6
    72          8
    73        999
    74         74
    75        130
    76          9
    77         12
    78          2
    79          1
    80          1
    81          2
    82          1
    83          6
    84          3
    85          6
    86          2
    87          2
    88          1
    89          3
    90          2
    91          4
    92          1
    93          4
    94          1
    95          3
    96          2
    97          3
    98          1
    99          3
   100          5
   101          4
   102          4
   103         17
   104          4
   105          4
   106          1
   107          2
   108          1
   109          2
   110          1
   111          2
   115          4
   116          4
   117          8
   118          3
   119          5
   120          3
   121          3
   122          1
   123          3
   124          1
   125          2
   127          1
   128          3
   129          4
   130          3
   131          7
   132          5
   133         13
   134          3
   135          5
   136          1
   137          1
   138          1
   139          1
   140          1
   141          2
   142          2
   143          3
   144          8
   145          8
   146          7
   147         63
   148         11
   149         12
   150          2
   151          2
   152          5
   153          2
   154          1
   155          1
   156          3
   157          3
   158          6
   159          4
   160          7
   161          6
   162          4
   163          3
   164          2
   167          4
   169          1
   170          4
   171          2
   172          8
   173          5
   174         16
   175          9
   176          8
   177          4
   178          2
   179          2
   181          1
   184          1
   186          5
   187          2
   188         12
   189          7
   190          5
   191          5
   192          3
   193          3
   194          1
   197          1
   198          1
   199          2
   200          3
   201          2
   202         17
   203          7
   204         10
   205          6
   206          5
   207         15
   208          3
   209          2
   214          3
   215          5
   216         13
   217          7
   218         25
   219          8
   220         14
   221         32
   222          7
   223          4
   224          1
   225          1
   226          1
   228          2
   229          2
   230          9
   231         12
   232         34
   233          9
   234         15
   235          4
   236          5
   237          1
   238          1
   242          2
   243          1
   244         12
   245         13
   246        286
   247        137
   248         44
   249         12
   250          5
   251          1
   252          1
   260         21
   261          5
   262         14
   263          4
   264          4
   265          2
   267          3
   268          1
   272          1
   273          1
   274         12
   275         29
   276         45
   277         20
   278         14
   279          5
   280          1
   281         19
   282          5
   283          3
   284          1
   285          1
   288         15
   291         10
   292         39
   293         12
   294          4
   295          8
   296          2
   297          1
   299          1
   302          9
   303         10
   304        149
   305         37
   306         32
   307          7
   308          7
   309          1
   317         33
   319        912
   320        245
   321        117
   322         24
   323          6
   324          1
   325          4
   326          3
   327          3
   332         11
   333          3
   334         14
   335          4
   336          4
   339          1
   341          6
   342          2
   343          1
   346          2
   348         72
   349         48
   350         30
   351          8
   352          2
   353          1
   355         24
   356          8
   357          5
   358          1
   364        189
   365         66
   366         23
   367          5
   368          1
   369          3
   370          1
   378         43
   379         12
   380          4
   381          1
   393        521
   394        142
   395         53
   396         10
   397          1