##TITLE=Library Entry 44189
##JCAMP-DX=Revision 4.10 
##DATA TYPE=MASS SPECTRUM
##SAMPLE DESCRIPTION=N.W. Davies, Centr. Sci. Lab., Univ. Tasmania, Hobart,
 Australia
##NAMES=HP
##CAS NAME=Codeine, TMS derivative
##MOLFORM=C21H29NO3Si
##CAS REGISTRY NO=74367-14-9
##MP= -300
##BP= -300
##MW= 371
##$RETENTION INDEX=2473
##$CONDENSED SPECTRUM=NO
##NPOINTS= 282
##XYDATA=(XY..XY) 1 
    25          6
    26         24
    27         53
    28          1
    30         48
    31        143
    34          3
    38          6
    39         42
    41         50
    42        292
    43         24
    45        118
    46          4
    47         16
    49          1
    50         14
    51         24
    52         12
    53         27
    54         11
    55         23
    56         18
    57        115
    58         71
    59        208
    60          7
    61         16
    62          1
    63         13
    64          7
    65         24
    66         10
    67         14
    68         12
    69         11
    70        205
    71         34
    72         12
    73        999
    74         70
    75        149
    76         26
    77         40
    78         20
    79         10
    80         14
    81         60
    82         33
    83         20
    84         12
    85          1
    87          9
    88          5
    89         30
    90         13
    91         46
    92         13
    93         15
    94        143
    95         15
    96         55
    97          3
    98          3
    99          3
   100          7
   101         12
   102         16
   103         39
   104         11
   105         24
   106         16
   107         18
   108         18
   109         13
   110         12
   111          5
   112         11
   113         15
   114          9
   115         79
   116         15
   117         24
   118         10
   119         11
   120         19
   121         14
   122         11
   123          7
   124         18
   125          3
   126         14
   127         32
   128         25
   129         44
   130         28
   131         20
   132         22
   133         14
   134         18
   135         12
   136         10
   137         12
   138         14
   139         14
   140         14
   141         38
   142         12
   143         14
   144         32
   145         18
   146        154
   147         27
   148          9
   149         68
   150         17
   151         18
   152         35
   153         26
   154         19
   155         30
   156         24
   157         18
   158         18
   159         13
   160         13
   161         20
   162         32
   163         18
   164         19
   165         43
   166         13
   167         33
   168         20
   169         18
   170         18
   171          8
   172         12
   173         29
   174         13
   175         32
   176         37
   177         22
   178        411
   179        177
   180         32
   181         30
   182         29
   183         17
   184         23
   185         32
   186         29
   187         21
   188        111
   189         51
   190         19
   191          7
   192         26
   193         31
   194         12
   195         32
   196        391
   197         87
   198         38
   199         15
   200         13
   201         12
   202         14
   203         20
   204         13
   205         19
   206         10
   207         44
   208         10
   209          6
   210         16
   211         19
   212         24
   213          8
   214         34
   215         13
   216         32
   217         20
   218         10
   219         10
   220          9
   221         24
   222         18
   223         17
   224         16
   225         22
   226         14
   227         12
   228         16
   229        187
   230         48
   231         11
   232         10
   233          6
   234        135
   235         58
   236         23
   237         18
   238         18
   239         13
   240         12
   241         15
   242         33
   243         11
   244          4
   247          6
   248          9
   249          6
   250         12
   251          9
   252         10
   253         18
   254         27
   255         18
   256          6
   257          7
   263          5
   264          7
   265          8
   266         28
   267         14
   268         16
   269         13
   270         12
   271          6
   273          3
   277         10
   279         13
   280         32
   281         26
   282         63
   283         24
   284         15
   285         20
   286          6
   295          7
   296          7
   297         24
   298         24
   299         41
   300          7
   301          6
   302          5
   310          4
   311          5
   312         21
   313         93
   314         51
   315         19
   316          5
   324         10
   325          6
   326          4
   327          5
   328         11
   329          3
   339          4
   340          7
   341          3
   342         10
   343         65
   344         18
   345          5
   349          3
   352          3
   354          7
   355          6
   356         85
   357         30
   358          7
   368          3
   369          3
   370        109
   371        761
   372        226
   373         63
   374          8