##TITLE=Library Entry 42105
##JCAMP-DX=Revision 4.10 
##DATA TYPE=MASS SPECTRUM
##SAMPLE DESCRIPTION=NIST Mass Spectrometry Data Center
##NAMES=HP
##CAS NAME=2-Ketobutyric acid, TMS derivative
##MOLFORM=C7H14O3Si
##CAS REGISTRY NO=74367-68-3
##MP= -300
##BP= -300
##MW= 174
##$RETENTION INDEX=990
##$CONDENSED SPECTRUM=NO
##NPOINTS= 64
##XYDATA=(XY..XY) 1 
    14          1
    15          8
    26          9
    27         50
    28         23
    29        113
    30          4
    31          6
    38          1
    39          2
    41          2
    42         12
    43         59
    44         23
    45        159
    46         11
    47         34
    48          2
    49          1
    51          1
    53          5
    54          2
    55         15
    56         10
    57         73
    58         41
    59         66
    60         12
    61         30
    62          2
    63          1
    69          1
    70          3
    71          4
    72         15
    73        999
    74         99
    75        213
    76         15
    77          8
    85         67
    86          7
    87         20
    88          2
    89          2
    97          1
    99         14
   100          2
   101         96
   102         22
   103          8
   104          1
   113          3
   115        300
   116         32
   117         33
   118          3
   119          1
   130         43
   131          6
   132          2
   159         14
   160          2
   161          1