##TITLE=Library Entry 58426
##JCAMP-DX=Revision 4.10 
##DATA TYPE=MASS SPECTRUM
##SAMPLE DESCRIPTION=Chemical Concepts
##NAMES=HP
##CAS NAME=Propanoic acid, 2-methyl-, 2-ethyl-3-hydroxyhexyl ester
##MOLFORM=C12H24O3
##CAS REGISTRY NO=74367-31-0
##MP= -300
##BP= -300
##MW= 216
##$RETENTION INDEX=1373
##$CONDENSED SPECTRUM=NO
##NPOINTS= 86
##XYDATA=(XY..XY) 1 
    26          5
    27        126
    28         13
    29        109
    30          3
    31         68
    35          0
    37          0
    38          2
    39         44
    40         11
    41        251
    42         34
    43        546
    44         24
    45         29
    46          0
    47          2
    50          0
    51          1
    52          1
    53         13
    54         10
    55        313
    56        612
    57         98
    58         10
    59         11
    60         12
    61          1
    65          1
    66          0
    67         11
    68         10
    69         46
    70         17
    71        929
    72         50
    73        133
    74          6
    75          0
    77          1
    78          0
    79          1
    80          0
    81         11
    82          3
    83          6
    84          2
    85        137
    86         19
    87          4
    88          3
    89        999
    90         43
    91          5
    92          0
    95          6
    96          1
    97          3
    98          6
    99         49
   100          7
   101          2
   103          1
   109          1
   110          6
   111          4
   112          0
   113          4
   114          1
   115          0
   127          6
   128         12
   129          4
   139          1
   143         65
   144          6
   145          7
   146          0
   155          9
   156          1
   161          8
   162          0
   173         10
   174          1