##TITLE=Library Entry 43597
##JCAMP-DX=Revision 4.10 
##DATA TYPE=MASS SPECTRUM
##SAMPLE DESCRIPTION=R.S.BANDURSKI MICHIGAN STATE UNIV., EAST LANSING, MICH.
, USA
##NAMES=HP
##CAS NAME=1H-Indole-3-acetic acid, 5-chloro-2-methyl-1-(trimethylsilyl)-, t
rimethylsilyl ester
##MOLFORM=C17H26ClNO2Si2
##CAS REGISTRY NO=74367-57-0
##MP= -300
##BP= -300
##MW= 367
##$RETENTION INDEX=0
##$CONDENSED SPECTRUM=NO
##NPOINTS= 185
##XYDATA=(XY..XY) 1 
    31          3
    36          3
    38          1
    41         12
    42          1
    43         24
    44         12
    45        143
    46          9
    47          8
    49          1
    50          2
    51          4
    52          1
    53          2
    54          3
    55         13
    56          3
    57         12
    58          9
    59         22
    60          3
    61          4
    63          7
    65          3
    67          4
    68          2
    69          7
    70          1
    71          5
    72          9
    73        999
    74         86
    75        102
    76          7
    77          6
    78          1
    81          5
    82          2
    83          5
    84          2
    85          6
    86          1
    89          4
    90          1
    91          3
    92          1
    93          6
    94          2
    95          4
    96          3
    97          3
    98          2
    99          2
   100          1
   101          7
   102          1
   103          4
   104          2
   105          4
   106          6
   107          5
   108          2
   109          1
   110          1
   111          2
   114          3
   115         13
   116          7
   117          5
   118          1
   125          2
   127          2
   128          2
   129          8
   130          3
   131          4
   132          6
   133          3
   134          1
   135          3
   136          3
   139          1
   140          7
   141          5
   142          8
   143         15
   144          4
   145          6
   147         37
   148          5
   149          5
   150          1
   154          2
   155          1
   156          3
   157          2
   158          1
   159          2
   165          2
   168          1
   169          3
   171          2
   172          1
   176          6
   177         20
   178         49
   179         18
   180         17
   181          1
   182          2
   183          2
   184          4
   185          1
   193          2
   194          2
   197          1
   198          2
   199          3
   200         23
   201          6
   202          2
   203          1
   204          3
   205          2
   206          2
   212          2
   213          3
   214         13
   215         17
   216         10
   217          2
   218          3
   219          1
   220          2
   221          2
   232          2
   233          1
   234         15
   235          6
   236          7
   237          3
   238          3
   242          2
   246          1
   247          2
   248         14
   249          4
   250        681
   251        148
   252        260
   253         39
   254         11
   255          2
   258          1
   279          4
   280          4
   281          3
   282          2
   283          1
   294          1
   295          9
   296          3
   297          4
   323          1
   324          6
   325          3
   326          4
   327          1
   331          2
   332          3
   333          1
   341          4
   342          1
   352         45
   353         12
   354         19
   355          5
   356          2
   366          2
   367        189
   368         41
   369         80
   370         17
   371          5