##TITLE=Library Entry 43499
##JCAMP-DX=Revision 4.10 
##DATA TYPE=MASS SPECTRUM
##SAMPLE DESCRIPTION=R.S.BANDURSKI MICHIGAN STATE UNIV., EAST LANSING, MICH.
, USA
##NAMES=HP
##CAS NAME=2,3,5-Trimethyl-1H-indole, TMS derivative
##MOLFORM=C14H21NSi
##CAS REGISTRY NO=74367-58-1
##MP= -300
##BP= -300
##MW= 231
##$RETENTION INDEX=0
##$CONDENSED SPECTRUM=NO
##NPOINTS= 151
##XYDATA=(XY..XY) 1 
    31         12
    37          1
    38          1
    39         17
    40          1
    41          2
    43         76
    45        171
    46         14
    47          4
    51         10
    52          4
    53         13
    54          4
    55          9
    56          1
    57         11
    58         12
    59         40
    60          4
    61          2
    62          1
    63          9
    64          2
    65         13
    66          4
    67          9
    68          1
    71          4
    72          4
    73        999
    74         95
    75         23
    76          5
    77         10
    78          4
    79          4
    80          1
    81          1
    83          4
    84          4
    85          3
    86          1
    87          2
    88          2
    89         12
    90          4
    91         31
    92          2
    93          4
    94          1
    95          1
    97          1
    98          1
   101          3
   102          8
   103          6
   104          5
   105          7
   106          2
   107          3
   108          4
   113          2
   114          5
   115         70
   116         20
   117         11
   118          3
   119          7
   120          1
   121          2
   127          7
   128         12
   129         12
   130          8
   131          8
   132          6
   133          5
   134          2
   135          1
   140          4
   141          6
   142         17
   143         18
   144         27
   145         12
   146          6
   147          2
   148          2
   149          5
   154          7
   155          5
   156         18
   157         40
   158        122
   159        134
   160         19
   161          2
   162          2
   167          1
   168          2
   169          4
   170          6
   171          5
   172          4
   173          7
   174          7
   175          1
   176          1
   181          1
   182          6
   183          4
   184          6
   185          6
   186          8
   187          3
   188          2
   189          3
   190          1
   191          1
   192          1
   194          1
   196          3
   197          2
   198         10
   199          4
   200         28
   201         22
   202          3
   206          3
   209          1
   210          1
   212          4
   213          5
   214         36
   215         22
   216        329
   217         70
   218         16
   219          2
   220         10
   221          2
   226          2
   227          1
   228          8
   229         23
   230        136
   231        976
   232        214
   233         41
   234          5