##TITLE=Library Entry 43401
##JCAMP-DX=Revision 4.10 
##DATA TYPE=MASS SPECTRUM
##SAMPLE DESCRIPTION=C SWEELEY & F MARTIN, MICHIGAN ST UNIV, EAST LANSING, M
I, USA
##NAMES=HP
##CAS NAME=D-Glucose, 2-deoxy-3,4,5,6-tetrakis-O-(trimethylsilyl)-2-[(trimet
hylsilyl)amino]-, O-methyloxime
##MOLFORM=C22H56N2O5Si5
##CAS REGISTRY NO=74367-65-0
##MP= -300
##BP= -300
##MW= 568
##$RETENTION INDEX=0
##$CONDENSED SPECTRUM=NO
##NPOINTS= 272
##XYDATA=(XY..XY) 1 
    12          0
    13          0
    14         20
    15         11
    16          8
    17          6
    18         40
    20          2
    26          5
    27          9
    28          8
    29         31
    30          5
    31         14
    32          1
    34          0
    36          1
    37          1
    38          4
    39         22
    40         14
    41         10
    42         11
    43         85
    44          5
    45        161
    46         10
    47         20
    48          1
    49          3
    50          9
    51         16
    52          5
    53         22
    54          8
    55         17
    56          8
    57         18
    58         44
    59         67
    60          6
    61         10
    62         18
    63         35
    64          7
    65         10
    66          7
    67         10
    68          3
    69          7
    70          6
    71          9
    72         21
    73        999
    74         87
    75        110
    76         17
    77         44
    78          6
    79          6
    80          3
    81          3
    82          2
    83          7
    84         19
    85          6
    86          6
    87          9
    88         13
    89         59
    90         14
    91         11
    92          4
    93         25
    94          5
    95          9
    96          3
    97          3
    98          2
    99          2
   100         19
   101         41
   102         11
   103         11
   104         10
   105         13
   106          3
   107          3
   108          2
   109          2
   110          1
   111          2
   112          1
   113          2
   114          8
   115         41
   116         66
   117         25
   118          7
   119          8
   120          4
   121          4
   122          1
   123          2
   124          0
   125          1
   126          1
   127          5
   128         27
   129         15
   130         23
   131         12
   132         11
   133          8
   134          4
   135          4
   136          1
   137          1
   139          0
   140          3
   141          4
   142         10
   143         28
   144        112
   145         89
   146         22
   147         30
   148          7
   149         14
   150          2
   151          3
   152          0
   153          1
   154          3
   155          2
   156         16
   157          6
   158         11
   159          5
   160         12
   161          4
   162          2
   163          2
   165          0
   166          1
   167          3
   168          2
   169          1
   170         13
   171          4
   172         34
   173          8
   174         15
   175          9
   176          4
   177          1
   178          1
   179          1
   180          0
   181          1
   182          2
   183          1
   184         23
   185          6
   186         20
   187          9
   188         21
   189          9
   190          3
   191          1
   192          1
   193          1
   194          1
   195          0
   196          0
   197          0
   198          1
   199          0
   200          8
   201          4
   202        272
   203         43
   204         14
   205          2
   206          1
   207         10
   208          2
   209          1
   210          0
   211          0
   213          1
   214          6
   215         38
   216        363
   217        922
   218        169
   219         48
   220          5
   221         11
   222          2
   223          2
   224          1
   225          0
   229          1
   230          0
   231          0
   235          0
   243          0
   246          0
   249          1
   251          1
   252          1
   257          0
   265          1
   267          2
   268          0
   271          0
   279          0
   280          0
   281         10
   282          3
   283          2
   284          0
   285          0
   291          0
   292          0
   294          0
   295          5
   296          2
   297          1
   299          0
   307          0
   309          1
   311          0
   313          2
   314          0
   323          0
   325          2
   326          0
   327          3
   328          0
   329          0
   334          0
   339          0
   341          7
   342          3
   343          2
   354          0
   355         11
   356          3
   357          2
   358          0
   383          0
   385          0
   399          1
   400          0
   401          3
   402          0
   403          0
   415          3
   416          1
   417          0
   418          0
   429          6
   430          2
   431          2
   432          1
   459          0
   461          0
   475          1
   488          2
   489          1