##TITLE=Library Entry 43481
##JCAMP-DX=Revision 4.10 
##DATA TYPE=MASS SPECTRUM
##SAMPLE DESCRIPTION=R.S.BANDURSKI MICHIGAN STATE UNIV., EAST LANSING, MICH.
, USA
##NAMES=HP
##CAS NAME=Indole-3-acetonitrile, TMS derivative
##MOLFORM=C13H16N2Si
##CAS REGISTRY NO=74367-49-0
##MP= -300
##BP= -300
##MW= 228
##$RETENTION INDEX=1935
##$CONDENSED SPECTRUM=NO
##NPOINTS= 171
##XYDATA=(XY..XY) 1 
    31          4
    39         10
    41         15
    42          9
    43        108
    45        202
    46          7
    47         12
    49          2
    50         11
    51         20
    52          6
    53         19
    54         20
    55         26
    56         12
    57         33
    58         22
    59         25
    60          2
    61          3
    62          6
    63         12
    64          1
    65          4
    66          3
    67          8
    68         15
    70         15
    71         19
    72         29
    73        999
    74         95
    75        105
    76         23
    77         51
    78         12
    79          6
    80          5
    81         10
    82          2
    83         13
    84        127
    85         13
    86          6
    87          5
    88          1
    89          5
    90          6
    91          7
    92          3
    93         20
    94          2
    95         11
    96          5
    97          8
    98          9
    99          7
   100         10
   101         34
   102         52
   103         23
   105          3
   106          2
   107          2
   109          5
   111          6
   112          4
   113          3
   114          3
   115         13
   116          6
   117         34
   118          4
   119          6
   120          1
   121          2
   122          2
   123          2
   124          2
   125          4
   126          3
   127         21
   128         36
   129        538
   130        146
   131         27
   132         20
   133          8
   134          4
   135          2
   136          2
   137          1
   139          2
   140          4
   141          3
   142         10
   143         15
   144         11
   145         24
   146          7
   147         12
   148          4
   149          2
   150          1
   151          3
   152          1
   153          3
   154         13
   155         50
   156         51
   157         13
   158          8
   159          5
   160          8
   161          1
   165          1
   166          2
   167          2
   168          6
   169          8
   170         26
   171          9
   172         28
   173          8
   174          4
   175          2
   178          2
   179          3
   181          8
   182          4
   183         10
   184          9
   185          7
   186         19
   187         26
   188         10
   189          5
   190          2
   194          3
   195          6
   197          4
   198          3
   200         16
   201          6
   202         55
   203         21
   204          7
   205          4
   207          6
   208          4
   209          4
   210          2
   211          8
   212          4
   213        393
   214         77
   215         21
   216          4
   217          2
   221          4
   222          2
   223          2
   225          7
   226          4
   227         50
   228        947
   229        151
   230         49
   231          8
   232          1