##TITLE=Library Entry 42166
##JCAMP-DX=Revision 4.10 
##DATA TYPE=MASS SPECTRUM
##SAMPLE DESCRIPTION=Chemical Concepts
##NAMES=HP
##CAS NAME=Lignoceric acid, TMS derivative
##MOLFORM=C27H56O2Si
##CAS REGISTRY NO=74367-37-6
##MP= -300
##BP= -300
##MW= 440
##$RETENTION INDEX=2838
##$CONDENSED SPECTRUM=NO
##NPOINTS= 147
##XYDATA=(XY..XY) 1 
    39         10
    40          6
    41        208
    42         39
    43        499
    44         22
    45         47
    47         43
    49         17
    50          0
    52          0
    53          1
    54         13
    55        333
    56         66
    57        336
    58         14
    59         29
    60         17
    61         44
    64          5
    67         87
    68         21
    69        224
    70         42
    71        141
    72         35
    73        999
    74         84
    75        722
    76         53
    77        124
    78          2
    79         15
    81         86
    82         14
    83        111
    84         44
    85         52
    86          5
    87          4
    88          0
    89         24
    91          1
    93         17
    95         76
    96          5
    97         96
    98         71
    99         18
   101         10
   102          0
   105         22
   107         14
   109         35
   111         42
   112          5
   115          0
   116         30
   117        919
   118         84
   119         35
   120          0
   121         14
   122          0
   123         12
   124          6
   125         11
   127          5
   128          0
   129        365
   130         44
   131        122
   132        499
   133        136
   134         26
   135         19
   137          0
   140          4
   142          0
   143         36
   144          0
   145        419
   146         45
   147         13
   148          0
   149          7
   154         11
   155          1
   157          0
   159         36
   160          0
   161          0
   163          2
   167          0
   169          2
   171         23
   172          0
   173          9
   174          6
   185         40
   186          4
   187         32
   188         12
   195          0
   199          0
   201         94
   202         19
   203          4
   209          0
   213          0
   215         11
   216          0
   223          0
   227          0
   229          0
   230          0
   241          4
   243          1
   244          0
   257         17
   265          1
   269          4
   271          0
   297          0
   299          4
   311          0
   313          0
   325          0
   339          0
   341          1
   355          0
   356          4
   357          0
   369          0
   381         12
   382          0
   397         16
   398          0
   424          0
   425        175
   426         60
   427         11
   429          2
   440         58
   441         21
   442          5