##TITLE=Library Entry 42210
##JCAMP-DX=Revision 4.10 
##DATA TYPE=MASS SPECTRUM
##SAMPLE DESCRIPTION=Japan AIST/NIMC Database- Spectrum MS-IW-1514
##NAMES=HP
##CAS NAME=1-(Trimethylsilyl)cyclopropyl phenyl sulfide
##MOLFORM=C12H18SSi
##CAS REGISTRY NO=74379-74-1
##MP= -300
##BP= -300
##MW= 222
##$RETENTION INDEX=0
##$CONDENSED SPECTRUM=NO
##NPOINTS= 131
##XYDATA=(XY..XY) 1 
    15          1
    27          6
    28          7
    29         13
    30          1
    31          9
    32          1
    38          2
    39         22
    40          3
    41          3
    42          5
    43         74
    44         24
    45        137
    46          9
    47          5
    50          7
    51         34
    52          3
    53         11
    54          2
    55         13
    56          2
    57         10
    58         27
    59         48
    60          4
    61          4
    62          1
    63          5
    65         29
    66          8
    67          8
    68          1
    69         16
    70          4
    71         11
    72         21
    73        999
    74         96
    75         57
    76          7
    77         57
    78          7
    79          6
    81          3
    82          3
    83         13
    84          4
    85          7
    87          1
    89          5
    90          7
    91         78
    92          7
    93          5
    95          3
    96          2
    97         10
    98          3
    99          1
   101          2
   102          4
   103          5
   104          7
   105         16
   106          2
   107          5
   108          4
   109         27
   110         15
   111          3
   112          1
   113          2
   115         27
   116         50
   117        586
   118         58
   119          8
   120          1
   121          9
   122          1
   123          2
   129          3
   130          1
   131          7
   132          2
   133          8
   134          9
   135         46
   136          8
   137         17
   138          2
   139          2
   145         11
   146          2
   147         29
   148        103
   149         43
   150         10
   151        116
   152         16
   153         15
   154          2
   155          1
   163          1
   164          1
   165         13
   166          3
   167        383
   168         55
   169         32
   170          3
   173          2
   177          1
   179          6
   180          1
   181          2
   182          5
   191          5
   193          2
   206          3
   207         21
   208          4
   209          3
   221         73
   222        183
   223         39
   224         16
   225          3