##TITLE=Library Entry 82245
##JCAMP-DX=Revision 4.10 
##DATA TYPE=MASS SPECTRUM
##SAMPLE DESCRIPTION=Chemical Concepts
##NAMES=HP
##CAS NAME=1,4-Naphthalenediol dibenzoate
##MOLFORM=C24H16O4
##CAS REGISTRY NO=7437-73-2
##MP= -300
##BP= -300
##MW= 368
##$RETENTION INDEX=0
##$CONDENSED SPECTRUM=NO
##NPOINTS= 184
##XYDATA=(XY..XY) 1 
    26          0
    27          4
    29          2
    30          1
    31          3
    38          1
    39          4
    40          1
    41          3
    42          1
    43          6
    44          1
    45          4
    46          1
    48          0
    49          0
    50         22
    51         85
    52          5
    53          1
    54          1
    55          4
    56          1
    57          7
    58          0
    59          1
    60          1
    61          0
    62          1
    63          2
    64          0
    65          1
    66          0
    67          1
    68          0
    69          3
    70          1
    71          4
    72          0
    73          1
    74          5
    75          8
    76         35
    77        452
    78         29
    79          1
    80          0
    81          1
    82          0
    83          2
    84          1
    85          2
    86          0
    87          1
    88          1
    89          0
    90          0
    91          9
    92          1
    93          0
    94          0
    95          1
    96          0
    97          2
    98          0
    99          1
   100          0
   101          2
   102         12
   103          3
   104         17
   105        999
   106        139
   107          8
   108          2
   109          0
   110          0
   111          1
   112          0
   113          2
   114          1
   115          0
   119          0
   120          0
   121          0
   122          1
   123          0
   124          0
   125          0
   126          0
   127          0
   128          0
   129          2
   130          6
   131          3
   132          0
   133          0
   134          0
   135          0
   137          0
   138          0
   139          1
   140          0
   141          0
   142          0
   143          0
   144          0
   145          0
   146          0
   147          0
   148          0
   149         15
   150          2
   151          1
   152          2
   153          0
   154          0
   155          0
   156          0
   157          0
   158          1
   159          2
   160          0
   161          0
   162          0
   163          0
   164          0
   165          0
   166          0
   167          3
   168          0
   169          0
   170          0
   171          0
   174          0
   175          0
   176          1
   177          0
   178          1
   179          0
   180          0
   181          0
   182          0
   183          0
   184          0
   185          0
   186          0
   187          0
   188          0
   189          0
   190          0
   191          0
   205          1
   206          0
   207          0
   208          0
   209          0
   210          0
   218          0
   219          0
   223          0
   224          0
   233          0
   234          0
   242          0
   243          0
   254          0
   255          0
   256          0
   257          0
   261          0
   262          1
   263          0
   264         12
   265          2
   266          0
   278          0
   279          0
   280          0
   367          3
   368        580
   369        161
   370         25
   371          2