##TITLE=Library Entry 43201
##JCAMP-DX=Revision 4.10 
##DATA TYPE=MASS SPECTRUM
##SAMPLE DESCRIPTION=R.S.BANDURSKI MICHIGAN STATE UNIV., EAST LANSING, MICH.
, USA
##NAMES=HP
##CAS NAME=7-Methylindole, TMS derivative
##MOLFORM=C12H17NSi
##CAS REGISTRY NO=74381-43-4
##MP= -300
##BP= -300
##MW= 203
##$RETENTION INDEX=0
##$CONDENSED SPECTRUM=NO
##NPOINTS= 103
##XYDATA=(XY..XY) 1 
    31         10
    38          2
    39         12
    43         52
    45        167
    46          7
    50          3
    51         18
    52          5
    53         18
    54          6
    55          9
    56          1
    57          9
    58         10
    59         33
    60          5
    61          2
    63         11
    64          2
    65          5
    66          2
    67          6
    68          2
    70          2
    71          3
    72          8
    73        999
    74         74
    75         19
    76          6
    77         35
    79          5
    80          4
    83          3
    84          6
    85          3
    86          6
    87          2
    88          1
    89          6
    91          7
    92          3
    93          4
    94          5
    95          1
    97          1
   101          3
   102         13
   103         29
   104         10
   105         16
   106          3
   107          2
   115          8
   116          4
   117          5
   118          3
   119          7
   121          2
   127          3
   128         11
   129         18
   130         54
   131         46
   132         11
   133          4
   134          3
   141          2
   142          3
   143          8
   144         18
   145          8
   146          8
   148          3
   156         33
   158          9
   159          5
   160         14
   161          2
   168          3
   169          5
   170         16
   171          8
   172         29
   173         10
   176          2
   182          1
   183          1
   184          6
   185          3
   186         10
   187         15
   188        312
   189         41
   190         11
   200          3
   201          1
   202         16
   203        634
   204        118
   205         25
   206          3