##TITLE=Library Entry 60153
##JCAMP-DX=Revision 4.10 
##DATA TYPE=MASS SPECTRUM
##SAMPLE DESCRIPTION=A.Pleshkova, Nesmeyanov Inst.Org.Elem.Cpds, Moscow
##NAMES=HP
##CAS NAME=N-Benzyloxy-2,2-(trifluoromethyl)aziridine
##MOLFORM=C11H9F6NO
##CAS REGISTRY NO=74387-63-6
##MP= -300
##BP= -300
##MW= 285
##$RETENTION INDEX=0
##$CONDENSED SPECTRUM=NO
##NPOINTS= 25
##XYDATA=(XY..XY) 1 
    28         32
    29        105
    30         11
    39         48
    40         11
    41         66
    47          9
    51         42
    53          7
    65         83
    66         11
    69         67
    70          2
    77        123
    78         33
    91        999
    92         79
    93         11
   105         43
   106         37
   178         23
   185         31
   186          5
   285         22
   286          3