##TITLE=Library Entry 5528
##JCAMP-DX=Revision 4.10 
##DATA TYPE=MASS SPECTRUM
##SAMPLE DESCRIPTION=Chemical Concepts
##NAMES=HP
##CAS NAME=Octane, 1-azido-
##MOLFORM=C8H17N3
##CAS REGISTRY NO=7438-05-3
##MP= -300
##BP= -300
##MW= 155
##$RETENTION INDEX=0
##$CONDENSED SPECTRUM=NO
##NPOINTS= 72
##XYDATA=(XY..XY) 1 
    25          1
    26         26
    27        305
    28        627
    29        341
    30        338
    31          6
    32          1
    36          0
    37          5
    38         12
    39        202
    40         41
    41        540
    42        234
    43        999
    44         83
    45          6
    49          0
    50          7
    51         13
    52         10
    53         36
    54         95
    55        170
    56        416
    57        160
    58          9
    59          0
    61          0
    62          0
    63          2
    64          1
    65          5
    66          5
    67         29
    68         40
    69         71
    70        329
    71         30
    72          2
    75          0
    77          2
    78          1
    79          6
    80          4
    81         23
    82        109
    83         59
    84         68
    85          8
    86          1
    91          1
    92          0
    93          2
    94          2
    95          4
    96         49
    97         29
    98         19
    99          2
   100          0
   108          0
   109          0
   110         12
   111          0
   112          3
   124          2
   125          0
   126          7
   127          6
   128          0