##TITLE=Library Entry 27519
##JCAMP-DX=Revision 4.10 
##DATA TYPE=MASS SPECTRUM
##SAMPLE DESCRIPTION=LAC, NIDDK, NIH, Bethesda, MD 20892
##NAMES=HP
##CAS NAME=2.alpha.-Methyl-dihydrotestosterone propioate
##MOLFORM=C23H36O3
##CAS REGISTRY NO=7438-48-4
##MP= -300
##BP= -300
##MW= 360
##$RETENTION INDEX=0
##$CONDENSED SPECTRUM=NO
##NPOINTS= 117
##XYDATA=(XY..XY) 1 
    41        133
    42         28
    43         72
    49          2
    53         33
    54          6
    55        129
    57        999
    58         23
    65         12
    66          2
    67         89
    68         28
    69         65
    71          6
    77         42
    78          3
    79         91
    80         14
    81         95
    82         12
    83         12
    84          2
    91         83
    92         11
    93         96
    94        119
    95         99
    96         12
    97         12
   105         67
   106         17
   107         81
   108         26
   109         47
   110          3
   111         12
   115          2
   117         13
   118          3
   119         45
   120         17
   121         57
   122         20
   123         40
   124         12
   125         10
   131         20
   132          2
   133         41
   134         15
   135         41
   136         38
   137         30
   138        114
   139         12
   143          2
   144          3
   145         24
   146         12
   147         51
   148         71
   149        204
   150         32
   151         29
   157          6
   158          5
   159         26
   160         10
   161         68
   162         29
   163         28
   171          6
   173         19
   174          7
   175         28
   176         11
   177         45
   178          7
   179          2
   185          5
   187         16
   188          2
   189         14
   190          5
   199         11
   200         15
   201         44
   202         20
   203         10
   204          2
   213         11
   214         13
   215         19
   217          6
   218          2
   229         11
   230          2
   231         16
   243         15
   244         13
   245         52
   246          7
   247          5
   253          2
   258         28
   260          5
   261          6
   269          2
   271        164
   272         31
   285          8
   286        205
   287         59
   288          6
   360         38
   361         10