##TITLE=Library Entry 15300
##JCAMP-DX=Revision 4.10 
##DATA TYPE=MASS SPECTRUM
##SAMPLE DESCRIPTION=Div. of Experiment Therapeutics WRAIR, WRAMC, Washingto
n DC 20307
##NAMES=HP
##CAS NAME=N'-[2-Cyano-4-[2-pyrimidinylthio]phenyl]-N,N-dimethylformamidine
##MOLFORM=C14H13N5S
##CAS REGISTRY NO=74396-44-4
##MP= -300
##BP= -300
##MW= 283
##$RETENTION INDEX=0
##$CONDENSED SPECTRUM=NO
##NPOINTS= 155
##XYDATA=(XY..XY) 1 
    42        517
    44        999
    45        122
    46         28
    47          1
    49          5
    50         20
    51         18
    52        108
    53        141
    54         12
    55          1
    57        102
    58         12
    59          6
    60          4
    61          3
    62          9
    63         22
    64         14
    65          4
    66          3
    67          3
    69         40
    70          9
    71          7
    72          1
    73          1
    74          9
    75         19
    76         12
    77          7
    79         93
    80         11
    81          5
    82         20
    83         16
    84         15
    85          3
    86          7
    88         22
    90         14
    91          5
    92          3
    93          3
    94         14
    95          1
    96         14
    98          1
   100         12
   101         10
   102          9
   103          7
   104          5
   105          6
   106          8
   107         10
   108          1
   109          4
   111          4
   112          6
   113          5
   114          8
   115         13
   116         23
   117          9
   118         12
   119          6
   120          5
   121          4
   122          1
   124          1
   126          1
   127         15
   128          7
   129          6
   131         45
   132         12
   133         21
   134         23
   135          7
   136          6
   141         19
   142          2
   143          4
   145        120
   146         13
   147          4
   148          4
   149          6
   153          6
   154          8
   155          8
   156         11
   157          5
   158          5
   159         19
   160          9
   161          6
   162         37
   163         21
   164          3
   167          3
   168          5
   170          3
   171          6
   172         14
   173          4
   174          1
   176          1
   177         14
   178          3
   180         18
   181          4
   182          9
   183          7
   184          2
   185         11
   186          9
   187          5
   188          6
   200          1
   204         25
   205          3
   208          6
   209          2
   210          0
   212         30
   213          8
   214          9
   216          1
   223          2
   225          8
   226         13
   227          6
   228          1
   237         19
   239         31
   241        190
   242         28
   243         12
   251          2
   253          1
   255         32
   256         10
   257         12
   266          4
   268         48
   269          6
   280          1
   282         14
   283        418
   284         68
   285         20
   286          2