##TITLE=Library Entry 79663
##JCAMP-DX=Revision 4.10 
##DATA TYPE=MASS SPECTRUM
##SAMPLE DESCRIPTION=Japan AIST/NIMC Database- Spectrum MS-IW-6730
##NAMES=HP
##CAS NAME=Benzamide, N,N'-1,2-phenylenebis-
##MOLFORM=C20H16N2O2
##CAS REGISTRY NO=744-38-7
##MP= -300
##BP= -300
##MW= 316
##$RETENTION INDEX=0
##$CONDENSED SPECTRUM=NO
##NPOINTS= 52
##XYDATA=(XY..XY) 1 
    26          1
    27          8
    28          5
    38          2
    39         15
    40          1
    41          2
    50         19
    51         86
    52         13
    53          7
    54          1
    62          2
    63          7
    64          3
    65         11
    66          2
    74          5
    75          6
    76         15
    77        451
    78         42
    79         12
    80          2
    89          4
    90          2
    91          8
   102          1
   103          1
   104         10
   105        999
   106        121
   107         15
   108          7
   115          1
   132          4
   139          1
   152          1
   165          2
   166          1
   167          3
   180          4
   181          1
   193          2
   194          2
   195          1
   196          2
   209          1
   210          3
   211        368
   212         59
   213          5