##TITLE=Library Entry 1971
##JCAMP-DX=Revision 4.10 
##DATA TYPE=MASS SPECTRUM
##SAMPLE DESCRIPTION=DOW CHEMICAL COMPANY / ASTM E14-UNCERTIFIED SPECTRUM 1
##NAMES=HP
##CAS NAME=Argon
##MOLFORM=Ar
##CAS REGISTRY NO=7440-37-1
##MP= -300
##BP= -300
##MW= 40
##$RETENTION INDEX=0
##$CONDENSED SPECTRUM=NO
##NPOINTS= 4
##XYDATA=(XY..XY) 1 
    20        146
    36          3
    38          0
    40        999