##TITLE=Library Entry 79413
##JCAMP-DX=Revision 4.10 
##DATA TYPE=MASS SPECTRUM
##SAMPLE DESCRIPTION=L. Cohen, LC, NIDDK, NIH, Bethesda, MD 20892
##NAMES=HP
##CAS NAME=Histamine, N-benzoyl-2-methoxycarbonyl-
##MOLFORM=C14H15N3O3
##CAS REGISTRY NO=74419-73-1
##MP= -300
##BP= -300
##MW= 273
##$RETENTION INDEX=0
##$CONDENSED SPECTRUM=NO
##NPOINTS= 136
##XYDATA=(XY..XY) 1 
    41         27
    42         41
    43         16
    44         26
    45         10
    46          7
    49          1
    50         52
    51        210
    52         42
    53         52
    54         59
    55         16
    56         14
    57          8
    58          1
    59         32
    60          3
    61          0
    62          2
    63          6
    64          1
    65         11
    66         41
    67         15
    68          7
    69         15
    70          4
    71          4
    73          3
    74         11
    75         15
    76         45
    77        822
    78         65
    79         48
    80        116
    81         38
    82         11
    83          6
    84          3
    85          2
    89          4
    90          3
    91          6
    92          7
    93         16
    94        186
    95         18
    96         34
    97          4
    98          6
    99          2
   101          0
   102         24
   103          7
   104         22
   105        999
   106         77
   107         73
   108        215
   109         22
   110          3
   111          3
   115          6
   116          5
   117          3
   119          2
   120         80
   121         46
   122        336
   123         40
   124          5
   125          2
   128          5
   129         15
   130         21
   131          4
   132          3
   133          0
   134         20
   135          8
   136         33
   137          4
   139         21
   140        320
   141         34
   142         11
   143         15
   144          1
   149         18
   150         75
   151         20
   152        730
   153         98
   154         12
   155          2
   156          2
   158          1
   160          4
   161         15
   162         33
   163          9
   164         15
   165          2
   166          7
   167          3
   168         23
   169          5
   170          0
   171          8
   176          3
   177          1
   178          1
   179          0
   182          2
   184          2
   192          2
   194          7
   196          4
   197          1
   198         13
   199          2
   213          1
   214          5
   215          1
   216          2
   222          2
   224          4
   226          2
   228          0
   242          3
   243          0
   272          2
   273         36
   274          7