##TITLE=Library Entry 26384
##JCAMP-DX=Revision 4.10 
##DATA TYPE=MASS SPECTRUM
##SAMPLE DESCRIPTION=L. Cohen, LC, NIDDK, NIH, Bethesda, MD 20892
##NAMES=HP
##CAS NAME=N-t-butyloxycarbonyl-2-cyanohistamine
##MOLFORM=C11H16N4O2
##CAS REGISTRY NO=74419-84-4
##MP= -300
##BP= -300
##MW= 236
##$RETENTION INDEX=0
##$CONDENSED SPECTRUM=NO
##NPOINTS= 80
##XYDATA=(XY..XY) 1 
    41        311
    42         36
    43         79
    44         22
    45         15
    46          3
    50          5
    51         11
    52         27
    53         59
    54         54
    55         51
    56         60
    57        999
    58         49
    59         87
    60         12
    61          1
    62         20
    63          3
    64          3
    65         10
    66         15
    67         17
    68         12
    69         11
    70          6
    71          7
    73          5
    74         58
    75          5
    77         13
    78         31
    79         18
    80         21
    81         16
    82          7
    83          9
    84          2
    85          3
    86          4
    92          2
    93         15
    94          7
    95          3
    97          7
   105          1
   106        165
   107        760
   108        112
   109         10
   111          3
   118         12
   119        488
   120        152
   121         19
   124         15
   125         21
   126          4
   130         20
   131          1
   134          6
   135         14
   136         16
   137         78
   138         15
   149          5
   162          5
   163        217
   164         42
   165          4
   175          7
   179          1
   180        328
   181         93
   182         15
   235          7
   236         36
   237         17
   238          2