##TITLE=Library Entry 53998
##JCAMP-DX=Revision 4.10 
##DATA TYPE=MASS SPECTRUM
##SAMPLE DESCRIPTION=NIST Mass Spectrometry Data Center
##NAMES=HP
##CAS NAME=(-)-trans-Isopiperitenol
##MOLFORM=C10H16O
##CAS REGISTRY NO=74410-00-7
##MP= -300
##BP= -300
##MW= 152
##$RETENTION INDEX=1210
##$CONDENSED SPECTRUM=NO
##NPOINTS= 80
##XYDATA=(XY..XY) 1 
    26          1
    27         31
    29         31
    30          1
    31          5
    37          2
    38          6
    39        123
    40         28
    41        193
    42         18
    43         33
    44          8
    45          3
    50          9
    51         37
    52         16
    53         87
    54         19
    55        102
    56        154
    57         16
    58          2
    59          4
    60          1
    61          2
    62          5
    63         16
    64          5
    65         48
    66         16
    67         89
    68         27
    69        170
    70         41
    71          9
    74          3
    75          2
    76          2
    77         69
    78         16
    79         51
    80         46
    81         93
    82         28
    83        482
    84        999
    85         58
    86          3
    89          3
    91         76
    92         32
    93         27
    94         26
    95         30
    96         10
   102          2
   103         10
   104          4
   105         22
   106         17
   107         22
   108        111
   109        100
   110         15
   115         10
   116          3
   117         11
   119         33
   120          5
   121         12
   122          3
   123         12
   124         16
   128          2
   134         33
   135          6
   137         30
   152         30
   153          2