##TITLE=Library Entry 26381
##JCAMP-DX=Revision 4.10 
##DATA TYPE=MASS SPECTRUM
##SAMPLE DESCRIPTION=L. Cohen, LC, NIDDK, NIH, Bethesda, MD 20892
##NAMES=HP
##CAS NAME=Histidine, N-t-butyloxycarbonyl-2-cyano-
##MOLFORM=C12H16N4O4
##CAS REGISTRY NO=74419-85-5
##MP= -300
##BP= -300
##MW= 280
##$RETENTION INDEX=0
##$CONDENSED SPECTRUM=NO
##NPOINTS= 117
##XYDATA=(XY..XY) 1 
    41        624
    42         40
    43         54
    44        454
    45         23
    46          9
    49         17
    50         25
    51         29
    52         21
    53         59
    54         45
    55        135
    56        409
    57        999
    58         49
    59         73
    60          7
    62         15
    63          5
    64          8
    65          6
    66         12
    67          9
    68          5
    69          9
    70          5
    71          6
    73          9
    74         54
    75          3
    77         15
    78         28
    79         14
    80         20
    81         22
    82         15
    83         10
    84         12
    85          5
    86          7
    91          9
    92          2
    93          5
    94          6
    95          6
    96          1
    97          6
    98          1
   101          7
   105         17
   106        190
   107        684
   108         62
   109          6
   111          2
   117          3
   118         33
   119        187
   120         22
   121          4
   122          7
   123          1
   124         33
   125         14
   127         63
   128        130
   130         15
   132          3
   133          7
   134         50
   135        322
   136         33
   137         10
   143          5
   145         33
   146          6
   149          3
   152          2
   153          7
   161         63
   162         14
   163        407
   164         38
   165          6
   167          2
   174          1
   175          5
   177          1
   178         18
   179         76
   180        137
   181         49
   182         16
   183          1
   189          5
   191          2
   197          5
   206          8
   207        102
   208         12
   211          2
   219         10
   222          5
   224        315
   225         46
   226          6
   234          5
   235         18
   236         12
   237          5
   239          5
   242          7
   254         13
   263          5
   280         40
   281          9