##TITLE=Library Entry 77600
##JCAMP-DX=Revision 4.10 
##DATA TYPE=MASS SPECTRUM
##SAMPLE DESCRIPTION=Chemical Concepts
##NAMES=HP
##CAS NAME=2,5-Di(4,2'-nitrophenyl)-1,3,4-oxadiazole
##MOLFORM=C14H8N4O5
##CAS REGISTRY NO=74415-24-0
##MP= -300
##BP= -300
##MW= 312
##$RETENTION INDEX=0
##$CONDENSED SPECTRUM=NO
##NPOINTS= 77
##XYDATA=(XY..XY) 1 
    33          8
    37         30
    38         62
    39        124
    40         15
    41          4
    42          8
    43          8
    44         22
    45          7
    46         23
    50        357
    51        229
    52         51
    53         15
    54          1
    61         34
    62        159
    63        165
    64        103
    65         29
    66          4
    73         19
    74         97
    75        246
    76        656
    77         55
    78         39
    79          4
    81          1
    85          9
    86         31
    87         50
    88         63
    89         16
    90        133
    91         24
    92        198
    93         14
    99          2
   100          1
   102         67
   104        999
   105         70
   106          4
   109          1
   117          1
   118          7
   120        109
   121         10
   122          5
   123          1
   132          1
   134        762
   135         52
   136          4
   137          3
   139          3
   140          1
   146          1
   148          8
   150        659
   151         58
   152         14
   153          1
   162          2
   163         24
   164         19
   165          3
   167          6
   180          2
   209          5
   210         10
   235          1
   282          3
   312         62
   313          7