##TITLE=Library Entry 79261
##JCAMP-DX=Revision 4.10 
##DATA TYPE=MASS SPECTRUM
##SAMPLE DESCRIPTION=L. Cohen, LC, NIDDK, NIH, Bethesda, MD 20892
##NAMES=HP
##CAS NAME=Histamine, N-benzoyl-2-cyano-
##MOLFORM=C13H12N4O
##CAS REGISTRY NO=74419-68-4
##MP= -300
##BP= -300
##MW= 240
##$RETENTION INDEX=0
##$CONDENSED SPECTRUM=NO
##NPOINTS= 118
##XYDATA=(XY..XY) 1 
    41         29
    42         11
    43         17
    44         30
    45         27
    46         16
    47          0
    48          0
    49          1
    50         61
    51        221
    52         42
    53         48
    54         44
    55         11
    56         11
    57          5
    58          1
    59          1
    60          3
    61          1
    62          2
    63          5
    64          5
    65         12
    66         13
    67          8
    68          4
    69          4
    70          1
    71          2
    72          0
    73          4
    74         15
    75         17
    76         45
    77        629
    78         67
    79         58
    80         10
    81          7
    82          3
    83          3
    84          1
    85          2
    86          0
    87          1
    88          0
    89          2
    90          1
    91          8
    92          5
    93         11
    94         11
    96          2
    97          1
    98          1
    99          1
   100          0
   101          1
   102          2
   103          5
   104         28
   105        999
   106          9
   107        398
   108         19
   109          2
   110          0
   111          1
   112          0
   113          0
   114          0
   115          1
   116          2
   117          2
   118         22
   119        161
   120         39
   121          8
   122        611
   123         70
   124          4
   125          1
   126          0
   127          0
   128          0
   129          1
   130          1
   131          0
   132          1
   133          2
   134         91
   135         35
   136          6
   137          7
   138          1
   139          0
   140          0
   141          0
   142          0
   143          1
   146          0
   149          1
   150          6
   151          0
   153          0
   155          0
   156          0
   161          0
   162          4
   163          0
   178          0
   215          1
   223          0
   240         21
   241          7
   242          0