##TITLE=Library Entry 26938
##JCAMP-DX=Revision 4.10 
##DATA TYPE=MASS SPECTRUM
##SAMPLE DESCRIPTION=L. Cohen, LC, NIDDK, NIH, Bethesda, MD 20892
##NAMES=HP
##CAS NAME=Histamine, 2-trifluoromethyl-N-tertbutyloxycarbonyl-
##MOLFORM=C11H16F3N3O2
##CAS REGISTRY NO=74419-82-2
##MP= -300
##BP= -300
##MW= 279
##$RETENTION INDEX=0
##$CONDENSED SPECTRUM=NO
##NPOINTS= 119
##XYDATA=(XY..XY) 1 
    41        378
    42         34
    43         76
    44         22
    45          9
    46          0
    47          5
    48          2
    49         21
    50          5
    51         15
    52         21
    53         28
    54         46
    55         39
    56         55
    57        999
    58         50
    59         97
    60          5
    62         13
    63          0
    64          1
    65          4
    66          7
    67         15
    68          4
    69         22
    70          7
    71          2
    72          1
    73          2
    74         47
    75          3
    76         11
    77          5
    78          3
    79          4
    80          3
    81         21
    82          7
    83          4
    84         13
    85          0
    86         10
    88          1
    89          7
    90         10
    91          0
    93          2
    94          1
    95          1
    96          8
    97          1
    99          4
   101          0
   102         73
   103         11
   104          0
   108          3
   109          2
   110          2
   111          2
   112          0
   113          0
   114          0
   115          8
   116         10
   117         13
   118          1
   121          1
   122          1
   123          0
   128          0
   129         47
   130         45
   131         16
   132          1
   136          2
   137          0
   138          3
   141          2
   142          7
   143         47
   144          4
   148          2
   149        121
   150        820
   151         56
   152          1
   154          0
   158          0
   160          9
   161         15
   162        507
   163        121
   164          9
   177          7
   178         18
   179         11
   180         22
   181          1
   184          4
   186          1
   204         18
   205          3
   206        214
   207         19
   208          0
   220          0
   221          0
   222          2
   223        293
   224         36
   225          2
   260          0
   279         18
   280          7
   281          0