##TITLE=Library Entry 49048
##JCAMP-DX=Revision 4.10 
##DATA TYPE=MASS SPECTRUM
##SAMPLE DESCRIPTION=D.HENNEBERG, MAX-PLANCK INSTITUTE, MULHEIM, WEST GERMAN
Y
##NAMES=HP
##CAS NAME=Cyclobuta[1,2-b:4,3-b']dithiophene, octahydro-, 1,1,6,6-tetraoxid
e, (3a.alpha.,3b.beta.,6a.beta.,6b.alpha.)-
##MOLFORM=C8H12O4S2
##CAS REGISTRY NO=74421-29-7
##MP= -300
##BP= -300
##MW= 236
##$RETENTION INDEX=0
##$CONDENSED SPECTRUM=NO
##NPOINTS= 151
##XYDATA=(XY..XY) 1 
    27        279
    28         35
    29         87
    30          1
    31          3
    32          0
    33          1
    34          2
    35          1
    37          3
    38         19
    39        375
    40         56
    41        293
    42         20
    43         37
    44          2
    45         35
    46          9
    47          7
    48         16
    49          3
    50         44
    51        115
    52        153
    53        152
    54        155
    55         54
    56          4
    57          9
    59          9
    60          2
    61          8
    62         10
    63         39
    64         10
    65        108
    66         95
    67        382
    68         34
    69         12
    70          8
    71          8
    72          8
    73          6
    74          3
    75          8
    76          5
    77        312
    78        133
    79        999
    80        450
    81         89
    82         33
    83          6
    84          5
    85         14
    86          8
    87          8
    88          2
    89         33
    90         11
    91        264
    92         40
    93        588
    94         50
    95         86
    96         31
    97         11
    98          4
    99         10
   100          4
   101          2
   102          4
   103          8
   104          6
   105         70
   106        122
   107         77
   108         51
   109         46
   110         16
   111          7
   112          1
   113          4
   114          1
   115          9
   116          6
   117          1
   118         18
   119         92
   120          6
   121         29
   122         12
   123         30
   124          5
   125          6
   126          8
   127         37
   128         37
   129         15
   130          2
   131          4
   132          8
   133          0
   134          0
   135          1
   136          0
   137          7
   138          1
   139          2
   141          1
   142          0
   143          3
   144         30
   145          8
   146          3
   147          1
   148          0
   149          0
   151          8
   152          1
   153          2
   154          2
   155        145
   156         13
   157          7
   158          1
   159         19
   160          2
   161          1
   167          0
   169          1
   170          2
   171          4
   172        204
   173         22
   174         11
   175          1
   186          0
   187         12
   188          3
   189          1
   190          0
   191          0
   207          0
   219          0
   236         10
   237          3
   238          1
   239          0