##TITLE=Library Entry 85737
##JCAMP-DX=Revision 4.10 
##DATA TYPE=MASS SPECTRUM
##SAMPLE DESCRIPTION=D.HENNEBERG, MAX-PLANCK INSTITUTE, MULHEIM, WEST GERMAN
Y
##NAMES=HP
##CAS NAME=2,4-Heptadiene, 2,4-dimethyl-
##MOLFORM=C9H16
##CAS REGISTRY NO=74421-05-9
##MP= -300
##BP= -300
##MW= 124
##$RETENTION INDEX=0
##$CONDENSED SPECTRUM=NO
##NPOINTS= 75
##XYDATA=(XY..XY) 1 
    24          1
    25          2
    26          7
    27        201
    28         25
    29        127
    30          1
    36          0
    37          7
    38         13
    39        284
    40         44
    41        509
    42         34
    43        322
    44         11
    45          2
    46          1
    47          1
    48          0
    50         19
    51         68
    52         33
    53        169
    54         27
    55        405
    56         31
    57         12
    58          1
    59          3
    60          4
    61          4
    62          6
    63         25
    64          6
    65         78
    66         26
    67        978
    68         89
    69        125
    70          9
    74          2
    75          7
    76          3
    77        120
    78         25
    79        139
    80         28
    81        321
    82         45
    83         18
    84          1
    89          2
    90          0
    91         95
    92         13
    93         57
    94         46
    95        103
    96         61
    97          5
   103          3
   104          0
   105         19
   106          3
   107         51
   108         13
   109        999
   110         88
   111          3
   120          1
   122          2
   123          6
   124        329
   125         31