##TITLE=Library Entry 8634
##JCAMP-DX=Revision 4.10 
##DATA TYPE=MASS SPECTRUM
##SAMPLE DESCRIPTION=D.HENNEBERG, MAX-PLANCK INSTITUTE, MULHEIM, WEST GERMAN
Y
##NAMES=HP
##CAS NAME=1,6-Octadien-4-ol, 4,7-dimethyl-
##MOLFORM=C10H18O
##CAS REGISTRY NO=74421-31-1
##MP= -300
##BP= -300
##MW= 154
##$RETENTION INDEX=0
##$CONDENSED SPECTRUM=NO
##NPOINTS= 92
##XYDATA=(XY..XY) 1 
    26          3
    27         16
    28          8
    29         27
    30          0
    31          4
    32          0
    38          0
    39         23
    40          5
    41        145
    42         33
    43        999
    44         21
    45          8
    50          0
    51          1
    52          1
    53         19
    54          5
    55        101
    56          8
    57         13
    58          4
    59          2
    63          0
    65          4
    66          2
    67         28
    68          8
    69        100
    70        323
    71         28
    72          1
    73          0
    75          1
    77         10
    78          2
    79         14
    80          5
    81         14
    82          3
    83          9
    84          6
    85         80
    86          4
    87          0
    91          9
    92          4
    93         24
    94          4
    95         53
    96          7
    97          8
    98          1
    99          0
   103          0
   105          3
   106          1
   107          4
   108          1
   109          5
   110          1
   111          3
   112          3
   113         83
   114          6
   115          0
   117          0
   119          1
   120          0
   121          7
   122          1
   123          1
   124          2
   125          0
   127          1
   129          0
   135          1
   136          9
   137          3
   138          0
   139          5
   140          0
   142          0
   149          0
   150          0
   151          0
   152          0
   153          0
   154          2
   155          0