##TITLE=Library Entry 4298
##JCAMP-DX=Revision 4.10 
##DATA TYPE=MASS SPECTRUM
##SAMPLE DESCRIPTION=D.HENNEBERG, MAX-PLANCK INSTITUTE, MULHEIM, WEST GERMAN
Y
##NAMES=HP
##CAS NAME=Nickel, [dimethyl[5-methyl-2-(1-methylethyl)cyclohexyl]phosphine]
methyl[(1,2,3-.eta.)-2-pentenyl]-
##MOLFORM=C18H37NiP
##CAS REGISTRY NO=74421-54-8
##MP= -300
##BP= -300
##MW= 342
##$RETENTION INDEX=0
##$CONDENSED SPECTRUM=NO
##NPOINTS= 255
##XYDATA=(XY..XY) 1 
    26        143
    27        374
    28        602
    29        242
    30          7
    31         15
    32         24
    33          3
    34          4
    36          4
    37         28
    38         48
    39        464
    40        150
    41        999
    42        164
    43        267
    44         59
    45         57
    46         46
    47         37
    48          6
    49         14
    50         41
    51         54
    52         33
    53        320
    54         87
    55        554
    56         50
    57         91
    58         43
    59        104
    60         16
    61        144
    62        333
    63        309
    64         13
    65         72
    66         49
    67        489
    68        271
    69        433
    70         49
    71         34
    73         32
    74          6
    75         44
    76        558
    77        168
    78        135
    79        128
    80         25
    81        271
    82         50
    83        192
    84         59
    85         12
    86         14
    87          9
    88         27
    89        609
    90         60
    91         55
    92        181
    93         62
    94         25
    95        282
    96         55
    97         43
    98         18
    99         34
   100         28
   101         15
   102         31
   103         50
   104         67
   105        208
   106         74
   107         14
   108         24
   109         25
   112         16
   113         16
   114         14
   115         41
   116         87
   117         36
   118         55
   119         77
   120        710
   121         52
   122        268
   124         53
   125         25
   126         33
   127         27
   128         16
   129         53
   130        161
   131        172
   132         35
   133         37
   134         57
   135         18
   136         40
   137         26
   138         56
   139         29
   140         10
   141         24
   142          9
   143        260
   144         64
   145         43
   146         17
   147         16
   148          4
   149         19
   150         37
   151         13
   152         22
   153         10
   154         17
   155         10
   156          8
   157        251
   158         52
   159         38
   160         11
   161         20
   162         24
   163         15
   164         23
   165          9
   166         11
   167          6
   168          5
   169          6
   170          4
   171         12
   172         19
   173         33
   174         20
   175         14
   176         39
   177         12
   178         48
   179         10
   180         33
   181         12
   182         10
   183         14
   184          5
   185        133
   186         27
   187         19
   188         18
   189         14
   190         17
   191         10
   192         29
   193          7
   194         27
   195         17
   196         17
   197         28
   198         19
   199         50
   200        242
   201         56
   202         10
   203         10
   204          4
   205          5
   206          2
   207          5
   208          3
   209         15
   210          5
   211         51
   212         22
   213         54
   214         22
   215         25
   216         96
   217         13
   218         10
   219          4
   220          3
   221         10
   222          7
   223         20
   224         16
   225         30
   226         15
   227         18
   228          8
   229          5
   230          2
   231          2
   233          3
   234          2
   235         14
   236          9
   237         68
   238         44
   239         87
   240        118
   241         54
   242        598
   243         80
   244        220
   245         39
   246         34
   247         17
   248         10
   249         29
   250          8
   251        170
   252         39
   253        142
   254        130
   255        483
   256        794
   257        375
   258        388
   259        117
   260         70
   261         22
   262         14
   263          4
   265          8
   266          1
   267          5
   269          4
   270          3
   271          3
   273          2
   277          1
   302          2
   307          2
   309          5
   311          3
   323          1
   325         12
   326          6
   327         22
   328          5
   329          7
   330          1
   341          1
   342        247
   343         45
   344         87