##TITLE=Library Entry 52164
##JCAMP-DX=Revision 4.10 
##DATA TYPE=MASS SPECTRUM
##SAMPLE DESCRIPTION=D.HENNEBERG, MAX-PLANCK INSTITUTE, MULHEIM, WEST GERMAN
Y
##NAMES=HP
##CAS NAME=2-Decene, 2,4-dimethyl-
##MOLFORM=C12H24
##CAS REGISTRY NO=74421-03-7
##MP= -300
##BP= -300
##MW= 168
##$RETENTION INDEX=955
##$CONDENSED SPECTRUM=NO
##NPOINTS= 66
##XYDATA=(XY..XY) 1 
    25          0
    26          1
    27         48
    28          2
    29         65
    30          0
    31          0
    35          3
    36          1
    38          0
    39         41
    40          7
    41        173
    42         21
    43         82
    44          1
    48          0
    49          0
    50          1
    51          3
    52          1
    53         19
    54          8
    55        318
    56         68
    57         45
    58          0
    63          0
    64          0
    65          5
    66          2
    67         35
    68          8
    69        140
    70         56
    71         10
    72          0
    75          0
    77          4
    78          1
    79          5
    80          1
    81         13
    82         37
    83        999
    84         81
    85          6
    91          1
    93          1
    94          0
    95          4
    96          3
    97         22
    98          9
    99          2
   109          2
   110          3
   111          9
   112         12
   113          0
   125          0
   126          0
   153          5
   154          0
   168         40
   169          6