##TITLE=Library Entry 36032
##JCAMP-DX=Revision 4.10 
##DATA TYPE=MASS SPECTRUM
##SAMPLE DESCRIPTION=D.HENNEBERG, MAX-PLANCK INSTITUTE, MULHEIM, WEST GERMAN
Y
##NAMES=HP
##CAS NAME=Cyclopentane, 1,1,3-trimethyl-3-(2-methyl-2-propenyl)-
##MOLFORM=C12H22
##CAS REGISTRY NO=74421-09-3
##MP= -300
##BP= -300
##MW= 166
##$RETENTION INDEX=0
##$CONDENSED SPECTRUM=NO
##NPOINTS= 73
##XYDATA=(XY..XY) 1 
    24          3
    26          1
    27         45
    28          6
    29         63
    30          6
    35          1
    38          4
    39         63
    40          3
    41        162
    42          7
    43         68
    47          4
    50          2
    51          7
    52          2
    53         45
    54          6
    55        413
    56         30
    57         48
    58          3
    59          1
    60          1
    61          1
    62          2
    64          0
    65         12
    67         63
    68         24
    69        999
    70         54
    71         10
    73          0
    74          0
    75          0
    76          2
    77         20
    78          4
    79         17
    80          7
    81         49
    82         14
    83         13
    84          1
    87          1
    90          1
    91         14
    92          3
    93         14
    94          4
    95        333
    96         38
    97          2
    98          0
   105          1
   106          2
   107          6
   108          6
   109         25
   110        174
   111        670
   112         67
   113          4
   120          0
   122          1
   123          3
   137          1
   145          1
   147          0
   151          9
   165          1