##TITLE=Library Entry 40624
##JCAMP-DX=Revision 4.10 
##DATA TYPE=MASS SPECTRUM
##SAMPLE DESCRIPTION=D.HENNEBERG, MAX-PLANCK INSTITUTE, MULHEIM, WEST GERMAN
Y
##NAMES=HP
##CAS NAME=Butane, 2,3-dimethoxy-2-methyl-
##MOLFORM=C7H16O2
##CAS REGISTRY NO=74421-00-4
##MP= -300
##BP= -300
##MW= 132
##$RETENTION INDEX=0
##$CONDENSED SPECTRUM=NO
##NPOINTS= 50
##XYDATA=(XY..XY) 1 
    26          3
    27          9
    28         11
    29         39
    30          0
    31         21
    32          0
    33          5
    39          6
    40          1
    41         68
    42         17
    43         90
    44          2
    45         38
    46          0
    47          2
    53         32
    54          1
    55         40
    56          2
    57         12
    58          2
    59         71
    60          2
    65          0
    67          4
    68          0
    69         62
    70          6
    71          7
    72         12
    73        999
    74         44
    75          3
    81          0
    83          3
    85         45
    86          4
    87          1
    97          1
    99          2
   100          1
   101         44
   102          3
   109          0
   111          1
   117         29
   118          1
   131          0