##TITLE=Library Entry 62892
##JCAMP-DX=Revision 4.10 
##DATA TYPE=MASS SPECTRUM
##SAMPLE DESCRIPTION=D.HENNEBERG, MAX-PLANCK INSTITUTE, MULHEIM, WEST GERMAN
Y
##NAMES=HP
##CAS NAME=Phosphine, (1-methylethyl)[2-methyl-5-(1-methylethyl)cyclohexyl](
phenylmethyl)-
##MOLFORM=C20H33P
##CAS REGISTRY NO=74421-36-6
##MP= -300
##BP= -300
##MW= 304
##$RETENTION INDEX=0
##$CONDENSED SPECTRUM=NO
##NPOINTS= 254
##XYDATA=(XY..XY) 1 
    26         85
    27         88
    28         53
    29         53
    30          1
    31          5
    33          0
    34          2
    35          3
    36          0
    37          6
    38         13
    39         96
    40         32
    41        340
    42         63
    43        349
    44         13
    45         13
    46          3
    47         20
    48          7
    49          9
    50         14
    51         13
    52          8
    53         29
    54         24
    55        392
    56         23
    57        101
    58          4
    59         14
    60          5
    61         22
    62          9
    63         25
    64         24
    65         47
    66          8
    67        112
    68         24
    69        260
    70         17
    71         18
    72          4
    73         43
    74         24
    75         66
    76         55
    77         49
    78         47
    79         69
    80         18
    81        252
    82         32
    83        212
    84         14
    85         11
    86          4
    87         17
    88         13
    89         61
    90        120
    91        999
    92        168
    93         68
    94         17
    95        223
    96         38
    97         49
    98          5
    99         13
   100          4
   101         28
   102         11
   103         19
   104         15
   105         18
   106         63
   107         24
   108         20
   109         32
   110          4
   111          6
   112          2
   113          8
   114          4
   115         17
   116         14
   117         36
   118        126
   119        131
   120         19
   121         89
   122         41
   123        273
   124        132
   125         26
   126          2
   127         11
   128          6
   129         11
   130         10
   131         24
   132         64
   133         19
   134         30
   135         44
   136          9
   137         75
   138        315
   139         46
   140          7
   141          5
   142          2
   143         17
   144         16
   145        117
   146         25
   147          9
   148         17
   149         25
   150         11
   151         19
   152         14
   153          3
   154          1
   155          6
   156          2
   157         16
   158         31
   159         14
   160         18
   161         31
   162         10
   163          5
   164          6
   165         28
   166        456
   167        291
   168         24
   169          9
   170         10
   171         36
   172         21
   173         47
   174         18
   175         10
   176          2
   177         10
   178         11
   179         27
   180        215
   181         23
   182         24
   183          8
   184          1
   185          5
   186         10
   187         93
   188         28
   189          8
   190          4
   191         11
   192         30
   193        415
   194         67
   195          6
   196          1
   197          2
   198          4
   199         16
   200          4
   201          7
   202          3
   203         12
   204          3
   205         12
   206        113
   207         24
   208          6
   209          2
   210          1
   211          4
   212          1
   213         98
   214         39
   215         19
   216          3
   217          1
   218          0
   219         15
   220         30
   221         15
   222         49
   223         17
   224          3
   225          4
   227          2
   228          1
   229         16
   230         17
   231         10
   232          1
   233         16
   234         53
   235        308
   236         50
   237          4
   238          1
   240          3
   241          8
   242          1
   243          0
   244          0
   245          6
   246         13
   247         64
   248         28
   249         27
   250          4
   251          1
   252          4
   253          1
   254          1
   255          5
   256         32
   257          8
   258          1
   259          1
   260          1
   261        195
   262        143
   263         22
   264          2
   272         22
   273          4
   274          0
   275          4
   276          1
   277          0
   278          0
   287          0
   288         10
   289         43
   290          8
   291          1
   301          1
   302          0
   303         22
   304        343
   305         76
   306          7