##TITLE=Library Entry 77557
##JCAMP-DX=Revision 4.10 
##DATA TYPE=MASS SPECTRUM
##SAMPLE DESCRIPTION=D.HENNEBERG, MAX-PLANCK INSTITUTE, MULHEIM, WEST GERMAN
Y
##NAMES=HP
##CAS NAME=Benzene, (2,4-dimethylcyclopentyl)-
##MOLFORM=C13H18
##CAS REGISTRY NO=74421-27-5
##MP= -300
##BP= -300
##MW= 174
##$RETENTION INDEX=0
##$CONDENSED SPECTRUM=NO
##NPOINTS= 129
##XYDATA=(XY..XY) 1 
    26          2
    27         57
    28          1
    29         46
    30          1
    32          0
    33          0
    34          0
    35          0
    37          0
    38          3
    39         83
    40          7
    41        118
    42         21
    43         14
    44          1
    45          1
    46          0
    49          2
    50         11
    51         51
    52         14
    53         33
    54         13
    55        136
    56          5
    57          5
    58          4
    59          1
    60          0
    61          1
    62          5
    63         22
    64         13
    65         48
    66          4
    67         13
    68          5
    69         67
    70         19
    71          5
    72          1
    73          1
    74          3
    75          6
    76         10
    77         69
    78         59
    79         21
    80          4
    81         50
    82         39
    83         81
    84          6
    85          2
    87          2
    88          1
    89         14
    90          5
    91        327
    92        103
    93          9
    94          2
    95          6
    96         23
    97          2
    98          1
   102         14
   103         55
   104        999
   105        149
   106          9
   107          0
   108          0
   112          2
   113          3
   114          2
   115         90
   116         38
   117        311
   118        124
   119         29
   120          2
   124          0
   125          0
   126          1
   127         10
   128         23
   129         29
   130         12
   131        566
   132         96
   133          7
   134          0
   135          0
   138          0
   139          0
   140          0
   141          4
   142          3
   143          3
   144          1
   145         40
   146          6
   147          0
   148          0
   150          0
   151          0
   152          0
   153          1
   154          0
   155          1
   156          0
   157          1
   158          0
   159         16
   160          1
   165          0
   166          0
   167          0
   169          0
   170          0
   171          0
   172          0
   173          2
   174        282
   175         36
   176          2