##TITLE=Library Entry 25177
##JCAMP-DX=Revision 4.10 
##DATA TYPE=MASS SPECTRUM
##SAMPLE DESCRIPTION=D.HENNEBERG, MAX-PLANCK INSTITUTE, MULHEIM, WEST GERMAN
Y
##NAMES=HP
##CAS NAME=Hexane, 1-(hexyloxy)-4-methyl-
##MOLFORM=C13H28O
##CAS REGISTRY NO=74421-20-8
##MP= -300
##BP= -300
##MW= 200
##$RETENTION INDEX=0
##$CONDENSED SPECTRUM=NO
##NPOINTS= 59
##XYDATA=(XY..XY) 1 
    24          2
    26         13
    27         92
    28         56
    29        196
    30          3
    31         15
    33          1
    37          3
    38          3
    39         62
    40         14
    41        379
    42        138
    43        905
    44         25
    45         24
    50          5
    51          4
    52          5
    53         18
    54         13
    55        284
    56        256
    57        999
    58         55
    59          6
    64          2
    65          1
    67         17
    68         21
    69        232
    70        946
    71         76
    72          4
    73          5
    77          4
    78          1
    79          7
    81         16
    82          7
    83         93
    84         51
    85        322
    86         17
    87          7
    95          4
    96          4
    97        137
    98        162
    99         27
   100          3
   101          9
   103          0
   105          2
   111          2
   115          7
   116          1
   117          1