##TITLE=Library Entry 45553
##JCAMP-DX=Revision 4.10 
##DATA TYPE=MASS SPECTRUM
##SAMPLE DESCRIPTION=D.HENNEBERG, MAX-PLANCK INSTITUTE, MULHEIM, WEST GERMAN
Y
##NAMES=HP
##CAS NAME=2-Ethyl-1-decanol, TMS derivative
##MOLFORM=C15H34OSi
##CAS REGISTRY NO=74421-16-2
##MP= -300
##BP= -300
##MW= 258
##$RETENTION INDEX=0
##$CONDENSED SPECTRUM=NO
##NPOINTS= 138
##XYDATA=(XY..XY) 1 
    23          1
    25          5
    26          6
    27         45
    28         21
    29         93
    31          0
    37          4
    38          0
    39         37
    40          2
    41        175
    42         41
    43        178
    44         19
    45         66
    46         11
    47         45
    48          0
    49          2
    51          2
    52          7
    53         17
    54         18
    55        200
    56        139
    57        150
    58         25
    59         56
    60         12
    61         65
    62          6
    63          2
    64          1
    65          4
    66          3
    67         26
    68         20
    69        165
    70        111
    71         62
    72         24
    73        703
    74         58
    75        999
    76         78
    77         40
    79          7
    80          1
    81         12
    82         20
    83        125
    84         79
    85         36
    86          4
    87          5
    88         18
    89         80
    90          9
    91         47
    92          5
    93          2
    94          0
    95          9
    96          9
    97        133
    98         39
    99         19
   100          4
   101         14
   102          3
   103        750
   104         82
   105         77
   106          8
   107          1
   109          4
   110          8
   111        109
   112         31
   113          7
   114          1
   115         15
   117          7
   118          2
   119          1
   123          1
   124          6
   125         34
   126         15
   127          5
   129         11
   130          1
   131          3
   134          1
   135          1
   137          0
   138          2
   139          5
   140         10
   141          1
   142          1
   143          4
   145         12
   146          1
   149          3
   153          1
   154         16
   155          1
   156          0
   157          2
   159          4
   160          0
   167          2
   168         23
   169          3
   171          6
   173          0
   177          1
   181          1
   185          7
   186          2
   187          0
   188          0
   195          1
   196          0
   199          2
   201          2
   203          1
   207          1
   213          1
   217          0
   227          1
   241          1
   243        263
   244         55
   245         16
   246          2