##TITLE=Library Entry 66349
##JCAMP-DX=Revision 4.10 
##DATA TYPE=MASS SPECTRUM
##SAMPLE DESCRIPTION=D.HENNEBERG, MAX-PLANCK INSTITUTE, MULHEIM, WEST GERMAN
Y
##NAMES=HP
##CAS NAME=Pyridine, 2-decyl-
##MOLFORM=C15H25N
##CAS REGISTRY NO=74421-02-6
##MP= -300
##BP= -300
##MW= 219
##$RETENTION INDEX=0
##$CONDENSED SPECTRUM=NO
##NPOINTS= 139
##XYDATA=(XY..XY) 1 
    27         45
    28         38
    29         65
    30          5
    31         12
    32          1
    37          0
    38          2
    39         37
    40          7
    41         83
    42         14
    43         57
    44          1
    45          5
    46          0
    47          0
    49          0
    50          5
    51         14
    52         13
    53         13
    54         20
    55         31
    56         11
    57         32
    58          5
    59          7
    61          0
    62          1
    63          3
    64          3
    65         27
    66         16
    67          9
    68          5
    69         20
    70          9
    71          8
    72          1
    73          1
    74          4
    75          1
    76          2
    77         12
    78         29
    79         23
    80         10
    81          4
    82         19
    83         17
    84          3
    85          4
    86          1
    87          0
    89          1
    90          1
    91         10
    92         31
    93        999
    94         74
    95          4
    96         18
    97         26
    98          3
    99          1
   100          0
   101          0
   102          1
   103          2
   104          7
   105          4
   106        223
   107         55
   108          4
   109          1
   110         19
   111         10
   112          1
   113          0
   115          2
   116          1
   117         13
   118         15
   119          8
   120        122
   121         11
   122          1
   123          0
   124         12
   125          2
   130          3
   131          2
   132          8
   133          2
   134         21
   135          5
   136          0
   138          6
   139          1
   140          0
   141          0
   142          0
   143          0
   144          0
   145          0
   146          1
   147          0
   148         27
   149          4
   150          0
   152          1
   158          0
   160          2
   161          0
   162         22
   163          4
   164          0
   166          0
   167          0
   168          0
   169          0
   170          0
   174          0
   175          0
   176         19
   177          3
   188          0
   190         10
   191          3
   192          0
   204          4
   205          1
   207          0
   217          0
   218         12
   219         28
   220          4
   221          0