##TITLE=Library Entry 45552
##JCAMP-DX=Revision 4.10 
##DATA TYPE=MASS SPECTRUM
##SAMPLE DESCRIPTION=D.HENNEBERG, MAX-PLANCK INSTITUTE, MULHEIM, WEST GERMAN
Y
##NAMES=HP
##CAS NAME=2-Butyloctanol, TMS derivative
##MOLFORM=C15H34OSi
##CAS REGISTRY NO=74421-15-1
##MP= -300
##BP= -300
##MW= 258
##$RETENTION INDEX=0
##$CONDENSED SPECTRUM=NO
##NPOINTS= 146
##XYDATA=(XY..XY) 1 
    23          1
    26          3
    27         33
    28        102
    29         99
    30          2
    31          1
    33          1
    35          0
    37          1
    38          1
    39         31
    41        190
    42         43
    43        176
    44          4
    45         74
    46          6
    47         43
    48          4
    49          2
    50          4
    51          5
    53          6
    54         21
    55        181
    56         96
    57        116
    58         22
    59         40
    60         11
    61         65
    62          3
    63          5
    64          3
    65          2
    66          2
    67         15
    68         12
    69        141
    70        110
    71         60
    72         19
    73        636
    74         60
    75        999
    76         67
    77         39
    78          0
    79          2
    80          6
    81         13
    82         12
    83        130
    84         43
    85         30
    86          4
    87          4
    88         14
    89         84
    90          5
    91         33
    92          2
    93          1
    95          5
    96         12
    97        103
    98         24
    99         17
   100          2
   101         10
   102          2
   103        729
   104         74
   105         73
   106          6
   107          4
   108          1
   109          2
   110          6
   111         62
   112         18
   113          5
   115          9
   117         18
   118          1
   119          2
   120          1
   122          1
   125         13
   126          1
   127          2
   128          1
   129         13
   130          2
   131          3
   132          1
   133          2
   137          2
   138          2
   139         11
   140          5
   141          2
   143          3
   144          3
   145          2
   151          2
   152          1
   153          0
   154          7
   155          1
   157          4
   158          1
   159          1
   161          1
   163          1
   164          1
   165          0
   166          1
   167          3
   168         14
   169          4
   170          0
   171          0
   172          1
   173          2
   175          1
   179          1
   184          1
   185          3
   187          2
   191          3
   194          2
   195          2
   198          1
   201          2
   204          0
   209          1
   211          1
   213          1
   227          2
   228          1
   243        259
   244         57
   245         18
   246          2