##TITLE=Library Entry 76932
##JCAMP-DX=Revision 4.10 
##DATA TYPE=MASS SPECTRUM
##SAMPLE DESCRIPTION=D.HENNEBERG, MAX-PLANCK INSTITUTE, MULHEIM, WEST GERMAN
Y
##NAMES=HP
##CAS NAME=Benzaldehyde, O-(diethylboryl)oxime
##MOLFORM=C11H16BNO
##CAS REGISTRY NO=74421-33-3
##MP= -300
##BP= -300
##MW= 189
##$RETENTION INDEX=0
##$CONDENSED SPECTRUM=NO
##NPOINTS= 111
##XYDATA=(XY..XY) 1 
    26          0
    27          5
    29         95
    30          0
    31          0
    37          0
    39          5
    40          3
    41         10
    42          3
    43          2
    50          4
    51         61
    52          5
    53          1
    54          4
    55         16
    56         31
    57        108
    58          2
    59          0
    62          0
    63          1
    64          0
    65          1
    66          0
    67          0
    68          1
    69          2
    70          0
    71          0
    72          0
    74          0
    75          2
    76         18
    77        332
    78         34
    79          5
    81          0
    82          1
    83          3
    84          7
    85          0
    86          1
    87          0
    88          0
    89          3
    90          2
    91         10
    92          0
    93          0
    96          0
    97          0
    98          0
   100          0
   101          0
   102          3
   103         47
   104        999
   105        219
   106         15
   107          1
   108          0
   110          0
   111          1
   112          4
   113          0
   114          0
   115          8
   116         34
   117          6
   118          8
   119          1
   120          0
   124          1
   125          2
   126          0
   127          0
   128          0
   129          0
   130          3
   131         26
   132        208
   133         50
   134          3
   135          0
   136          1
   137          0
   138          1
   139          2
   142          0
   143          0
   144          3
   145          1
   146          0
   158          0
   159         34
   160        149
   161         13
   162          1
   166          0
   167          1
   168          1
   172          0
   173          0
   174          1
   177          0
   187          1
   188          9
   189         13
   190          1