##TITLE=Library Entry 25088
##JCAMP-DX=Revision 4.10 
##DATA TYPE=MASS SPECTRUM
##SAMPLE DESCRIPTION=Japan AIST/NIMC Database- Spectrum MS-NW-7713
##NAMES=HP
##CAS NAME=Cyclohexanol, 2-methyl-, trans-
##MOLFORM=C7H14O
##CAS REGISTRY NO=7443-52-9
##MP= -300
##BP= -300
##MW= 114
##$RETENTION INDEX=946
##$CONDENSED SPECTRUM=NO
##NPOINTS= 75
##XYDATA=(XY..XY) 1 
    14          1
    15         16
    17          4
    18         16
    19          1
    26         12
    27        168
    28         33
    29        165
    30         19
    31         70
    32          2
    37          2
    38          9
    39        155
    40         31
    41        349
    42        198
    43        170
    44        249
    45         95
    46          4
    47          2
    48          1
    49          1
    50          7
    51         18
    52          8
    53         66
    54        161
    55        381
    56         79
    57        999
    58        163
    59         14
    61          1
    62          2
    63          4
    64          1
    65         11
    66         20
    67        205
    68        628
    69         68
    70        134
    71        446
    72         82
    73          9
    74          1
    77         11
    78          3
    79         23
    80          6
    81        576
    82         48
    83         34
    84          8
    85         70
    86         63
    87          4
    90          1
    91          5
    92          2
    93          3
    94          2
    95         44
    96        454
    97         42
    98          7
    99         17
   100          2
   112          4
   113         10
   114        105
   115          9