##TITLE=Library Entry 23306
##JCAMP-DX=Revision 4.10 
##DATA TYPE=MASS SPECTRUM
##SAMPLE DESCRIPTION=D.HENNEBERG, MAX-PLANCK INSTITUTE, MULHEIM, WEST GERMAN
Y
##NAMES=HP
##CAS NAME=Zinc, bis(1-methylpropyl)-
##MOLFORM=C8H18Zn
##CAS REGISTRY NO=7446-94-8
##MP= -300
##BP= -300
##MW= 178
##$RETENTION INDEX=0
##$CONDENSED SPECTRUM=NO
##NPOINTS= 81
##XYDATA=(XY..XY) 1 
    27         68
    28         43
    29        282
    30          6
    37          1
    38          3
    39         61
    40         12
    41        340
    42         61
    43         36
    44          1
    50          2
    51          3
    52          1
    53         11
    54          6
    55         56
    56        161
    57        999
    58         40
    64        206
    65          5
    66         26
    67          7
    68         18
    69          1
    70          0
    71          0
    78          0
    79          6
    80          0
    81          3
    82          1
    83          2
    84          0
    85          3
    86          0
    91          1
    93          2
    94          1
    95          1
    96          0
    97          0
    98          0
   105          2
   106          3
   107         42
   108          3
   109         23
   110          5
   111         15
   112          0
   113          0
   119          0
   120         17
   121        119
   122         33
   123         69
   124         29
   125         46
   126          9
   127          1
   133          1
   135          0
   136          1
   137          0
   138          0
   140          0
   147          1
   149          0
   163          0
   165          0
   177          0
   178         71
   179          6
   180         40
   181          9
   182         26
   183          2
   184          0