##TITLE=Library Entry 21926
##JCAMP-DX=Revision 4.10 
##DATA TYPE=MASS SPECTRUM
##SAMPLE DESCRIPTION=Chemical Concepts
##NAMES=HP
##CAS NAME=3,5-Dimethyldihydropyran-2,6-dione
##MOLFORM=C7H10O3
##CAS REGISTRY NO=7446-84-6
##MP= -300
##BP= -300
##MW= 142
##$RETENTION INDEX=0
##$CONDENSED SPECTRUM=NO
##NPOINTS= 51
##XYDATA=(XY..XY) 1 
    25          0
    26         14
    27         71
    28        290
    29         38
    30          0
    31          3
    33          1
    34          1
    35          2
    37          2
    38          7
    39         75
    40         12
    41         81
    42         64
    43         21
    44          2
    45          2
    49          0
    50          4
    51          6
    52          2
    53         13
    54          5
    56        999
    57         36
    58          2
    59          1
    60          0
    61          1
    62          0
    63          1
    65          1
    66          0
    67          3
    68          1
    69          8
    70         91
    71          5
    72          2
    73          2
    74          1
    81          1
    82          1
    83          1
    97          1
    98         83
    99          6
   100          3
   143          1