##TITLE=Library Entry 49338
##JCAMP-DX=Revision 4.10 
##DATA TYPE=MASS SPECTRUM
##SAMPLE DESCRIPTION=NIST Mass Spectrometry Data Center
##NAMES=HP
##CAS NAME=2-(Methylthio)nicotinic acid
##MOLFORM=C7H7NO2S
##CAS REGISTRY NO=74470-23-8
##MP= -300
##BP= -300
##MW= 169
##$RETENTION INDEX=0
##$CONDENSED SPECTRUM=NO
##NPOINTS= 106
##XYDATA=(XY..XY) 1 
    15         12
    26         25
    27         25
    29          6
    31          9
    32          2
    36         16
    37         32
    38         68
    39        226
    40         22
    41         25
    42         11
    43          7
    44         30
    45        301
    46         94
    47         85
    48         20
    49         40
    50        194
    51        297
    52        285
    53        113
    54         39
    55         15
    56         11
    57         37
    58         29
    59         14
    60          7
    61         11
    62         14
    63         32
    64         62
    65         39
    66         87
    67        108
    68         23
    69         71
    70         39
    71         31
    72         11
    73         15
    74         16
    75         55
    76         96
    77        117
    78        292
    79        999
    80        194
    81        105
    82        220
    83         98
    84         36
    85          8
    86          4
    90         15
    91         12
    92         19
    93         38
    94        106
    95         66
    96         27
    97         32
    98         26
    99          9
   104          6
   105         45
   106         72
   107         36
   108         45
   109         59
   110         70
   111         13
   112          5
   118          5
   120         10
   122         70
   123        682
   124        666
   125        162
   126         46
   127         11
   128          7
   133          4
   134         67
   135          7
   136        367
   137         38
   138         65
   139          6
   140          4
   150         79
   151        478
   152         84
   153         31
   154         49
   155          3
   156          5
   168         50
   169        979
   170         91
   171         73
   172          6
   173          9