##TITLE=Library Entry 44795
##JCAMP-DX=Revision 4.10 
##DATA TYPE=MASS SPECTRUM
##SAMPLE DESCRIPTION=C. Wayne Moss et al., J. Clin. Microbiol., Vol. 28, No.
 5, pg 1071, 1990
##NAMES=HP
##CAS NAME=Octadecanoic acid, 11-methyl-, methyl ester
##MOLFORM=C20H40O2
##CAS REGISTRY NO=74484-77-8
##MP= -300
##BP= -300
##MW= 312
##$RETENTION INDEX=0
##$CONDENSED SPECTRUM=NO
##NPOINTS= 147
##XYDATA=(XY..XY) 1 
    40        101
    41        228
    42         68
    43        421
    44         56
    45         30
    46         20
    53         34
    54         42
    55        391
    56        137
    57        468
    58         40
    59         74
    60         24
    61         20
    65         22
    66         22
    67         84
    68         54
    69        355
    70        105
    71        379
    72         36
    73         60
    74        999
    75        470
    76         36
    77         26
    78         22
    79         36
    80         24
    81        117
    82         52
    83        314
    84         86
    85        248
    86         34
    87        999
    88        119
    89         24
    90         22
    91         22
    93         44
    94         26
    95        117
    96         60
    97        304
    98        107
    99         44
   100         22
   101        175
   102         30
   105         22
   107         56
   108         24
   109         76
   110         42
   111        129
   112         44
   113         30
   114         22
   115         78
   116         56
   117         22
   121         60
   122         24
   123         56
   124         28
   125         88
   126         40
   127         28
   128         22
   129        199
   130        159
   131         26
   132         20
   133         20
   135         48
   136         26
   137         40
   138         44
   139         84
   140         42
   141         32
   143        769
   144        103
   145         22
   149         28
   151         24
   152         22
   153         52
   154         28
   155         22
   157        169
   158         38
   163        163
   164         40
   165         22
   166         24
   167         24
   171         44
   172         32
   173         18
   177         30
   179         20
   180         30
   181        147
   182         34
   185        329
   186        147
   187         80
   188         22
   191         18
   195         28
   199         28
   207         28
   209         18
   213        288
   214         66
   215         26
   227         30
   232         20
   236         16
   241         20
   247         18
   255         42
   256         18
   263         22
   265         18
   267         14
   269        197
   270         52
   279         12
   280         16
   281         60
   282         22
   283         40
   284         14
   285         12
   297         18
   298         34
   299         14
   311         12
   312        581
   313        133
   314         24