##TITLE=Library Entry 44589
##JCAMP-DX=Revision 4.10 
##DATA TYPE=MASS SPECTRUM
##SAMPLE DESCRIPTION=ASES Database, Dalian Institute, P.R. China
##NAMES=HP
##CAS NAME=3-Methylthio-6-methyl-5-thioxo-2,5-dihydro-1,2,4-triazine
##MOLFORM=C5H7N3S2
##CAS REGISTRY NO=7448-19-3
##MP= -300
##BP= -300
##MW= 173
##$RETENTION INDEX=0
##$CONDENSED SPECTRUM=NO
##NPOINTS= 14
##XYDATA=(XY..XY) 1 
    41        110
    42        268
    45        919
    46        281
    47        308
    58        308
    59        417
    71        780
    72        806
    74        999
    85        841
   102         80
   132         49
   173        459