##TITLE=Library Entry 39140
##JCAMP-DX=Revision 4.10 
##DATA TYPE=MASS SPECTRUM
##SAMPLE DESCRIPTION=Div. of Experiment Therapeutics WRAIR, WRAMC, Washingto
n DC 20307
##NAMES=HP
##CAS NAME=3,5-Dimethylthio-6-methyl-triazine
##MOLFORM=C6H9N3S2
##CAS REGISTRY NO=7448-21-7
##MP= -300
##BP= -300
##MW= 187
##$RETENTION INDEX=0
##$CONDENSED SPECTRUM=NO
##NPOINTS= 79
##XYDATA=(XY..XY) 1 
    41         32
    42         24
    44         32
    45        504
    46        114
    47        109
    48         11
    49         10
    51         17
    52         33
    53         20
    54          4
    56          4
    57          9
    58         56
    59         98
    61         38
    63          6
    64         10
    66         11
    67          9
    69         88
    70         93
    71        999
    72         83
    73         71
    74         17
    75          4
    76          3
    78          4
    79          6
    81          0
    82          3
    84         13
    85         85
    86        898
    87         53
    88         46
    89          2
    91          8
    93          0
    94          4
    96         29
    97         26
    98         14
    99         13
   100          8
   102         15
   103          7
   104          2
   105          0
   110          0
   111          0
   112         32
   113          6
   114          4
   116          3
   117          2
   126          0
   128          1
   129         15
   131          8
   132          0
   141          1
   142          2
   144         12
   145          0
   146          0
   154          1
   159          1
   172         15
   173          1
   174          0
   186          5
   187        683
   188         52
   189         26
   190          5
   191          0