##TITLE=Library Entry 107885
##JCAMP-DX=Revision 4.10 
##DATA TYPE=MASS SPECTRUM
##SAMPLE DESCRIPTION=Chemical Concepts
##NAMES=HP
##CAS NAME=Nickel, (.eta.5-2,4-cyclopentadien-1-yl)[(1,4,5-.eta.)-3-methyl-4
-pentenyl]-
##MOLFORM=C11H16Ni
##CAS REGISTRY NO=74482-15-8
##MP= -300
##BP= -300
##MW= 206
##$RETENTION INDEX=0
##$CONDENSED SPECTRUM=NO
##NPOINTS= 118
##XYDATA=(XY..XY) 1 
    26         27
    27        122
    28          2
    29         69
    37          6
    38         27
    39        244
    40         41
    41        137
    42          9
    43         14
    50         21
    51         27
    52         10
    53         51
    54         15
    55         75
    56          7
    57          6
    58        845
    59         14
    60        336
    61         16
    62         58
    63         24
    64         13
    65         75
    66         91
    67        107
    68          9
    69         10
    72          6
    73          4
    77         18
    78          8
    79         28
    80          7
    81         10
    82         26
    83         22
    84        188
    85         82
    86         89
    87         38
    88         18
    89          7
    90          9
    91         16
    92          6
    93          6
    95         16
    96         69
    97        262
    98        533
    99        162
   100        285
   101         44
   102         56
   103          9
   104         14
   108         13
   109         15
   110         31
   111         47
   112        302
   113         54
   114        339
   115         53
   116        130
   117         14
   118         16
   120          9
   121          7
   122         16
   123        571
   124        999
   125        289
   126        402
   127         82
   128         66
   129         22
   130         20
   135          5
   136        197
   137         67
   138        202
   139         45
   140        834
   141         69
   142        316
   143         44
   144         51
   146         14
   149         11
   150         85
   151         11
   152         43
   153          7
   154          9
   164          9
   166          7
   177          5
   178         86
   179          9
   180         36
   182          5
   188          5
   191         20
   193         10
   204          9
   205         19
   206        818
   207        109
   208        313
   209         51
   210         48
   211          6
   212         13