##TITLE=Library Entry 45083
##JCAMP-DX=Revision 4.10 
##DATA TYPE=MASS SPECTRUM
##SAMPLE DESCRIPTION=Chemical Concepts
##NAMES=HP
##CAS NAME=2-Propanol, 1,1-dimethoxy-, acetate
##MOLFORM=C7H14O4
##CAS REGISTRY NO=74495-37-7
##MP= -300
##BP= -300
##MW= 162
##$RETENTION INDEX=0
##$CONDENSED SPECTRUM=NO
##NPOINTS= 47
##XYDATA=(XY..XY) 1 
    27         13
    28         13
    29         33
    30          2
    31         70
    32          2
    33          7
    39          3
    40          1
    41         31
    42          5
    43        402
    44         12
    45         35
    46          0
    47        143
    48          3
    53          0
    55          2
    56          4
    57         43
    58          4
    59         16
    60          1
    61          1
    70          0
    71         35
    72         12
    73         20
    74          8
    75        999
    76         30
    77          5
    78          0
    87          7
    88         15
    89        119
    90          6
    91          0
   101          1
   102          3
   103          1
   130          0
   131         65
   132          4
   133          0
   161          1