##TITLE=Library Entry 41777
##JCAMP-DX=Revision 4.10 
##DATA TYPE=MASS SPECTRUM
##SAMPLE DESCRIPTION=NIST Mass Spectrometry Data Center
##NAMES=HP
##CAS NAME=Lavandulol, TMS derivative
##MOLFORM=C13H26OSi
##CAS REGISTRY NO=74498-96-7
##MP= -300
##BP= -300
##MW= 226
##$RETENTION INDEX=1234
##$CONDENSED SPECTRUM=NO
##NPOINTS= 142
##XYDATA=(XY..XY) 1 
    15          2
    26          1
    27         22
    28          3
    29         23
    30          1
    31          3
    37          1
    38          2
    39         62
    40         17
    41        265
    42         18
    43         75
    44         19
    45        100
    46          7
    47         41
    48          2
    49          2
    50          3
    51         12
    52          7
    53         73
    54          8
    55         43
    56          6
    57         16
    58         33
    59         70
    60         11
    61         35
    62          3
    63          5
    64          1
    65         22
    66          9
    67         90
    68         77
    69        357
    70         25
    71          9
    73        999
    74         98
    75        360
    76         27
    77         62
    78         10
    79         86
    80        229
    81         97
    82         13
    83         14
    84          4
    85         12
    86          2
    87          8
    88          9
    89         25
    90          4
    91         84
    92        168
    93        691
    94        106
    95         42
    96          8
    97         13
    98          4
    99         17
   100          2
   101         19
   103        295
   104         29
   105         60
   106         12
   107        136
   108         30
   109         24
   110          6
   111         12
   112          2
   113         45
   114          6
   115         19
   116          6
   117          7
   118          1
   119         11
   121        516
   122         74
   123        325
   124         33
   125         13
   126          3
   127         53
   128          7
   129         20
   130          4
   131          3
   133          1
   135         31
   136        139
   137         19
   138          1
   139          4
   141         44
   142          8
   143        185
   144         44
   145         14
   146          2
   147          1
   149          1
   151          2
   153          3
   155         28
   156         32
   157         78
   158         17
   159          4
   160          1
   165          1
   167          1
   168          3
   169         37
   170         20
   171          9
   172          2
   181          1
   182          1
   183         46
   184          8
   185          2
   193          2
   196          1
   197          1
   211         65
   212         12
   213          3
   225          1
   226          7
   227          1