##TITLE=Library Entry 2820
##JCAMP-DX=Revision 4.10 
##DATA TYPE=MASS SPECTRUM
##SAMPLE DESCRIPTION=D.HENNEBERG, MAX-PLANCK INSTITUTE, MULHEIM, WEST GERMAN
Y
##NAMES=HP
##CAS NAME=1,4-Heptadiene, 3,3,6-trimethyl-
##MOLFORM=C10H18
##CAS REGISTRY NO=74498-89-8
##MP= -300
##BP= -300
##MW= 138
##$RETENTION INDEX=0
##$CONDENSED SPECTRUM=NO
##NPOINTS= 48
##XYDATA=(XY..XY) 1 
    24          7
    26          6
    27        222
    28         11
    29        197
    30          3
    35          2
    37         11
    38          4
    39        182
    40         27
    41        999
    42         72
    43         66
    50          7
    51         21
    52         11
    53         99
    54         30
    55        857
    56         44
    57         11
    63          4
    65         13
    66         11
    67        189
    68        128
    69        695
    70        187
    71         11
    77         11
    79         19
    80         10
    81        136
    82        149
    83        102
    84          3
    91          9
    93          3
    94          3
    95        202
    96         42
    97          5
   109         76
   110          9
   111          2
   123         26
   124          2