##TITLE=Library Entry 46334
##JCAMP-DX=Revision 4.10 
##DATA TYPE=MASS SPECTRUM
##SAMPLE DESCRIPTION=Div. of Experiment Therapeutics WRAIR, WRAMC, Washingto
n DC 20307
##NAMES=HP
##CAS NAME=6-Methoxy-4-methyl-8-phthalimido-quinoline
##MOLFORM=C19H14N2O3
##CAS REGISTRY NO=74509-62-9
##MP= -300
##BP= -300
##MW= 318
##$RETENTION INDEX=0
##$CONDENSED SPECTRUM=NO
##NPOINTS= 200
##XYDATA=(XY..XY) 1 
    41         19
    42         13
    43         19
    44         10
    45          9
    46          4
    47          4
    49         13
    50        280
    51        110
    52         64
    53         41
    54         15
    55          7
    56          1
    57          6
    58          9
    59         36
    60         11
    61          7
    62         29
    63         97
    64         43
    65         52
    66         31
    67          9
    68          3
    69         13
    70          5
    71          1
    72          3
    74        114
    75        211
    76        999
    77        192
    78         23
    79         10
    80         12
    81          4
    82          8
    83          2
    84         11
    85          1
    86         16
    87         13
    88         27
    89         92
    90         38
    91         22
    92         45
    93         13
    94         10
    95          9
    96         10
    98          1
    99          4
   100          9
   101         52
   102        102
   103         53
   104        378
   105         66
   106         36
   108         52
   109          3
   110         22
   111          0
   112          5
   113         10
   114         39
   115         82
   116        181
   117         40
   118          7
   119          1
   120         11
   121          6
   122          3
   123          9
   124          6
   125          2
   126          7
   127         19
   128         38
   129          5
   130         83
   131         14
   132          7
   133         19
   134          2
   135         19
   136          1
   137         35
   138         15
   140         16
   141         15
   142         74
   143         93
   144         31
   145         33
   147          1
   148          4
   149          3
   150          4
   151          5
   152          7
   153          6
   154          5
   155         37
   156         22
   157          7
   158          2
   159         45
   163        211
   164         24
   165         10
   166          4
   167          2
   168          1
   169          0
   170          4
   171         50
   172         30
   173          8
   174          7
   175          2
   176         16
   177          7
   178          6
   179          2
   180          1
   181          0
   183          2
   184         17
   185         22
   186          2
   187          7
   188          3
   189          3
   190          7
   191          7
   192          8
   193          2
   195          0
   196          0
   197          1
   198          0
   199          1
   201          3
   202          4
   203          9
   204         20
   205         14
   206          3
   207          0
   213          3
   214         11
   215         22
   216         25
   217         12
   218         20
   219         14
   220          4
   221          0
   229         27
   230         18
   231         25
   232         12
   233         13
   235         16
   236          0
   237          4
   241          0
   242          4
   243         13
   244         37
   245         16
   246          4
   247          4
   248          5
   257          6
   258         34
   259        176
   260         27
   261          5
   262          0
   263          3
   273        177
   274         83
   275         19
   276          5
   277          0
   287          3
   289          8
   290          2
   302          0
   303          0
   318        178
   319         30
   320          4