##TITLE=Library Entry 3962
##JCAMP-DX=Revision 4.10 
##DATA TYPE=MASS SPECTRUM
##SAMPLE DESCRIPTION=TNO Volatile Compounds in Food - Chemical Concepts
##NAMES=HP
##CAS NAME=1,3-Butadiene, 1,4-dimethoxy-, (E,E)-
##MOLFORM=C6H10O2
##CAS REGISTRY NO=74503-35-8
##MP= -300
##BP= -300
##MW= 114
##$RETENTION INDEX=0
##$CONDENSED SPECTRUM=NO
##NPOINTS= 50
##XYDATA=(XY..XY) 1 
    25          2
    26         56
    27        337
    29        325
    30         29
    31         66
    33          0
    36          1
    37         19
    38         64
    39        435
    41        999
    42        104
    43          1
    44         12
    45        146
    46          2
    49          4
    50         37
    51         49
    52         10
    53        105
    54         12
    55        143
    56        180
    57         17
    58         48
    59         63
    60          2
    66          2
    67         10
    68         46
    69         56
    70         17
    71        802
    72         27
    73          0
    81          7
    82          6
    83         24
    84         67
    85          5
    88          1
    98         23
    99        536
   100         27
   101          1
   114        954
   115         58
   116          2