##TITLE=Library Entry 37396
##JCAMP-DX=Revision 4.10 
##DATA TYPE=MASS SPECTRUM
##SAMPLE DESCRIPTION=NIST Mass Spectrometry Data Center, 2010
##NAMES=HP
##CAS NAME=Octyl chloroformate
##MOLFORM=C9H17ClO2
##CAS REGISTRY NO=7452-59-7
##MP= -300
##BP= -300
##MW= 192
##$RETENTION INDEX=1257
##$CONDENSED SPECTRUM=NO
##NPOINTS= 86
##XYDATA=(XY..XY) 1 
    14          1
    15          4
    16          2
    26         12
    27        163
    28         61
    29        256
    30          9
    31          4
    35          4
    36          9
    37          3
    38         11
    39        210
    40         46
    41        823
    42        396
    43        606
    44        146
    45          6
    46          1
    47          1
    49          3
    50          6
    51         16
    52          8
    53         68
    54         82
    55        952
    56        985
    57        486
    58         21
    59          1
    61          1
    63        274
    64          5
    65        101
    66          6
    67         97
    68        230
    69        709
    70        999
    71        289
    72         14
    73          1
    75          2
    76          2
    77         10
    78          2
    79         11
    80          2
    81         20
    82        141
    83        667
    84        621
    85         44
    86          2
    89          1
    91         38
    92          2
    93         40
    94          1
    95         10
    96          2
    97         67
    98          5
    99          1
   100          1
   101          2
   105          5
   106          1
   107          5
   108          1
   109          1
   110          1
   111          2
   112         66
   113          6
   114          1
   119          1
   121          9
   122          1
   123          3
   135          1
   157          6
   158          1