##TITLE=Library Entry 26310
##JCAMP-DX=Revision 4.10 
##DATA TYPE=MASS SPECTRUM
##SAMPLE DESCRIPTION=NIST Mass Spectrometry Data Center, 1990.
##NAMES=HP
##CAS NAME=Butanoic acid, 2-methyl-, ethyl ester
##MOLFORM=C7H14O2
##CAS REGISTRY NO=7452-79-1
##MP= -300
##BP= -300
##MW= 130
##$RETENTION INDEX=849
##$CONDENSED SPECTRUM=NO
##NPOINTS= 36
##XYDATA=(XY..XY) 1 
    14          0
    15         12
    26         36
    27        181
    28         82
    29        350
    30         15
    31         13
    38         11
    39        118
    41        435
    42         35
    43         39
    44          9
    45         84
    51          9
    53         22
    54         12
    55        102
    56        194
    57        999
    58         43
    59         16
    69         29
    71          5
    73         86
    74        279
    75         28
    85        371
    86         23
    87        141
    88         12
   102        634
   103         61
   115         87
   130         11