##TITLE=Library Entry 65078
##JCAMP-DX=Revision 4.10 
##DATA TYPE=MASS SPECTRUM
##SAMPLE DESCRIPTION=Japan AIST/NIMC Database- Spectrum MS-IW-3930
##NAMES=HP
##CAS NAME=N-[(4-Bromophenyl)sulfonyl]-aniline
##MOLFORM=C12H10BrNO2S
##CAS REGISTRY NO=7454-54-8
##MP= -300
##BP= -300
##MW= 311
##$RETENTION INDEX=0
##$CONDENSED SPECTRUM=NO
##NPOINTS= 113
##XYDATA=(XY..XY) 1 
    26          2
    27          5
    28          9
    37          5
    38         21
    39        111
    40         12
    41          9
    42          1
    44          3
    45          3
    48          3
    49          2
    50         83
    51         31
    52         15
    53          3
    54          2
    58          1
    61          2
    62          8
    63         41
    64         49
    65        396
    66         40
    67          3
    69          4
    70          1
    73          3
    74         27
    75        111
    76        110
    77         27
    78          4
    79          1
    80          1
    81          1
    82          2
    88          1
    89          1
    90          5
    91         38
    92        999
    93        134
    94          6
    95          1
    96          8
    97          1
   102          1
   105          1
   107          1
   108          5
   109          2
   113          1
   114          1
   115          6
   116          1
   117          1
   119          1
   124          1
   126          1
   128          2
   129          3
   131          3
   139          7
   140          6
   141         11
   142          1
   143          1
   145          1
   151          1
   152          1
   153          1
   155        149
   156         13
   157        145
   158         11
   166          9
   167         61
   168        184
   169         24
   170          1
   171          1
   172          1
   173          1
   175          2
   177          2
   187          1
   188          1
   189          1
   190          1
   203          9
   204          1
   205          9
   206          1
   219         90
   220          9
   221         90
   222          9
   223          4
   232          1
   245          1
   246         31
   247         27
   248         33
   249         25
   250          3
   311        280
   312         40
   313        287
   314         42
   315         15
   316          2