##TITLE=Library Entry 25357
##JCAMP-DX=Revision 4.10 
##DATA TYPE=MASS SPECTRUM
##SAMPLE DESCRIPTION=Exported from NIST MS Search
##NAMES=HP
##CAS NAME=2-Propanol, 1-(hexadecyloxy)-
##MOLFORM=C19H40O2
##CAS REGISTRY NO=7455-58-5
##MP= -300
##BP= -300
##MW= 300
##$RETENTION INDEX=0
##$CONDENSED SPECTRUM=NO
##NPOINTS= 135
##XYDATA=(XY..XY) 1 
    14         29
    15         14
    16         13
    27         41
    28        185
    29        124
    30         14
    31         84
    33          4
    38          6
    39         37
    40         29
    41        343
    42        113
    43        630
    44        123
    45        518
    46         14
    47          5
    51          6
    53         17
    54         39
    55        402
    56        194
    57        999
    58         88
    59        395
    60         29
    61          7
    63          4
    65          6
    66          9
    67         63
    68        180
    69        363
    70        184
    71        639
    72         48
    73         25
    74          9
    75        147
    76          9
    77         76
    78          6
    79         10
    80          4
    81         44
    82        264
    83        485
    84        145
    85        496
    86        121
    87         32
    88          3
    89         52
    90          3
    91         11
    92          5
    93          3
    94         10
    95         31
    96         92
    97        380
    98        107
    99        127
   100         18
   101          9
   102          3
   103         29
   104          6
   105          5
   107          9
   109         15
   110         40
   111        223
   112         80
   113         73
   114         12
   115          6
   116          4
   117         19
   119          4
   121         15
   122          4
   123          9
   124         26
   125        123
   126         56
   127         48
   128         29
   129          6
   131          6
   132          2
   133          5
   135          3
   136          6
   137          6
   138         19
   139         56
   140         44
   141         38
   142          7
   151          3
   152         12
   153         33
   154         33
   155         32
   156         10
   161          3
   166          8
   167         21
   168         23
   169         21
   170          6
   171          5
   180          4
   181         11
   182         11
   183          9
   194          3
   195          6
   196         75
   197         12
   207          6
   213          5
   222          9
   224         10
   225        229
   226          9
   241         12
   253         17
   255        295
   256         62
   257         10
   269          7