##TITLE=Library Entry 109209
##JCAMP-DX=Revision 4.10 
##DATA TYPE=MASS SPECTRUM
##SAMPLE DESCRIPTION=Asinex Ltd, Moscow, Russia
##NAMES=HP
##CAS NAME=Furane-2-carboxylic acid, 5-(4-chlorophenoxymethyl)-
##MOLFORM=C12H9ClO4
##CAS REGISTRY NO=74556-57-3
##MP= -300
##BP= -300
##MW= 252
##$RETENTION INDEX=0
##$CONDENSED SPECTRUM=NO
##NPOINTS= 142
##XYDATA=(XY..XY) 1 
    33          1
    34          4
    35          6
    36         32
    37         20
    38         49
    39         69
    40         57
    41         31
    42         10
    43         16
    44         33
    45         29
    46          3
    47          4
    48          1
    49         11
    50         50
    51         96
    52        105
    53         62
    54          7
    55         14
    56          3
    57          5
    58          1
    59          0
    60          3
    61         11
    62         22
    63         63
    64         32
    65         54
    66          7
    67          3
    68          4
    69         36
    70          4
    71          3
    72          6
    73         50
    74         12
    75         39
    76          6
    77          8
    79        182
    80         33
    81         21
    82          2
    83          2
    84          3
    85          4
    86          0
    87          1
    88          0
    89          3
    90          0
    91          3
    92          4
    93          6
    94          4
    95          4
    97         78
    98          7
    99         60
   100         19
   101         18
   102          6
   103          1
   104          0
   105          1
   106          0
   107          1
   108          4
   109          7
   110          1
   111         14
   112          3
   113          6
   114          1
   115          6
   116          1
   117          0
   118          0
   119          0
   120          0
   121          1
   122          1
   123          5
   125        999
   126         85
   127         26
   128        108
   129         12
   130         34
   131          2
   133          0
   134          0
   135          2
   136          0
   137          0
   138          0
   139          2
   140          1
   141          0
   142          0
   143          0
   144          2
   145          1
   148          0
   149          2
   150          1
   151          0
   152          1
   153          0
   154          0
   155          0
   157          2
   161          0
   163          0
   165          1
   166          0
   167          0
   168          0
   171          2
   172          0
   173          0
   177          0
   179          0
   197          0
   205          0
   206          0
   207          0
   208          0
   216          0
   217          0
   218          1
   235          0
   252         41
   253          5
   254         13
   255          1