##TITLE=Library Entry 61628
##JCAMP-DX=Revision 4.10 
##DATA TYPE=MASS SPECTRUM
##SAMPLE DESCRIPTION=Humboldt-Universitat zu Berlin, Department of Chemistry
, Analytical Group
##NAMES=HP
##CAS NAME=25,26,27,28-Tetrahydroxycalix[4]aren
##MOLFORM=C28H24O4
##CAS REGISTRY NO=74568-07-3
##MP= -300
##BP= -300
##MW= 424
##$RETENTION INDEX=0
##$CONDENSED SPECTRUM=NO
##NPOINTS= 308
##XYDATA=(XY..XY) 1 
    12          9
    13          6
    14          2
    15         10
    16          4
    17          4
    18         10
    19          4
    25          1
    26          8
    27        109
    28         27
    29         39
    30          1
    31         15
    32          1
    35         16
    36          3
    37          7
    39        225
    40         30
    41         72
    42          5
    43         27
    44          3
    45          2
    47         10
    48          6
    49          6
    50         28
    51        158
    52         60
    53         94
    54          9
    55         82
    56          4
    57          5
    61          2
    62         12
    63         94
    64         36
    65        346
    66         74
    67         15
    68          7
    69          9
    70          5
    71          4
    74         12
    75         28
    76         54
    77        437
    78        176
    79        187
    80         17
    81         11
    82         12
    83         37
    84          5
    85         23
    86          5
    87         17
    88         19
    89        107
    91        999
    92        140
    93         32
    94        221
    95         23
    96          3
    97         11
    98          6
    99          6
   100          6
   101         28
   102         62
   103         55
   104         17
   105         64
   107        661
   108         65
   109         11
   110          4
   111          2
   112          5
   113         28
   114         29
   115        315
   116         63
   117         21
   119        714
   120         95
   121         46
   122         10
   123          5
   124          3
   125         11
   126         41
   127         94
   128        159
   129         79
   130         16
   131        144
   132         27
   133         14
   134          9
   135          7
   136          4
   137          7
   138         13
   139         83
   140         25
   141        101
   142         33
   143         17
   144         35
   145         28
   146          6
   147          5
   148          2
   149          6
   150         24
   151         66
   152        210
   153        153
   154         41
   155         70
   156         19
   157         30
   158         14
   159         11
   160          3
   161          2
   162          4
   163         27
   164         34
   165        227
   166         54
   167         39
   168         49
   169         45
   170         19
   171         16
   172          3
   173          3
   174          2
   175          3
   176         22
   177         20
   178         49
   179         28
   181        195
   182         53
   183         44
   184         12
   185          5
   186          2
   187          6
   188          6
   189         41
   190         13
   191         12
   192          6
   193         14
   194         70
   195        192
   196         50
   197        396
   198         84
   199         36
   200         12
   201         10
   202         34
   203         13
   204          5
   205         10
   206          5
   207         12
   208         22
   209         38
   210         67
   211        289
   212         64
   213         38
   214          7
   215         23
   216          7
   217          3
   218          8
   219          7
   220          2
   221          3
   222          4
   223         28
   224         46
   225         35
   226         24
   227         12
   228         11
   229          7
   230          2
   231          8
   232          4
   233          2
   234          1
   235          2
   236          2
   237          5
   238          2
   239         18
   240          6
   241          5
   242          3
   243          3
   244          3
   245          5
   246          1
   247          1
   248          1
   249          1
   250          3
   251          2
   252          8
   253          4
   254          1
   255          7
   256          4
   257          5
   258          2
   259          2
   260          1
   261          2
   263          3
   264          1
   265          2
   266          1
   267          1
   268          5
   269          8
   270          3
   271          4
   272          1
   273          1
   274          1
   275          1
   276          2
   277          1
   278          1
   279          1
   280          0
   281          2
   282          2
   283          6
   284          4
   285          9
   286          5
   287          9
   288          3
   289          2
   290          1
   292          0
   293          0
   294          0
   295          1
   296          1
   297          3
   298          8
   299         21
   300         13
   301          7
   303         40
   304          9
   305          6
   306          1
   311          6
   312          6
   313          8
   314          2
   315          5
   316          9
   317         28
   318         10
   319          2
   325          0
   326          0
   327          0
   329          3
   330          5
   331          2
   332          0
   337          0
   343          0
   386          0
   387          1
   388          2
   389         10
   390          3
   391          1
   392          0
   405          6
   406         27
   407         13
   408          3
   409          1
   424        102
   425         33
   426          5
   427          0