##TITLE=Library Entry 97347
##JCAMP-DX=Revision 4.10 
##DATA TYPE=MASS SPECTRUM
##SAMPLE DESCRIPTION=V.Zaikin,Topchiev Inst.Petrochem.Synth.,Moscow
##NAMES=HP
##CAS NAME=Methoxyacetic acid, 3-phenyl-2-propenyl ester
##MOLFORM=C12H14O3
##CAS REGISTRY NO=74563-48-7
##MP= -300
##BP= -300
##MW= 206
##$RETENTION INDEX=0
##$CONDENSED SPECTRUM=NO
##NPOINTS= 121
##XYDATA=(XY..XY) 1 
    22          2
    26          3
    27          7
    28          1
    29         18
    30          6
    31          4
    35          8
    36         68
    37          2
    38         22
    39         26
    40          6
    41         12
    42          5
    43         20
    44         57
    45        166
    46          5
    50         17
    51         33
    52         15
    53          4
    55         10
    56          3
    57         10
    58          6
    59          1
    60         11
    61          2
    62          5
    63         21
    64          4
    65         40
    66          5
    67          3
    68          9
    69          7
    70          2
    71          9
    72          2
    73          3
    74          9
    75         12
    76         12
    77         46
    78         23
    79         27
    80          3
    81          4
    82          2
    83          4
    84          2
    85          2
    87          6
    88          1
    89         24
    90          4
    91        118
    92         16
    93          9
    96          2
    97          4
    99         11
   101          2
   102         22
   103         40
   104         26
   105         50
   106          5
   108          1
   109          5
   111          3
   112          2
   113          6
   114          5
   115        395
   116        179
   117        999
   118        139
   119         10
   120         16
   121         14
   122          2
   126          5
   127          7
   128          4
   129          4
   130          2
   131         40
   132         22
   133        166
   134         42
   135          5
   137         17
   138          1
   145          5
   146         26
   147          4
   148          2
   150          2
   151          3
   156          2
   160          4
   161         10
   165          1
   167         21
   173          2
   174         14
   175          2
   177          2
   178          6
   179          2
   188         28
   189          6
   190          4
   191          1
   206         78
   207         26
   208          3
   209          2