##TITLE=Library Entry 39956
##JCAMP-DX=Revision 4.10 
##DATA TYPE=MASS SPECTRUM
##SAMPLE DESCRIPTION=Japan AIST/NIMC Database- Spectrum MS-IW-3786
##NAMES=HP
##CAS NAME=Dimetotiazine
##MOLFORM=C19H25N3O2S2
##CAS REGISTRY NO=7456-24-8
##MP= -300
##BP= -300
##MW= 391
##$RETENTION INDEX=3055
##$CONDENSED SPECTRUM=NO
##NPOINTS= 84
##XYDATA=(XY..XY) 1 
    15         11
    28          3
    29          2
    30          1
    31          8
    32          1
    39          1
    41          2
    42         11
    43          3
    44         12
    45          2
    48          4
    51          1
    55          1
    56          9
    57          5
    58          3
    63          2
    64          1
    65          7
    66          1
    69          2
    70          9
    71          9
    72        999
    73         52
    74          1
    77          1
    78          8
    79         24
    80          1
    81         12
    84          1
    85          2
    86          3
    95          2
    96         28
    98          1
   108          1
   109          1
   139          3
   140          1
   151          1
   152          2
   153          2
   154          1
   166          1
   167          2
   170          1
   171          1
   172          1
   178          2
   179          7
   180          4
   183          1
   184          2
   185          2
   196          9
   197          9
   198          7
   199          1
   209          2
   210         10
   211         11
   212          7
   213          1
   214          2
   223          2
   224          1
   238          1
   239          1
   276          7
   277          1
   287          1
   305          3
   306          1
   319          4
   320         19
   321          4
   322          2
   391         16
   392          4
   393          2