##TITLE=Library Entry 32443
##JCAMP-DX=Revision 4.10 
##DATA TYPE=MASS SPECTRUM
##SAMPLE DESCRIPTION=Japan AIST/NIMC Database- Spectrum MS-NW-5334
##NAMES=HP
##CAS NAME=9,12-Octadecadienoyl chloride, (Z,Z)-
##MOLFORM=C18H31ClO
##CAS REGISTRY NO=7459-33-8
##MP= -300
##BP= -300
##MW= 298
##$RETENTION INDEX=0
##$CONDENSED SPECTRUM=NO
##NPOINTS= 207
##XYDATA=(XY..XY) 1 
    14          1
    15          5
    16          1
    18          2
    26          8
    27        227
    28         37
    29        253
    30          6
    31          1
    32          8
    35         28
    36        132
    37          9
    38         44
    39        183
    40         31
    41        698
    42         55
    43        196
    44          7
    45          2
    48          2
    49          1
    50          4
    51         20
    52         17
    53        137
    54        349
    55        670
    56         51
    57         86
    58          5
    59          2
    60          1
    61          1
    62          1
    63          8
    64          3
    65         66
    66         90
    67        999
    68        277
    69        229
    70         45
    71         54
    72          3
    73          2
    74          1
    75          2
    76          2
    77        132
    78         67
    79        509
    80        401
    81        679
    82        260
    83        135
    84         59
    85         34
    86          3
    87          1
    89          3
    90          2
    91        132
    92         47
    93        310
    94        132
    95        390
    96        243
    97         98
    98        282
    99         27
   100          2
   101          1
   102          2
   103          5
   104         12
   105         48
   106         22
   107        141
   108         66
   109        146
   110        155
   111         61
   112         23
   113          7
   114          1
   115          4
   116          2
   117         27
   118          8
   119         28
   120         21
   121        123
   122         48
   123         81
   124         69
   125         21
   126          6
   127          2
   128          3
   129          4
   130          2
   131         29
   132          8
   133         22
   134         15
   135         92
   136         49
   137         49
   138         23
   139          9
   140          3
   141          2
   143          2
   144          1
   145         13
   146          6
   147         12
   148          9
   149         67
   150         66
   151         46
   152         26
   153          9
   154          2
   155          2
   157          1
   158          1
   159          9
   160          4
   161          7
   162          5
   163         49
   164         31
   165         23
   166          9
   167          3
   168          1
   169          1
   171          1
   172          1
   173         12
   174          3
   175          5
   176          2
   177         28
   178         17
   179          8
   180          6
   181          2
   182          1
   183          1
   185          1
   186          1
   187          7
   188          2
   189          3
   190          2
   191         43
   192         14
   193          6
   194          3
   195          1
   199          1
   200          4
   201          3
   202          2
   203          1
   205         26
   206         10
   207          4
   208          1
   213          1
   214          5
   215          2
   216          2
   218          1
   219         11
   220          4
   221          2
   222          1
   227          1
   228          3
   229          1
   230          1
   231          1
   232          1
   233          7
   234         31
   235          7
   236          2
   244          2
   245          2
   247          1
   260          1
   261          1
   262         74
   263         43
   264          8
   265          1
   280          2
   298         31
   299          7
   300         10
   301          2