##TITLE=Library Entry 77263
##JCAMP-DX=Revision 4.10 
##DATA TYPE=MASS SPECTRUM
##SAMPLE DESCRIPTION=V.Zaikin,Topchiev Inst.Petrochem.Synth.,Moscow
##NAMES=HP
##CAS NAME=Pentanoic acid, 2-phenylethyl ester
##MOLFORM=C13H18O2
##CAS REGISTRY NO=7460-74-4
##MP= -300
##BP= -300
##MW= 206
##$RETENTION INDEX=1527
##$CONDENSED SPECTRUM=NO
##NPOINTS= 78
##XYDATA=(XY..XY) 1 
    26          5
    27          8
    28          2
    29          9
    30          1
    35          2
    36         17
    38          5
    39         11
    40         13
    41         20
    42          4
    43          5
    44          1
    50          6
    51         12
    52          8
    53          4
    54          2
    55         11
    56          5
    57         62
    58          4
    59          1
    60          2
    62          1
    63          5
    64          1
    65         12
    66          2
    67          3
    68          1
    69          4
    70          3
    71          3
    73          8
    74          2
    75          3
    76          3
    77         32
    78         23
    79         27
    80          3
    81          2
    82          3
    83          3
    84          4
    85         77
    86          6
    87          1
    89          5
    90          3
    91         48
    92         10
    93          5
    95          2
    96          2
    97          2
   102          6
   103         41
   104        999
   105        174
   106         15
   107          1
   109          1
   111          1
   115          2
   117          2
   118          1
   119          2
   120          3
   121          2
   122          1
   133          2
   135          4
   147          2
   155          1
   191          1