##TITLE=Library Entry 39029
##JCAMP-DX=Revision 4.10 
##DATA TYPE=MASS SPECTRUM
##SAMPLE DESCRIPTION=V.Zaikin,Topchiev Inst.Petrochem.Synth.,Moscow
##NAMES=HP
##CAS NAME=Pivalic acid, 2-tetrahydrofurylmethyl ester
##MOLFORM=C10H18O3
##CAS REGISTRY NO=7461-07-6
##MP= -300
##BP= -300
##MW= 186
##$RETENTION INDEX=0
##$CONDENSED SPECTRUM=NO
##NPOINTS= 59
##XYDATA=(XY..XY) 1 
    26          4
    27         18
    28          7
    29         31
    30          2
    31          4
    36          4
    38          2
    39         24
    40          6
    41         75
    42         20
    43         87
    44          5
    45          1
    50          2
    51          4
    52          3
    53          5
    54          6
    55         21
    56         15
    57        140
    58          7
    59          1
    63          1
    65          4
    67          8
    68          3
    69         23
    70         29
    71        999
    72         39
    73          3
    77          4
    78          4
    79          6
    81          1
    82          2
    83          7
    84        175
    85         49
    86          3
    87          1
    89          1
    91         24
    92         13
    93          2
   100          2
   101          8
   102          1
   103          7
   104          2
   105          4
   115          2
   117         24
   118         17
   119          2
   136          6