##TITLE=Library Entry 10297
##JCAMP-DX=Revision 4.10 
##DATA TYPE=MASS SPECTRUM
##SAMPLE DESCRIPTION=A.S.Moskovkin,I.M.Karnaukh, Russian Center on Disaster
 Medicine
##NAMES=HP
##CAS NAME=4-Hydroxy-3-phenyl-4,6,6-trimethylhexahydropyrimidin-2-thione
##MOLFORM=C13H18N2OS
##CAS REGISTRY NO=74628-49-2
##MP= -300
##BP= -300
##MW= 250
##$RETENTION INDEX=0
##$CONDENSED SPECTRUM=NO
##NPOINTS= 171
##XYDATA=(XY..XY) 1 
    37          9
    38         23
    39        350
    40         52
    41        370
    42        230
    43        999
    44         82
    45         33
    46         12
    47         10
    48          6
    49          2
    50         64
    51        280
    52         40
    53         94
    54         30
    55        390
    56         78
    57         72
    58        660
    59         29
    60         67
    61         10
    62         13
    63         35
    64         48
    65        240
    66        180
    67         54
    68         10
    69         25
    70         22
    71         13
    72         80
    73         18
    74         20
    75         19
    76         35
    77        740
    78         72
    79         35
    80         23
    81         43
    82         46
    83        300
    84         28
    85         51
    86          7
    87          8
    88         12
    89         24
    90         25
    91        130
    92        180
    93        860
    94        180
    95         17
    96         29
    97         23
    98        120
    99        290
   100        230
   101         18
   102         14
   103         18
   104         30
   105         10
   106         14
   107         13
   108         19
   109         96
   110        130
   111         18
   112         11
   113          4
   114         17
   115         23
   116         12
   117         53
   118        580
   119        450
   120         37
   121          9
   122          4
   123         10
   124         34
   125         11
   126          4
   127          4
   128          6
   129          6
   130         39
   131         14
   132         42
   133         25
   134         16
   135        250
   136         84
   137         18
   138          6
   139          3
   140          4
   141         22
   142          9
   143         18
   144         10
   145          4
   146          2
   148          4
   149         20
   150         25
   151        410
   152        130
   153         69
   154         14
   155          9
   156         13
   157         14
   158         77
   159         33
   160         13
   161         16
   162          4
   164          4
   165          4
   172         19
   173         27
   174         20
   175         14
   176          6
   177          4
   183          4
   184          3
   185          7
   189          6
   190          4
   191         53
   192         10
   193          9
   199          4
   200          4
   201         10
   202          4
   203          7
   204          6
   205          4
   206          3
   207         24
   208          7
   209          3
   215          8
   216         20
   217        230
   218         31
   219         11
   220          2
   231         40
   232        160
   233         36
   234         12
   235         25
   236          6
   237          2
   248          6
   249         28
   250        550
   251         88
   252         31
   253          4