##TITLE=Library Entry 49512
##JCAMP-DX=Revision 4.10 
##DATA TYPE=MASS SPECTRUM
##SAMPLE DESCRIPTION=D.HENNEBERG, MAX-PLANCK INSTITUTE, MULHEIM, WEST GERMAN
Y
##NAMES=HP
##CAS NAME=Cyclobuta[1,2-b:4,3-b']bisthiopyran, decahydro-, 1,1,8,8-tetraoxi
de, (4a.alpha.,4b.beta.,8a.beta.,8b.alpha.)-
##MOLFORM=C10H16O4S2
##CAS REGISTRY NO=74630-21-0
##MP= -300
##BP= -300
##MW= 264
##$RETENTION INDEX=0
##$CONDENSED SPECTRUM=NO
##NPOINTS= 134
##XYDATA=(XY..XY) 1 
    26          7
    27        152
    29         68
    30          1
    31          4
    33          2
    34          1
    35          1
    37          4
    38         10
    39        236
    40         50
    41        238
    42         28
    43         48
    44         17
    45         21
    46          3
    47          7
    48          7
    49          2
    50         12
    51         44
    52         45
    53         88
    54         38
    55         64
    56          5
    57         11
    58         17
    59         13
    60          6
    61          3
    62          3
    63         34
    64          8
    65        100
    66         55
    67        192
    68         38
    69         23
    70          3
    71          7
    72          2
    73          6
    74          2
    75          6
    76          3
    77        179
    78         76
    79        486
    80        999
    81        137
    82         13
    83          9
    84          5
    85          6
    86          2
    87         10
    88          1
    89         10
    90         12
    91        164
    92         46
    93        335
    94         49
    95         33
    96          4
    97          8
    98          2
    99          7
   100          4
   101          2
   102          2
   103          9
   104          3
   105         63
   106         76
   107         94
   108        136
   109         24
   110          4
   111          3
   112          2
   113          6
   115          5
   116          4
   117          6
   118         15
   119         32
   120          9
   121         22
   122          3
   123          5
   124          2
   125          3
   126          1
   129          2
   131          6
   132          5
   133         37
   134         59
   135         21
   136          4
   137         13
   138          2
   139          1
   141          1
   145          3
   146          2
   148          1
   150          2
   151          3
   152          2
   154          1
   155          7
   157          2
   158          3
   159          3
   165          2
   166          0
   171         30
   172         23
   173          2
   183          3
   184          2
   185          2
   197          0
   200        124
   201         12
   202          6
   215          1
   229          0
   264          1