##TITLE=Library Entry 25691
##JCAMP-DX=Revision 4.10 
##DATA TYPE=MASS SPECTRUM
##SAMPLE DESCRIPTION=D.HENNEBERG, MAX-PLANCK INSTITUTE, MULHEIM, WEST GERMAN
Y
##NAMES=HP
##CAS NAME=Phosphinous chloride, (1,1-dimethylethyl)(1,7,7-trimethylbicyclo[
2.2.1]hept-2-yl)-
##MOLFORM=C14H26ClP
##CAS REGISTRY NO=74630-34-5
##MP= -300
##BP= -300
##MW= 260
##$RETENTION INDEX=0
##$CONDENSED SPECTRUM=NO
##NPOINTS= 150
##XYDATA=(XY..XY) 1 
    26         15
    27         69
    28         13
    29        147
    30          3
    35          1
    36          6
    37          1
    38          2
    39         76
    40         13
    41        340
    42         17
    43         90
    44          3
    45         11
    46          1
    47          1
    48          2
    49          1
    50          4
    51         11
    52          6
    53         56
    54          6
    55         93
    56         11
    57        999
    58         42
    59          6
    60          1
    61          4
    62          2
    63          3
    64          1
    65         23
    66         10
    67         91
    68         16
    69        143
    70         10
    71         15
    72          1
    73          6
    74          2
    75          1
    76          0
    77         49
    78         16
    79         60
    80         17
    81        486
    82         34
    83         17
    84          2
    85          7
    87          5
    88          1
    89          2
    91         46
    92         35
    93        100
    94         17
    95        159
    96         13
    97         10
    98          1
    99          5
   101          3
   103          3
   104          1
   105         11
   106          3
   107         19
   108         10
   109         29
   110          9
   111          9
   112          3
   113          7
   115          2
   116          0
   117          1
   119          4
   120          1
   121         28
   122          6
   123          7
   124          3
   125          6
   126          1
   127          1
   132          1
   133          2
   134          2
   135          8
   136        149
   137        262
   138         29
   139          2
   140          2
   141          0
   147          4
   148          4
   149          3
   150          2
   151         11
   152          2
   153          6
   159          0
   160          1
   161          3
   162          2
   163          1
   166          1
   167          3
   168          2
   169          4
   175          1
   176          4
   177          4
   178          8
   179          2
   180          2
   181          0
   188          1
   189         37
   190          6
   191         12
   192          2
   203         21
   204        136
   205         28
   206         45
   207          7
   209          0
   217          0
   223          2
   224          0
   225          3
   238          3
   240          2
   245         91
   246         12
   247         29
   248          4
   260         83
   261         13
   262         28
   263          4