##TITLE=Library Entry 19644
##JCAMP-DX=Revision 4.10 
##DATA TYPE=MASS SPECTRUM
##SAMPLE DESCRIPTION=D.HENNEBERG, MAX-PLANCK INSTITUTE, MULHEIM, WEST GERMAN
Y
##NAMES=HP
##CAS NAME=2-Decene, 7-methyl-, (Z)-
##MOLFORM=C11H22
##CAS REGISTRY NO=74630-23-2
##MP= -300
##BP= -300
##MW= 154
##$RETENTION INDEX=0
##$CONDENSED SPECTRUM=NO
##NPOINTS= 76
##XYDATA=(XY..XY) 1 
    24          5
    25          5
    26         11
    27        162
    28         14
    29        238
    30          7
    31          1
    33          0
    34          1
    38          6
    39        142
    40         24
    41        476
    42         91
    43        829
    44          3
    45          0
    46          4
    47          0
    48          1
    49          3
    50          5
    51         13
    52          8
    53         55
    54         35
    55        999
    56        708
    57        306
    58         10
    63          3
    64          1
    65         11
    66          4
    67         60
    68         50
    69        707
    70        276
    71        138
    72          6
    73          1
    75          0
    77          4
    79          2
    80          4
    81         26
    82         17
    83         97
    84        268
    85         85
    86          5
    91          5
    94          1
    95         10
    96          8
    97        171
    98         26
   105          0
   106          1
   107          0
   109          4
   110         21
   111        221
   112         43
   113          3
   115          0
   117          0
   124          1
   125          0
   126          1
   127          1
   129          0
   135          0
   154         31
   155          6