##TITLE=Library Entry 37312
##JCAMP-DX=Revision 4.10 
##DATA TYPE=MASS SPECTRUM
##SAMPLE DESCRIPTION=D.HENNEBERG, MAX-PLANCK INSTITUTE, MULHEIM, WEST GERMAN
Y
##NAMES=HP
##CAS NAME=4-Undecene, 9-methyl-, (Z)-
##MOLFORM=C12H24
##CAS REGISTRY NO=74630-56-1
##MP= -300
##BP= -300
##MW= 168
##$RETENTION INDEX=0
##$CONDENSED SPECTRUM=NO
##NPOINTS= 84
##XYDATA=(XY..XY) 1 
    24          3
    25          1
    26          7
    27        131
    28          8
    29        287
    30         10
    32          2
    33          1
    34          0
    35          2
    37          3
    38          4
    39        121
    40         15
    41        568
    42        119
    43        459
    44          1
    45          1
    46          1
    47          1
    49          1
    50          2
    51         10
    52          4
    53         46
    54         81
    55        910
    56        336
    57        448
    58         16
    59          0
    60          1
    61          1
    64          0
    65         13
    66         10
    67         83
    68         28
    69        472
    70        999
    71        257
    72         11
    73          1
    75          1
    77          7
    78          1
    79         13
    80          2
    81         36
    82         35
    83        563
    84         95
    85         22
    86          2
    91          5
    93          1
    94          0
    95          8
    96         12
    97        146
    98         43
    99          4
   102          0
   106          0
   109          4
   110          3
   111         20
   112          9
   113          0
   115          1
   117          0
   122          0
   124          0
   125          2
   126          1
   138         11
   139         60
   140         11
   146          0
   167          0
   168         49
   169          6