##TITLE=Library Entry 23449
##JCAMP-DX=Revision 4.10 
##DATA TYPE=MASS SPECTRUM
##SAMPLE DESCRIPTION=D.HENNEBERG, MAX-PLANCK INSTITUTE, MULHEIM, WEST GERMAN
Y
##NAMES=HP
##CAS NAME=3-Undecene, 6-methyl-, (E)-
##MOLFORM=C12H24
##CAS REGISTRY NO=74630-52-7
##MP= -300
##BP= -300
##MW= 168
##$RETENTION INDEX=0
##$CONDENSED SPECTRUM=NO
##NPOINTS= 74
##XYDATA=(XY..XY) 1 
    24          1
    25          1
    26          5
    27         87
    28          0
    29        155
    31          0
    32          1
    34          1
    37          2
    38          3
    39         59
    40         10
    41        331
    42         55
    43        319
    44          2
    45          0
    46          0
    48          0
    51          5
    52          3
    53         34
    54         18
    55        214
    56        220
    57        999
    58         45
    59          0
    61          0
    62          0
    63          1
    64          0
    65          5
    66          3
    67         25
    68         35
    69        150
    70        157
    71         26
    72          1
    74          0
    76          1
    77          4
    78          3
    79          6
    80          1
    81         16
    82          2
    83         29
    84         29
    85          3
    91          1
    93          1
    95          3
    96         10
    97         41
    98        111
    99         11
   100          0
   107          0
   109          1
   111          5
   112         29
   113          4
   124          0
   125          2
   126          1
   139          0
   140          1
   154          0
   158          0
   168         30
   169          3