##TITLE=Library Entry 34310
##JCAMP-DX=Revision 4.10 
##DATA TYPE=MASS SPECTRUM
##SAMPLE DESCRIPTION=D.HENNEBERG, MAX-PLANCK INSTITUTE, MULHEIM, WEST GERMAN
Y
##NAMES=HP
##CAS NAME=1,6-Octadiene, 3,5-dimethyl-, trans-
##MOLFORM=C10H18
##CAS REGISTRY NO=74630-87-8
##MP= -300
##BP= -300
##MW= 138
##$RETENTION INDEX=0
##$CONDENSED SPECTRUM=NO
##NPOINTS= 73
##XYDATA=(XY..XY) 1 
    22          0
    23          0
    26          2
    27         63
    29         37
    30          1
    32          0
    34          0
    36          0
    38          4
    39        102
    40         19
    41        681
    42         36
    43         18
    44          0
    47          0
    49          0
    50          4
    51         15
    52          7
    53         68
    54         11
    55         43
    56          3
    57          2
    58          0
    61          0
    62          0
    63          4
    64          1
    65         16
    66          7
    67         73
    68         83
    69        999
    70        103
    71          3
    75          0
    77         17
    78          3
    79         16
    80          2
    81         20
    82          8
    83          7
    84          1
    85          0
    87          0
    89          0
    91         10
    92          1
    93          4
    94         34
    95         74
    96         19
    97          2
   103          0
   105          1
   106          0
   107          4
   108          0
   109          1
   110          0
   115          0
   119          0
   121          0
   122          0
   123         13
   124          0
   136          0
   138          6
   139          0