##TITLE=Library Entry 22497
##JCAMP-DX=Revision 4.10 
##DATA TYPE=MASS SPECTRUM
##SAMPLE DESCRIPTION=D.HENNEBERG, MAX-PLANCK INSTITUTE, MULHEIM, WEST GERMAN
Y
##NAMES=HP
##CAS NAME=3-Undecene, 2-methyl-, (E)-
##MOLFORM=C12H24
##CAS REGISTRY NO=74630-51-6
##MP= -300
##BP= -300
##MW= 168
##$RETENTION INDEX=0
##$CONDENSED SPECTRUM=NO
##NPOINTS= 68
##XYDATA=(XY..XY) 1 
    24          6
    25          2
    26          5
    27        170
    29        218
    32          5
    35          3
    36          2
    37          5
    38          8
    39        111
    40         21
    41        669
    42        103
    43        361
    44          4
    45          1
    50          6
    51         13
    52          7
    53         70
    54         44
    55        719
    56        999
    57        465
    58         23
    59          2
    61          2
    63          2
    64          4
    65         14
    66         11
    67        107
    68         92
    69        977
    70        243
    71         47
    72          3
    74          0
    77          6
    78          4
    79         18
    80          2
    81         41
    82         49
    83        197
    84        107
    85         29
    86          2
    91          5
    95         13
    96          2
    97         96
    98         21
    99          2
   110          4
   111         23
   112         42
   113          4
   124          2
   125         14
   126          8
   128          0
   140         12
   143          2
   153          2
   168         73
   169         10