##TITLE=Library Entry 8524
##JCAMP-DX=Revision 4.10 
##DATA TYPE=MASS SPECTRUM
##SAMPLE DESCRIPTION=D.HENNEBERG, MAX-PLANCK INSTITUTE, MULHEIM, WEST GERMAN
Y
##NAMES=HP
##CAS NAME=1-Undecene, 7-methyl-
##MOLFORM=C12H24
##CAS REGISTRY NO=74630-42-5
##MP= -300
##BP= -300
##MW= 168
##$RETENTION INDEX=1146
##$CONDENSED SPECTRUM=NO
##NPOINTS= 70
##XYDATA=(XY..XY) 1 
    24          3
    25          3
    26         11
    27        134
    28          7
    29        254
    30          5
    32          3
    34          0
    36          0
    37          5
    39        120
    40         21
    41        535
    42         90
    43        999
    44         18
    45          1
    46          1
    47          1
    49          1
    50          2
    51          7
    52          2
    53         42
    54         47
    55        610
    56        529
    57        509
    58         24
    65          8
    66          4
    67         54
    68         55
    69        782
    70        320
    71         82
    72          3
    73          1
    76          0
    77          3
    78          1
    79          4
    80          1
    81         25
    82         43
    83        197
    84        243
    85        196
    86         12
    93          1
    94          0
    95          9
    96          9
    97         73
    98         79
    99         20
   100          1
   105          0
   109          1
   110         21
   111        193
   112         45
   113          4
   124          0
   125          3
   126         50
   127          5
   140          3
   168          7