##TITLE=Library Entry 19872
##JCAMP-DX=Revision 4.10 
##DATA TYPE=MASS SPECTRUM
##SAMPLE DESCRIPTION=D.HENNEBERG, MAX-PLANCK INSTITUTE, MULHEIM, WEST GERMAN
Y
##NAMES=HP
##CAS NAME=Cyclopropane, 1-hexyl-2-propyl-, cis-
##MOLFORM=C12H24
##CAS REGISTRY NO=74630-58-3
##MP= -300
##BP= -300
##MW= 168
##$RETENTION INDEX=0
##$CONDENSED SPECTRUM=NO
##NPOINTS= 72
##XYDATA=(XY..XY) 1 
    24          1
    26         10
    27        173
    28         12
    29        275
    30          8
    31          3
    32          2
    33          2
    37          5
    39        144
    40         24
    41        626
    42        348
    43        553
    44         14
    45          1
    46          0
    47          1
    49          2
    50          5
    51          9
    52          6
    53         51
    54        113
    55        999
    56        885
    57        383
    58         19
    61          1
    62          0
    63          2
    64          0
    65         14
    66          9
    67         88
    68         66
    69        652
    70        593
    71        112
    72          4
    73          1
    77          9
    78          2
    79          8
    80          4
    81         27
    82         58
    83        310
    84        203
    85         44
    86          2
    91          1
    93          1
    95          6
    96         29
    97        156
    98         75
    99          9
   109          1
   110         11
   111         68
   112         31
   113          2
   117          1
   124          6
   125         37
   126         19
   139         12
   140         15
   168         39
   169          3