##TITLE=Library Entry 37317
##JCAMP-DX=Revision 4.10 
##DATA TYPE=MASS SPECTRUM
##SAMPLE DESCRIPTION=D.HENNEBERG, MAX-PLANCK INSTITUTE, MULHEIM, WEST GERMAN
Y
##NAMES=HP
##CAS NAME=Octane, 3-methyl-6-methylene-
##MOLFORM=C10H20
##CAS REGISTRY NO=74630-07-2
##MP= -300
##BP= -300
##MW= 140
##$RETENTION INDEX=0
##$CONDENSED SPECTRUM=NO
##NPOINTS= 57
##XYDATA=(XY..XY) 1 
    22          1
    23          0
    24          2
    26          7
    27        144
    28         67
    29        244
    30          4
    32         25
    33          0
    34          1
    36          0
    37          5
    38          3
    39        122
    40         12
    41        430
    42        265
    43        362
    44          6
    45          0
    50          4
    51         11
    52          7
    53         46
    54         29
    55        712
    56         89
    57         58
    58          2
    63          1
    65          7
    66          3
    67         35
    68          9
    69        176
    70        999
    71        309
    72         13
    77          8
    79          5
    80          1
    81          6
    82         10
    83         55
    84         19
    85          1
    91          1
    95          3
    97          1
    98          1
   109          1
   110          7
   111         22
   112          1
   140         29
   141          4