##TITLE=Library Entry 57430
##JCAMP-DX=Revision 4.10 
##DATA TYPE=MASS SPECTRUM
##SAMPLE DESCRIPTION=D.HENNEBERG, MAX-PLANCK INSTITUTE, MULHEIM, WEST GERMAN
Y
##NAMES=HP
##CAS NAME=Hexane, 3-methoxy-3-methyl-
##MOLFORM=C8H18O
##CAS REGISTRY NO=74630-91-4
##MP= -300
##BP= -300
##MW= 130
##$RETENTION INDEX=0
##$CONDENSED SPECTRUM=NO
##NPOINTS= 74
##XYDATA=(XY..XY) 1 
    23          0
    25          1
    26         11
    27        167
    28         47
    29        207
    30          9
    31         69
    32         28
    33         26
    34          0
    36          1
    37          4
    38          5
    39        112
    40         19
    41        406
    42         66
    43        209
    44          7
    45        382
    46          8
    47          2
    49          0
    50          4
    51         11
    52          4
    53         35
    54         10
    55        511
    56         60
    57        284
    58         14
    59        389
    60         12
    61          1
    62          0
    63          1
    65          5
    66          1
    67         18
    68          6
    69        221
    70         58
    71         19
    72         11
    73         49
    74          2
    77          3
    78          0
    79          3
    80          1
    81          6
    82          1
    83         25
    84          2
    85         11
    86          5
    87        999
    88         54
    89          2
    91          0
    93          1
    95          0
    97          0
    98         31
    99         16
   100          1
   101        524
   102         34
   103          1
   107          0
   115         64
   116          4