##TITLE=Library Entry 24900
##JCAMP-DX=Revision 4.10 
##DATA TYPE=MASS SPECTRUM
##SAMPLE DESCRIPTION=D.HENNEBERG, MAX-PLANCK INSTITUTE, MULHEIM, WEST GERMAN
Y
##NAMES=HP
##CAS NAME=2-Undecene, 6-methyl-, (Z)-
##MOLFORM=C12H24
##CAS REGISTRY NO=74630-43-6
##MP= -300
##BP= -300
##MW= 168
##$RETENTION INDEX=0
##$CONDENSED SPECTRUM=NO
##NPOINTS= 92
##XYDATA=(XY..XY) 1 
    24          2
    25          2
    26          8
    27        100
    28          6
    29        239
    30          1
    32          0
    33          0
    34          0
    36          0
    38          4
    39         92
    40         17
    41        378
    42         83
    43        537
    45          1
    47          1
    48          0
    49          1
    50          4
    51          5
    52          5
    53         45
    54         28
    55        662
    56        772
    57        999
    58         43
    59          2
    60          0
    61          0
    62          0
    63          3
    64          2
    65          7
    66          4
    67         42
    68         40
    69        398
    70        263
    71        145
    72          7
    73          0
    74          0
    75          0
    76          0
    77          7
    78          1
    79          7
    80          1
    81         23
    82          7
    83        110
    84        114
    85         11
    86          0
    89          0
    91          2
    92          0
    93          2
    94          1
    95          9
    96         44
    97        271
    98         65
    99          4
   105          1
   108          0
   109          1
   110          1
   111          8
   112        103
   113         20
   114          0
   115          0
   119          0
   121          0
   124          1
   125          4
   126          3
   127          0
   129          0
   139          0
   140          3
   148          0
   152          0
   166          1
   168         33
   169          3
   170          0