##TITLE=Library Entry 7272
##JCAMP-DX=Revision 4.10 
##DATA TYPE=MASS SPECTRUM
##SAMPLE DESCRIPTION=D.HENNEBERG, MAX-PLANCK INSTITUTE, MULHEIM, WEST GERMAN
Y
##NAMES=HP
##CAS NAME=1-Undecene, 8-methyl-
##MOLFORM=C12H24
##CAS REGISTRY NO=74630-40-3
##MP= -300
##BP= -300
##MW= 168
##$RETENTION INDEX=1124
##$CONDENSED SPECTRUM=NO
##NPOINTS= 76
##XYDATA=(XY..XY) 1 
    24          1
    25          1
    26         14
    27        140
    28         18
    29        233
    30          2
    32          2
    33          0
    34          1
    35          1
    38          2
    39        123
    40         20
    41        490
    42         92
    43        999
    44         15
    45          0
    46          0
    47          1
    50          2
    51          6
    52          5
    53         37
    54         55
    55        740
    56        559
    57        263
    58          9
    59          0
    62          0
    63          0
    64          0
    65          8
    66          5
    67         60
    68         41
    69        608
    70        326
    71        208
    72         11
    75          0
    77          3
    79          6
    80          1
    81         30
    82         34
    83        305
    84        454
    85        142
    86          8
    92          2
    93          1
    94          0
    95         11
    96         20
    97        207
    98         64
    99          4
   104          0
   109          0
   110          1
   111         16
   112          8
   117          0
   124          9
   125         97
   126         23
   127          0
   139          1
   140          6
   141          0
   167          0
   168          6
   169          3