##TITLE=Library Entry 37438
##JCAMP-DX=Revision 4.10 
##DATA TYPE=MASS SPECTRUM
##SAMPLE DESCRIPTION=D.HENNEBERG, MAX-PLANCK INSTITUTE, MULHEIM, WEST GERMAN
Y
##NAMES=HP
##CAS NAME=5-Undecene, 9-methyl-, (Z)-
##MOLFORM=C12H24
##CAS REGISTRY NO=74630-65-2
##MP= -300
##BP= -300
##MW= 168
##$RETENTION INDEX=957
##$CONDENSED SPECTRUM=NO
##NPOINTS= 72
##XYDATA=(XY..XY) 1 
    24          4
    25          4
    26          7
    27        157
    28          6
    29        457
    32          3
    35          1
    36          0
    37          4
    38          3
    39        132
    40         23
    41        742
    42        118
    43        192
    44         10
    48          4
    49          4
    50          5
    51         17
    52         11
    53         58
    54        133
    55        745
    56        623
    57        974
    58         40
    59          3
    60          0
    63          4
    65         17
    66          9
    67         82
    68         42
    69        591
    70        999
    71        193
    72          8
    73          0
    77         16
    78          5
    79         18
    80          4
    81         53
    82         40
    83        425
    84        127
    85          9
    89          0
    91          3
    93          3
    95         13
    96          9
    97        126
    98         34
    99          2
   109          3
   111         23
   112         45
   113          6
   115          9
   116          1
   119          1
   125          3
   138          4
   139         42
   140          9
   153          0
   168         53
   169          7
   170          1