##TITLE=Library Entry 59392
##JCAMP-DX=Revision 4.10 
##DATA TYPE=MASS SPECTRUM
##SAMPLE DESCRIPTION=D.HENNEBERG, MAX-PLANCK INSTITUTE, MULHEIM, WEST GERMAN
Y
##NAMES=HP
##CAS NAME=Phosphine, (1,1-dimethylethyl)methyl(phenylmethyl)-
##MOLFORM=C12H19P
##CAS REGISTRY NO=74630-01-6
##MP= -300
##BP= -300
##MW= 194
##$RETENTION INDEX=0
##$CONDENSED SPECTRUM=NO
##NPOINTS= 124
##XYDATA=(XY..XY) 1 
    27         26
    28         43
    29        131
    30          2
    31          1
    36          0
    37          1
    38          2
    39         53
    40          5
    41        164
    42          6
    43          9
    44         10
    45         13
    46          3
    47          4
    48          1
    49          2
    50          5
    51         20
    52          5
    53          5
    54          0
    55         23
    56          7
    57        443
    58         19
    59         21
    60          4
    61         41
    62          6
    63         17
    64          4
    65         83
    66          5
    67          1
    68          1
    69          6
    70          1
    71          4
    72          0
    73          4
    74          1
    75          6
    76          2
    77         26
    78         22
    79          5
    80          0
    81          1
    82          0
    83          4
    85          1
    87          1
    88          1
    89         10
    90          4
    91        999
    92         74
    93          3
    94          0
    95          5
    96          2
    97          1
    98          1
    99          0
   101          1
   102          1
   103         18
   104          8
   105         13
   106          1
   107          3
   108          3
   109         57
   110          3
   111          0
   112          0
   113          0
   115          1
   116          0
   117          1
   119          0
   120          2
   121         12
   122          2
   123         17
   124          2
   125          0
   127          0
   129          0
   131          2
   132          0
   133          3
   134          0
   135          3
   136          2
   137         25
   138        388
   139         40
   140          1
   145          0
   147          0
   151          1
   152          3
   153          1
   154          0
   163          0
   164          0
   165          0
   166          0
   169          0
   171          0
   172          0
   176          0
   177          0
   178          0
   179          8
   180          1
   193          1
   194        251
   195         32
   196          2