##TITLE=Library Entry 34465
##JCAMP-DX=Revision 4.10 
##DATA TYPE=MASS SPECTRUM
##SAMPLE DESCRIPTION=D.HENNEBERG, MAX-PLANCK INSTITUTE, MULHEIM, WEST GERMAN
Y
##NAMES=HP
##CAS NAME=2,7-Nonadien-5-one, 4,6-dimethyl-
##MOLFORM=C11H18O
##CAS REGISTRY NO=74630-80-1
##MP= -300
##BP= -300
##MW= 166
##$RETENTION INDEX=0
##$CONDENSED SPECTRUM=NO
##NPOINTS= 36
##XYDATA=(XY..XY) 1 
    26          0
    27         38
    28         13
    29         19
    37          0
    39         63
    40          2
    41        594
    42         11
    43         20
    44          7
    51          2
    53         17
    54          1
    55          4
    56          1
    65          1
    66          0
    67         20
    68         13
    69        999
    70         32
    71          1
    77          0
    79          1
    81          0
    85          0
    91          1
    95          1
    96          4
    97        130
    98          2
    99          1
   105          0
   149          3
   166          1