##TITLE=Library Entry 7193
##JCAMP-DX=Revision 4.10 
##DATA TYPE=MASS SPECTRUM
##SAMPLE DESCRIPTION=D.HENNEBERG, MAX-PLANCK INSTITUTE, MULHEIM, WEST GERMAN
Y
##NAMES=HP
##CAS NAME=2-Undecene, 8-methyl-, (Z)-
##MOLFORM=C12H24
##CAS REGISTRY NO=74630-44-7
##MP= -300
##BP= -300
##MW= 168
##$RETENTION INDEX=0
##$CONDENSED SPECTRUM=NO
##NPOINTS= 79
##XYDATA=(XY..XY) 1 
    25          1
    26          8
    27        142
    28         25
    29        235
    30          6
    31          3
    32          1
    34          0
    35          0
    36          2
    37          5
    38          2
    39        123
    40         20
    41        451
    42        112
    43        999
    44          7
    47          0
    48          0
    49          2
    50          3
    51          8
    52          6
    53         56
    54         43
    55        974
    56        765
    57        372
    58         14
    63          3
    65         11
    66          7
    67         65
    68         57
    69        726
    70        340
    71        240
    72         14
    73          1
    74          1
    75         10
    76          0
    77          6
    79         23
    80          3
    81         30
    82         20
    83        240
    84        383
    85        126
    86          6
    91          1
    92          0
    93          5
    94          2
    95         13
    96         18
    97        253
    98         51
    99          4
   105          0
   109          2
   110          0
   111         12
   112          7
   115          0
   119          0
   123          2
   124         15
   125        108
   126         25
   127          2
   129          0
   140          8
   167          1
   168         38
   169          4