##TITLE=Library Entry 10797
##JCAMP-DX=Revision 4.10 
##DATA TYPE=MASS SPECTRUM
##SAMPLE DESCRIPTION=Chemical Concepts
##NAMES=HP
##CAS NAME=4,4'-Bi-1,3-dioxolane, 2,2,2',2'-tetramethyl-
##MOLFORM=C10H18O4
##CAS REGISTRY NO=74630-20-9
##MP= -300
##BP= -300
##MW= 202
##$RETENTION INDEX=0
##$CONDENSED SPECTRUM=NO
##NPOINTS= 95
##XYDATA=(XY..XY) 1 
    25          0
    26          5
    27         44
    29         35
    30          1
    31         45
    33          0
    37          0
    38          1
    39         38
    40          5
    41        125
    42         78
    43        999
    44         26
    45          7
    46          0
    47          0
    48          0
    49          0
    51          0
    52          0
    53          3
    54          1
    55         18
    56          8
    57         51
    58         18
    59        163
    60          6
    61         53
    62          1
    67          1
    68          5
    69        165
    70         10
    71         12
    72        252
    73        114
    74          7
    75          0
    79          0
    81          2
    82          0
    83         32
    84          2
    85         38
    86        115
    87         15
    88          0
    89          0
    93          0
    95          0
    96          1
    97         23
    98          2
    99         10
   100         23
   101        960
   102         54
   103          4
   104          0
   109          3
   110          0
   113          3
   114          1
   115          7
   116          0
   117          0
   119          0
   125          0
   126          0
   127         61
   128          7
   129        175
   130         10
   131          6
   132          0
   133          0
   142          0
   143          4
   144          2
   145          1
   147         10
   148          0
   157          8
   158          0
   159          0
   171          0
   187        741
   188         67
   189          7
   190          0
   202          9
   203          0