##TITLE=Library Entry 7889
##JCAMP-DX=Revision 4.10 
##DATA TYPE=MASS SPECTRUM
##SAMPLE DESCRIPTION=D.HENNEBERG, MAX-PLANCK INSTITUTE, MULHEIM, WEST GERMAN
Y
##NAMES=HP
##CAS NAME=1-Undecene, 4-methyl-
##MOLFORM=C12H24
##CAS REGISTRY NO=74630-39-0
##MP= -300
##BP= -300
##MW= 168
##$RETENTION INDEX=1085
##$CONDENSED SPECTRUM=NO
##NPOINTS= 76
##XYDATA=(XY..XY) 1 
    24          1
    25          2
    26          9
    27        102
    28         12
    29        179
    30          2
    31          1
    32          0
    33          1
    36          1
    37          1
    38          3
    39         80
    40         17
    41        435
    42         79
    43        999
    44         18
    48          0
    50          1
    51          4
    52          2
    53         30
    54         16
    55        226
    56        164
    57        684
    58         29
    59          1
    64          0
    65          6
    66          3
    67         29
    68         21
    69        130
    70        107
    71        652
    72         34
    73          0
    75          1
    77          3
    78          0
    79          5
    80          0
    81         10
    82         16
    83         56
    84        102
    85        351
    86         21
    91          1
    92          0
    93          0
    94          0
    95          4
    96         10
    97         63
    98         29
    99          3
   109          1
   110          0
   111          7
   112          7
   113          0
   124          4
   125         28
   126        102
   127         15
   128          1
   139          0
   140          4
   141          0
   168          2
   169          0
   170          0