##TITLE=Library Entry 50790
##JCAMP-DX=Revision 4.10 
##DATA TYPE=MASS SPECTRUM
##SAMPLE DESCRIPTION=D.HENNEBERG, MAX-PLANCK INSTITUTE, MULHEIM, WEST GERMAN
Y
##NAMES=HP
##CAS NAME=Phosphonous dichloride, (1,7,7-trimethylbicyclo[2.2.1]hept-2-yl)-
##MOLFORM=C10H17Cl2P
##CAS REGISTRY NO=74630-16-3
##MP= -300
##BP= -300
##MW= 238
##$RETENTION INDEX=0
##$CONDENSED SPECTRUM=NO
##NPOINTS= 112
##XYDATA=(XY..XY) 1 
    26         21
    27        114
    28         38
    29         67
    35          1
    36         20
    37          2
    38          8
    39        115
    40        112
    41        293
    42         17
    43         97
    44          4
    45          9
    46          2
    47          1
    48          5
    50          6
    51         27
    52         12
    53         80
    54         11
    55        104
    56         16
    57         49
    58          5
    59          2
    60          2
    62          4
    63          5
    64          2
    65         39
    66         15
    67        142
    68         39
    69        250
    70         16
    71         22
    72          2
    73          4
    74          9
    75          3
    77         88
    78         26
    79         93
    80         23
    81        999
    82         75
    83         20
    84          4
    85          7
    89          4
    90          1
    91         80
    92         20
    93        133
    94         23
    95        360
    96         19
    97          8
   101         18
   102          2
   103         11
   105         23
   106          6
   107         33
   108         17
   109         31
   110         32
   111         12
   112          2
   113          2
   115          2
   116          1
   119         10
   120          2
   121         47
   122         15
   123          8
   124          2
   125          2
   128          1
   129          1
   134          1
   135          8
   136         33
   137        489
   138         62
   139          2
   140          2
   146          1
   147          2
   149          4
   150          3
   151          2
   157          1
   159          1
   164          4
   165          1
   167          1
   189          1
   190          2
   195          3
   203          5
   204          1
   205          2
   223         17
   225         10
   238         20
   239          2
   240         14