##TITLE=Library Entry 37354
##JCAMP-DX=Revision 4.10 
##DATA TYPE=MASS SPECTRUM
##SAMPLE DESCRIPTION=D.HENNEBERG, MAX-PLANCK INSTITUTE, MULHEIM, WEST GERMAN
Y
##NAMES=HP
##CAS NAME=2-Undecene, 9-methyl-, (Z)-
##MOLFORM=C12H24
##CAS REGISTRY NO=74630-45-8
##MP= -300
##BP= -300
##MW= 168
##$RETENTION INDEX=0
##$CONDENSED SPECTRUM=NO
##NPOINTS= 78
##XYDATA=(XY..XY) 1 
    24          2
    25          2
    26          8
    27        116
    29        315
    30          9
    32          2
    38          3
    39        124
    40         21
    41        491
    42        106
    43        479
    44          2
    45          0
    46          1
    48          0
    50          3
    51          7
    52          6
    53         49
    54         51
    55        863
    56        352
    57        614
    58         29
    59          1
    62          0
    63          3
    65          7
    66          5
    67         69
    68         54
    69        440
    70        999
    71        294
    72         14
    73          1
    74          0
    75          0
    77          2
    78          0
    79         10
    80          2
    81         37
    82         31
    83        521
    84        101
    85         17
    86          1
    91          0
    93          2
    95         10
    96         14
    97        190
    98         47
    99          4
   101          0
   104          0
   109          2
   110          4
   111         25
   112         12
   113          2
   114          1
   117          0
   121          0
   125          1
   126          2
   134          0
   137          0
   138          9
   139         79
   140         11
   141          0
   158          0
   168         30
   169          3