##TITLE=Library Entry 19437
##JCAMP-DX=Revision 4.10 
##DATA TYPE=MASS SPECTRUM
##SAMPLE DESCRIPTION=D.HENNEBERG, MAX-PLANCK INSTITUTE, MULHEIM, WEST GERMAN
Y
##NAMES=HP
##CAS NAME=1,5-Octadiene, 7-methyl-3-(1-methylethyl)-
##MOLFORM=C12H22
##CAS REGISTRY NO=74630-12-9
##MP= -300
##BP= -300
##MW= 166
##$RETENTION INDEX=918
##$CONDENSED SPECTRUM=NO
##NPOINTS= 67
##XYDATA=(XY..XY) 1 
    25          1
    26          2
    27         92
    28          6
    29         72
    30          1
    33          0
    34          0
    35          0
    36          0
    37          6
    38          2
    39         89
    40         13
    41        372
    42         19
    43        108
    44          1
    49          0
    50          2
    51         10
    52          5
    53         40
    54         24
    55        999
    56         49
    57         12
    58          0
    63          2
    64          0
    65         14
    66         13
    67        194
    68         22
    69         86
    70          6
    71          0
    75          0
    76          0
    77         15
    78          5
    79         22
    80          5
    81         58
    82        137
    83        258
    84         25
    85          1
    91          7
    92          0
    93          4
    94          0
    95         28
    96          9
    97          2
   105          0
   107          1
   108          1
   109         41
   110         10
   111          0
   122          4
   123         51
   124          6
   125          0
   151          1
   166          1