##TITLE=Library Entry 22198
##JCAMP-DX=Revision 4.10 
##DATA TYPE=MASS SPECTRUM
##SAMPLE DESCRIPTION=D.HENNEBERG, MAX-PLANCK INSTITUTE, MULHEIM, WEST GERMAN
Y
##NAMES=HP
##CAS NAME=1-Undecene, 5-methyl-
##MOLFORM=C12H24
##CAS REGISTRY NO=74630-38-9
##MP= -300
##BP= -300
##MW= 168
##$RETENTION INDEX=0
##$CONDENSED SPECTRUM=NO
##NPOINTS= 73
##XYDATA=(XY..XY) 1 
    24          1
    25          4
    26         12
    27        168
    28         27
    29        297
    30          8
    34          1
    36          4
    37          2
    38          2
    39        143
    40         20
    41        634
    42        107
    43        962
    44         15
    45          2
    46          0
    48          0
    49          2
    50          3
    51          7
    52          5
    53         43
    54         47
    55        720
    56        999
    57        873
    58         42
    59          1
    63          3
    65         10
    66          6
    67         84
    68         54
    69        391
    70        351
    71        283
    72         16
    73          2
    77         14
    78          2
    79          7
    80          2
    81         24
    82         84
    83        344
    84        140
    85         85
    86          7
    91          1
    93          0
    95          7
    96          5
    97         77
    98        108
    99         19
   100          0
   105          0
   106          0
   107          0
   110         19
   111        169
   112         38
   113          3
   115          0
   126         72
   127          9
   139          0
   140          3
   168          7
   169          1