##TITLE=Library Entry 37297
##JCAMP-DX=Revision 4.10 
##DATA TYPE=MASS SPECTRUM
##SAMPLE DESCRIPTION=D.HENNEBERG, MAX-PLANCK INSTITUTE, MULHEIM, WEST GERMAN
Y
##NAMES=HP
##CAS NAME=1-Undecene, 9-methyl-
##MOLFORM=C12H24
##CAS REGISTRY NO=74630-41-4
##MP= -300
##BP= -300
##MW= 168
##$RETENTION INDEX=1152
##$CONDENSED SPECTRUM=NO
##NPOINTS= 72
##XYDATA=(XY..XY) 1 
    25          3
    26          8
    27        139
    28         16
    29        392
    30          8
    33          1
    35          4
    37          6
    38          0
    39        152
    40         19
    41        690
    42        116
    43        600
    47          0
    48          1
    50          3
    51          6
    52          1
    53         52
    54         62
    55        836
    56        427
    57        689
    58         31
    59          2
    63          3
    64          0
    65          6
    66          7
    67         71
    68         41
    69        505
    70        999
    71        310
    72         15
    73          1
    75          1
    76          0
    77          3
    78          0
    79          8
    80          2
    81         35
    82         46
    83        597
    84        130
    85         39
    86          1
    91          2
    95          8
    96         20
    97        279
    98         65
    99          7
   109          2
   110          4
   111         42
   112         25
   113          2
   115          0
   124          0
   125          2
   126          3
   137          0
   138          4
   139         64
   140         17
   153          1
   166          0
   168          4