##TITLE=Library Entry 20267
##JCAMP-DX=Revision 4.10 
##DATA TYPE=MASS SPECTRUM
##SAMPLE DESCRIPTION=D.HENNEBERG, MAX-PLANCK INSTITUTE, MULHEIM, WEST GERMAN
Y
##NAMES=HP
##CAS NAME=1-Tetradecene, 14-bromo-
##MOLFORM=C14H27Br
##CAS REGISTRY NO=74646-31-4
##MP= -300
##BP= -300
##MW= 274
##$RETENTION INDEX=0
##$CONDENSED SPECTRUM=NO
##NPOINTS= 161
##XYDATA=(XY..XY) 1 
    26         48
    27         72
    28         41
    29        156
    30          3
    31          0
    33          0
    35          1
    36          8
    37          1
    38          4
    39         78
    40         19
    41        573
    42        138
    43        436
    44         14
    45          1
    47          0
    48          0
    49          1
    50          4
    51          3
    52          3
    53         45
    54        173
    55        999
    56        328
    57        339
    58         13
    62          0
    63          1
    64          0
    65          6
    66         13
    67        184
    68        150
    69        777
    70        250
    71        117
    72          8
    73          2
    74          0
    77          6
    78          3
    79         12
    80         12
    81        141
    82        194
    83        620
    84        141
    85         48
    86          2
    89          0
    91          4
    92          1
    93          4
    94          3
    95         92
    96         92
    97        492
    98         82
    99         10
   104          1
   105          1
   106          0
   107         13
   108          1
   109         56
   110         34
   111        157
   112         36
   113          5
   114          0
   115          0
   117          0
   118          0
   119          1
   120          1
   121          9
   122          3
   123         44
   124         19
   125         67
   126         15
   127          3
   128          6
   129          0
   131          0
   133          1
   134         14
   135         60
   136         14
   137         56
   138          9
   139         23
   140          7
   141          1
   147          3
   148        199
   149         27
   150        191
   151         26
   152          7
   153         11
   154          2
   155          0
   160          0
   161          7
   162        102
   163         18
   164         98
   165         11
   166          6
   167          3
   168          0
   174          1
   175         11
   176         20
   177         12
   178         19
   179          3
   180          0
   188          2
   189          7
   190         18
   191         10
   192         15
   193          3
   194          8
   195          2
   196          1
   201          0
   202          2
   203          9
   204          9
   205          9
   206          8
   207          1
   216          0
   217          4
   218          6
   219          4
   220          4
   221          0
   222          0
   230          0
   231          3
   232         10
   233          6
   234          9
   235          0
   245          1
   246          6
   247          2
   248          7
   249          0
   274         19
   275          2
   276         19
   277          2