##TITLE=Library Entry 11866
##JCAMP-DX=Revision 4.10 
##DATA TYPE=MASS SPECTRUM
##SAMPLE DESCRIPTION=D.HENNEBERG, MAX-PLANCK INSTITUTE, MULHEIM, WEST GERMAN
Y
##NAMES=HP
##CAS NAME=Ethanone, 1-(2-ethyl-4,5-dimethyl-1,3,2-dioxaborolan-4-yl)-
##MOLFORM=C8H15BO3
##CAS REGISTRY NO=74646-04-1
##MP= -300
##BP= -300
##MW= 170
##$RETENTION INDEX=0
##$CONDENSED SPECTRUM=NO
##NPOINTS= 109
##XYDATA=(XY..XY) 1 
    26        107
    27        209
    28        305
    29        236
    30          6
    31         33
    36          1
    37          8
    38          8
    39         82
    40         19
    41        105
    42         67
    43        999
    44        140
    45         56
    46          4
    48          0
    49          2
    50         12
    51         20
    52         19
    53         90
    54         39
    55        140
    56         53
    57        149
    58         20
    59          4
    61          5
    62          3
    63          3
    65          6
    66          5
    67         15
    68          7
    69         41
    70         24
    71        645
    72         66
    73          9
    74          3
    75          2
    76          3
    77          9
    78          2
    79         11
    80          3
    81         20
    82         27
    83         93
    84         26
    85          6
    86         22
    87          9
    88         18
    89          3
    91          2
    94          6
    95         16
    96         43
    97        119
    98        164
    99         44
   100          4
   101          4
   104          0
   105          2
   107          5
   108          2
   109         18
   110         73
   111        234
   112        103
   113         17
   114         15
   115         13
   116          1
   117          1
   120          1
   121          2
   122          6
   123         19
   124         58
   125        260
   126        415
   127        874
   128         62
   129          4
   137          4
   138         10
   139         29
   140         21
   141         69
   142          6
   143          5
   149          6
   151          4
   152         19
   153         43
   154         55
   155         84
   156          8
   166          1
   167          4
   168          3
   169          7
   170          9
   171          8