##TITLE=Library Entry 90036
##JCAMP-DX=Revision 4.10 
##DATA TYPE=MASS SPECTRUM
##SAMPLE DESCRIPTION=D.HENNEBERG, MAX-PLANCK INSTITUTE, MULHEIM, WEST GERMAN
Y
##NAMES=HP
##CAS NAME=Ethanone, 1-(2-ethyl-4-methyl-1,3,2-dioxaborolan-4-yl)-
##MOLFORM=C7H13BO3
##CAS REGISTRY NO=74646-02-9
##MP= -300
##BP= -300
##MW= 156
##$RETENTION INDEX=0
##$CONDENSED SPECTRUM=NO
##NPOINTS= 105
##XYDATA=(XY..XY) 1 
    26         77
    27        134
    28        189
    29        188
    30         46
    31         12
    34          0
    36          1
    37          5
    38          8
    39         59
    40         23
    41         57
    42         46
    43        330
    44         27
    45         18
    46          0
    47          2
    48          0
    49          1
    50          7
    51          7
    52          8
    53         35
    54         19
    55         73
    56         57
    57        504
    58         24
    59          6
    60          0
    61          2
    62          1
    63          1
    64          1
    65          3
    66          2
    67          6
    68          5
    69         23
    70         13
    71          9
    72          2
    73          2
    74          0
    75          1
    76          1
    77          1
    78          1
    79          2
    80          0
    81          3
    82         19
    83         68
    84         21
    85         39
    86          3
    87          2
    88          2
    91          2
    94          5
    95          1
    96         10
    97         49
    98         58
    99         14
   100          5
   101          3
   105          1
   107          1
   108          1
   109          5
   110         30
   111        110
   112        270
   113        999
   114         59
   115          5
   116          0
   119          0
   120          0
   122          1
   123          3
   124         21
   125         83
   126         89
   127         24
   128          3
   129          4
   135          0
   136          0
   137          2
   138          5
   139          7
   140          3
   141         15
   142          0
   149          0
   152          4
   153          7
   154         10
   155         20
   156          3
   157          2