##TITLE=Library Entry 66375
##JCAMP-DX=Revision 4.10 
##DATA TYPE=MASS SPECTRUM
##SAMPLE DESCRIPTION=NIST Mass Spectrometry Data Center
##NAMES=HP
##CAS NAME=(E)-5-((1R,3R,6S)-2,3-Dimethyltricyclo[2.2.1.02,6]heptan-3-yl)-2-
methylpent-2-enoic acid
##MOLFORM=C15H22O2
##CAS REGISTRY NO=74642-79-8
##MP= -300
##BP= -300
##MW= 234
##$RETENTION INDEX=1847
##$CONDENSED SPECTRUM=NO
##NPOINTS= 90
##XYDATA=(XY..XY) 1 
    27         63
    29        100
    31         15
    39        180
    40         38
    41        446
    44         21
    45         43
    50          9
    51         46
    52         21
    53        180
    54         34
    59          9
    63         18
    64          6
    65        130
    66         65
    73         10
    74         17
    77        338
    78         68
    79        451
    80         82
    87         30
    91        471
    92        100
    93        999
    94        394
    99         14
   100        149
   101         14
   102          8
   103         37
   104         14
   105        277
   106        101
   107        587
   108        133
   112         23
   113         17
   115         27
   116          9
   117         45
   118         17
   119        231
   120         96
   121        434
   122        115
   126         26
   127         10
   129         13
   131         30
   134         45
   135        110
   136         20
   138         43
   139         19
   140          7
   143         11
   145         35
   147         42
   148         35
   150         20
   152         30
   153         13
   159         17
   160         58
   161         75
   164         22
   165         32
   166         35
   167         85
   173         28
   175         19
   178         18
   179         12
   180          6
   188          8
   189         43
   190          7
   191         38
   192          8
   201         28
   216         14
   217          6
   219         59
   220          9
   234         77
   235         13