##TITLE=Library Entry 4750
##JCAMP-DX=Revision 4.10 
##DATA TYPE=MASS SPECTRUM
##SAMPLE DESCRIPTION=L. Cohen, LC, NIDDK, NIH, Bethesda, MD 20892
##NAMES=HP
##CAS NAME=Imidazole, 1,5-dimethyl-4-nitro-
##MOLFORM=C5H7N3O2
##CAS REGISTRY NO=7464-68-8
##MP= -300
##BP= -300
##MW= 141
##$RETENTION INDEX=0
##$CONDENSED SPECTRUM=NO
##NPOINTS= 50
##XYDATA=(XY..XY) 1 
    41        130
    42        999
    43         53
    44         74
    45          7
    46         48
    49          4
    50          1
    51         39
    52        114
    53         84
    54        212
    55        122
    56        685
    57         27
    58          4
    63          4
    64          9
    65          7
    66         35
    67        167
    68         90
    69         34
    70         14
    71          2
    72         53
    73          1
    77          5
    78          4
    79         30
    80         56
    81         21
    82         12
    83        104
    84         15
    93         56
    94        160
    95        126
    96         21
    97         21
   109          4
   110          4
   111         76
   112          8
   124         99
   125         16
   140         21
   141        306
   142         43
   143          2