##TITLE=Library Entry 24023
##JCAMP-DX=Revision 4.10 
##DATA TYPE=MASS SPECTRUM
##SAMPLE DESCRIPTION=D.HENNEBERG, MAX-PLANCK INSTITUTE, MULHEIM, WEST GERMAN
Y
##NAMES=HP
##CAS NAME=2-Decene, 5-methyl-, (Z)-
##MOLFORM=C11H22
##CAS REGISTRY NO=74645-86-6
##MP= -300
##BP= -300
##MW= 154
##$RETENTION INDEX=0
##$CONDENSED SPECTRUM=NO
##NPOINTS= 70
##XYDATA=(XY..XY) 1 
    24          0
    25          1
    26          6
    27         65
    28          8
    29        138
    36          0
    37          4
    38          2
    39         59
    40         12
    41        226
    42         37
    43        304
    44          3
    46          0
    47          0
    49          1
    50          1
    51          7
    52          1
    53         24
    54         19
    55        195
    56        181
    57        999
    58         37
    59          0
    61          0
    62          0
    63          2
    65          3
    66          1
    67         21
    68         10
    69         71
    70         70
    71         15
    72          0
    77          4
    78          1
    79          6
    80          0
    81          8
    82          5
    83         33
    84         18
    85          2
    86          0
    91          1
    95         18
    96          6
    97         17
    98         93
    99         12
   100          0
   105          3
   110          1
   111          1
   112         17
   113          2
   116          0
   119          0
   120          0
   125          1
   126          2
   127          0
   149          0
   154         19
   155          1