##TITLE=Library Entry 67277
##JCAMP-DX=Revision 4.10 
##DATA TYPE=MASS SPECTRUM
##SAMPLE DESCRIPTION=D.HENNEBERG, MAX-PLANCK INSTITUTE, MULHEIM, WEST GERMAN
Y
##NAMES=HP
##CAS NAME=Tetracyclo[5.2.1.0(2,6).0(3,5)]decane, 4,4-dimethyl-
##MOLFORM=C12H18
##CAS REGISTRY NO=74646-38-1
##MP= -300
##BP= -300
##MW= 162
##$RETENTION INDEX=0
##$CONDENSED SPECTRUM=NO
##NPOINTS= 102
##XYDATA=(XY..XY) 1 
    26         87
    27        331
    28        122
    29        164
    30          2
    32          6
    36          1
    37          6
    38         17
    39        451
    40         74
    41        586
    42         36
    43        109
    44          8
    45          1
    48          2
    49          4
    50         41
    51        126
    52         58
    53        198
    54         31
    55        204
    56         18
    57          5
    58         11
    59          2
    60          1
    61          2
    62          9
    63         50
    64         22
    65        167
    66        159
    67        549
    68         40
    69         70
    70          4
    72          2
    74          5
    75          4
    77        346
    78        144
    79        732
    80        122
    81        244
    82         36
    83          5
    84          1
    87          3
    88          2
    89         15
    90          9
    91        526
    92        104
    93        584
    94        999
    95        866
    96         98
    97         12
    98          1
   101          1
   102          8
   103         44
   104         25
   105        429
   106         95
   107        100
   108         84
   109         11
   113          1
   114          1
   115         50
   116         17
   117         55
   118         20
   119        419
   120        172
   121        362
   122         33
   123          2
   127          3
   128         10
   129          8
   130          4
   131         13
   132          7
   133        165
   134         44
   135          3
   141          0
   145          7
   146          3
   147        325
   148         39
   149          3
   159          1
   161          7
   162        168
   163         20
   164          1