##TITLE=Library Entry 28109
##JCAMP-DX=Revision 4.10 
##DATA TYPE=MASS SPECTRUM
##SAMPLE DESCRIPTION=LAC, NIDDK, NIH, Bethesda, MD 20892
##NAMES=HP
##CAS NAME=1,3:2,5-Dimethylene-4-methyl-d-rhamnitol
##MOLFORM=C9H16O5
##CAS REGISTRY NO=7464-25-7
##MP= -300
##BP= -300
##MW= 204
##$RETENTION INDEX=0
##$CONDENSED SPECTRUM=NO
##NPOINTS= 119
##XYDATA=(XY..XY) 1 
    41        469
    42        227
    43        456
    44        171
    45        742
    46         16
    47          9
    48          3
    49         22
    50         11
    51         21
    52          7
    53         56
    54         44
    55        261
    56         52
    57        279
    58        999
    59        270
    60         14
    61         20
    62          1
    63          1
    64          1
    65          6
    66          1
    67          9
    68         36
    69        612
    70        199
    71        539
    72        328
    73        282
    74        153
    75        170
    76          5
    77          4
    78          4
    79          2
    80          0
    81         11
    82         12
    83         52
    84         66
    85        138
    86        187
    87        129
    88         18
    89         11
    90          0
    91          3
    92          1
    93          0
    95          4
    96          2
    97          8
    98         22
    99         46
   100        189
   101        153
   102         24
   103          7
   104          0
   105          1
   106          1
   107          1
   109          1
   110          0
   111          5
   112          4
   113          8
   114         47
   115         11
   116          3
   117          8
   118          0
   119          0
   123          1
   124          1
   125          2
   126          1
   127          4
   128         30
   129         74
   130        118
   131         62
   132          5
   133          0
   137          0
   139          0
   140          0
   141          1
   142          3
   143         47
   144         24
   145          5
   146          0
   147          0
   149          1
   154          0
   155          1
   156          0
   157          1
   158          0
   159         13
   160         86
   161          8
   162          1
   172          1
   173          2
   174         50
   175          6
   176          0
   185          0
   187          0
   191          0
   203          1
   204         10
   205          1