##TITLE=Library Entry 53850
##JCAMP-DX=Revision 4.10 
##DATA TYPE=MASS SPECTRUM
##SAMPLE DESCRIPTION=D.HENNEBERG, MAX-PLANCK INSTITUTE, MULHEIM, WEST GERMAN
Y
##NAMES=HP
##CAS NAME=1,3,2-Dioxaborolan-4-one, 2-ethyl-5-methyl-
##MOLFORM=C5H9BO3
##CAS REGISTRY NO=74646-14-3
##MP= -300
##BP= -300
##MW= 128
##$RETENTION INDEX=0
##$CONDENSED SPECTRUM=NO
##NPOINTS= 58
##XYDATA=(XY..XY) 1 
    26        113
    27        208
    28        370
    29        252
    30          3
    31          0
    34          1
    36          3
    37          7
    38          3
    39         13
    40         14
    41         39
    42         37
    43         81
    44         92
    45        131
    46          0
    47          0
    49          0
    50          1
    51          1
    52          9
    53         29
    54        113
    55        438
    56        267
    57        624
    58         15
    59          0
    65          0
    66          0
    67          0
    68          1
    69          6
    70         14
    71         53
    72         11
    73          0
    75          0
    77          0
    81          0
    82          7
    83        246
    84        999
    85         55
    86          2
    97          0
    98          4
    99          5
   100          0
   111          0
   112          0
   113          1
   114          1
   127          2
   128         12
   129          1