##TITLE=Library Entry 58846
##JCAMP-DX=Revision 4.10 
##DATA TYPE=MASS SPECTRUM
##SAMPLE DESCRIPTION=D.HENNEBERG, MAX-PLANCK INSTITUTE, MULHEIM, WEST GERMAN
Y
##NAMES=HP
##CAS NAME=1,3,2-Dioxaborolan-4-one, 2-ethyl-5-phenyl-
##MOLFORM=C10H11BO3
##CAS REGISTRY NO=74646-15-4
##MP= -300
##BP= -300
##MW= 190
##$RETENTION INDEX=0
##$CONDENSED SPECTRUM=NO
##NPOINTS= 97
##XYDATA=(XY..XY) 1 
    27         31
    28         61
    29         29
    30          1
    31          2
    36          1
    37          1
    38          5
    39         37
    40         17
    41          5
    42          3
    43          2
    44          8
    45          0
    46          2
    49          2
    50         23
    51         77
    52         21
    53         21
    54          4
    55         11
    56          0
    57          8
    59         10
    62         13
    63         71
    64         40
    65         11
    66          3
    67          1
    69          1
    71          0
    72          1
    73          5
    74          4
    75          8
    76         10
    77        135
    78         45
    79         27
    81          1
    82          1
    83          1
    87          3
    88         14
    89        308
    90        999
    91        141
    92         13
    94          1
    96          1
    97          0
   100          0
   101          2
   102          8
   103         27
   104         49
   105        246
   106         33
   107          5
   111          1
   112          2
   115          3
   116         58
   117        289
   118        296
   119         24
   120          1
   123          0
   128          2
   129          3
   130         12
   131         36
   132         26
   133        100
   134          7
   139          1
   141          1
   142          0
   143          1
   144          3
   145        108
   146        388
   147         44
   148          3
   159          2
   160          7
   161         34
   162          6
   174          1
   181          0
   189         30
   190        122
   191         10
   192          0