##TITLE=Library Entry 24002
##JCAMP-DX=Revision 4.10 
##DATA TYPE=MASS SPECTRUM
##SAMPLE DESCRIPTION=D.HENNEBERG, MAX-PLANCK INSTITUTE, MULHEIM, WEST GERMAN
Y
##NAMES=HP
##CAS NAME=Ethanone, 1-[5-(1,1-dimethylethyl)-2-ethyl-4-methyl-1,3,2-dioxabo
rolan-4-yl]-
##MOLFORM=C11H21BO3
##CAS REGISTRY NO=74646-07-4
##MP= -300
##BP= -300
##MW= 212
##$RETENTION INDEX=0
##$CONDENSED SPECTRUM=NO
##NPOINTS= 113
##XYDATA=(XY..XY) 1 
    26         55
    27        116
    28        104
    29        203
    30          8
    31          4
    36          0
    37          6
    38         10
    39         78
    40         16
    41        248
    42         31
    43        339
    44         20
    45         11
    46          0
    48          0
    49          2
    50          9
    51         13
    52          9
    53         42
    54         18
    55         87
    56         22
    57        999
    58         47
    59          3
    61          3
    62          2
    63          1
    64          0
    65          4
    66          2
    67         10
    68          5
    69         49
    70         19
    71         49
    72          2
    73          1
    74          0
    75          1
    76          1
    77          3
    78          0
    79          4
    80          0
    81          5
    82         15
    83         63
    84         14
    85          5
    86         38
    87          4
    88          1
    91          1
    93          0
    94          1
    95          2
    96         13
    97         66
    98         80
    99         16
   100          2
   101          0
   105          1
   106          0
   107          1
   108          1
   109          6
   110         38
   111        138
   112         21
   113         34
   114          3
   115          1
   120          0
   121          0
   122          1
   123          7
   124         28
   125        137
   126        169
   127         33
   128          2
   136          0
   137          1
   138          3
   139         10
   140          5
   141         13
   142          1
   150          0
   151          0
   152          1
   153          5
   154          4
   155          8
   156          4
   157          0
   166          0
   167          1
   168         26
   169        111
   170         11
   171          0
   179          0
   182          0
   183          1
   196          1
   197          1