##TITLE=Library Entry 48930
##JCAMP-DX=Revision 4.10 
##DATA TYPE=MASS SPECTRUM
##SAMPLE DESCRIPTION=D.HENNEBERG, MAX-PLANCK INSTITUTE, MULHEIM, WEST GERMAN
Y
##NAMES=HP
##CAS NAME=2-Pentadecen-4-yne, (Z)-
##MOLFORM=C15H26
##CAS REGISTRY NO=74646-33-6
##MP= -300
##BP= -300
##MW= 206
##$RETENTION INDEX=0
##$CONDENSED SPECTRUM=NO
##NPOINTS= 129
##XYDATA=(XY..XY) 1 
    22          0
    26          8
    27        164
    28         33
    29        276
    30          6
    31          0
    33          1
    34          1
    35          1
    36          1
    37          6
    38          8
    39        155
    40         32
    41        443
    42         47
    43        382
    44         31
    46          1
    47          1
    48          0
    49          2
    50         15
    51         71
    52         45
    53        100
    54         57
    55        356
    56         37
    57        103
    58          9
    59          2
    61          2
    62          4
    63         20
    64         11
    65         75
    66        118
    67        256
    68         93
    69        133
    70         19
    71         21
    72          5
    73          1
    74          3
    75         19
    76          9
    77        313
    78        117
    79        999
    80        197
    81        525
    82        116
    83         55
    84          5
    85          5
    86          1
    87          2
    88          2
    89         11
    90          8
    91        236
    92         98
    93        463
    94        170
    95        118
    96         33
    97          8
    98          1
    99          0
   102          2
   103         14
   104         12
   105         85
   106         25
   107        306
   108        101
   109         35
   110          8
   111          1
   113          0
   114          0
   115          9
   116          3
   117         17
   118          3
   119         21
   120         10
   121        272
   122        196
   123         22
   124          4
   126          0
   127          0
   128          3
   129          6
   130          2
   131          5
   132          1
   133          7
   134          2
   135         78
   136         19
   137          4
   138          3
   141          1
   142          1
   143          2
   145          1
   147          3
   148          0
   149         18
   150          4
   151          2
   152          2
   163         11
   164          6
   166          0
   177          9
   178          2
   179          1
   191          4
   202          1
   204          8
   205          1
   206         25
   207          3