##TITLE=Library Entry 15890
##JCAMP-DX=Revision 4.10 
##DATA TYPE=MASS SPECTRUM
##SAMPLE DESCRIPTION=E. Zissis, LC, NIDDK, NIH, Bethesda, MD 20892
##NAMES=HP
##CAS NAME=1,3-Methylene-d-arabitol
##MOLFORM=C6H12O5
##CAS REGISTRY NO=74644-45-4
##MP= -300
##BP= -300
##MW= 164
##$RETENTION INDEX=0
##$CONDENSED SPECTRUM=NO
##NPOINTS= 60
##XYDATA=(XY..XY) 1 
    41         72
    42         85
    43        522
    44        999
    45        528
    46         19
    47         17
    49          1
    51          4
    53         11
    54          3
    55        203
    56         70
    57        198
    58         22
    59         21
    60        110
    61        351
    62         21
    63         10
    65          7
    69         66
    70         17
    71         49
    73        720
    74         83
    75         25
    77          2
    78         11
    81          5
    83          1
    85         10
    86        791
    87         57
    88         78
    89          7
    91        528
    92         20
    93          3
    98          6
    99          9
   101          9
   103        188
   104         45
   105          7
   106          1
   115         55
   116         36
   117          8
   124          5
   128         15
   129          3
   133         36
   134         49
   135          3
   145          7
   146         26
   147          8
   163          2
   164         11