##TITLE=Library Entry 17502
##JCAMP-DX=Revision 4.10 
##DATA TYPE=MASS SPECTRUM
##SAMPLE DESCRIPTION=D.HENNEBERG, MAX-PLANCK INSTITUTE, MULHEIM, WEST GERMAN
Y
##NAMES=HP
##CAS NAME=2-Butanol, 4-bromo-3,3,4,4-tetrafluoro-
##MOLFORM=C4H5BrF4O
##CAS REGISTRY NO=74646-39-2
##MP= -300
##BP= -300
##MW= 224
##$RETENTION INDEX=0
##$CONDENSED SPECTRUM=NO
##NPOINTS= 100
##XYDATA=(XY..XY) 1 
    26          4
    27         96
    28         13
    29         92
    30          2
    31          6
    32          1
    33          4
    36          0
    39          5
    40          1
    41          5
    42         10
    43         93
    44         10
    45        999
    46         25
    47         17
    48          0
    49         33
    50          2
    51         20
    52          0
    54          0
    55          2
    56          2
    57          2
    58          0
    59         10
    60          1
    62          0
    63          3
    64          0
    65          3
    67         30
    68          0
    69          6
    71          3
    72          2
    73          1
    75          5
    76          1
    77         56
    78          6
    79          8
    80          5
    81          2
    82          1
    83          0
    86          0
    88          0
    89          0
    91          3
    92          0
    93          2
    94          8
    95          2
    96          0
    97         26
    98          1
   100         17
   101          2
   103          0
   105        103
   106          5
   107          1
   108          1
   109          4
   110          0
   111          4
   112          0
   113          2
   121          0
   123          0
   124          0
   125         18
   126          1
   127          4
   129         14
   131         12
   135          0
   137          1
   139          1
   141          0
   143          1
   145          1
   155          0
   157          0
   159          1
   160          6
   161          9
   162          6
   163          8
   167          1
   179          1
   181          1
   189          2
   191          1
   209          1
   211          1