##TITLE=Library Entry 11177
##JCAMP-DX=Revision 4.10 
##DATA TYPE=MASS SPECTRUM
##SAMPLE DESCRIPTION=D.HENNEBERG, MAX-PLANCK INSTITUTE, MULHEIM, WEST GERMAN
Y
##NAMES=HP
##CAS NAME=Ethanone, 1,1'-(2-ethyl-4,5-dimethyl-1,3,2-dioxaborolane-4,5-diyl
)bis-
##MOLFORM=C10H17BO4
##CAS REGISTRY NO=74646-18-7
##MP= -300
##BP= -300
##MW= 212
##$RETENTION INDEX=0
##$CONDENSED SPECTRUM=NO
##NPOINTS= 91
##XYDATA=(XY..XY) 1 
    26         41
    27         59
    28         87
    29         35
    30          1
    32          0
    37          2
    38          2
    39         31
    40         10
    41         34
    42         60
    43        999
    44         31
    45         12
    49          1
    50          6
    51          8
    52         10
    53         47
    54         27
    55         94
    56         13
    57         44
    58          2
    59          2
    61          2
    62          4
    63          2
    65          2
    67         10
    68          3
    69         29
    70         11
    71         17
    72         37
    73          1
    75          1
    76          4
    77          2
    78          1
    79          2
    80          1
    81          5
    82         28
    83        111
    84          4
    85          1
    86        120
    87          5
    88          2
    89          2
    91          0
    95          3
    96         27
    97        132
    98        157
    99         14
   100          1
   101          1
   107          1
   108          3
   109         11
   110         75
   111        265
   112         13
   113          3
   114          9
   115          3
   121          1
   122          2
   123         10
   124         47
   125        213
   126        222
   127         23
   128          3
   137          0
   138          1
   139          3
   140          5
   141         15
   142          0
   143          2
   152          4
   153          5
   154         14
   155         23
   156          1
   169          0
   183          6