##TITLE=Library Entry 25403
##JCAMP-DX=Revision 4.10 
##DATA TYPE=MASS SPECTRUM
##SAMPLE DESCRIPTION=D.HENNEBERG, MAX-PLANCK INSTITUTE, MULHEIM, WEST GERMAN
Y
##NAMES=HP
##CAS NAME=Dodecane, 2,7,10-trimethyl-
##MOLFORM=C15H32
##CAS REGISTRY NO=74645-98-0
##MP= -300
##BP= -300
##MW= 212
##$RETENTION INDEX=0
##$CONDENSED SPECTRUM=NO
##NPOINTS= 77
##XYDATA=(XY..XY) 1 
    24          0
    25          0
    26          4
    27         58
    28         25
    29        177
    30          4
    32          3
    33          0
    35          0
    36          0
    37          2
    38          1
    39         38
    40          6
    41        284
    42         46
    43        589
    44         16
    45          0
    50          0
    51          1
    52          0
    53         12
    54          7
    55        145
    56        180
    57        999
    58         39
    59          0
    63          0
    65          1
    66          1
    67          9
    68          7
    69         62
    70         92
    71        740
    72         35
    73          0
    77          1
    79          1
    81          2
    82          6
    83         32
    84         34
    85        219
    86         15
    91          0
    95          0
    96          0
    97          7
    98         15
    99         50
   100          4
   110          0
   111         15
   112         34
   113         70
   114          5
   125          2
   126         23
   127         39
   128          3
   140          2
   141          6
   142          0
   154          1
   155          4
   156          0
   168          0
   169          5
   170          0
   182          1
   183         11
   184          1
   197          2