##TITLE=Library Entry 28800
##JCAMP-DX=Revision 4.10 
##DATA TYPE=MASS SPECTRUM
##SAMPLE DESCRIPTION=Darrick Lee, Cayman Chemical, Ann Arbor, MI
##NAMES=HP
##CAS NAME=Methiopropamine
##MOLFORM=C8H13NS
##CAS REGISTRY NO=7464-94-0
##MP= -300
##BP= -300
##MW= 155
##$RETENTION INDEX=0
##$CONDENSED SPECTRUM=NO
##NPOINTS= 93
##XYDATA=(XY..XY) 1 
    40          6
    41         22
    42         68
    43         22
    44          6
    45         54
    46          2
    47          5
    48          1
    49          1
    50          7
    51         13
    52          8
    53         34
    54          9
    56         85
    58        999
    59         41
    60          2
    61          3
    62          7
    63         14
    64          2
    65         11
    66          4
    67          3
    68          3
    69         23
    70         13
    71         14
    72          1
    73          1
    74          3
    75          1
    76          1
    77         10
    78          4
    79          6
    80          6
    81          6
    82          6
    83          3
    84          7
    85          5
    86          1
    87          1
    89          2
    90          1
    91          7
    92          2
    93          4
    94          5
    95          7
    97        137
    98         11
    99         16
   100          1
   101          1
   104          1
   105          1
   106          2
   107          2
   108          2
   109          6
   110          6
   111          9
   112          6
   113          1
   114          1
   118          1
   120          1
   121          3
   122          2
   123         10
   124          6
   125          8
   126          1
   127          1
   135          1
   136          1
   138          3
   139          3
   140         11
   141          1
   142          1
   147          1
   149          1
   150          2
   151          2
   152          1
   153          2
   154          5
   155          1