##TITLE=Library Entry 19853
##JCAMP-DX=Revision 4.10 
##DATA TYPE=MASS SPECTRUM
##SAMPLE DESCRIPTION=D.HENNEBERG, MAX-PLANCK INSTITUTE, MULHEIM, WEST GERMAN
Y
##NAMES=HP
##CAS NAME=Cyclopropane, nonyl-
##MOLFORM=C12H24
##CAS REGISTRY NO=74663-85-7
##MP= -300
##BP= -300
##MW= 168
##$RETENTION INDEX=1285
##$CONDENSED SPECTRUM=NO
##NPOINTS= 81
##XYDATA=(XY..XY) 1 
    24          2
    25          2
    26         17
    27        199
    28         40
    29        402
    30         10
    31          1
    32          6
    33          1
    34          1
    35          1
    37          4
    38          6
    39        177
    40         33
    41        709
    42        283
    43        850
    44         17
    45          0
    47          1
    48          1
    49          1
    50          6
    51          8
    52          5
    53         63
    54        123
    55        999
    56        912
    57        568
    58         23
    60          0
    61          0
    62          0
    63          2
    64          0
    65         10
    66         14
    67        116
    68        191
    69        733
    70        673
    71        155
    72          7
    75          1
    77          5
    78          1
    79          8
    80          1
    81         31
    82        146
    83        507
    84        305
    85         73
    86          4
    88          0
    91          1
    92          0
    95          5
    96         52
    97        315
    98        152
    99         13
   100          0
   109          0
   110         14
   111        109
   112         63
   113          3
   124          3
   125         29
   126         14
   127          1
   138          0
   139          8
   140         28
   141          2
   168          7
   169          1