##TITLE=Library Entry 35005
##JCAMP-DX=Revision 4.10 
##DATA TYPE=MASS SPECTRUM
##SAMPLE DESCRIPTION=D.HENNEBERG, MAX-PLANCK INSTITUTE, MULHEIM, WEST GERMAN
Y
##NAMES=HP
##CAS NAME=Cyclohexane, 1,1'-(1,2-dimethyl-1,2-ethanediyl)bis-
##MOLFORM=C16H30
##CAS REGISTRY NO=74663-71-1
##MP= -300
##BP= -300
##MW= 222
##$RETENTION INDEX=0
##$CONDENSED SPECTRUM=NO
##NPOINTS= 75
##XYDATA=(XY..XY) 1 
    24          5
    25          3
    26         11
    27         71
    28        159
    29        146
    30          3
    34          0
    35          2
    36         11
    37          7
    38          4
    39         67
    40        126
    41        468
    42         36
    43        175
    44         16
    45          0
    48          0
    49          1
    50          2
    51          6
    52          3
    53         38
    54         51
    55        677
    56         86
    57        287
    58         13
    59          2
    61          3
    62          0
    63          1
    64          0
    65         10
    66         14
    67        150
    68         49
    69        999
    70         66
    71         66
    72          2
    75          0
    77         12
    78          5
    79         18
    80         19
    81        211
    82        172
    83        507
    84         40
    85         16
    86          2
    91          5
    93          1
    95         36
    96         15
    97        145
    98         12
    99          2
   105          6
   106          1
   108          1
   109         46
   110        332
   111        460
   112         41
   113          1
   123          4
   125          0
   137          0
   138         41
   139         48
   140          4