##TITLE=Library Entry 67938
##JCAMP-DX=Revision 4.10 
##DATA TYPE=MASS SPECTRUM
##SAMPLE DESCRIPTION=D.HENNEBERG, MAX-PLANCK INSTITUTE, MULHEIM, WEST GERMAN
Y
##NAMES=HP
##CAS NAME=Bicyclo[2.2.1]heptane, 2-(1-methylpropyl)-
##MOLFORM=C11H20
##CAS REGISTRY NO=74663-93-7
##MP= -300
##BP= -300
##MW= 152
##$RETENTION INDEX=0
##$CONDENSED SPECTRUM=NO
##NPOINTS= 82
##XYDATA=(XY..XY) 1 
    25          0
    26          1
    27         39
    28          9
    29         70
    30          1
    32          0
    36          0
    37          1
    38          1
    39         50
    40          9
    41        142
    42         12
    43         28
    45          0
    46          0
    47          1
    48          0
    49          0
    50          1
    51          7
    52          4
    53         33
    54         21
    55        126
    56         39
    57         29
    58          1
    59          0
    61          0
    62          1
    63          2
    64          1
    65         16
    66         61
    67        261
    68         43
    69         48
    70         24
    71         17
    72          1
    73          0
    75          1
    76          0
    77         16
    78          3
    79         24
    80         10
    81        127
    82         46
    83         24
    84          9
    85          2
    86          0
    87          0
    88          0
    89          0
    90          0
    91          9
    92          1
    93         15
    94         51
    95        999
    96         87
    97          6
    98          1
    99          0
   103          0
   105          0
   107          1
   109          4
   110          2
   111          0
   121          0
   122          3
   123         75
   124          9
   125          0
   137          2
   152          6
   153          0