##TITLE=Library Entry 11792
##JCAMP-DX=Revision 4.10 
##DATA TYPE=MASS SPECTRUM
##SAMPLE DESCRIPTION=D.HENNEBERG, MAX-PLANCK INSTITUTE, MULHEIM, WEST GERMAN
Y
##NAMES=HP
##CAS NAME=Ethanone, 1-(2-ethyl-4,4,6-trimethyl-1,3,2-dioxaborinan-5-yl)-
##MOLFORM=C10H19BO3
##CAS REGISTRY NO=74663-80-2
##MP= -300
##BP= -300
##MW= 198
##$RETENTION INDEX=0
##$CONDENSED SPECTRUM=NO
##NPOINTS= 116
##XYDATA=(XY..XY) 1 
    26         52
    27        117
    28        124
    29        140
    30          6
    31         74
    32         36
    34          1
    36          0
    37          5
    38         10
    39        116
    40         23
    41        190
    42         46
    43        999
    44         46
    45         40
    46          1
    47          3
    49          1
    50          6
    51         12
    52          6
    53         42
    54         17
    55        133
    56         26
    57         61
    58         29
    59         60
    60          2
    61          1
    62          1
    63          4
    64          1
    65         14
    66          7
    67         75
    68         15
    69        187
    70         14
    71         21
    72         23
    73         88
    74          3
    75          6
    76          3
    77          9
    78          0
    79          9
    80          2
    81         17
    82         51
    83        174
    84         24
    85        119
    86          7
    87          3
    88          2
    89          3
    91          2
    93          1
    95          3
    96         11
    97         52
    98         22
    99         24
   100         18
   101          9
   102          3
   103          3
   104          1
   107          1
   109          5
   110         19
   111         69
   112         11
   113          8
   114          2
   115          8
   116          1
   117          1
   122          2
   123         13
   124        216
   125        853
   126         71
   127         53
   128          3
   129          1
   136          1
   137          9
   138        178
   139        685
   140        163
   141         43
   142          5
   143          3
   152          2
   153          5
   154         15
   155         12
   156          2
   164          0
   166          1
   167          2
   168          4
   169         11
   170          1
   172          1
   181          0
   182          2
   183         13
   197          2
   198          9