##TITLE=Library Entry 19874
##JCAMP-DX=Revision 4.10 
##DATA TYPE=MASS SPECTRUM
##SAMPLE DESCRIPTION=D.HENNEBERG, MAX-PLANCK INSTITUTE, MULHEIM, WEST GERMAN
Y
##NAMES=HP
##CAS NAME=Cyclopropane, 1-butyl-2-pentyl-, cis-
##MOLFORM=C12H24
##CAS REGISTRY NO=74663-88-0
##MP= -300
##BP= -300
##MW= 168
##$RETENTION INDEX=0
##$CONDENSED SPECTRUM=NO
##NPOINTS= 76
##XYDATA=(XY..XY) 1 
    24          2
    25          4
    26         12
    27        171
    28         32
    29        259
    30          6
    32          0
    33          1
    35          0
    36          2
    37          8
    38          1
    39        130
    40         25
    41        609
    42        393
    43        507
    44         24
    46          2
    47          0
    48          1
    49          1
    51         11
    52          3
    53         55
    54        109
    55        999
    56        944
    57        326
    58         12
    61          1
    63          1
    64          1
    65         11
    66         11
    67         86
    68         50
    69        765
    70        494
    71        112
    72          4
    73          0
    76          0
    77          7
    79          9
    80          2
    81         31
    82         59
    83        270
    84        177
    85         48
    86          6
    88          0
    91          0
    93          3
    94          0
    95          5
    96         20
    97        158
    98         61
    99          7
   109          3
   110         13
   111         65
   112         29
   113          3
   124          4
   125         27
   126         10
   138          1
   139          7
   140         14
   141          0
   168         36
   169          5