##TITLE=Library Entry 98145
##JCAMP-DX=Revision 4.10 
##DATA TYPE=MASS SPECTRUM
##SAMPLE DESCRIPTION=D.HENNEBERG, MAX-PLANCK INSTITUTE, MULHEIM, WEST GERMAN
Y
##NAMES=HP
##CAS NAME=Benzene, 1-methyl-4-(4-methyl-4-pentenyl)-
##MOLFORM=C13H18
##CAS REGISTRY NO=74672-08-5
##MP= -300
##BP= -300
##MW= 174
##$RETENTION INDEX=0
##$CONDENSED SPECTRUM=NO
##NPOINTS= 91
##XYDATA=(XY..XY) 1 
    26          1
    27         32
    29         15
    30          0
    37          6
    38          2
    39         41
    40          6
    41         57
    42          3
    43          1
    44          0
    49          0
    50          4
    51         17
    52          6
    53         18
    54          2
    55          9
    56          1
    58          0
    60          0
    61          0
    62          1
    63         10
    64          3
    65         25
    66          2
    67         15
    68          3
    69         18
    70          1
    71          1
    72          0
    74          1
    75          2
    76          2
    77         62
    78         19
    79         40
    80          3
    81          2
    82          1
    86          0
    87          1
    88          0
    89          5
    90          3
    91         81
    92         10
    93          4
    94          0
   101          1
   102          4
   103         34
   104         17
   105        241
   106         45
   107          2
   111          0
   112          0
   113          1
   114          0
   115         20
   116         28
   117        114
   118        999
   119        125
   120          7
   126          0
   127          2
   128          5
   129          4
   130          1
   141          2
   142          2
   143          1
   144          0
   145          2
   146          0
   152          0
   153          0
   155          0
   156          0
   157          1
   158          0
   159          2
   160          0
   172          0
   174         11
   175          2