##TITLE=Library Entry 36878
##JCAMP-DX=Revision 4.10 
##DATA TYPE=MASS SPECTRUM
##SAMPLE DESCRIPTION=Div. of Experiment Therapeutics WRAIR, WRAMC, Washingto
n DC 20307
##NAMES=HP
##CAS NAME=Benzonitrile, 4,4'-[1,5-pentanediylbis(oxy)]bis-
##MOLFORM=C19H18N2O2
##CAS REGISTRY NO=7467-71-2
##MP= -300
##BP= -300
##MW= 306
##$RETENTION INDEX=0
##$CONDENSED SPECTRUM=NO
##NPOINTS= 102
##XYDATA=(XY..XY) 1 
    41        460
    42         63
    43         30
    44          1
    45          0
    49          2
    50         20
    51         42
    52         14
    53         33
    54          2
    55         40
    56          3
    57          3
    60          0
    61          3
    62         16
    63         61
    64         86
    65         23
    66          2
    67         59
    68         99
    69        999
    70         56
    71          1
    73          1
    74          7
    75         55
    76         36
    77         24
    78          4
    79          2
    80          1
    83          0
    84          0
    85          1
    86          0
    87          2
    88          5
    89          8
    90         88
    91         65
    92         15
    93          3
    94          1
    99          2
   100          2
   101          9
   102        413
   103         28
   104        112
   105          8
   106          1
   107          0
   115          2
   116         13
   117          7
   118         15
   119        369
   120        321
   121         27
   122          2
   128          2
   130         15
   132        444
   133         39
   134          3
   135          0
   138          1
   140          1
   141          0
   143          0
   144          4
   145         19
   146         30
   147          3
   151          0
   153         13
   156          1
   158         18
   159          4
   160          1
   164          1
   166          0
   172          1
   186          4
   187         11
   188        529
   189         70
   190          5
   191          0
   193          0
   203          0
   221          0
   237          2
   281          1
   305          1
   306        715
   307        157
   308         16
   309          1