##TITLE=Library Entry 16814
##JCAMP-DX=Revision 4.10 
##DATA TYPE=MASS SPECTRUM
##SAMPLE DESCRIPTION=D.HENNEBERG, MAX-PLANCK INSTITUTE, MULHEIM, WEST GERMAN
Y
##NAMES=HP
##CAS NAME=2-Pentanol, 3-chloro-4-methyl-, (R*,R*)-(.+/-.)-
##MOLFORM=C6H13ClO
##CAS REGISTRY NO=74685-47-5
##MP= -300
##BP= -300
##MW= 136
##$RETENTION INDEX=0
##$CONDENSED SPECTRUM=NO
##NPOINTS= 75
##XYDATA=(XY..XY) 1 
    25          1
    26          6
    27         80
    28         23
    29         75
    30          3
    31          5
    35          2
    36         23
    37          4
    38         11
    39         73
    40         13
    41        227
    42         28
    43        391
    44         34
    45        999
    46         21
    47          2
    48          0
    49          3
    50          4
    51          7
    52          2
    53         15
    54          5
    55         44
    56         51
    57         78
    58        137
    59         10
    60          0
    61          0
    62          1
    63          4
    64          0
    65          5
    66          1
    67         29
    68          2
    69         71
    70          5
    71         14
    72          3
    73          2
    74          0
    75          1
    76         20
    77          3
    78          8
    79          3
    80          0
    81          3
    82          9
    83          6
    84         22
    85         36
    86          1
    90          6
    91          2
    92          2
    93          1
    94          0
    95          0
    96          0
    97          0
    98          3
    99          0
   100         23
   101          1
   103          1
   105          0
   121          2
   123          0