##TITLE=Library Entry 19936
##JCAMP-DX=Revision 4.10 
##DATA TYPE=MASS SPECTRUM
##SAMPLE DESCRIPTION=D.HENNEBERG, MAX-PLANCK INSTITUTE, MULHEIM, WEST GERMAN
Y
##NAMES=HP
##CAS NAME=5-Eicosene, (E)-
##MOLFORM=C20H40
##CAS REGISTRY NO=74685-30-6
##MP= -300
##BP= -300
##MW= 280
##$RETENTION INDEX=2286
##$CONDENSED SPECTRUM=NO
##NPOINTS= 122
##XYDATA=(XY..XY) 1 
    22          0
    23          0
    24          0
    25          1
    26          8
    27         80
    28         12
    29        212
    30          5
    31          2
    32          0
    33          1
    34          0
    35          1
    36          1
    37          4
    38          4
    39         61
    40         12
    41        542
    42        118
    43        696
    44         13
    45          0
    46          0
    47          1
    48          0
    49          1
    50          4
    51          4
    52          3
    53         37
    54        155
    55        999
    56        452
    57        773
    58         30
    59          0
    60          0
    61          0
    63          1
    64          0
    65          9
    66         15
    67        164
    68        108
    69        637
    70        382
    71        349
    72         16
    73          0
    74          0
    75          0
    76          0
    77          8
    78          7
    79         20
    80         11
    81         90
    82        164
    83        624
    84        220
    85        178
    86         11
    91          5
    92          2
    93          4
    94          3
    95         40
    96         92
    97        505
    98        129
    99         36
   100          2
   105          3
   106          1
   107          1
   108          0
   109         15
   110         35
   111        217
   112         70
   113         20
   114          0
   115          0
   117          0
   119          0
   121          0
   123          7
   124         18
   125         97
   126         41
   127          9
   128          1
   137          2
   138         10
   139         35
   140         22
   141          5
   151          0
   152          4
   153         15
   154         14
   155          2
   166          3
   167          9
   168          9
   169          1
   180          2
   181          3
   182          6
   194          1
   195          1
   196          3
   208          0
   209          1
   210          1
   223          0
   224          0
   252          2
   280         19
   281          4