##TITLE=Library Entry 76435
##JCAMP-DX=Revision 4.10 
##DATA TYPE=MASS SPECTRUM
##SAMPLE DESCRIPTION=D.HENNEBERG, MAX-PLANCK INSTITUTE, MULHEIM, WEST GERMAN
Y
##NAMES=HP
##CAS NAME=3,8-Dioxa-2,9-disiladecane, 2,2,4,9,9-pentamethyl-5-[(trimethylsi
lyl)oxy]-
##MOLFORM=C14H36O3Si3
##CAS REGISTRY NO=74685-21-5
##MP= -300
##BP= -300
##MW= 336
##$RETENTION INDEX=0
##$CONDENSED SPECTRUM=NO
##NPOINTS= 135
##XYDATA=(XY..XY) 1 
    24          3
    27          2
    29         12
    30          4
    31          3
    33          3
    34          2
    37          6
    39          7
    43         36
    44         24
    45        101
    46          7
    52         25
    53         11
    54          0
    55         15
    57         11
    58         23
    59         33
    60          8
    61         14
    62          2
    63          7
    65          1
    67         18
    70          3
    71          8
    72         25
    73        899
    74         72
    75        114
    78          5
    79          0
    80          3
    83          9
    84          9
    85          7
    86          6
    87         17
    89          0
    90          3
    94          7
   101         20
   102          2
   103        999
   104         78
   105         39
   107          0
   108          0
   113          1
   114          3
   115         18
   116         14
   117        552
   118         45
   119         11
   121          1
   125          4
   127          3
   128          3
   129         67
   130         34
   131         17
   132          7
   133         11
   134         19
   136          1
   138          1
   139          3
   140          0
   141          1
   143         28
   145          8
   147        228
   148         46
   149         32
   150          4
   151          3
   153          2
   155          1
   157         67
   158         11
   159         12
   161          4
   162          2
   163          5
   167          7
   169         14
   174          6
   176          7
   177         12
   181          3
   183          0
   188          2
   189         25
   190          4
   191         19
   193          1
   195          5
   197          2
   198          2
   200          6
   201          1
   203         15
   205          7
   208          7
   210          7
   213          1
   214          1
   216          1
   217          7
   218         21
   219        334
   220         69
   221         31
   225          1
   230          0
   231         31
   232          1
   233          6
   235          0
   238          1
   248          1
   253          3
   254          1
   265          0
   271          2
   273          2
   281          6
   282         11
   284          2
   288          0
   299          2
   303          1