##TITLE=Library Entry 66139
##JCAMP-DX=Revision 4.10 
##DATA TYPE=MASS SPECTRUM
##SAMPLE DESCRIPTION=D.HENNEBERG, MAX-PLANCK INSTITUTE, MULHEIM, WEST GERMAN
Y
##NAMES=HP
##CAS NAME=3-Nonen-5-yne, 4-ethyl-
##MOLFORM=C11H18
##CAS REGISTRY NO=74685-67-9
##MP= -300
##BP= -300
##MW= 150
##$RETENTION INDEX=1321
##$CONDENSED SPECTRUM=NO
##NPOINTS= 93
##XYDATA=(XY..XY) 1 
    26         37
    27        111
    28         21
    29        213
    30          5
    31          1
    36          0
    39        117
    40         20
    41        316
    42         16
    43        209
    44          6
    49          1
    50          7
    51         60
    52         29
    53        129
    54         15
    55        307
    56         16
    57         23
    58          2
    59          1
    61          0
    62          0
    63         23
    64         12
    65        143
    66         39
    67        158
    68         13
    69         43
    70          3
    71          6
    72          2
    73          1
    75          7
    76          7
    77        536
    78        115
    79        903
    80         82
    81         96
    82         15
    83          2
    85          1
    86          1
    89         12
    90          6
    91        623
    92         76
    93        999
    94        101
    95         36
    96          4
    97          1
    98          1
    99          1
   100          1
   101          1
   102          3
   103         40
   104         16
   105        238
   106         62
   107        280
   108         31
   109         16
   110          1
   111          1
   115         10
   116          4
   117         14
   118          3
   119         44
   120         17
   121        663
   122        127
   123         13
   124          2
   125          1
   131          1
   133          5
   134          3
   135        112
   136         15
   137          7
   138          1
   149          4
   150        795
   151         93
   152          8