##TITLE=Library Entry 37328
##JCAMP-DX=Revision 4.10 
##DATA TYPE=MASS SPECTRUM
##SAMPLE DESCRIPTION=D.HENNEBERG, MAX-PLANCK INSTITUTE, MULHEIM, WEST GERMAN
Y
##NAMES=HP
##CAS NAME=1,2-Oxaborolane, 2-ethyl-4,5-dimethyl-
##MOLFORM=C7H15BO
##CAS REGISTRY NO=74685-45-3
##MP= -300
##BP= -300
##MW= 126
##$RETENTION INDEX=0
##$CONDENSED SPECTRUM=NO
##NPOINTS= 29
##XYDATA=(XY..XY) 1 
    27         43
    28          6
    29         89
    37          3
    39         54
    40         10
    41        153
    42        285
    43         29
    44          5
    51          5
    52         13
    53         46
    54         52
    55        867
    56        106
    57        156
    58          5
    66          2
    67         12
    68         11
    69         37
    70        999
    71         46
    83         35
    84        126
    85         13
    95          1
   111          9