##TITLE=Library Entry 19298
##JCAMP-DX=Revision 4.10 
##DATA TYPE=MASS SPECTRUM
##SAMPLE DESCRIPTION=D.HENNEBERG, MAX-PLANCK INSTITUTE, MULHEIM, WEST GERMAN
Y
##NAMES=HP
##CAS NAME=Oxacyclotetradecane-2,11-dione, 13-methyl-
##MOLFORM=C14H24O3
##CAS REGISTRY NO=74685-36-2
##MP= -300
##BP= -300
##MW= 240
##$RETENTION INDEX=2139
##$CONDENSED SPECTRUM=NO
##NPOINTS= 154
##XYDATA=(XY..XY) 1 
    21          0
    22          0
    24          1
    25          2
    26          6
    27        186
    29        374
    30          8
    31         19
    33          0
    34          1
    35          3
    36          3
    37         11
    38          6
    39        153
    40         40
    41        963
    42        273
    43        444
    44         12
    46          0
    47          4
    48          2
    49          2
    50          3
    51          8
    52          4
    53         62
    54        138
    55        999
    56        287
    57        231
    58         70
    59         25
    60         86
    61         42
    63          2
    64          2
    65         11
    66         26
    67        204
    68        221
    69        524
    70        199
    71        132
    72          7
    73        140
    74         13
    75          0
    76          1
    77          8
    78          3
    79         31
    80         33
    81        179
    82        294
    83        373
    84        224
    85         50
    86          8
    87         25
    88          1
    91          6
    92          1
    93         15
    94         33
    95        134
    96        254
    97        244
    98        204
    99         27
   100         32
   101         49
   102          7
   104          0
   105          2
   106          3
   107         12
   108         24
   109         62
   110        121
   111        109
   112         53
   113         31
   114         55
   115         37
   116         37
   119          7
   120          4
   121         15
   122         19
   123         65
   124         71
   125         53
   126         18
   127         32
   128         13
   129         34
   130          8
   134         18
   135         11
   136          9
   137         36
   138         58
   139         25
   140          9
   141         15
   142          3
   143          5
   144          5
   147          9
   148          8
   149          5
   150          6
   151         25
   152         32
   153         11
   154          3
   155          3
   156          1
   157          3
   158          6
   159          1
   161          3
   162          2
   163          0
   164          0
   165         14
   166          6
   167          5
   168          3
   169          4
   171          5
   172         12
   173          2
   175          0
   176          1
   178         16
   179         11
   180         35
   181          5
   182          0
   183          1
   185          0
   193          4
   194          7
   195          0
   197          5
   204          3
   222         34
   223          4
   240         15
   241          3