##TITLE=Library Entry 80554
##JCAMP-DX=Revision 4.10 
##DATA TYPE=MASS SPECTRUM
##SAMPLE DESCRIPTION=D.HENNEBERG, MAX-PLANCK INSTITUTE, MULHEIM, WEST GERMAN
Y
##NAMES=HP
##CAS NAME=Zinc, bis(2-phenylethyl)-
##MOLFORM=C16H18Zn
##CAS REGISTRY NO=74685-32-8
##MP= -300
##BP= -300
##MW= 274
##$RETENTION INDEX=0
##$CONDENSED SPECTRUM=NO
##NPOINTS= 136
##XYDATA=(XY..XY) 1 
    27         39
    28         14
    29          1
    32          1
    37          0
    38          3
    39         58
    40          4
    41          8
    42          0
    43          0
    44          1
    49          0
    50         31
    51        118
    52         45
    53         13
    54          1
    55          0
    57          0
    58          0
    59          0
    61          0
    62          5
    63         32
    64          7
    65         60
    66          6
    67          0
    68          2
    69          0
    70          0
    73          0
    74          5
    75         12
    76         27
    77        269
    78        275
    79        177
    80         11
    81          0
    83          0
    86          0
    87          1
    88          0
    89         18
    90          5
    91        498
    92         35
    93          0
    95          0
   101          5
   102         42
   103        277
   104        639
   105        999
   106        392
   107         33
   108          1
   109          0
   115          1
   116          0
   117          2
   118          0
   119         11
   120          1
   123          0
   128          0
   129          0
   131          1
   132          0
   133          0
   140          0
   141          7
   142          1
   143          4
   144          0
   145          2
   146          0
   147          0
   151          0
   152          1
   153          1
   154          9
   155          1
   156          0
   165          1
   166          1
   167          7
   168         18
   169         15
   170        101
   171         19
   172         58
   173         16
   174         32
   175          2
   176          1
   178          1
   179          1
   180          0
   181          1
   182          1
   183          0
   184          1
   185          0
   186          1
   187          0
   188          0
   191          0
   195          2
   196          0
   203          0
   209          0
   218          0
   220          0
   222          0
   245          0
   246          0
   247          0
   248          0
   249          0
   259          1
   265          0
   267          0
   268          0
   273          2
   274         47
   275         10
   276         27
   277         10
   278         19
   279          3
   280          1
   281          0
   282          0