##TITLE=Library Entry 98172
##JCAMP-DX=Revision 4.10 
##DATA TYPE=MASS SPECTRUM
##SAMPLE DESCRIPTION=Exported from NIST MS Search
##NAMES=HP
##CAS NAME=2-Azetidinone, 3-methyl-1,4-diphenyl-
##MOLFORM=C16H15NO
##CAS REGISTRY NO=7468-12-4
##MP= -300
##BP= -300
##MW= 237
##$RETENTION INDEX=0
##$CONDENSED SPECTRUM=NO
##NPOINTS= 31
##XYDATA=(XY..XY) 1 
    50         20
    51         70
    52         20
    63         40
    64         30
    65         40
    75         10
    76         30
    77        410
    78        110
    79         10
    89         50
    90         20
    91        180
    92         10
   102         20
   103         60
   104         90
   105         30
   115        100
   116         40
   117        480
   118        999
   119        130
   120         10
   152         20
   180        180
   181        150
   182         30
   237         50
   238         10