##TITLE=Library Entry 16816
##JCAMP-DX=Revision 4.10 
##DATA TYPE=MASS SPECTRUM
##SAMPLE DESCRIPTION=D.HENNEBERG, MAX-PLANCK INSTITUTE, MULHEIM, WEST GERMAN
Y
##NAMES=HP
##CAS NAME=2-Pentanol, 3-chloro-4-methyl-, (R*,S*)-(.+/-.)-
##MOLFORM=C6H13ClO
##CAS REGISTRY NO=74685-48-6
##MP= -300
##BP= -300
##MW= 136
##$RETENTION INDEX=1689
##$CONDENSED SPECTRUM=NO
##NPOINTS= 69
##XYDATA=(XY..XY) 1 
    25          0
    26          6
    27         77
    28         28
    29         82
    30          2
    31          5
    35          3
    36         34
    37          3
    38         14
    39         68
    40         12
    41        182
    42         28
    43        620
    44         38
    45        999
    46         21
    47          2
    48          0
    49          2
    50          3
    51          4
    52          1
    53         10
    54          3
    55         32
    56         33
    57        100
    58        181
    59         14
    60          0
    61          0
    62          0
    63          3
    65          3
    66          0
    67         19
    68          1
    69         23
    70          1
    71          3
    72          4
    73          1
    75          1
    76         22
    77          3
    78          8
    79          2
    80          0
    81          1
    82          4
    83         13
    84          7
    85         53
    86          2
    90          5
    91          1
    92          2
    93          0
    94          0
    98          0
    99          0
   100         40
   101          2
   103          1
   105          0
   121          1