##TITLE=Library Entry 47345
##JCAMP-DX=Revision 4.10 
##DATA TYPE=MASS SPECTRUM
##SAMPLE DESCRIPTION=D.HENNEBERG, MAX-PLANCK INSTITUTE, MULHEIM, WEST GERMAN
Y
##NAMES=HP
##CAS NAME=Silane, methyltris[[5-methyl-2-(1-methylethyl)cyclohexyl]oxy]-
##MOLFORM=C31H60O3Si
##CAS REGISTRY NO=74685-38-4
##MP= -300
##BP= -300
##MW= 508
##$RETENTION INDEX=0
##$CONDENSED SPECTRUM=NO
##NPOINTS= 300
##XYDATA=(XY..XY) 1 
    26         31
    29         32
    30          0
    31          1
    37          3
    38          5
    39         31
    40         12
    41        134
    42         20
    43        134
    45          0
    46          1
    47          1
    48          3
    49          3
    50          5
    51          5
    52          4
    53         19
    54         11
    55        252
    56         30
    57        185
    58          7
    59          2
    60          1
    61         36
    62          3
    63          5
    64          1
    65          7
    66          4
    67         93
    68         25
    69        278
    70         24
    71         24
    72          2
    73          1
    74          3
    75          9
    76          4
    77        999
    78         63
    79         62
    80         33
    81        617
    82        111
    83        496
    84         35
    85          4
    87          5
    88          0
    89          2
    90          2
    91         21
    92          7
    93         48
    94         21
    95        324
    96         64
    97         90
    98          8
    99          5
   100          2
   101          9
   102          2
   103         60
   104          8
   105         13
   106          1
   107         20
   108          5
   109         35
   110         23
   111         15
   112          4
   113          7
   114          2
   115         23
   116          2
   117         13
   118          3
   119         22
   120          3
   121         33
   122          6
   123         77
   124         10
   125          8
   126          2
   127          6
   128          2
   129         18
   130          6
   131         32
   132          4
   133         10
   134          3
   135         30
   136         71
   137        424
   138        648
   139        455
   140         47
   141          8
   142          2
   143         10
   144          3
   145         17
   146          2
   147         25
   148          3
   149         11
   150          1
   151          2
   153          2
   154          1
   155          9
   156          1
   157         10
   158          2
   159         14
   160          3
   161         11
   162          2
   163          3
   165          2
   167          2
   169          3
   170          1
   171         15
   172          3
   173         11
   174          1
   175          9
   176          1
   177          1
   178          1
   179          1
   181          1
   182          1
   183          3
   184          1
   185          5
   186          1
   187          7
   188          2
   189          6
   190          1
   191         24
   192          8
   193          4
   194          1
   195          2
   197         13
   198          3
   199         10
   200          1
   201          9
   202          2
   203          1
   211          2
   212          2
   213         13
   214          3
   215         48
   216          8
   217         14
   218          3
   225          2
   226          0
   227          2
   228          1
   229         40
   230         15
   231         77
   232         23
   233         35
   234          6
   235          2
   239          0
   241          5
   242          1
   243          5
   244          1
   245          1
   253          2
   254          0
   255          2
   256          1
   257          2
   259          2
   261          3
   262          0
   266          0
   267          5
   268          5
   269         13
   270          5
   271          3
   272          1
   273          1
   275          1
   276          1
   279          0
   281          1
   282          1
   283          6
   284          3
   285         92
   286         18
   287          7
   288          2
   295          2
   296          0
   297          2
   298          0
   299          6
   300          1
   301          0
   309          0
   311          4
   312          1
   313          9
   314          2
   315          1
   318          1
   319          0
   321          0
   323          1
   325          3
   326          2
   327          7
   328          2
   329          1
   337          3
   338          0
   339          3
   340          1
   341          0
   351          2
   352          4
   353         15
   354          6
   355         13
   356          3
   357          1
   362          0
   364          0
   365          2
   367         23
   368         17
   369        373
   370        131
   371         50
   372          9
   373          2
   380          0
   381          8
   382          4
   383          2
   384          0
   395          1
   396          1
   397          0
   399          2
   407          1
   409          1
   410          1
   421          2
   423        542
   424        178
   425         50
   426         12
   427          2
   437          4
   438          3
   439          1
   451          6
   452          5
   453          2
   464          1
   465         15
   466          8
   467          2
   479          2
   491          0
   493         38
   494         15
   495          4
   505          0
   506          2
   507          5
   508        307
   509        119
   510         33
   511          7
   512          0