##TITLE=Library Entry 25133
##JCAMP-DX=Revision 4.10 
##DATA TYPE=MASS SPECTRUM
##SAMPLE DESCRIPTION=D.HENNEBERG, MAX-PLANCK INSTITUTE, MULHEIM, WEST GERMAN
Y
##NAMES=HP
##CAS NAME=3-Eicosene, (E)-
##MOLFORM=C20H40
##CAS REGISTRY NO=74685-33-9
##MP= -300
##BP= -300
##MW= 280
##$RETENTION INDEX=0
##$CONDENSED SPECTRUM=NO
##NPOINTS= 121
##XYDATA=(XY..XY) 1 
    22          0
    23          0
    24          1
    25          2
    26         10
    27         86
    28         18
    29        276
    30          7
    31          2
    33          1
    34          0
    35          2
    36          2
    37          5
    38          3
    39         78
    40         15
    41        890
    42        173
    43        912
    44         18
    45          0
    47          1
    48          1
    49          1
    50          4
    51          4
    52          4
    53         44
    54        124
    55        929
    56        527
    57        999
    58         43
    59          0
    60          0
    61          1
    62          0
    63          2
    64          0
    65         11
    66         22
    67        206
    68        180
    69        941
    70        497
    71        473
    72         21
    73          0
    74          1
    75          1
    76          0
    77          9
    78          8
    79         21
    80         12
    81        109
    82        223
    83        736
    84        289
    85        256
    86         16
    91          8
    92          6
    93          6
    94          6
    95         45
    96        115
    97        626
    98        153
    99         51
   100          2
   104          0
   105          5
   106          2
   107          1
   108          0
   109         17
   110         45
   111        299
   112         89
   113         23
   114          0
   117          0
   121          0
   122          0
   123         11
   124         23
   125        123
   126         48
   127         13
   128          0
   137          4
   138         11
   139         42
   140         27
   141          6
   151          0
   152          7
   153         21
   154         16
   155          4
   166          4
   167         11
   168          9
   169          2
   180          2
   181          5
   182          7
   183          1
   194          1
   195          2
   196          5
   208          0
   209          1
   210          3
   224          0
   252          3
   280         23
   281          4