##TITLE=Library Entry 81060
##JCAMP-DX=Revision 4.10 
##DATA TYPE=MASS SPECTRUM
##SAMPLE DESCRIPTION=D.HENNEBERG, MAX-PLANCK INSTITUTE, MULHEIM, WEST GERMAN
Y
##NAMES=HP
##CAS NAME=Benzene, 1,1',1''-[1-(3-methyl-3-butenyl)-1,3,5-pentanetriyl]tris
[4-methyl-
##MOLFORM=C31H38
##CAS REGISTRY NO=74685-55-5
##MP= -300
##BP= -300
##MW= 410
##$RETENTION INDEX=0
##$CONDENSED SPECTRUM=NO
##NPOINTS= 97
##XYDATA=(XY..XY) 1 
    28         66
    31          3
    36          2
    38          4
    41          8
    44         83
    51          7
    53          1
    54          4
    55         68
    56          6
    57         10
    59          1
    65          6
    66          2
    67         11
    69         15
    70          4
    71          6
    77         20
    78         10
    79         16
    80          4
    81        102
    82         11
    91         45
    92          3
    94          1
    95          7
   103         10
   104         17
   105        999
   106        122
   107          5
   115         10
   116          7
   117         53
   118        159
   119         97
   120          9
   121          3
   128          8
   129         26
   130         11
   131        253
   132         37
   133          7
   142          6
   143         13
   144         29
   145         33
   155          2
   157         12
   158          2
   159         14
   172         14
   173        101
   174         17
   175          3
   177          3
   178          7
   179          8
   180          4
   185          1
   186          3
   187          3
   192          3
   193          5
   194          3
   195          5
   199          8
   206          3
   207          8
   208          8
   209          6
   221         60
   222         76
   223         55
   224         26
   234          9
   235         82
   236         71
   237         17
   247          4
   249         12
   250          2
   263          2
   290          3
   291         11
   292          8
   339         25
   340         10
   341          2
   354         62
   355         16
   410         22
   411          5