##TITLE=Library Entry 40978
##JCAMP-DX=Revision 4.10 
##DATA TYPE=MASS SPECTRUM
##SAMPLE DESCRIPTION=D.HENNEBERG, MAX-PLANCK INSTITUTE, MULHEIM, WEST GERMAN
Y
##NAMES=HP
##CAS NAME=3-Pentanol, 2-chloro-4-methyl-, (R*,S*)-(.+/-.)-
##MOLFORM=C6H13ClO
##CAS REGISTRY NO=74685-65-7
##MP= -300
##BP= -300
##MW= 136
##$RETENTION INDEX=0
##$CONDENSED SPECTRUM=NO
##NPOINTS= 71
##XYDATA=(XY..XY) 1 
    23          0
    24          0
    25          3
    26         27
    27        279
    28         80
    29        591
    30         31
    31         79
    33          0
    35          6
    36         55
    37          7
    38         26
    39        143
    40         30
    41        378
    42         62
    43        863
    44         16
    45         67
    46          1
    48          0
    49          3
    50          4
    51         10
    52          3
    53         23
    54          8
    55        438
    56        123
    57        976
    58        294
    59         20
    60          1
    61          1
    62          2
    63         16
    64          3
    65         11
    66          3
    67         30
    68          2
    69         84
    70         19
    71        142
    72         23
    73        999
    74         40
    75          3
    77          5
    78          0
    79          3
    80          0
    81          2
    82          9
    83          5
    84         18
    85         13
    86          0
    91          0
    92         10
    93        137
    94          8
    95         42
    96          3
    97          1
    98         10
    99          0
   100        101
   101          6