##TITLE=Library Entry 76526
##JCAMP-DX=Revision 4.10 
##DATA TYPE=MASS SPECTRUM
##SAMPLE DESCRIPTION=Chuck Anderson, Aldrich Chemical Co.
##NAMES=HP
##CAS NAME=2-Cyanobenzaldehyde
##MOLFORM=C8H5NO
##CAS REGISTRY NO=7468-67-9
##MP= -300
##BP= -300
##MW= 131
##$RETENTION INDEX=0
##$CONDENSED SPECTRUM=NO
##NPOINTS= 46
##XYDATA=(XY..XY) 1 
    25          2
    26         14
    27         24
    28          8
    29         42
    36          4
    37         27
    38         26
    39         30
    40          0
    43          1
    48          3
    49         20
    50        136
    51         84
    52         30
    53          5
    60          2
    61         12
    62         13
    63         15
    64          7
    65          2
    72          1
    73         13
    74         54
    75        138
    76        318
    77         29
    78          2
    84          1
    85          3
    86          4
    87          4
    88          4
    98          2
    99         20
   100          9
   101          4
   102        285
   103        999
   104        223
   105         13
   130        185
   131         56
   132          5