##TITLE=Library Entry 57629
##JCAMP-DX=Revision 4.10 
##DATA TYPE=MASS SPECTRUM
##SAMPLE DESCRIPTION=D.HENNEBERG, MAX-PLANCK INSTITUTE, MULHEIM, WEST GERMAN
Y
##NAMES=HP
##CAS NAME=Indeno[1,2-b]pyran-5(2H)-one, 3,4-dihydro-2,2-dimethoxy-4-phenyl-
##MOLFORM=C20H18O4
##CAS REGISTRY NO=74685-19-1
##MP= -300
##BP= -300
##MW= 322
##$RETENTION INDEX=0
##$CONDENSED SPECTRUM=NO
##NPOINTS= 205
##XYDATA=(XY..XY) 1 
    26          9
    27         19
    28         23
    29         26
    30          3
    31         30
    32          2
    33          0
    34          0
    39          2
    41          3
    42         30
    43        353
    44         10
    45         19
    46          0
    47          2
    48          0
    49          0
    50          5
    51          2
    52          1
    53          0
    55          1
    56          0
    57         31
    58        215
    59         27
    60          0
    62          0
    63          1
    65          1
    69          0
    71          0
    72          0
    73          6
    74          5
    75          9
    76         33
    77         14
    78          3
    79          0
    83          0
    87          0
    88        999
    89         54
    90          6
    91          9
    92          0
    94          0
    95          0
    96          0
    97          0
    99          0
   101          8
   102          6
   103          9
   104         33
   105         15
   106          1
   107          0
   108          0
   109          0
   110          0
   111          0
   113          0
   114          2
   115          9
   116          3
   117          4
   118          0
   119          0
   121          9
   122          1
   123          0
   124          1
   125          0
   126          1
   127          1
   128          2
   129         15
   130          2
   131          6
   132          0
   133          3
   134          0
   135          0
   136          0
   138          2
   139          1
   140          0
   141          0
   142          0
   143          1
   144          0
   145          1
   146          1
   147          2
   148          0
   149          0
   150          3
   151          8
   152         10
   153          1
   154          0
   155          0
   157          1
   158          0
   159          0
   161          5
   162          0
   163          4
   164          3
   165          7
   166          1
   167          0
   169          0
   170          5
   171          1
   172          0
   173          0
   174          0
   175          3
   176         20
   177         16
   178         26
   179          5
   180          0
   181          0
   182          0
   183          0
   184          0
   185          0
   187          0
   188          1
   189         18
   190          5
   191         11
   192          3
   193          1
   198          1
   199          0
   200          0
   201          3
   202         11
   203          8
   204          3
   205         10
   206          8
   207          5
   208          1
   213          3
   214          0
   215          1
   216          0
   217          4
   218          6
   219          6
   220         14
   221          2
   222          0
   223          0
   229          1
   230          2
   231          9
   232          3
   233        113
   234         66
   235         47
   236          8
   237          0
   244          0
   245          1
   246          3
   247         13
   248         26
   249         12
   250          2
   257          0
   258          1
   259          5
   260          1
   261          1
   262          1
   263          0
   265          1
   266          0
   273          0
   274          0
   275          7
   276          4
   277          3
   278          0
   289          1
   290          4
   291         45
   292          9
   293          1
   308          6
   309          1
   321          0
   322         86
   323         19
   324          3
   325          0