##TITLE=Library Entry 42427
##JCAMP-DX=Revision 4.10 
##DATA TYPE=MASS SPECTRUM
##SAMPLE DESCRIPTION=D.HENNEBERG, MAX-PLANCK INSTITUTE, MULHEIM, WEST GERMAN
Y
##NAMES=HP
##CAS NAME=3,9-Dioxa-2,10-disilaundecane, 2,2,10,10-tetramethyl-5-[(trimethy
lsilyl)oxy]-
##MOLFORM=C14H36O3Si3
##CAS REGISTRY NO=74685-22-6
##MP= -300
##BP= -300
##MW= 336
##$RETENTION INDEX=0
##$CONDENSED SPECTRUM=NO
##NPOINTS= 154
##XYDATA=(XY..XY) 1 
    24          1
    28          4
    29          7
    31          4
    32          3
    34          3
    35          1
    36          2
    38          4
    39          6
    40          2
    41         19
    42          2
    43         29
    44         24
    45         65
    46          7
    47         18
    49          0
    50          0
    51          0
    52          6
    53          3
    54          3
    55         17
    56          0
    58         10
    59         45
    60         10
    61         14
    62          1
    63          0
    64          1
    65          1
    66          9
    67         19
    69          7
    70          1
    71        252
    72         29
    73        999
    74         78
    75        124
    76          7
    77         10
    79          2
    80          2
    82          2
    83          4
    84          0
    85         82
    86          4
    87          6
    89          5
    91          8
    92          0
    95          5
    99         14
   100          2
   101         33
   102          5
   103         32
   104          4
   105          0
   111          0
   112          3
   113          6
   115          8
   116         16
   117         18
   118          4
   119          7
   120          1
   121          0
   122          1
   123          1
   125          1
   127          2
   128          1
   129         74
   130         11
   131         17
   132          3
   133         44
   134          8
   135          5
   140          0
   141          5
   143        993
   144        126
   145         39
   146          3
   147        232
   148         36
   149         33
   150          2
   151          3
   154          2
   155          9
   156         19
   157         30
   158          6
   159          1
   160          2
   161          0
   163          3
   164          1
   165          1
   166          2
   167          3
   168          1
   169          3
   171          0
   176          2
   177          1
   178          0
   187          0
   189         17
   190          3
   191          1
   192          2
   196          1
   198          1
   202          0
   203         10
   204          7
   205         10
   206          7
   208          8
   209          0
   211          1
   215          1
   217          1
   218          1
   219          1
   220          0
   221          4
   222          1
   230          0
   231         11
   232          3
   233         64
   234         15
   235          7
   236          1
   253          1
   257          2
   271          0
   279          0
   282          4
   283          1
   289          0
   295          1
   307          1