##TITLE=Library Entry 24660
##JCAMP-DX=Revision 4.10 
##DATA TYPE=MASS SPECTRUM
##SAMPLE DESCRIPTION=D.HENNEBERG, MAX-PLANCK INSTITUTE, MULHEIM, WEST GERMAN
Y
##NAMES=HP
##CAS NAME=Phosphine, cyclohexyl(1,1-dimethylethyl)methyl-
##MOLFORM=C11H23P
##CAS REGISTRY NO=74685-81-7
##MP= -300
##BP= -300
##MW= 186
##$RETENTION INDEX=0
##$CONDENSED SPECTRUM=NO
##NPOINTS= 113
##XYDATA=(XY..XY) 1 
    26         36
    27         37
    28         53
    29        175
    30          4
    31          4
    34          1
    37          2
    38          3
    39         54
    40         32
    41        385
    42         21
    43         35
    44         13
    45         19
    46          8
    47         16
    48         32
    49        430
    50         12
    51          3
    52          4
    53         38
    54         33
    55        343
    56         37
    57        999
    58         46
    59         41
    60          5
    61        126
    62         82
    63         15
    64          1
    65          6
    66          5
    67         89
    68          6
    69          8
    70          0
    71          9
    72          2
    73         24
    74         25
    75        213
    76         31
    77          6
    78          1
    79         24
    80         11
    81        124
    82        222
    83        304
    84         21
    85          9
    86          1
    87         21
    88         86
    89         81
    90          6
    91          2
    93          5
    94          1
    95          3
    96          1
    97          2
    99          4
   100          4
   101         27
   102         75
   103         36
   104        238
   105        124
   106          6
   107          0
   110          0
   113          2
   114          4
   115         57
   116          4
   117          1
   118          4
   119          1
   120          1
   121          2
   123          1
   127          5
   128          3
   129         82
   130        402
   131        206
   132         16
   133          0
   137          0
   139          0
   140          1
   144          9
   145         32
   146          4
   149          0
   157         17
   158          3
   160          3
   165          0
   166          2
   171         27
   172          3
   181          0
   185         13
   186        258
   187         28
   188          2