##TITLE=Library Entry 47316
##JCAMP-DX=Revision 4.10 
##DATA TYPE=MASS SPECTRUM
##SAMPLE DESCRIPTION=D.HENNEBERG, MAX-PLANCK INSTITUTE, MULHEIM, WEST GERMAN
Y
##NAMES=HP
##CAS NAME=Borinic acid, diethyl-, phenyl ester
##MOLFORM=C10H15BO
##CAS REGISTRY NO=74685-90-8
##MP= -300
##BP= -300
##MW= 162
##$RETENTION INDEX=0
##$CONDENSED SPECTRUM=NO
##NPOINTS= 85
##XYDATA=(XY..XY) 1 
    27         29
    28         22
    29         28
    30          1
    31          2
    34          0
    36          0
    37          1
    38          5
    39         36
    40         18
    41         36
    42          2
    43          4
    45          1
    47          2
    49          1
    50         13
    51        153
    52         12
    53          7
    54          2
    55         10
    56         12
    57         49
    58          2
    59          7
    62          1
    63          6
    64          3
    65         28
    66         26
    67          3
    68          5
    69         11
    70          0
    71          0
    74          1
    75          4
    76         20
    77        999
    78         83
    79          6
    82          0
    83          3
    84          0
    85          2
    86          1
    88          0
    89          3
    90          3
    91         53
    92         11
    93          2
    94         77
    95          4
    96          1
    97          1
   102          1
   103          4
   104         33
   105         84
   106          8
   108          1
   110          0
   116          0
   117          2
   118          1
   119          2
   121          0
   123          1
   124          7
   125         15
   126          0
   127          0
   130          3
   131          8
   132        226
   133        933
   134         87
   135          4
   161         49
   162        214
   163         23
   164          0