##TITLE=Library Entry 24718
##JCAMP-DX=Revision 4.10 
##DATA TYPE=MASS SPECTRUM
##SAMPLE DESCRIPTION=D.HENNEBERG, MAX-PLANCK INSTITUTE, MULHEIM, WEST GERMAN
Y
##NAMES=HP
##CAS NAME=9-Eicosene, (E)-
##MOLFORM=C20H40
##CAS REGISTRY NO=74685-29-3
##MP= -300
##BP= -300
##MW= 280
##$RETENTION INDEX=0
##$CONDENSED SPECTRUM=NO
##NPOINTS= 115
##XYDATA=(XY..XY) 1 
    22          1
    25          2
    26         10
    27        101
    28          9
    29        319
    30          7
    31          2
    32          0
    33          2
    34          0
    35          1
    36          1
    37          5
    38          3
    39         77
    40         15
    41        673
    42        140
    43        923
    44         12
    45          0
    46          0
    47          1
    48          0
    49          1
    50          4
    51          4
    52          3
    53         44
    54        232
    55        998
    56        568
    57        999
    58         43
    59          0
    60          0
    62          1
    63          2
    64          1
    65         12
    66         20
    67        215
    68        141
    69        827
    70        524
    71        450
    72         22
    73          1
    75          1
    76          0
    77         11
    78          9
    79         27
    80         16
    81        113
    82        201
    83        851
    84        303
    85        219
    86         15
    91          6
    92          2
    93          7
    94          3
    95         47
    96        107
    97        644
    98        169
    99         45
   100          3
   105          2
   106          0
   107          0
   108          0
   109         21
   110         42
   111        295
   112         95
   113         22
   114          0
   117          0
   121          0
   123          9
   124         24
   125        121
   126         48
   127         10
   128          0
   137          4
   138         14
   139         41
   140         29
   141          7
   152          8
   153         22
   154         18
   155          3
   166          3
   167         10
   168         12
   169          1
   180          2
   181          6
   182          6
   194          1
   195          2
   196          3
   209          1
   210          1
   223          0
   224          0
   252          2
   280         25
   281          5