##TITLE=Library Entry 20422
##JCAMP-DX=Revision 4.10 
##DATA TYPE=MASS SPECTRUM
##SAMPLE DESCRIPTION=D.HENNEBERG, MAX-PLANCK INSTITUTE, MULHEIM, WEST GERMAN
Y
##NAMES=HP
##CAS NAME=Pentadecanoic acid, 14-bromo-
##MOLFORM=C15H29BrO2
##CAS REGISTRY NO=74685-41-9
##MP= -300
##BP= -300
##MW= 320
##$RETENTION INDEX=0
##$CONDENSED SPECTRUM=NO
##NPOINTS= 253
##XYDATA=(XY..XY) 1 
    26         15
    27         56
    28         60
    29        162
    30          6
    31          0
    32          0
    33          0
    35          3
    36         25
    37          1
    38          8
    39         42
    41        494
    42        122
    43        613
    44         17
    45         52
    47          1
    48          0
    50          4
    51          2
    52          1
    53         24
    54         78
    55        999
    56        204
    57        600
    58         42
    59         52
    60        774
    61        160
    62          8
    63          1
    64          0
    65          5
    66          6
    67        152
    68        128
    69        784
    70        159
    71        305
    72         19
    73        789
    74         66
    75          5
    76          1
    77          4
    78          6
    79         32
    80         29
    81        177
    82        130
    83        567
    84        188
    85        196
    86         19
    87        157
    88         23
    89          5
    90          1
    91         11
    92          6
    93         34
    94         24
    95        142
    96        144
    97        459
    98        208
    99         85
   100         28
   101        108
   102         24
   103          2
   104          0
   105         11
   106          3
   107         38
   108         19
   109         90
   110         73
   111        268
   112         75
   113         48
   114         42
   115        133
   116         46
   117          5
   118          3
   119         11
   120          3
   121         49
   122         21
   123         82
   124         52
   125        193
   126         47
   127         43
   128          8
   129        297
   130         35
   131          6
   132          2
   133         14
   134         14
   135         65
   136         17
   137         49
   138         46
   139        118
   140         24
   141         16
   142          4
   143         66
   144         15
   145          2
   147         12
   148         23
   149         35
   150         20
   151         41
   152         25
   153         67
   154         12
   155          9
   156          2
   157         50
   158         12
   159          2
   160          1
   161         11
   162         14
   163         27
   164         15
   165         27
   166         15
   167         48
   168         11
   169          5
   170          3
   171         55
   172         12
   173          3
   174          0
   175          6
   176          5
   177         11
   178         27
   179         25
   180         43
   181         44
   182          9
   183          4
   184          2
   185         51
   186          8
   187          2
   188          3
   190          4
   191         13
   192          5
   193         12
   194          8
   195         12
   196          4
   197         11
   198          3
   199         23
   200          5
   201          2
   202          3
   203          5
   204         17
   205        109
   206         21
   207         18
   208          2
   209          3
   211          3
   212          2
   213          6
   214          2
   215          1
   216          2
   217          2
   218          4
   219          8
   220          3
   221         17
   222         80
   223        229
   224         40
   225          4
   227          3
   228          1
   229          1
   230          1
   231          2
   232          4
   233          2
   234          2
   235         10
   236          2
   237          9
   238          4
   239          3
   240         30
   241        448
   242         81
   243          9
   244          1
   245          1
   247          0
   249          3
   250          1
   251          5
   252          0
   253          0
   256          5
   257          1
   258          6
   259          5
   260         18
   261         12
   262         16
   263         13
   264          4
   265          6
   266          1
   268          0
   273          1
   275          0
   276          0
   277         35
   278          5
   279         34
   280          6
   283          1
   284          2
   285          0
   286          1
   291          5
   292          2
   293          5
   294          0
   302          0
   303          2
   305          1
   320         93
   321         16
   322         96
   323         16
   324          0