##TITLE=Library Entry 62029
##JCAMP-DX=Revision 4.10 
##DATA TYPE=MASS SPECTRUM
##SAMPLE DESCRIPTION=Exported from NIST MS Search
##NAMES=HP
##CAS NAME=2-Azetidinone, 3,3-dimethyl-4-phenyl-1-(phenylmethyl)-
##MOLFORM=C18H19NO
##CAS REGISTRY NO=7468-30-6
##MP= -300
##BP= -300
##MW= 265
##$RETENTION INDEX=0
##$CONDENSED SPECTRUM=NO
##NPOINTS= 19
##XYDATA=(XY..XY) 1 
    65         70
    77         70
    91        999
    92        110
    93         10
   104         60
   115         60
   117        630
   118         50
   131         90
   132        999
   133        110
   134         10
   194        150
   195         20
   196        230
   197         30
   264         10
   265         20