##TITLE=Library Entry 33627
##JCAMP-DX=Revision 4.10 
##DATA TYPE=MASS SPECTRUM
##SAMPLE DESCRIPTION=D.HENNEBERG, MAX-PLANCK INSTITUTE, MULHEIM, WEST GERMAN
Y
##NAMES=HP
##CAS NAME=2,4-Dodecadiene, (E,Z)-
##MOLFORM=C12H22
##CAS REGISTRY NO=74685-27-1
##MP= -300
##BP= -300
##MW= 166
##$RETENTION INDEX=1402
##$CONDENSED SPECTRUM=NO
##NPOINTS= 102
##XYDATA=(XY..XY) 1 
    22          1
    25          1
    26          5
    27        118
    28         23
    29        123
    30          2
    34          0
    35          1
    36          0
    37          3
    38          4
    39        110
    40         25
    41        296
    42         29
    43        148
    44         37
    45          0
    47          2
    48          0
    49          0
    50          8
    51         21
    52         17
    53        117
    54         59
    55        166
    56         23
    57         24
    58          1
    62          2
    63          6
    64          3
    65         32
    66         60
    67        352
    68        999
    69        110
    70         21
    71          2
    72          1
    74          1
    75          5
    76          3
    77         67
    78         37
    79        175
    80         60
    81        583
    82        225
    83         27
    84          4
    85          0
    86          0
    89          1
    91         28
    92          9
    93         27
    94         11
    95        118
    96         40
    97          7
    98          3
   102          1
   103          1
   104          0
   105          4
   106          1
   107          5
   108          1
   109         26
   110         17
   111          3
   112          0
   115          5
   116          0
   117          1
   119          0
   121          0
   123          9
   124         10
   125          1
   127          1
   128          4
   129          2
   130          1
   131          0
   137          3
   141          1
   142          0
   151          0
   152          2
   153          2
   154          1
   155          1
   156          1
   158          0
   164          6
   165          0
   166         87
   167         11