##TITLE=Library Entry 81894
##JCAMP-DX=Revision 4.10 
##DATA TYPE=MASS SPECTRUM
##SAMPLE DESCRIPTION=D.HENNEBERG, MAX-PLANCK INSTITUTE, MULHEIM, WEST GERMAN
Y
##NAMES=HP
##CAS NAME=Benzene, 1,1'-[1-(3-methyl-3-butenyl)-1,3-propanediyl]bis[4-methy
l-
##MOLFORM=C22H28
##CAS REGISTRY NO=74685-54-4
##MP= -300
##BP= -300
##MW= 292
##$RETENTION INDEX=0
##$CONDENSED SPECTRUM=NO
##NPOINTS= 83
##XYDATA=(XY..XY) 1 
    27          2
    28         91
    41         11
    44         44
    45          2
    50          8
    51          6
    53         10
    54          6
    55         78
    56         12
    57         11
    59          4
    65          8
    66          3
    67         11
    69         13
    70         18
    71          9
    77         27
    78         19
    79         52
    80          7
    81        116
    82         13
    83          8
    88          4
    91         65
    92          5
    93          7
    95         11
    97          6
   101          6
   103         22
   104         25
   105        999
   106        134
   107          8
   109          3
   115         20
   116         17
   117         60
   118        251
   119        108
   120          4
   128         12
   129         39
   130         17
   131        122
   132         18
   133          3
   142          6
   143         20
   144        168
   145         39
   146          6
   149          4
   155          4
   157          9
   158          3
   159          7
   165          9
   171          6
   172         12
   173         64
   174         16
   179          6
   180          7
   182          7
   187          6
   190          3
   191          5
   200          3
   207          9
   209          2
   221        114
   222         36
   235          7
   236        290
   237         61
   238          6
   292         26
   293         13