##TITLE=Library Entry 11591
##JCAMP-DX=Revision 4.10 
##DATA TYPE=MASS SPECTRUM
##SAMPLE DESCRIPTION=D.HENNEBERG, MAX-PLANCK INSTITUTE, MULHEIM, WEST GERMAN
Y
##NAMES=HP
##CAS NAME=Benzenemethanol, .alpha.-methyl-.alpha.-2,5,7-octatrienyl-
##MOLFORM=C16H20O
##CAS REGISTRY NO=74685-13-5
##MP= -300
##BP= -300
##MW= 228
##$RETENTION INDEX=0
##$CONDENSED SPECTRUM=NO
##NPOINTS= 151
##XYDATA=(XY..XY) 1 
    26          4
    27         39
    28         15
    29         22
    30          0
    31          0
    36          0
    37          0
    38          1
    39         52
    40        144
    41         69
    42          4
    43        999
    44         22
    45          3
    49          0
    50          8
    51         41
    52         13
    53         21
    54          9
    55         17
    56          1
    57          1
    58          0
    62          1
    63          6
    64          1
    65         24
    66         14
    67         21
    68          5
    69          3
    70          0
    71          0
    74          1
    75          2
    76          5
    77        132
    78         38
    79         67
    80         12
    81          6
    82          0
    83          0
    84          0
    85          0
    86          0
    87          0
    88          0
    89          3
    90          1
    91         51
    92         11
    93         33
    94          3
    95          2
    96          0
    97          0
    98          0
    99          1
   100          0
   101          1
   102          1
   103          8
   104          2
   105        147
   106         15
   107          6
   108         69
   109          8
   110          0
   111          0
   114          0
   115          9
   116          2
   117          4
   118          2
   119          1
   120         13
   121        988
   122         87
   123          5
   124          0
   125          0
   126          0
   127          2
   128          6
   129          5
   130          2
   131          4
   132          2
   133          1
   134          1
   135          0
   137          1
   139          0
   141          3
   142          1
   143          2
   144          1
   145          2
   146          0
   147          0
   149          0
   151          0
   152          1
   153          1
   154          0
   155          2
   156          0
   157         12
   158          2
   159         15
   160          2
   161          1
   165         15
   166          0
   167          1
   168          0
   169          0
   170          0
   171          1
   172          1
   173          3
   174          0
   175          0
   177          0
   178          1
   179          0
   180          0
   181          0
   182          0
   184          2
   185          1
   187          0
   193          0
   195          0
   199          1
   205          0
   209          0
   210          2
   211          0
   213          0
   221          1
   222          0
   223          0
   227          0
   228          7
   229          0