##TITLE=Library Entry 32813
##JCAMP-DX=Revision 4.10 
##DATA TYPE=MASS SPECTRUM
##SAMPLE DESCRIPTION=D.HENNEBERG, MAX-PLANCK INSTITUTE, MULHEIM, WEST GERMAN
Y
##NAMES=HP
##CAS NAME=7-Hexadecyne
##MOLFORM=C16H30
##CAS REGISTRY NO=74685-28-2
##MP= -300
##BP= -300
##MW= 222
##$RETENTION INDEX=0
##$CONDENSED SPECTRUM=NO
##NPOINTS= 127
##XYDATA=(XY..XY) 1 
    23          1
    26         11
    27        211
    28         92
    29        383
    30          9
    34          1
    37          8
    38          8
    39        151
    40         40
    41        689
    42        105
    43        518
    44         41
    45          1
    46          2
    49          1
    50          8
    51         32
    52         50
    53        126
    54        706
    55        708
    56        106
    57        172
    58          5
    59          1
    61          2
    62          4
    63          7
    64          4
    65         65
    66         66
    67        999
    68        323
    69        371
    70         57
    71         22
    72          1
    73          2
    74          1
    75          5
    76          6
    77         88
    78         49
    79        174
    80         67
    81        848
    82        397
    83        182
    84         12
    85          5
    87          1
    88          2
    89          4
    91         69
    92         17
    93         68
    94         26
    95        559
    96        251
    97         85
    98          7
   101          1
   102          2
   103          3
   104          3
   105         26
   106          4
   107         25
   108          6
   109        230
   110         73
   111         19
   112          1
   115          8
   116          2
   117          8
   118          6
   119          8
   120          1
   121         12
   122          4
   123         69
   124         43
   125          4
   126          0
   128          9
   129          6
   130          1
   131          5
   132          1
   133          1
   134          1
   135          6
   136          3
   137         44
   138         14
   139          1
   141          3
   142          2
   143          1
   147          2
   149          3
   150          2
   151         11
   152          7
   154          1
   155          0
   163          1
   164          1
   165         19
   166         11
   167          1
   177          1
   178          2
   179          5
   180          1
   191          3
   193          7
   200          1
   203          1
   204          4
   216          1
   218          4
   222          1