##TITLE=Library Entry 55893
##JCAMP-DX=Revision 4.10 
##DATA TYPE=MASS SPECTRUM
##SAMPLE DESCRIPTION=Drug Lab
##NAMES=HP
##CAS NAME=N-Propyl-3,4-methylenedioxyamphetamine
##MOLFORM=C13H19NO2
##CAS REGISTRY NO=74698-36-5
##MP= -300
##BP= -300
##MW= 221
##$RETENTION INDEX=0
##$CONDENSED SPECTRUM=NO
##NPOINTS= 70
##XYDATA=(XY..XY) 1 
    41         45
    42         29
    43         54
    44        371
    45         10
    50          9
    51         47
    52         10
    53          9
    54          5
    55          5
    56         36
    57         16
    58          8
    62          3
    63         12
    64          3
    65         11
    66          2
    67          2
    68          3
    70         13
    74          2
    75          3
    76          6
    77         71
    78         19
    79         18
    80          3
    84         34
    85          5
    86        999
    87         56
    88          2
    89          6
    90          3
    91          9
    92          1
    93          2
    96          4
   102          2
   103         18
   104         10
   105         34
   106          8
   107          3
   115          1
   117          2
   118          2
   119          2
   120          1
   121          4
   131          7
   132          3
   133          7
   134          4
   135         94
   136         15
   137          2
   147          6
   148          4
   149          3
   161          6
   162          6
   163         14
   164          2
   192          2
   206          3
   219          2
   220          1