##TITLE=Library Entry 39934
##JCAMP-DX=Revision 4.10 
##DATA TYPE=MASS SPECTRUM
##SAMPLE DESCRIPTION=Drug Lab
##NAMES=HP
##CAS NAME=N,N Dimethyl-3,4-methylenedioxyamphetamine
##MOLFORM=C12H17NO2
##CAS REGISTRY NO=74698-50-3
##MP= -300
##BP= -300
##MW= 207
##$RETENTION INDEX=0
##$CONDENSED SPECTRUM=NO
##NPOINTS= 82
##XYDATA=(XY..XY) 1 
    40          1
    41          6
    42         41
    43          6
    44         38
    45          1
    50          7
    51         32
    52          5
    53          5
    54          3
    55          6
    56         36
    57         15
    58          3
    61          1
    62          3
    63          9
    64          2
    65          7
    66          2
    67          2
    68          1
    70         25
    71         11
    72        999
    73         47
    74          2
    75          2
    76          4
    77         38
    78          9
    79          7
    80          1
    81          1
    82          1
    85          1
    87          1
    88          1
    89          5
    90          2
    91          6
    92          1
    94          1
    95         10
   102          2
   103          9
   104          5
   105         12
   106          2
   107          1
   115          1
   116          1
   117          1
   118          2
   119          2
   120          1
   121          2
   122          1
   130          1
   131          4
   132          3
   133          3
   134          3
   135         30
   136          3
   146          1
   147          4
   148          4
   149          1
   160          2
   161          2
   162          4
   163          4
   164          1
   177          1
   190          2
   191          2
   192          3
   204          1
   206          1
   207          1