##TITLE=Library Entry 48968
##JCAMP-DX=Revision 4.10 
##DATA TYPE=MASS SPECTRUM
##SAMPLE DESCRIPTION=MPI,43783-G0996,5-SEP-66 (ID=4, PURITY=4)
##NAMES=HP
##CAS NAME=1,4-Methanobenzocyclodecene, 1,2,3,4,4a,5,8,9,12,12a-decahydro-
##MOLFORM=C15H22
##CAS REGISTRY NO=74708-73-9
##MP= -300
##BP= -300
##MW= 202
##$RETENTION INDEX=0
##$CONDENSED SPECTRUM=NO
##NPOINTS= 141
##XYDATA=(XY..XY) 1 
    27         46
    28         32
    29         69
    30          1
    32          2
    36          0
    37          0
    38          3
    39         88
    40         23
    41        368
    42         18
    43         19
    44          4
    46          0
    47          0
    49          1
    50          7
    51         14
    52         14
    53        101
    54         86
    55        127
    56          8
    57         12
    58          0
    59          1
    60          1
    62          0
    63          4
    64          2
    65        107
    66        411
    67        698
    68         51
    69         50
    70          6
    71          0
    73          1
    74          1
    75          2
    76          0
    77        325
    78        136
    79        999
    80        501
    81        287
    82         32
    83         12
    84          0
    85          0
    86          1
    87          2
    88          0
    89          2
    90          3
    91        802
    92        416
    93        612
    94        258
    95        129
    96         12
    97          2
    98          0
    99          0
   100          0
   101          0
   102          2
   103         20
   104         50
   105        268
   106        361
   107        225
   108        152
   109         66
   110         10
   111          2
   112          0
   115         17
   116         10
   117        107
   118         47
   119        248
   120        162
   121         98
   122         57
   123          9
   124          1
   126          0
   127          1
   128          4
   129          9
   130          6
   131        116
   132        141
   133        409
   134        267
   135        294
   136         40
   137          3
   141          1
   142          1
   143          3
   144          2
   145        139
   146         64
   147         53
   148         37
   149          4
   150          0
   151          0
   153          0
   155          0
   156          0
   157          2
   158          0
   159         84
   160         50
   161         75
   162          8
   163          0
   166          0
   168          0
   171          1
   172          1
   173         77
   174        106
   175         14
   176          0
   183          1
   184          0
   185          0
   186          0
   187         31
   188          6
   189          0
   200          0
   201          5
   202        101
   203         16
   204          1