##TITLE=Library Entry 100229
##JCAMP-DX=Revision 4.10 
##DATA TYPE=MASS SPECTRUM
##SAMPLE DESCRIPTION=NIST Mass Spectrometry Data Center
##NAMES=HP
##CAS NAME=Bromobutide
##MOLFORM=C15H22BrNO
##CAS REGISTRY NO=74712-19-9
##MP= -300
##BP= -300
##MW= 311
##$RETENTION INDEX=1887
##$CONDENSED SPECTRUM=NO
##NPOINTS= 145
##XYDATA=(XY..XY) 1 
    15          2
    26          1
    27         19
    28          7
    29         37
    30          4
    38          2
    39         53
    40          7
    41        168
    42         66
    43         15
    44          7
    50          9
    51         36
    52         10
    53         30
    54          9
    55         83
    56         16
    57         57
    58         66
    59          5
    62          2
    63          7
    64          2
    65         20
    66          3
    67          8
    68          3
    69         52
    70          8
    71          5
    72          3
    73          1
    74          2
    75          3
    76          8
    77        101
    78         41
    79         50
    80          6
    81          3
    82         14
    83         76
    84          7
    85          1
    86          1
    87          1
    89          7
    91        352
    92         31
    93          4
    94          2
    95          5
    96          2
    97          4
    98          5
    99          9
   100          3
   101          2
   102         10
   103         62
   104         77
   105         15
   106          2
   107          5
   108          1
   109          2
   110          1
   112          3
   113          2
   114         77
   115         34
   116          9
   117         77
   118        427
   119        999
   120        713
   121         65
   122          5
   123          1
   128          2
   129          1
   130          3
   131          4
   132          7
   133          4
   134         19
   135          8
   136          3
   137         39
   138          9
   139         36
   140          2
   142          1
   143          1
   144          1
   145          1
   146         10
   147          2
   149          7
   150          1
   151          7
   152          1
   154          1
   157          1
   158          1
   159          1
   160          7
   161          2
   162          1
   163          1
   171          1
   174          3
   175          2
   176         20
   177          5
   178          6
   179          1
   180          6
   194          3
   196          4
   198          2
   200          1
   202          1
   206          2
   208          2
   216          1
   232        147
   233         28
   234          3
   236          1
   255         24
   256          3
   257         25
   258          3
   296         27
   297          4
   298         27
   299          5
   311         12
   312          2
   313         11
   314          2