##TITLE=Library Entry 8172
##JCAMP-DX=Revision 4.10 
##DATA TYPE=MASS SPECTRUM
##SAMPLE DESCRIPTION=D.HENNEBERG, MAX-PLANCK INSTITUTE, MULHEIM, WEST GERMAN
Y
##NAMES=HP
##CAS NAME=Lactaldehyde, 2-methyl-, (2,4-dinitrophenyl)hydrazone
##MOLFORM=C10H12N4O5
##CAS REGISTRY NO=7472-05-1
##MP= -300
##BP= -300
##MW= 268
##$RETENTION INDEX=0
##$CONDENSED SPECTRUM=NO
##NPOINTS= 200
##XYDATA=(XY..XY) 1 
    27        123
    28        109
    29        189
    30        256
    31        298
    32          2
    36          0
    37         18
    38         64
    39        186
    40         34
    41        186
    42         58
    43        999
    44         43
    45         16
    46          6
    47          1
    48          1
    49          3
    50         44
    51         93
    52        104
    53         58
    54         19
    55        755
    56        156
    57         47
    58         29
    59        858
    60         26
    61         24
    62        101
    63        201
    64        115
    65         32
    66         20
    67         13
    68         12
    69          5
    70         19
    71         26
    72         13
    73          9
    74         57
    75        139
    76         65
    77         99
    78         87
    79         82
    80         20
    81          5
    82          6
    83        115
    84          6
    85          8
    86          2
    87         15
    88         27
    89         36
    90         61
    91         80
    92         48
    93         25
    94          9
    95          8
    96          2
    97          1
    99          2
   100          1
   101          7
   102         10
   103         23
   104         16
   105         28
   106         30
   107         36
   108         12
   109          2
   110          1
   111          1
   113          2
   114          1
   115          8
   116         12
   117         33
   118         27
   119         29
   120          9
   121         15
   122         39
   123          5
   124          1
   126          2
   127          4
   128         13
   129         11
   130         20
   131         41
   132         10
   133         20
   134          6
   135         18
   136         15
   137         25
   138         33
   139          1
   141          1
   142          6
   143          7
   144          8
   145          9
   146         11
   147         16
   148         23
   149          7
   150          2
   151          5
   152         10
   153         57
   154          6
   155          6
   156         28
   157         25
   158         11
   159         10
   160          3
   161          1
   162          3
   163         19
   164         92
   165         30
   166         15
   167         43
   168         13
   169         25
   170          4
   171          2
   172          2
   173         28
   174          9
   175          3
   176          6
   177         16
   178          5
   179         51
   180         10
   181         13
   182          5
   183         77
   184         35
   185          6
   186          6
   187          6
   188         48
   189         10
   190          5
   191         31
   192          9
   193         36
   194          3
   195          2
   196          2
   201          1
   202         19
   203         62
   204         13
   205         31
   206          1
   207          4
   208         13
   209          6
   210          1
   215         28
   216          6
   217          6
   218          2
   219          1
   220          1
   224          0
   225        236
   226         18
   227          3
   228          1
   231          3
   232          0
   233         34
   234          8
   235          1
   238          1
   239          5
   249          2
   250         45
   251         22
   252          5
   253         32
   254          4
   268        180
   269         26
   270          4