##TITLE=Library Entry 79187
##JCAMP-DX=Revision 4.10 
##DATA TYPE=MASS SPECTRUM
##SAMPLE DESCRIPTION=NIST Mass Spectrometry Data Center, 1994
##NAMES=HP
##CAS NAME=6-Benzoylhexanoic acid
##MOLFORM=C13H16O3
##CAS REGISTRY NO=7472-43-7
##MP= -300
##BP= -300
##MW= 220
##$RETENTION INDEX=0
##$CONDENSED SPECTRUM=NO
##NPOINTS= 100
##XYDATA=(XY..XY) 1 
    15          2
    17          5
    18         12
    26          5
    27         82
    28         30
    29         34
    30          0
    36          3
    37          1
    38          6
    39         72
    40         13
    41         90
    42         40
    43         24
    44          3
    45         72
    46          2
    47          1
    49          2
    50         50
    51        183
    52         16
    53         17
    54          1
    55         86
    56          7
    57          6
    58          1
    60         23
    61          1
    62          3
    63          9
    64          2
    65         13
    66          2
    67          5
    68          5
    69         19
    70          3
    71          2
    73         10
    74          2
    75         11
    76         31
    77        546
    78         77
    79         10
    80          2
    81          2
    83          4
    86          3
    87          1
    89          4
    91         23
    92          7
    93          1
    95          1
    97          3
    98          4
   102          2
   103          5
   105        999
   106         79
   107          6
   115          8
   116          2
   117          3
   118          2
   120        480
   121         54
   122          4
   125          1
   127          1
   128          5
   129          6
   130          1
   131          3
   132          1
   133         32
   134          4
   142          2
   143          1
   145          3
   146          2
   147          1
   157          3
   159          1
   161          2
   173          2
   174          5
   175          1
   184          1
   188          2
   201          5
   202         28
   203          4
   216          4
   220          3