##TITLE=Library Entry 26886
##JCAMP-DX=Revision 4.10 
##DATA TYPE=MASS SPECTRUM
##SAMPLE DESCRIPTION=V.G.Zaikin,TIPS,Russian Acad.Sci.Moscow
##NAMES=HP
##CAS NAME=2,2-Dimethylpropionic acid, 1-naphthyl ester
##MOLFORM=C15H16O2
##CAS REGISTRY NO=74734-13-7
##MP= -300
##BP= -300
##MW= 228
##$RETENTION INDEX=0
##$CONDENSED SPECTRUM=NO
##NPOINTS= 94
##XYDATA=(XY..XY) 1 
    29        239
    30         11
    31         13
    39        209
    40         51
    41        231
    42         37
    43         37
    44        166
    45         31
    46          4
    50         38
    51        127
    52         25
    53         19
    54          2
    55         39
    56         19
    57        999
    58         48
    59          6
    61          2
    62         21
    63         75
    64         35
    65         54
    66         18
    67          2
    69         38
    70         12
    71          6
    72          2
    74         29
    75         25
    76          9
    77         88
    78         22
    79         41
    80          9
    81          2
    82          2
    83         19
    84          2
    85        102
    86          4
    87         12
    88         16
    89         69
    90         22
    91         47
    92          2
    93          9
    94          2
    95         41
    97          2
    99          2
   101         11
   103         11
   104          7
   105         11
   107         16
   108         16
   109         11
   111          6
   113          8
   114         53
   115        355
   116        129
   117         19
   118          2
   119          8
   120          8
   121        146
   122         15
   123         42
   125         39
   126          2
   127         57
   128          8
   133          5
   137         11
   138         13
   140         25
   141          6
   142          2
   143         25
   144        795
   145         95
   146         11
   147          6
   185         23
   186          2
   228         99
   229          9