##TITLE=Library Entry 30977
##JCAMP-DX=Revision 4.10 
##DATA TYPE=MASS SPECTRUM
##SAMPLE DESCRIPTION=LAC, NIDDK, NIH, Bethesda, MD 20892
##NAMES=HP
##CAS NAME=.beta.-Methyl xyloside
##MOLFORM=C6H12O5
##CAS REGISTRY NO=7473-45-2
##MP= -300
##BP= -300
##MW= 164
##$RETENTION INDEX=0
##$CONDENSED SPECTRUM=NO
##NPOINTS= 53
##XYDATA=(XY..XY) 1 
    42        162
    43        233
    44        106
    45        122
    47         14
    49          1
    51          2
    53          2
    55         49
    57        196
    58         11
    60        999
    61        296
    62          1
    63          1
    65          1
    66          0
    68         13
    69         47
    71        148
    73        411
    74        316
    75         17
    77          5
    79          1
    83          2
    85         22
    86         72
    87         36
    89          5
    91         12
    93          3
    97          2
    99          1
   100         26
   101          0
   102          2
   103          9
   105          9
   113          0
   114         23
   116         21
   117          1
   120          1
   127          0
   128          1
   131          0
   133         34
   146          1
   147          0
   163          0
   164          1
   165          0