##TITLE=Library Entry 30205
##JCAMP-DX=Revision 4.10 
##DATA TYPE=MASS SPECTRUM
##SAMPLE DESCRIPTION=Adam Howard and James Little, Eastman Chemical Co.
##NAMES=HP
##CAS NAME=2-Hydroxy-iso-butyrophenone
##MOLFORM=C10H12O2
##CAS REGISTRY NO=7473-98-5
##MP= -300
##BP= -300
##MW= 164
##$RETENTION INDEX=1278
##$CONDENSED SPECTRUM=NO
##NPOINTS= 47
##XYDATA=(XY..XY) 1 
    29          3
    31        105
    32          1
    37          1
    38          3
    39         22
    40          2
    41         59
    42          8
    43        155
    44          4
    49          1
    50         36
    51        118
    52         14
    53          3
    55          1
    57          4
    58          2
    59        999
    60         33
    61          3
    62          2
    63          5
    64          1
    65          2
    73          1
    74         10
    75          7
    76         14
    77        215
    78         68
    79         13
    89          1
    91          5
   102          1
   103          4
   104          1
   105        195
   106        133
   107         17
   108          1
   115          1
   119          3
   121         14
   122          1
   149          1