##TITLE=Library Entry 40786
##JCAMP-DX=Revision 4.10 
##DATA TYPE=MASS SPECTRUM
##SAMPLE DESCRIPTION=Japan AIST/NIMC Database- Spectrum MS-NW-9988
##NAMES=HP
##CAS NAME=2-[2-[2-Methoxyethoxy]ethoxy-1,3-dioxalane
##MOLFORM=C8H16O5
##CAS REGISTRY NO=74733-99-6
##MP= -300
##BP= -300
##MW= 192
##$RETENTION INDEX=0
##$CONDENSED SPECTRUM=NO
##NPOINTS= 37
##XYDATA=(XY..XY) 1 
    15         15
    26          4
    27         18
    28         26
    29         45
    30          2
    31         51
    32          2
    33          2
    41          2
    42          3
    43         28
    44         16
    45        237
    46          6
    47          1
    57          2
    58         43
    59        149
    60          9
    61          2
    71          1
    72          3
    73        999
    74         34
    75         10
    76          1
    86         68
    87         11
    88          4
    89         15
    90          9
    91          1
   102          1
   103         45
   104          2
   146          2