##TITLE=Library Entry 48690
##JCAMP-DX=Revision 4.10 
##DATA TYPE=MASS SPECTRUM
##SAMPLE DESCRIPTION=D.HENNEBERG, MAX-PLANCK INSTITUTE, MULHEIM, WEST GERMAN
Y
##NAMES=HP
##CAS NAME=4-Tridecen-6-yne, (Z)-
##MOLFORM=C13H22
##CAS REGISTRY NO=74744-42-6
##MP= -300
##BP= -300
##MW= 178
##$RETENTION INDEX=0
##$CONDENSED SPECTRUM=NO
##NPOINTS= 115
##XYDATA=(XY..XY) 1 
    22          1
    23          2
    24          1
    25          5
    26         15
    27        301
    28         29
    29        396
    30          8
    33          2
    34          3
    35          3
    36          1
    38         13
    39        296
    40         39
    41        572
    42         56
    43        399
    44         24
    47          3
    48          2
    49          3
    50         26
    51        106
    52         86
    53        114
    54         54
    55        350
    56         31
    57         63
    58          9
    61          3
    62          8
    63         44
    64         20
    65        220
    66        114
    67        650
    68        101
    69        157
    70         12
    71         13
    72          9
    73          3
    75         29
    76         12
    77        353
    78        139
    79        999
    80        217
    81        238
    82         50
    83         21
    84          2
    85          1
    86          0
    87          2
    89         18
    90          8
    91        320
    92         55
    93        623
    94         97
    95        119
    96         35
    97         10
    98          0
    99          0
   101          1
   102          3
   103         17
   104          6
   105         66
   106         16
   107        283
   108         62
   109         82
   110         15
   111          1
   115          6
   116          2
   117          7
   118          1
   119         12
   120          4
   121         72
   122         24
   123          6
   124          1
   125          2
   127          0
   128          1
   129          1
   131          1
   133          3
   134          1
   135         93
   136         21
   137          3
   141          0
   145          0
   147          1
   148          1
   149         89
   150         12
   151          0
   163          2
   164          0
   165          0
   176          1
   177          0
   178         73
   179         10
   180          0