##TITLE=Library Entry 66137
##JCAMP-DX=Revision 4.10 
##DATA TYPE=MASS SPECTRUM
##SAMPLE DESCRIPTION=D.HENNEBERG, MAX-PLANCK INSTITUTE, MULHEIM, WEST GERMAN
Y
##NAMES=HP
##CAS NAME=3-Nonen-5-yne, 4-ethyl-, (E)-
##MOLFORM=C11H18
##CAS REGISTRY NO=74744-60-8
##MP= -300
##BP= -300
##MW= 150
##$RETENTION INDEX=0
##$CONDENSED SPECTRUM=NO
##NPOINTS= 101
##XYDATA=(XY..XY) 1 
    26         72
    27        121
    28         86
    29        269
    30          8
    31          2
    32          6
    36          4
    37          2
    38          3
    39        121
    40         23
    41        361
    42         20
    43        249
    44          9
    45          1
    49          3
    50         13
    51         63
    52         34
    53        132
    54         15
    55        374
    56         20
    57         29
    58          4
    59          2
    62          1
    63         23
    64         15
    65        150
    66         40
    67        169
    68         14
    69         56
    70          3
    71          5
    72          2
    73          1
    74          1
    75          8
    76          5
    77        544
    78        107
    79        958
    80         88
    81         86
    82         16
    83          4
    84          1
    85          1
    87          1
    89         13
    90          6
    91        589
    92         81
    93        999
    94         99
    95         34
    96          3
    97          3
    98          2
    99          2
   100          1
   101          2
   102          3
   103         45
   104         17
   105        229
   106         67
   107        295
   108         36
   109          8
   110          1
   111          2
   112          1
   115         11
   116          5
   117         15
   118          4
   119         46
   120         16
   121        651
   122        126
   123         21
   124          2
   128          1
   129          0
   131          1
   133          5
   134          2
   135        115
   136         12
   137          8
   138          2
   148          2
   149          5
   150        827
   151        100
   152          5