##TITLE=Library Entry 48452
##JCAMP-DX=Revision 4.10 
##DATA TYPE=MASS SPECTRUM
##SAMPLE DESCRIPTION=D.HENNEBERG, MAX-PLANCK INSTITUTE, MULHEIM, WEST GERMAN
Y
##NAMES=HP
##CAS NAME=6-Tridecen-4-yne, (E)-
##MOLFORM=C13H22
##CAS REGISTRY NO=74744-46-0
##MP= -300
##BP= -300
##MW= 178
##$RETENTION INDEX=0
##$CONDENSED SPECTRUM=NO
##NPOINTS= 119
##XYDATA=(XY..XY) 1 
    22          0
    23          1
    24          1
    25          3
    26         13
    27        185
    28         35
    29        323
    30          8
    33          1
    34          1
    35          2
    36          1
    37          5
    38          7
    39        158
    40         25
    41        301
    42         45
    43        300
    44         28
    47          2
    48          1
    49          2
    50         15
    51         59
    52         45
    53         63
    54         50
    55        204
    56         27
    57         42
    58          5
    61          2
    62          4
    63         23
    64         12
    65        142
    66         62
    67        163
    68         39
    69         42
    70         14
    71         13
    72          2
    73          5
    75         27
    76          7
    77        189
    78         83
    79        999
    80        128
    81        103
    82         23
    83          9
    84          3
    85          4
    86          1
    87          2
    88          1
    89          8
    90          6
    91        230
    92         48
    93        295
    94        302
    95         63
    96         16
    97          3
    98          0
   101          0
   102          2
   103         10
   104          4
   105         50
   106          8
   107        133
   108         25
   109          7
   110          7
   111          0
   115          4
   116          1
   117          4
   118          1
   119          6
   120          3
   121         48
   122         14
   123          3
   124          1
   125          1
   127          0
   128          1
   129          1
   130          0
   131          1
   133          3
   134          1
   135         59
   136          8
   137          1
   143          0
   145          0
   147          1
   148          0
   149         23
   150          4
   151          0
   152          0
   153          0
   163          3
   165          0
   166          0
   174          0
   176          2
   178        125
   179         17
   180          1