##TITLE=Library Entry 41347
##JCAMP-DX=Revision 4.10 
##DATA TYPE=MASS SPECTRUM
##SAMPLE DESCRIPTION=D.HENNEBERG, MAX-PLANCK INSTITUTE, MULHEIM, WEST GERMAN
Y
##NAMES=HP
##CAS NAME=4-Hydroxy-5-(hydroxymethyl)oxolan-2-one, 2TMS derivative
##MOLFORM=C11H24O4Si2
##CAS REGISTRY NO=74742-34-0
##MP= -300
##BP= -300
##MW= 276
##$RETENTION INDEX=0
##$CONDENSED SPECTRUM=NO
##NPOINTS= 163
##XYDATA=(XY..XY) 1 
    24          1
    25          6
    26         60
    27         26
    28        162
    29         37
    30          7
    31         15
    32          4
    33          2
    34          4
    35          1
    36          2
    37          9
    38          7
    39         42
    40         31
    41         18
    42         92
    43         80
    44         45
    45        289
    46         21
    47        188
    48         13
    49         11
    50         12
    51         10
    52         13
    53         13
    54         45
    55         75
    56          5
    57         10
    58         20
    59        115
    60         16
    61         38
    62          3
    63          2
    64          0
    65          1
    66         61
    67          9
    68         31
    69         13
    70          5
    71         14
    72         30
    73        999
    74         90
    75        882
    76         60
    77         36
    78          1
    79          3
    80          2
    81          6
    83          3
    84          1
    85          9
    86          2
    87         80
    88         14
    89          9
    90          2
    91          1
    92          0
    93          2
    94          4
    95          1
    96         70
    97        221
    98         14
    99         12
   100          3
   101        113
   102         65
   103        293
   104         27
   105         12
   106          1
   107          0
   108          0
   109          0
   110          0
   111          3
   112          0
   113          7
   114          2
   115          7
   116         52
   117         22
   118          4
   119          3
   120          1
   121          0
   122          0
   123          2
   125          0
   127          2
   129         48
   130         10
   131         18
   132          3
   133         24
   134          2
   135          2
   136          0
   140          0
   142          2
   143         45
   144          5
   145          5
   147        122
   148         19
   149         17
   150          1
   151          0
   155          0
   156          1
   157          8
   158         11
   159          1
   160          0
   162          0
   163          3
   164          1
   165          0
   167          0
   169          0
   170          0
   171         29
   172          4
   173          4
   174          0
   175          1
   177          1
   179          0
   186          1
   188          0
   189         61
   190         11
   191          6
   192          0
   203          3
   204          1
   205          1
   207          0
   217          4
   218          1
   219         23
   220          4
   221          1
   231          4
   232          0
   244          0
   245          1
   246          1
   248          0
   261         10
   262          2
   263          1