##TITLE=Library Entry 32127
##JCAMP-DX=Revision 4.10 
##DATA TYPE=MASS SPECTRUM
##SAMPLE DESCRIPTION=D.HENNEBERG, MAX-PLANCK INSTITUTE, MULHEIM, WEST GERMAN
Y
##NAMES=HP
##CAS NAME=4-Dodecen-2-yne, (E)-
##MOLFORM=C12H20
##CAS REGISTRY NO=74744-40-4
##MP= -300
##BP= -300
##MW= 164
##$RETENTION INDEX=0
##$CONDENSED SPECTRUM=NO
##NPOINTS= 108
##XYDATA=(XY..XY) 1 
    22          0
    23          2
    24          2
    25          2
    26          9
    27        191
    28         22
    29        206
    30          5
    33          1
    34          1
    35          1
    36          0
    37          7
    38         11
    39        179
    40         54
    41        304
    42         51
    43        432
    44         16
    47          1
    48          1
    49          2
    50         18
    51         78
    52         45
    53        114
    54         48
    55        190
    56         67
    57         57
    58          5
    61          1
    62          5
    63         26
    64         21
    65         93
    66        999
    67        201
    68         59
    69         71
    70         19
    71          6
    72          2
    73          1
    75         23
    76          7
    77        354
    78         87
    79        606
    80        105
    81         90
    82         32
    83          9
    84          4
    85          4
    86          0
    87          0
    88          0
    89          9
    90          3
    91        145
    92         29
    93        275
    94         89
    95         64
    96         18
    97          4
    98          3
   102          0
   103          4
   104          2
   105         22
   106          5
   107        147
   108         34
   109         16
   110          3
   111          2
   112          0
   115          2
   116          0
   117          1
   118          0
   119          4
   120          1
   121         66
   122         14
   123          2
   124          2
   128          0
   129          1
   131          1
   133          1
   135         58
   136          7
   137          0
   141          0
   149         14
   150          1
   152          0
   153          0
   162          1
   163          1
   164        115
   165         15
   166          0