##TITLE=Library Entry 49030
##JCAMP-DX=Revision 4.10 
##DATA TYPE=MASS SPECTRUM
##SAMPLE DESCRIPTION=D.HENNEBERG, MAX-PLANCK INSTITUTE, MULHEIM, WEST GERMAN
Y
##NAMES=HP
##CAS NAME=7-Pentadecen-5-yne, (Z)-
##MOLFORM=C15H26
##CAS REGISTRY NO=74744-49-3
##MP= -300
##BP= -300
##MW= 206
##$RETENTION INDEX=0
##$CONDENSED SPECTRUM=NO
##NPOINTS= 130
##XYDATA=(XY..XY) 1 
    23          2
    26         11
    27        241
    28         87
    29        294
    30          8
    32          1
    33          2
    35          3
    36          3
    37          7
    38          8
    39        202
    40         27
    41        531
    42         47
    43        525
    44         43
    45          3
    46          1
    47          2
    48          1
    49          3
    50         11
    51         73
    52         68
    53        105
    54        104
    55        376
    56         54
    57        106
    58          5
    61          1
    62          5
    63         29
    64         16
    65        140
    66        173
    67        402
    68         87
    69        119
    70         16
    71         13
    74          5
    75         23
    76         15
    77        333
    78        166
    79        999
    80        311
    81        266
    82         89
    83         35
    84          7
    85          7
    86          1
    87          4
    88          3
    89         24
    90         10
    91        294
    92         61
    93        963
    94        222
    95        129
    96         30
    97          8
    98          3
   102          1
   103         16
   104         12
   105         80
   106         31
   107        239
   108        139
   109         43
   110         21
   111          2
   115         20
   116          8
   117         23
   118          6
   119         19
   120          7
   121        114
   122         30
   123         13
   124          6
   125          1
   127          4
   128         13
   129         14
   130          5
   131          5
   132          1
   133          7
   134          2
   135         76
   136         17
   137          2
   138          3
   141          3
   143          4
   145          4
   146          1
   147          2
   148          3
   149         57
   150         10
   151          2
   152          3
   153          1
   154          2
   155          2
   163         20
   164          9
   165          3
   175          1
   176          2
   177         14
   178          7
   179          3
   180          1
   191          1
   192          1
   200          1
   204          8
   205          1
   206         88
   207         14