##TITLE=Library Entry 48498
##JCAMP-DX=Revision 4.10 
##DATA TYPE=MASS SPECTRUM
##SAMPLE DESCRIPTION=D.HENNEBERG, MAX-PLANCK INSTITUTE, MULHEIM, WEST GERMAN
Y
##NAMES=HP
##CAS NAME=1-Undecen-3-yne
##MOLFORM=C11H18
##CAS REGISTRY NO=74744-28-8
##MP= -300
##BP= -300
##MW= 150
##$RETENTION INDEX=0
##$CONDENSED SPECTRUM=NO
##NPOINTS= 97
##XYDATA=(XY..XY) 1 
    22          0
    23          2
    24          1
    25          4
    26         15
    27        296
    28         20
    29        378
    30          8
    31          1
    33          2
    34          2
    35          3
    36          0
    37         12
    38         27
    39        457
    40         80
    41        615
    42         74
    43        573
    44          9
    45          1
    46          1
    47          1
    48          1
    49          2
    50         31
    51         90
    52         68
    53         97
    54         57
    55        442
    56         71
    57         63
    58          7
    60          1
    61          4
    62         16
    63         67
    64         31
    65        241
    66        237
    67        364
    68         70
    69         47
    70         16
    71         10
    72          1
    73          1
    74          5
    75         24
    76          8
    77        350
    78        119
    79        999
    80        302
    81        104
    82         28
    83         35
    84          3
    85          3
    86          0
    87          1
    88          0
    89         14
    90          4
    91        290
    92         42
    93        396
    94         68
    95         33
    96         12
    97          1
    98          0
   102          0
   103          5
   104          1
   105         38
   106          9
   107        231
   108        104
   109         36
   110          2
   115          1
   117          1
   119          2
   120          0
   121        113
   122         19
   123          1
   135         67
   136          6
   137          2
   148          0
   149          1
   150          3