##TITLE=Library Entry 9412
##JCAMP-DX=Revision 4.10 
##DATA TYPE=MASS SPECTRUM
##SAMPLE DESCRIPTION=D.HENNEBERG, MAX-PLANCK INSTITUTE, MULHEIM, WEST GERMAN
Y
##NAMES=HP
##CAS NAME=3-Undecen-1-yne, (E)-
##MOLFORM=C11H18
##CAS REGISTRY NO=74744-33-5
##MP= -300
##BP= -300
##MW= 150
##$RETENTION INDEX=0
##$CONDENSED SPECTRUM=NO
##NPOINTS= 95
##XYDATA=(XY..XY) 1 
    27        473
    28         87
    29        503
    30         14
    31          0
    32          5
    37         13
    38         37
    39        591
    40         85
    41        757
    42        213
    43        999
    44         32
    45          0
    48          1
    49          6
    50         67
    51        113
    52        138
    53        133
    54        109
    55        506
    56        355
    57        166
    58         10
    59          1
    60          0
    61          6
    62         16
    63         71
    64         20
    65        332
    66        200
    67        308
    68        109
    69        204
    70        140
    71         18
    72          1
    73          1
    74          6
    75          5
    76          8
    77        253
    78        131
    79        974
    80        324
    81        203
    82         58
    83         29
    84          5
    85          9
    87          0
    88          0
    89          9
    90          2
    91        175
    92         26
    93        562
    94        203
    95        124
    96         43
    97         10
    98          7
   102          1
   103          6
   104          1
   105         30
   106          8
   107        248
   108         79
   109         44
   110          5
   115          1
   116          1
   117          2
   119          5
   120          2
   121        189
   122         38
   123          2
   124          0
   127          0
   129          0
   131          0
   135         74
   136          8
   137          3
   146          0
   148          1
   149          3
   150         55
   151          6
   152          0