##TITLE=Library Entry 32719
##JCAMP-DX=Revision 4.10 
##DATA TYPE=MASS SPECTRUM
##SAMPLE DESCRIPTION=D.HENNEBERG, MAX-PLANCK INSTITUTE, MULHEIM, WEST GERMAN
Y
##NAMES=HP
##CAS NAME=4-Hexadecen-6-yne, (E)-
##MOLFORM=C16H28
##CAS REGISTRY NO=74744-51-7
##MP= -300
##BP= -300
##MW= 220
##$RETENTION INDEX=0
##$CONDENSED SPECTRUM=NO
##NPOINTS= 126
##XYDATA=(XY..XY) 1 
    26         18
    27        278
    28        100
    29        455
    30         11
    32          0
    33          4
    35          2
    36          4
    37          8
    38          3
    39        255
    40         34
    41        722
    42         76
    43        566
    44         75
    47          1
    48          4
    49          2
    50         21
    51         82
    52         85
    53        112
    54        102
    55        550
    56         59
    57        177
    58         15
    59          4
    61          5
    62          6
    63         28
    64         23
    65        228
    66         96
    67        999
    68        145
    69        270
    70         28
    71         31
    74          6
    75         32
    76         17
    77        302
    78        194
    79        968
    80        296
    81        343
    82        100
    83         61
    84          7
    85         15
    86          1
    88          5
    89         18
    91        341
    92         85
    93        639
    94        180
    95        176
    96         45
    97         16
    98          6
   101          3
   102          7
   103         23
   104         23
   105        125
   106         35
   107        377
   108         79
   109        217
   110         24
   111          3
   115         30
   116         11
   117         37
   118         26
   119         37
   120         14
   121        180
   122         51
   123         10
   124          8
   125          0
   127          5
   128         17
   129         15
   130          7
   131         20
   132          3
   133         12
   134          2
   135        107
   136         57
   137         13
   138          1
   141          5
   143          7
   145          2
   147          4
   148          4
   149        105
   150         64
   151          7
   152          4
   155          3
   163         24
   164          6
   165          5
   166          1
   167          2
   169          2
   177         23
   178         10
   179          6
   191         10
   202          3
   203          5
   204          6
   205          2
   216          2
   218          7
   220         33
   221          7