##TITLE=Library Entry 22537
##JCAMP-DX=Revision 4.10 
##DATA TYPE=MASS SPECTRUM
##SAMPLE DESCRIPTION=D.HENNEBERG, MAX-PLANCK INSTITUTE, MULHEIM, WEST GERMAN
Y
##NAMES=HP
##CAS NAME=1,3,2-Dioxaborinane, 2,4-diethyl-5,6-dimethyl-
##MOLFORM=C9H19BO2
##CAS REGISTRY NO=74744-56-2
##MP= -300
##BP= -300
##MW= 170
##$RETENTION INDEX=0
##$CONDENSED SPECTRUM=NO
##NPOINTS= 95
##XYDATA=(XY..XY) 1 
    27         31
    28        196
    29        109
    30          2
    31          5
    36          0
    37          0
    38          0
    39         22
    40          9
    41        159
    42         72
    43         90
    44          6
    45         28
    46          0
    50          0
    51          0
    52          1
    53         14
    54         13
    55        233
    56        999
    57        292
    58         13
    59         65
    60          2
    65          1
    66          1
    67         13
    68         18
    69        104
    70        604
    71         41
    72          6
    73         16
    74          0
    77          0
    79          1
    80          0
    81          5
    82          2
    83         10
    84          7
    85         54
    86         14
    87         19
    88          0
    91          0
    93          0
    94          0
    95          1
    96         13
    97         46
    98         16
    99         20
   100          7
   101         34
   102          1
   109          1
   110          2
   111         10
   112         31
   113         16
   114         14
   115         45
   116          2
   117          0
   123          2
   124         15
   125         38
   126         17
   127          3
   128          0
   129          0
   137          4
   138          3
   139          8
   140        159
   141        542
   142         41
   143          3
   151          0
   152          1
   153          1
   154          4
   155         12
   156          1
   157          0
   166          0
   167          1
   168          2
   169          5
   170          5
   171          3