##TITLE=Library Entry 48695
##JCAMP-DX=Revision 4.10 
##DATA TYPE=MASS SPECTRUM
##SAMPLE DESCRIPTION=D.HENNEBERG, MAX-PLANCK INSTITUTE, MULHEIM, WEST GERMAN
Y
##NAMES=HP
##CAS NAME=5-Pentadecen-7-yne, (Z)-
##MOLFORM=C15H26
##CAS REGISTRY NO=74744-50-6
##MP= -300
##BP= -300
##MW= 206
##$RETENTION INDEX=0
##$CONDENSED SPECTRUM=NO
##NPOINTS= 152
##XYDATA=(XY..XY) 1 
    22          2
    23          1
    25          5
    26         12
    27        263
    28         61
    29        331
    30          7
    31          1
    32          2
    33          1
    34          1
    35          3
    36          1
    37          3
    38         11
    39        242
    40         31
    41        644
    42         52
    43        520
    44         34
    45          3
    46          1
    47          2
    48          2
    49          4
    50         18
    51         87
    52         75
    53        108
    54         81
    55        507
    56         49
    57        132
    58          9
    59          3
    60          1
    61          1
    62          6
    63         41
    64         15
    65        192
    66        116
    67        894
    68        133
    69        179
    70         13
    71         29
    72          4
    73          2
    74          7
    75         22
    76         10
    77        366
    78        208
    79        999
    80        372
    81        496
    82        123
    83         66
    84          5
    85          7
    86          1
    87          3
    88          4
    89         24
    90         11
    91        350
    92         69
    93        705
    94        168
    95        197
    96         49
    97         17
    98          1
    99          0
   101          1
   102          5
   103         25
   104         13
   105        100
   106         24
   107        358
   108         62
   109         74
   110         37
   111          8
   112          0
   113          1
   115         20
   116         10
   117         32
   118         21
   119         34
   120         11
   121        211
   122         57
   123         52
   124         13
   125          1
   127          5
   128         11
   129         18
   130          5
   131         14
   132          4
   133         13
   134          6
   135         70
   136         24
   137          3
   138          2
   141          4
   142          3
   143          4
   145          4
   147          5
   148          4
   149         82
   150         26
   151          3
   152          5
   153          3
   154          3
   155          3
   157          1
   159          1
   161          3
   162          1
   163         86
   164         22
   165          8
   166          3
   167          3
   168          1
   169          1
   175          2
   177         19
   178          7
   179          6
   180          4
   181          2
   191          2
   192          1
   194          3
   196          2
   202          3
   203          0
   204          9
   206         76
   207         12