##TITLE=Library Entry 48758
##JCAMP-DX=Revision 4.10 
##DATA TYPE=MASS SPECTRUM
##SAMPLE DESCRIPTION=D.HENNEBERG, MAX-PLANCK INSTITUTE, MULHEIM, WEST GERMAN
Y
##NAMES=HP
##CAS NAME=5-Undecen-3-yne, (E)-
##MOLFORM=C11H18
##CAS REGISTRY NO=74744-31-3
##MP= -300
##BP= -300
##MW= 150
##$RETENTION INDEX=1327
##$CONDENSED SPECTRUM=NO
##NPOINTS= 106
##XYDATA=(XY..XY) 1 
    23          0
    25          2
    26          9
    27        149
    28          9
    29        198
    30          4
    31          1
    33          2
    34          3
    35          1
    36          0
    37          5
    38          9
    39        177
    40         27
    41        273
    42         31
    43         67
    44          1
    45          1
    46          1
    47          1
    48          1
    49          2
    50         20
    51         72
    52         45
    53         73
    54         30
    55        116
    56         12
    57         34
    58          4
    59          1
    60          0
    61          2
    62          7
    63         30
    64         11
    65        119
    66         34
    67         94
    68         16
    69         12
    70          5
    71          3
    72          1
    73          1
    74          6
    75         23
    76          8
    77        439
    78        132
    79        999
    80        387
    81         63
    82         16
    83          5
    84          1
    85          0
    86          0
    87          1
    88          0
    89         10
    90          4
    91        267
    92         32
    93        223
    94         27
    95         11
    96         11
    97          1
    99          0
   101          0
   102          1
   103          6
   104          2
   105         25
   106          6
   107         79
   108         22
   109          6
   110          0
   115          4
   116          1
   117          2
   118          0
   119          5
   120          1
   121         77
   122         10
   123          0
   128          0
   129          0
   131          0
   133          0
   135         11
   136          1
   141          0
   146          0
   148          1
   149          1
   150        156
   151         20
   152          1