##TITLE=Library Entry 48607
##JCAMP-DX=Revision 4.10 
##DATA TYPE=MASS SPECTRUM
##SAMPLE DESCRIPTION=D.HENNEBERG, MAX-PLANCK INSTITUTE, MULHEIM, WEST GERMAN
Y
##NAMES=HP
##CAS NAME=1-Dodecen-3-yne
##MOLFORM=C12H20
##CAS REGISTRY NO=74744-36-8
##MP= -300
##BP= -300
##MW= 164
##$RETENTION INDEX=0
##$CONDENSED SPECTRUM=NO
##NPOINTS= 103
##XYDATA=(XY..XY) 1 
    22          0
    23          2
    24          1
    25          4
    26         14
    27        257
    28         26
    29        404
    30         10
    31          3
    33          2
    34          2
    35          3
    36          1
    37          2
    38         20
    39        380
    40         64
    41        586
    42         82
    43        427
    44          4
    45          1
    46          1
    47          1
    48          1
    49          2
    50         21
    51         69
    52         57
    53         89
    54         78
    55        604
    56         77
    57        171
    58         14
    59          3
    60          1
    61          3
    62         11
    63         51
    64         25
    65        219
    66        208
    67        360
    68         80
    69         79
    70         24
    71         11
    72          1
    73          1
    74          5
    75         21
    76          7
    77        298
    78        119
    79        999
    80        331
    81        177
    82         36
    83         15
    84          5
    85          3
    86          0
    87          1
    88          0
    89         13
    90          5
    91        263
    92         45
    93        417
    94         85
    95         51
    96         12
    97         15
    98          1
   102          0
   103          4
   104          1
   105         36
   106         11
   107        238
   108        111
   109         35
   110          8
   111          0
   112          0
   115          1
   117          1
   119          3
   120          0
   121         78
   122         24
   123         11
   124          0
   133          0
   135         93
   136         13
   137          0
   149         18
   150          5
   151          0
   164          1