##TITLE=Library Entry 66093
##JCAMP-DX=Revision 4.10 
##DATA TYPE=MASS SPECTRUM
##SAMPLE DESCRIPTION=D.HENNEBERG, MAX-PLANCK INSTITUTE, MULHEIM, WEST GERMAN
Y
##NAMES=HP
##CAS NAME=7-Pentadecen-5-yne, (E)-
##MOLFORM=C15H26
##CAS REGISTRY NO=74744-53-9
##MP= -300
##BP= -300
##MW= 206
##$RETENTION INDEX=0
##$CONDENSED SPECTRUM=NO
##NPOINTS= 155
##XYDATA=(XY..XY) 1 
    23          1
    24          0
    25          2
    26          9
    27        207
    28         15
    29        270
    30          6
    31          0
    32          0
    33          1
    34          1
    35          2
    37          5
    38          5
    39        173
    40         25
    41        474
    42         41
    43        496
    44          1
    45          1
    46          1
    47          1
    48          1
    49          1
    50         12
    51         58
    52         62
    53         79
    54         95
    55        374
    56         55
    57        102
    58          8
    59          2
    60          1
    61          1
    62          4
    63         26
    64         15
    65        163
    66        155
    67        391
    68         83
    69        125
    70         11
    71         13
    72          3
    73          2
    74          3
    75         22
    76         11
    77        340
    78        167
    79        991
    80        285
    81        266
    82        102
    83         33
    84          2
    85          7
    86          1
    87          1
    88          2
    89         22
    90          9
    91        291
    92         60
    93        999
    94        234
    95        132
    96         33
    97          9
    98          1
   100          0
   101          0
   102          3
   103         16
   104          7
   105         79
   106         26
   107        281
   108        165
   109         48
   110         19
   111          2
   112          0
   113          0
   115         13
   116          4
   117         19
   118          5
   119         20
   120          8
   121        153
   122         34
   123         10
   124          7
   125          1
   126          0
   127          2
   128          6
   129          6
   130          2
   131          5
   132          1
   133          9
   134          3
   135         75
   136         15
   137          2
   138          0
   141          1
   142          1
   143          1
   144          0
   145          4
   146          0
   147          5
   148          2
   149         45
   150          8
   151          1
   152          0
   153          1
   154          0
   155          1
   156          0
   157          0
   159          1
   161          2
   162          0
   163         17
   164          5
   165          1
   166          0
   167          0
   169          0
   173          0
   175          1
   177          5
   178          1
   179          0
   180          0
   191          5
   192          0
   194          0
   200          0
   202          2
   204          8
   205          3
   206        110
   207         15
   208          1