##TITLE=Library Entry 49044
##JCAMP-DX=Revision 4.10 
##DATA TYPE=MASS SPECTRUM
##SAMPLE DESCRIPTION=D.HENNEBERG, MAX-PLANCK INSTITUTE, MULHEIM, WEST GERMAN
Y
##NAMES=HP
##CAS NAME=3-Undecen-5-yne, (E)-
##MOLFORM=C11H18
##CAS REGISTRY NO=74744-29-9
##MP= -300
##BP= -300
##MW= 150
##$RETENTION INDEX=0
##$CONDENSED SPECTRUM=NO
##NPOINTS= 109
##XYDATA=(XY..XY) 1 
    22          0
    23          1
    24          0
    25          3
    26         15
    27        237
    28         16
    29        343
    30          8
    31          0
    33          2
    34          3
    35          2
    36          0
    38         18
    39        290
    40         37
    41        414
    42         44
    43        217
    44          0
    46          1
    47          4
    48          3
    49          4
    50         38
    51        154
    52         90
    53        125
    54         30
    55        380
    56         25
    57         36
    58          8
    59          2
    60          2
    61          4
    62         13
    63         57
    64         20
    65        177
    66         57
    67        314
    68         47
    69         36
    70          4
    71          6
    72          3
    73          2
    74          8
    75         31
    76         12
    77        507
    78        128
    79        999
    80        139
    81        106
    82         30
    83          4
    84          0
    85          1
    86          2
    87          3
    88          1
    89         20
    90          7
    91        356
    92         53
    93        514
    94         77
    95        330
    96         29
    98          4
    99          0
   101          0
   102          1
   103         11
   104          3
   105         59
   106         15
   107         93
   108         41
   109         16
   110          1
   115          5
   116          1
   117          4
   118          0
   119         10
   120          4
   121        235
   122         30
   123          1
   127          0
   128          1
   129          1
   131          1
   133          1
   135         30
   136          2
   137          0
   141          0
   144          0
   146          0
   148          2
   149          1
   150        124
   151         14
   152          0