##TITLE=Library Entry 48696
##JCAMP-DX=Revision 4.10 
##DATA TYPE=MASS SPECTRUM
##SAMPLE DESCRIPTION=D.HENNEBERG, MAX-PLANCK INSTITUTE, MULHEIM, WEST GERMAN
Y
##NAMES=HP
##CAS NAME=4-Hexadecen-6-yne, (Z)-
##MOLFORM=C16H28
##CAS REGISTRY NO=74744-54-0
##MP= -300
##BP= -300
##MW= 220
##$RETENTION INDEX=0
##$CONDENSED SPECTRUM=NO
##NPOINTS= 149
##XYDATA=(XY..XY) 1 
    22          0
    23          1
    24          0
    25          5
    26         12
    27        216
    28         29
    29        404
    30          9
    31          1
    32          0
    33          1
    34          1
    35          2
    36          1
    37          7
    38          6
    39        206
    40         28
    41        643
    42         61
    43        517
    44         13
    45          1
    46          1
    47          2
    48          1
    49          2
    50         13
    51         70
    52         65
    53         93
    54         94
    55        502
    56         44
    57        180
    58         12
    59          4
    60          2
    61          2
    62          4
    63         26
    64         16
    65        194
    66         96
    67        855
    68        132
    69        268
    70         22
    71         40
    72          3
    73          1
    74          3
    75         20
    76         11
    77        285
    78        178
    79        999
    80        299
    81        399
    82        156
    83         85
    84          9
    85         10
    86          1
    87          2
    88          2
    89         17
    90          8
    91        329
    92         70
    93        668
    94        185
    95        224
    96         55
    97         20
    98          2
    99          1
   100          1
   101          3
   102          4
   103         19
   104         14
   105        103
   106         32
   107        387
   108        102
   109        170
   110         31
   111          4
   113          0
   115         13
   116          6
   117         21
   118         11
   119         35
   120         18
   121        193
   122         44
   123         16
   124          8
   125          0
   127          2
   128          4
   129          5
   130          2
   131         10
   132          2
   133         12
   134          3
   135        111
   136         38
   137         10
   138         10
   139          1
   141          1
   142          1
   143          2
   145          2
   146          0
   147          5
   148          3
   149        183
   150         57
   151          8
   152          3
   153          0
   155          0
   159          0
   161          1
   162          0
   163         41
   164         10
   165          1
   166          0
   175          0
   177         25
   178          4
   179          1
   191         10
   192          1
   202          0
   203          0
   204          0
   216          1
   218          6
   219          1
   220         45
   221          7