##TITLE=Library Entry 48692
##JCAMP-DX=Revision 4.10 
##DATA TYPE=MASS SPECTRUM
##SAMPLE DESCRIPTION=D.HENNEBERG, MAX-PLANCK INSTITUTE, MULHEIM, WEST GERMAN
Y
##NAMES=HP
##CAS NAME=4-Tridecen-6-yne, (E)-
##MOLFORM=C13H22
##CAS REGISTRY NO=74744-43-7
##MP= -300
##BP= -300
##MW= 178
##$RETENTION INDEX=1607
##$CONDENSED SPECTRUM=NO
##NPOINTS= 129
##XYDATA=(XY..XY) 1 
    22          1
    23          2
    24          0
    25          5
    26         16
    27        285
    28         59
    29        397
    30         10
    31          3
    33          2
    34          2
    35          3
    36          0
    38         12
    39        289
    40         40
    41        594
    42         63
    43        428
    44         41
    45          6
    46          3
    47          3
    48          2
    49          4
    50         26
    51        108
    52         93
    53        113
    54         61
    55        405
    56         46
    57         99
    58         10
    59          5
    60          1
    61          4
    62          7
    63         46
    64         22
    65        283
    66        112
    67        831
    68        119
    69        197
    70         19
    71         17
    72          8
    73          5
    74          5
    75         29
    76         13
    77        379
    78        151
    79        999
    80        246
    81        281
    82         50
    83         30
    84          4
    85          5
    86          0
    87          3
    88          1
    89         22
    90          8
    91        341
    92         68
    93        681
    94        113
    95        127
    96         29
    97          7
    98          2
    99          0
   102          5
   103         19
   104          8
   105         82
   106         20
   107        306
   108         58
   109        132
   110         20
   111          1
   115         10
   116          2
   117         11
   118          3
   119         17
   120          6
   121         71
   122         29
   123          6
   124          2
   126          1
   127          1
   128          5
   129          2
   130          1
   131         14
   132          2
   133          7
   134          2
   135        126
   136         53
   137          6
   141          0
   143          0
   144          0
   145          1
   147          3
   149         98
   150         15
   151          1
   152          0
   153          0
   159         13
   163          2
   164          1
   165          0
   173          1
   174          0
   176          3
   177          2
   178         89
   179         12
   180          0