##TITLE=Library Entry 32126
##JCAMP-DX=Revision 4.10 
##DATA TYPE=MASS SPECTRUM
##SAMPLE DESCRIPTION=D.HENNEBERG, MAX-PLANCK INSTITUTE, MULHEIM, WEST GERMAN
Y
##NAMES=HP
##CAS NAME=4-Dodecen-2-yne, (Z)-
##MOLFORM=C12H20
##CAS REGISTRY NO=74744-39-1
##MP= -300
##BP= -300
##MW= 164
##$RETENTION INDEX=0
##$CONDENSED SPECTRUM=NO
##NPOINTS= 108
##XYDATA=(XY..XY) 1 
    22          0
    23          2
    24          2
    25          2
    26         11
    27        232
    28          9
    29        240
    30          5
    33          1
    34          2
    35          2
    36          1
    38         10
    39        199
    40         55
    41        389
    42         68
    43        499
    44         13
    47          1
    48          1
    49          2
    50         20
    51         84
    52         50
    53        123
    54         50
    55        239
    56         83
    57         94
    58          7
    61          1
    62          5
    63         26
    64         22
    65         99
    66        999
    67        205
    68         61
    69         96
    70         28
    71         28
    72          2
    73          1
    75         22
    76          7
    77        345
    78         93
    79        593
    80        115
    81        106
    82         34
    83         16
    84          5
    85         13
    86          1
    87          1
    88          1
    89          8
    90          4
    91        161
    92         33
    93        310
    94        102
    95         70
    96         22
    97          6
    98          4
   102          0
   103          5
   104          2
   105         23
   106          6
   107        153
   108         42
   109         17
   110          3
   111          2
   115          2
   116          0
   117          2
   118          0
   119          3
   120          1
   121         77
   122         18
   123          4
   124          1
   126          0
   128          0
   129          0
   131          1
   133          1
   134          0
   135         85
   136         10
   137         26
   138          0
   141          0
   149         17
   150          1
   151          2
   152          0
   162          1
   163          0
   164         82
   165         10