##TITLE=Library Entry 42533
##JCAMP-DX=Revision 4.10 
##DATA TYPE=MASS SPECTRUM
##SAMPLE DESCRIPTION=D.HENNEBERG, MAX-PLANCK INSTITUTE, MULHEIM, WEST GERMAN
Y
##NAMES=HP
##CAS NAME=Erythro-Pentonic acid, 2-deoxy-3,4,5-tris-O-(trimethylsilyl)-, tr
imethylsilyl ester
##MOLFORM=C17H42O5Si4
##CAS REGISTRY NO=74742-30-6
##MP= -300
##BP= -300
##MW= 438
##$RETENTION INDEX=1698
##$CONDENSED SPECTRUM=NO
##NPOINTS= 249
##XYDATA=(XY..XY) 1 
    24          0
    25          0
    26          3
    27          3
    28         21
    29          4
    30          1
    31          1
    33          0
    36          1
    37          0
    39          4
    40          2
    41          6
    42          7
    43         16
    44         19
    45         65
    46          4
    47         23
    48          1
    49          2
    50          1
    51          0
    52          1
    53          8
    54          4
    55         18
    56          0
    57          2
    58          4
    59         30
    60          2
    61          3
    62          0
    63          1
    64          1
    65          2
    66          3
    67          1
    68          5
    69          4
    70          3
    71          4
    72         18
    73        999
    74         80
    75        173
    76         11
    77         16
    78          0
    79          1
    80          0
    81          0
    83          0
    85          2
    86          1
    87          3
    88          2
    89          5
    90          1
    91          0
    92          0
    93         15
    94          1
    95          5
    96          5
    97         25
    98          2
    99          2
   100          1
   101         41
   102          6
   103         47
   104          2
   105          5
   106          1
   107          0
   108          0
   109          0
   110          0
   111          1
   112          0
   113          2
   114          2
   115          3
   116         43
   117         77
   118          9
   119          6
   120          0
   121          1
   122          0
   125          0
   127         10
   128          1
   129         72
   130          8
   131         13
   132          2
   133         31
   134          7
   135          3
   136          0
   138          0
   139          1
   140          1
   141          2
   142          3
   143          8
   144          1
   145          2
   146          1
   147        211
   148         34
   149         25
   150          3
   151          1
   152          0
   156          6
   157          2
   158          0
   159          1
   161          2
   162          0
   163          5
   164          0
   165          0
   166          0
   169          2
   170          0
   171          0
   172          0
   173          2
   174          1
   175          7
   176          1
   177          3
   179          1
   180          0
   182          0
   183          0
   184          0
   185          1
   187          1
   188          0
   189         42
   190         27
   191         36
   192          6
   193          2
   195          0
   196          0
   197          0
   198          0
   200          0
   201          5
   202          2
   203          5
   204         39
   205         81
   206         20
   207         10
   208          1
   209          0
   210          0
   213          3
   214          0
   215          9
   216          4
   217         73
   218         16
   219          8
   220          1
   221          5
   222          1
   223          0
   224          0
   226          0
   229          1
   230          6
   231          5
   232          2
   233         42
   234         10
   235          4
   236          0
   237          0
   238          0
   242          0
   243          3
   244          0
   245          8
   246          2
   247          1
   248          0
   249          0
   251          0
   252          0
   253          0
   254          0
   255          0
   256          0
   257          0
   258          1
   259          8
   260          1
   261          1
   262          0
   263          1
   264          0
   265          0
   275          0
   277          1
   278          0
   280          0
   286          0
   287          0
   289          1
   290          0
   291          1
   292          0
   293          1
   294          1
   295          0
   302          0
   304          1
   305          9
   306         30
   307         11
   308          4
   309          4
   310          1
   311          0
   321          0
   322          0
   323          0
   331          0
   333          1
   334          1
   335          4
   336          0
   345          1
   348          0
   349          1
   350          0
   351          0
   385          0
   396          0