##TITLE=Library Entry 49028
##JCAMP-DX=Revision 4.10 
##DATA TYPE=MASS SPECTRUM
##SAMPLE DESCRIPTION=D.HENNEBERG, MAX-PLANCK INSTITUTE, MULHEIM, WEST GERMAN
Y
##NAMES=HP
##CAS NAME=3-Tetradecen-5-yne, (E)-
##MOLFORM=C14H24
##CAS REGISTRY NO=74744-44-8
##MP= -300
##BP= -300
##MW= 192
##$RETENTION INDEX=0
##$CONDENSED SPECTRUM=NO
##NPOINTS= 120
##XYDATA=(XY..XY) 1 
    22          1
    23          1
    24          1
    25          8
    26         34
    27        323
    28        182
    29        571
    30         18
    33          2
    34          3
    35          3
    36          2
    37         10
    38         10
    39        241
    40         31
    41        614
    42         77
    43        527
    44         29
    47          6
    48          4
    49          4
    50         17
    51        101
    52         62
    53        115
    54         72
    55        578
    56         68
    57        243
    58          7
    60          1
    61          2
    62          7
    63         37
    64         17
    65        150
    66         71
    67        464
    68         74
    70         28
    71         46
    72          5
    73          4
    75         24
    76          8
    77        355
    78        132
    79        999
    80        213
    81        278
    82         75
    83         27
    84         14
    85         23
    86          2
    87          2
    88          3
    89         18
    90          9
    91        334
    92         65
    93        615
    94        152
    95        515
    96         62
    97         12
    98          4
    99          4
   101          1
   102          2
   103         11
   104          8
   105         68
   106         20
   107        228
   108         57
   109         32
   110         15
   111          1
   112          1
   113          1
   114          0
   115          7
   116          3
   117         10
   118          1
   119         19
   120          7
   121        164
   122         75
   123         15
   124          5
   125          0
   128          2
   129          1
   131          2
   133          6
   134          2
   135        132
   136         78
   137         10
   138          1
   141          0
   142          0
   143          0
   147          1
   149         35
   150          7
   151          1
   163         33
   164          4
   165          1
   177          0
   190          2
   191          0
   192         46
   193          6