##TITLE=Library Entry 48496
##JCAMP-DX=Revision 4.10 
##DATA TYPE=MASS SPECTRUM
##SAMPLE DESCRIPTION=D.HENNEBERG, MAX-PLANCK INSTITUTE, MULHEIM, WEST GERMAN
Y
##NAMES=HP
##CAS NAME=5-Tetradecen-3-yne, (E)-
##MOLFORM=C14H24
##CAS REGISTRY NO=74744-48-2
##MP= -300
##BP= -300
##MW= 192
##$RETENTION INDEX=0
##$CONDENSED SPECTRUM=NO
##NPOINTS= 122
##XYDATA=(XY..XY) 1 
    22          1
    23          0
    24          1
    25          7
    26         39
    27        372
    28        130
    29        438
    30         13
    33          3
    34          2
    35          3
    36          4
    37         25
    38         37
    39        346
    40         59
    41        615
    42        158
    43        560
    44        231
    47          4
    48          2
    49         12
    50         50
    51         87
    52         53
    53        206
    54        184
    55        347
    56        212
    57        425
    58         29
    61          4
    62          7
    63         23
    64         12
    65        117
    66         54
    67        244
    68        107
    69        166
    70        108
    71         58
    72         17
    73          9
    75         20
    76          7
    77        351
    78        146
    79        999
    80        476
    81        292
    82        143
    83         53
    84         18
    85         17
    86          4
    87          1
    88          1
    89         11
    90          6
    91        285
    92         56
    93        307
    94         64
    95        105
    96         47
    97         13
    98         49
    99          8
   100          1
   102          1
   103          8
   104          3
   105         38
   106         12
   107        177
   108         59
   109         40
   110         15
   111          3
   112          1
   113          1
   114          9
   115          4
   116          1
   117          6
   118          2
   119         12
   120          5
   121         91
   122         22
   123          7
   124          6
   126          0
   128          1
   129          1
   130          0
   131          1
   133          3
   134          0
   135         38
   136          9
   137          2
   138          3
   139          0
   140          0
   147          1
   149         29
   150          4
   151          1
   161          1
   163         36
   164          6
   177          1
   178          3
   190          1
   191          0
   192         80
   193         12
   194          0