##TITLE=Library Entry 34367
##JCAMP-DX=Revision 4.10 
##DATA TYPE=MASS SPECTRUM
##SAMPLE DESCRIPTION=D.HENNEBERG, MAX-PLANCK INSTITUTE, MULHEIM, WEST GERMAN
Y
##NAMES=HP
##CAS NAME=1,4-Hexadiene, 3,3,5-trimethyl-
##MOLFORM=C9H16
##CAS REGISTRY NO=74753-00-7
##MP= -300
##BP= -300
##MW= 124
##$RETENTION INDEX=0
##$CONDENSED SPECTRUM=NO
##NPOINTS= 83
##XYDATA=(XY..XY) 1 
    23          0
    24          2
    25          1
    26          6
    27        118
    28         25
    29         72
    30          1
    31          0
    32          0
    33          0
    35          1
    36          0
    37          5
    38          7
    39        150
    40         25
    41        919
    42         36
    43         59
    44          4
    45          1
    46          0
    47          0
    48          0
    49          1
    50          7
    51         23
    52          9
    53         80
    54          9
    55        102
    56         14
    57          4
    59          0
    60          0
    61          0
    62          2
    63          5
    64          1
    65         18
    66          9
    67        180
    68         75
    69        999
    70         49
    71          1
    73          0
    74          0
    75          1
    76          0
    77         20
    78          5
    79         26
    80         39
    81        314
    82         39
    83          4
    84          0
    89          0
    91         16
    92          2
    93          6
    94          5
    95         12
    96          4
    97          9
    98          0
   103          1
   105          2
   106          0
   107          7
   108          1
   109        130
   110         10
   111          0
   115          0
   117          0
   118          0
   122          1
   123          0
   124         20
   125          1