##TITLE=Library Entry 90956
##JCAMP-DX=Revision 4.10 
##DATA TYPE=MASS SPECTRUM
##SAMPLE DESCRIPTION=D.HENNEBERG, MAX-PLANCK INSTITUTE, MULHEIM, WEST GERMAN
Y
##NAMES=HP
##CAS NAME=1,3-Dioxolane-4,5-dicarboxamide, N,N,N',N',2,2-hexamethyl-
##MOLFORM=C11H20N2O4
##CAS REGISTRY NO=74752-95-7
##MP= -300
##BP= -300
##MW= 244
##$RETENTION INDEX=0
##$CONDENSED SPECTRUM=NO
##NPOINTS= 119
##XYDATA=(XY..XY) 1 
    27          9
    28         55
    29          5
    30          9
    31          5
    32          2
    33          0
    36          0
    38          0
    39          2
    40          1
    41          8
    42         36
    43         45
    44         82
    45         42
    46        127
    47          2
    49          0
    50          1
    51          1
    52          0
    53          0
    54          0
    55          3
    56          8
    57          4
    58         24
    59          5
    60          3
    61          0
    68          0
    69         20
    70          9
    71         15
    72        512
    73         24
    74          6
    75          0
    76          0
    77          1
    78          0
    79          0
    81          0
    82          1
    83          1
    84          2
    85         29
    86         57
    87          6
    88          0
    89          0
    90          0
    91          0
    96          0
    97          0
    98         16
    99          3
   100          8
   101          1
   102          6
   103          6
   104          0
   105          2
   106          0
   109          0
   110          0
   111          0
   112          1
   113          8
   114        999
   115         65
   116          7
   117          1
   119          0
   122          1
   125          0
   126          7
   127          8
   128          2
   129          4
   130          1
   131          0
   132         11
   133          1
   135          0
   140          0
   141          2
   142         15
   143          9
   144          1
   145          0
   154          0
   156          2
   157          1
   158         10
   159          1
   160          0
   167          0
   170          0
   171          1
   172         66
   173          6
   174          0
   182          0
   183          0
   184          0
   185          0
   186        117
   187         13
   188          1
   201          0
   202          0
   229          5
   230          0
   243          0
   244         31
   245          4
   246          0