##TITLE=Library Entry 68040
##JCAMP-DX=Revision 4.10 
##DATA TYPE=MASS SPECTRUM
##SAMPLE DESCRIPTION=D.HENNEBERG, MAX-PLANCK INSTITUTE, MULHEIM, WEST GERMAN
Y
##NAMES=HP
##CAS NAME=1,3-Hexadiene, 3-ethyl-2-methyl-, (Z)-
##MOLFORM=C9H16
##CAS REGISTRY NO=74752-97-9
##MP= -300
##BP= -300
##MW= 124
##$RETENTION INDEX=0
##$CONDENSED SPECTRUM=NO
##NPOINTS= 90
##XYDATA=(XY..XY) 1 
    27        109
    28         18
    29        143
    30          4
    32          0
    34          0
    36          2
    37          0
    39        149
    40         34
    41        483
    42         41
    43        185
    44         15
    47          2
    48          1
    49          0
    50          3
    51         21
    52         17
    53        184
    54         39
    55        502
    56         44
    57         27
    60          1
    61          1
    62          0
    63          4
    64          2
    65         71
    66         31
    67        945
    68        117
    69        148
    70         40
    71         10
    72          5
    74          2
    75          2
    76          1
    77        127
    78         24
    79        180
    80         46
    81        350
    82         96
    83         45
    84         21
    85          3
    86          1
    87          1
    88          0
    89          1
    90          0
    91         97
    92         15
    93        120
    94         33
    95        999
    96         90
    97         20
    98          6
    99          6
   100          3
   101          5
   102          1
   103          3
   104          0
   105         17
   106          3
   107         61
   108         10
   109        402
   110         31
   111          2
   113          0
   114          1
   115          1
   116          0
   117          0
   118          0
   119          2
   120          1
   121          7
   122         22
   123         94
   124        722
   125         82
   126         11