##TITLE=Library Entry 33209
##JCAMP-DX=Revision 4.10 
##DATA TYPE=MASS SPECTRUM
##SAMPLE DESCRIPTION=D.HENNEBERG, MAX-PLANCK INSTITUTE, MULHEIM, WEST GERMAN
Y
##NAMES=HP
##CAS NAME=3-Cycloheptene-1-carboxylic acid, 5,6-dimethyl-2-oxo-, methyl est
er
##MOLFORM=C11H16O3
##CAS REGISTRY NO=74752-92-4
##MP= -300
##BP= -300
##MW= 196
##$RETENTION INDEX=0
##$CONDENSED SPECTRUM=NO
##NPOINTS= 149
##XYDATA=(XY..XY) 1 
    26         61
    27        189
    28         45
    29         65
    30         10
    31         50
    32          4
    35          0
    37          1
    38          4
    39        166
    40         67
    41        403
    42         59
    43         89
    44         15
    45         12
    47          1
    48          0
    49          4
    50         10
    51         19
    52         18
    53        143
    54        182
    55        552
    56         34
    57          8
    58          5
    59         74
    60          3
    61          5
    62          1
    63          4
    64          3
    65         68
    66         46
    67        999
    68         79
    69         85
    70          7
    71          7
    72          1
    73          1
    74          8
    75          2
    76          1
    77        105
    78         23
    79        171
    80         43
    81        344
    82        544
    83        128
    84          9
    85         13
    86          4
    87        101
    88          5
    89          2
    90          1
    91        122
    92         26
    93        355
    94         95
    95        238
    96        202
    97         25
    98          9
    99          5
   100          9
   101        340
   102         15
   103         11
   104          3
   105         33
   106         10
   107        106
   108        452
   109        603
   110        261
   111         46
   112          9
   113         37
   114          9
   115          4
   116          2
   117         10
   118         34
   119         44
   120         11
   121        105
   122        132
   123         93
   124         12
   125         25
   126          6
   127          4
   128          1
   129          0
   130          1
   131          2
   132          1
   133          4
   134          5
   135         44
   136        139
   137        112
   138         12
   139          9
   140          1
   141          3
   142          0
   143          0
   144          0
   145          3
   146         20
   147          9
   148          5
   149        313
   150         32
   151          5
   152          3
   153         24
   154         13
   155          3
   156          0
   160          0
   161          2
   162          2
   163         15
   164        390
   165        178
   166         23
   167          8
   168         12
   169          1
   177          0
   178         22
   179          3
   180          2
   181         20
   182          2
   184          0
   195          1
   196        659
   197         82
   198          7
   199          0