##TITLE=Library Entry 48495
##JCAMP-DX=Revision 4.10 
##DATA TYPE=MASS SPECTRUM
##SAMPLE DESCRIPTION=D.HENNEBERG, MAX-PLANCK INSTITUTE, MULHEIM, WEST GERMAN
Y
##NAMES=HP
##CAS NAME=1-Tetradecen-3-yne
##MOLFORM=C14H24
##CAS REGISTRY NO=74752-91-3
##MP= -300
##BP= -300
##MW= 192
##$RETENTION INDEX=0
##$CONDENSED SPECTRUM=NO
##NPOINTS= 104
##XYDATA=(XY..XY) 1 
    22          0
    23          2
    24          1
    25          4
    26         14
    27        233
    28         45
    29        444
    30         12
    33          3
    34          2
    35          3
    36          1
    38         12
    39        323
    40         53
    41        638
    42         80
    43        622
    44         17
    47          1
    48          1
    49          1
    50         16
    51         52
    52         47
    53         84
    54         95
    55        438
    56         71
    57        175
    58         14
    61          2
    62          8
    63         39
    64         21
    65        203
    66        196
    67        400
    68        118
    69        249
    70         34
    71         32
    72          3
    73          5
    75         19
    76          7
    77        258
    78        126
    79        999
    80        399
    81        220
    82         69
    83         95
    84         11
    85         11
    86          1
    87          1
    88          1
    89         14
    90          6
    91        246
    92         52
    93        525
    94        143
    95        117
    96         28
    97          8
    98          0
    99          0
   102          0
   103          6
   104          2
   105         39
   106         15
   107        296
   108        166
   109         72
   110         16
   111          2
   115          2
   117          2
   119          5
   120          1
   121        105
   122         39
   123          6
   124          2
   129          0
   131          0
   133          2
   134          0
   135         93
   136         15
   137          4
   138          1
   149         25
   150          4
   151          1
   163         16
   164          3
   177          7
   178          1
   192          1