##TITLE=Library Entry 48155
##JCAMP-DX=Revision 4.10 
##DATA TYPE=MASS SPECTRUM
##SAMPLE DESCRIPTION=Div. of Experiment Therapeutics WRAIR, WRAMC, Washingto
n DC 20307
##NAMES=HP
##CAS NAME=3,5-Dimethyl-5-[2-pyridyl]-1,3,4-thiadiazolidin-2-thione
##MOLFORM=C9H11N3S2
##CAS REGISTRY NO=74752-62-8
##MP= -300
##BP= -300
##MW= 225
##$RETENTION INDEX=0
##$CONDENSED SPECTRUM=NO
##NPOINTS= 138
##XYDATA=(XY..XY) 1 
    41         54
    42        206
    43         98
    44         20
    45         44
    46         10
    47          8
    48          2
    49         22
    50        173
    51        461
    52        349
    53        140
    54         50
    55         16
    56         10
    57         10
    58          6
    59          8
    60          8
    61         12
    62         14
    63         39
    64         74
    65         30
    66         25
    67         17
    68          2
    69         15
    70          7
    71         16
    72         29
    73         28
    74         32
    75         38
    76         69
    77        210
    78        999
    79        897
    80        114
    81          7
    82          2
    83          5
    84          3
    85          2
    86          1
    87          2
    88          2
    89          2
    90          4
    91         12
    92         20
    93         34
    94          4
    95          2
    96          3
    97          2
    98          1
    99          1
   100          1
   101          1
   102          4
   104        246
   105        170
   106        686
   107         56
   108          9
   109          2
   110          2
   111          5
   112          1
   113          1
   115         21
   116          1
   117          3
   118          3
   119         19
   120        109
   121        177
   122         27
   123          3
   124          2
   125          0
   126          0
   128          3
   129          1
   130          1
   131          2
   132          5
   133          6
   134        116
   135         10
   136          2
   137          3
   138          2
   139          0
   143          0
   145         12
   146          4
   147         22
   148         70
   149        311
   150         41
   151          6
   152          2
   153          0
   155          0
   157          0
   160          2
   162          0
   163          0
   165          2
   167          1
   168          1
   169          0
   178          1
   180          1
   181          1
   182          0
   183          1
   190          1
   192         15
   193          3
   194          1
   195          1
   208          7
   209          1
   210         35
   211          4
   212          3
   214          0
   219          0
   223          3
   224          0
   225         56
   226          6
   227          5
   228          0