##TITLE=Library Entry 32361
##JCAMP-DX=Revision 4.10 
##DATA TYPE=MASS SPECTRUM
##SAMPLE DESCRIPTION=D.HENNEBERG, MAX-PLANCK INSTITUTE, MULHEIM, WEST GERMAN
Y
##NAMES=HP
##CAS NAME=Propanedinitrile, bicyclo[3.3.1]non-9-ylidene-
##MOLFORM=C12H14N2
##CAS REGISTRY NO=74764-32-2
##MP= -300
##BP= -300
##MW= 186
##$RETENTION INDEX=0
##$CONDENSED SPECTRUM=NO
##NPOINTS= 143
##XYDATA=(XY..XY) 1 
    21          0
    22          1
    23          2
    24          1
    25          6
    26         49
    27        561
    28        108
    29        304
    30         24
    31          0
    34          3
    35          5
    36          2
    37         26
    38         54
    39        706
    40        103
    41        937
    42        105
    43         67
    44          2
    45          2
    46          1
    47          3
    48          3
    49          6
    50         70
    51        174
    52        111
    53        189
    54        124
    55        676
    56         70
    57         18
    59          2
    60          1
    61          9
    62         40
    63        116
    64         94
    65        188
    66        141
    67        999
    68         80
    69         42
    70          5
    71          2
    72          2
    73          2
    74         10
    75         61
    76         93
    77        233
    78        141
    79        379
    80        141
    81        324
    82        234
    83         17
    84          1
    85          2
    86          3
    87         12
    88         43
    89        112
    90         90
    91        137
    92         72
    93        290
    94        105
    95        494
    96         37
    97          1
    99          4
   100          8
   101         22
   102         83
   103         73
   104         63
   105         88
   106         58
   107         33
   108         22
   109          3
   110          1
   111          1
   112          3
   113          5
   114         35
   115         63
   116        150
   117        104
   118        110
   119         60
   120        110
   121         47
   122          5
   123          0
   125          1
   126          2
   127         10
   128         26
   129        106
   130        115
   131        107
   132        170
   133         35
   134          8
   135          3
   138          1
   140         10
   141         23
   142         43
   143        212
   144        219
   145        132
   146         35
   147          2
   152          4
   153          5
   154         20
   155         15
   156         29
   157        245
   158        278
   159         64
   160         10
   161          0
   166          1
   167          2
   168         14
   169         22
   170         11
   171         90
   172         13
   181          0
   183          3
   184         10
   185        159
   186        160
   187         18
   188          1