##TITLE=Library Entry 52076
##JCAMP-DX=Revision 4.10 
##DATA TYPE=MASS SPECTRUM
##SAMPLE DESCRIPTION=D.HENNEBERG, MAX-PLANCK INSTITUTE, MULHEIM, WEST GERMAN
Y
##NAMES=HP
##CAS NAME=3-Pentenoic acid, 2-hydroxy-4-methyl-2-(2-methyl-2-propenyl)-, et
hyl ester
##MOLFORM=C12H20O3
##CAS REGISTRY NO=74764-57-1
##MP= -300
##BP= -300
##MW= 212
##$RETENTION INDEX=0
##$CONDENSED SPECTRUM=NO
##NPOINTS= 140
##XYDATA=(XY..XY) 1 
    27         42
    28          7
    29        352
    30          6
    31         11
    32          0
    35         15
    36          4
    37          5
    38          1
    39         62
    40         12
    41        101
    42          5
    43         57
    44          3
    45         14
    46          1
    47         25
    48          7
    49         11
    50          1
    52          0
    53         34
    54         24
    55        999
    56        115
    57         38
    58          2
    59         48
    60          1
    61          0
    64          0
    65          4
    66          2
    67         12
    68          9
    69         30
    70          2
    71          3
    72          0
    73          2
    74          2
    75          1
    77          6
    78          1
    79         12
    80          2
    81         14
    82         62
    83        999
    84         87
    87         23
    88          1
    89          1
    91          8
    92          2
    93         10
    94          5
    95         19
    96         34
    97         29
    98         19
    99          3
   100          0
   101          8
   102          0
   103          0
   104          0
   105          8
   106          1
   107          7
   108          2
   109          9
   110         19
   111         10
   112          1
   113          1
   114          0
   115          2
   116         36
   117          3
   118          0
   119          3
   120          6
   121         17
   122          3
   123          4
   124          3
   125          3
   126          1
   127         28
   128         10
   129         17
   130          1
   133          1
   134          0
   135          1
   137          2
   138          9
   139         72
   140          7
   141          1
   142          0
   143          4
   144          1
   147          1
   148          1
   149          1
   150          0
   151          2
   152          0
   153          0
   154          0
   155          1
   156         29
   157        100
   158          9
   159          1
   160          0
   161          0
   165          3
   166         14
   167          1
   168          0
   169          0
   170          0
   171          0
   179          1
   180          0
   183          0
   184          5
   185          0
   193          0
   194          5
   195          1
   197          1
   198          0
   212          0
   213          0