##TITLE=Library Entry 109598
##JCAMP-DX=Revision 4.10 
##DATA TYPE=MASS SPECTRUM
##SAMPLE DESCRIPTION=NIST Mass Spectrometry Data Center, 1994
##NAMES=HP
##CAS NAME=Methyl .alpha.-chlorophenylacetate
##MOLFORM=C9H9ClO2
##CAS REGISTRY NO=7476-66-6
##MP= -300
##BP= -300
##MW= 184
##$RETENTION INDEX=0
##$CONDENSED SPECTRUM=NO
##NPOINTS= 83
##XYDATA=(XY..XY) 1 
    12          3
    13          4
    15        233
    16          3
    17          0
    18          2
    26         13
    27         19
    28         12
    29         66
    30         22
    31         11
    32          2
    35          7
    36          4
    37         23
    38         56
    39        126
    40         15
    41          7
    42          2
    43          8
    45         12
    48          1
    49          9
    50         66
    51         85
    52         13
    53          5
    59        141
    60          6
    61         27
    62         90
    63        202
    64         53
    65         44
    66          3
    73         21
    74         13
    75         20
    76          3
    77         76
    78         20
    79          9
    84          2
    85          8
    86         17
    87         14
    88          2
    89        317
    90        197
    91        116
    92          9
    93          2
    97          3
    99         53
   100          2
   101         16
   102          2
   103          6
   104          2
   105        169
   106         19
   107          1
   118         64
   119          9
   121         49
   122          4
   125        999
   126         91
   127        331
   128         24
   133          3
   139          2
   141          1
   149         27
   150         18
   151          2
   152          2
   184        195
   185         23
   186         65
   187          6