##TITLE=Library Entry 64294
##JCAMP-DX=Revision 4.10 
##DATA TYPE=MASS SPECTRUM
##SAMPLE DESCRIPTION=Japan AIST/NIMC Database- Spectrum MS-IW-5784
##NAMES=HP
##CAS NAME=Ethyl 4'-methylazobenzene-3-carboxylate
##MOLFORM=C16H16N2O2
##CAS REGISTRY NO=74763-69-2
##MP= -300
##BP= -300
##MW= 268
##$RETENTION INDEX=0
##$CONDENSED SPECTRUM=NO
##NPOINTS= 83
##XYDATA=(XY..XY) 1 
    17          4
    18          1
    26          1
    27          8
    28          8
    29         21
    31          1
    38          1
    39         22
    40          1
    41          9
    43          1
    45          2
    50         16
    51         14
    52          4
    53          2
    62          3
    63         14
    64          6
    65        141
    66          8
    74          2
    75         21
    76         49
    77         16
    78          5
    79          2
    89         17
    90         14
    91        999
    92         87
    93         10
   103        100
   104         71
   105          9
   106          7
   107          3
   111          3
   115          3
   119        404
   120         39
   121         48
   122          4
   125          1
   128          1
   134          2
   139          1
   141          1
   149        259
   150         25
   151          5
   152         28
   153          4
   163          1
   164          1
   165         24
   166          9
   167         16
   168          3
   177         25
   178          3
   179          1
   181          2
   182          1
   193          1
   194          1
   195         13
   196          2
   197          1
   211          1
   212          1
   223         71
   224         11
   225          1
   239          1
   240          2
   266          1
   267          4
   268        540
   269         99
   270         11
   271          1