##TITLE=Library Entry 24671
##JCAMP-DX=Revision 4.10 
##DATA TYPE=MASS SPECTRUM
##SAMPLE DESCRIPTION=D.HENNEBERG, MAX-PLANCK INSTITUTE, MULHEIM, WEST GERMAN
Y
##NAMES=HP
##CAS NAME=5-Hepten-3-one, 5-ethyl-4-methyl-
##MOLFORM=C10H18O
##CAS REGISTRY NO=74764-56-0
##MP= -300
##BP= -300
##MW= 154
##$RETENTION INDEX=0
##$CONDENSED SPECTRUM=NO
##NPOINTS= 88
##XYDATA=(XY..XY) 1 
    22          0
    23          1
    24          0
    25          3
    26         14
    27        206
    28         43
    29        651
    30         15
    32          0
    33          0
    35          1
    37         11
    38          6
    39        138
    40         26
    41        310
    42         21
    43         88
    44          1
    45          3
    46          0
    47          1
    50          6
    51         21
    52         11
    53         72
    54         22
    55        972
    56         54
    57        999
    58         33
    59          2
    61          0
    62          0
    63          6
    64          1
    65         19
    66         10
    67         67
    68         16
    69        199
    70         16
    71          1
    72          1
    74          0
    75          1
    76          0
    77         12
    78          3
    79         16
    80          2
    81         28
    82          3
    83          8
    85          0
    86          3
    91          5
    92          0
    93          2
    94          0
    95          5
    96         24
    97        204
    98         25
    99          0
   105          1
   106          0
   107          3
   108          0
   109          2
   111          1
   119          0
   120          0
   121          1
   123          1
   124          1
   125        159
   126         14
   127          0
   136          5
   137          5
   138          1
   139         36
   140          3
   152          0
   154          5
   155          0