##TITLE=Library Entry 8315
##JCAMP-DX=Revision 4.10 
##DATA TYPE=MASS SPECTRUM
##SAMPLE DESCRIPTION=NIST Mass Spectrometry Data Center, 1994
##NAMES=HP
##CAS NAME=Ethyl 2,2-diethoxypropionate
##MOLFORM=C9H18O4
##CAS REGISTRY NO=7476-20-2
##MP= -300
##BP= -300
##MW= 190
##$RETENTION INDEX=1106
##$CONDENSED SPECTRUM=NO
##NPOINTS= 73
##XYDATA=(XY..XY) 1 
     4          4
     6          0
    10          0
    12          1
    13          0
    14          5
    15         43
    16          1
    17          1
    18          1
    19          5
    21          0
    23          0
    24          0
    26         20
    27        142
    28         33
    29        264
    30         16
    31         22
    32          0
    35          0
    36          1
    37          0
    38          1
    39          2
    43        999
    44         32
    45         51
    47         15
    50          0
    53          2
    54          0
    55          3
    56          1
    57          4
    58          2
    61        819
    62         17
    63          4
    64          0
    67          0
    69          1
    70          1
    71          2
    72          7
    73          8
    74          2
    75          6
    76          0
    77          0
    81          0
    82          1
    83          0
    85          0
    86          0
    87          4
    89        342
    90         15
    91          8
    99          1
   100          1
   101          0
   113          0
   117        565
   118         33
   119          9
   120          0
   129          1
   145         93
   146          8
   147          3
   175          0