##TITLE=Library Entry 78381
##JCAMP-DX=Revision 4.10 
##DATA TYPE=MASS SPECTRUM
##SAMPLE DESCRIPTION=D.HENNEBERG, MAX-PLANCK INSTITUTE, MULHEIM, WEST GERMAN
Y
##NAMES=HP
##CAS NAME=Benzamide, N-(aminocarbonyl)-N-(1-thioxoethoxy)-
##MOLFORM=C10H10N2O3S
##CAS REGISTRY NO=74764-44-6
##MP= -300
##BP= -300
##MW= 238
##$RETENTION INDEX=0
##$CONDENSED SPECTRUM=NO
##NPOINTS= 83
##XYDATA=(XY..XY) 1 
    27         50
    28         30
    29         64
    30          7
    32         16
    33         61
    34         14
    35          1
    36          4
    37         49
    38         78
    39         85
    40          8
    41          5
    42         87
    43        331
    44         40
    45        178
    46         46
    47        315
    48        240
    49         31
    50        155
    51        285
    52         21
    53          5
    54          1
    55          0
    56          0
    60          3
    61          6
    62          9
    63         23
    64         25
    65          8
    66          1
    67          0
    69          0
    70         71
    71          1
    72          1
    73         10
    74         40
    75         45
    76         49
    77        633
    78         43
    79          2
    85          0
    86          1
    87          1
    88          1
    89          2
    90         13
    91         25
    92         14
    93          3
    94          1
    95          0
    99          1
   100          0
   102          3
   103         39
   104         14
   105        999
   106         74
   107          4
   110          0
   117         10
   118          0
   119          1
   120          0
   121         17
   122          1
   130          1
   146          0
   147        263
   148         23
   149          1
   190          2
   191         91
   192         10
   193          0