##TITLE=Library Entry 77057
##JCAMP-DX=Revision 4.10 
##DATA TYPE=MASS SPECTRUM
##SAMPLE DESCRIPTION=V.Zaikin,Topchiev Inst.Petrochem.Synth.,Moscow
##NAMES=HP
##CAS NAME=Acetic acid, chloro-, 2-phenylethyl ester
##MOLFORM=C10H11ClO2
##CAS REGISTRY NO=7476-91-7
##MP= -300
##BP= -300
##MW= 198
##$RETENTION INDEX=0
##$CONDENSED SPECTRUM=NO
##NPOINTS= 50
##XYDATA=(XY..XY) 1 
    26          3
    27          4
    29          2
    35          1
    36          8
    38          2
    39         14
    40          2
    41          4
    42          6
    43          2
    44          4
    48          1
    49         22
    50         10
    51         25
    52         10
    53          3
    55          1
    57          1
    62          3
    63         13
    64          4
    65         40
    66          3
    70          2
    71          1
    74          3
    75          3
    76          4
    77         66
    78         35
    79         32
    80          6
    81          2
    82          5
    89         12
    90          6
    91        243
    92         24
    93          2
    97          1
   102          6
   103         53
   104        999
   105        153
   106         10
   107          2
   120          2
   121          3