##TITLE=Library Entry 3389
##JCAMP-DX=Revision 4.10 
##DATA TYPE=MASS SPECTRUM
##SAMPLE DESCRIPTION=D.HENNEBERG, MAX-PLANCK INSTITUTE, MULHEIM, WEST GERMAN
Y
##NAMES=HP
##CAS NAME=Bicyclo[4.1.0]heptane-7,7-dicarbonitrile, 1-methyl-
##MOLFORM=C10H12N2
##CAS REGISTRY NO=74764-53-7
##MP= -300
##BP= -300
##MW= 160
##$RETENTION INDEX=0
##$CONDENSED SPECTRUM=NO
##NPOINTS= 115
##XYDATA=(XY..XY) 1 
    22          0
    23          1
    24          0
    25          2
    26         41
    27        418
    28        134
    29        252
    30         13
    32          1
    33          0
    34          1
    35          2
    36          1
    37         25
    38         58
    39        515
    40        108
    41        999
    42        230
    43         80
    44          3
    45          4
    46          2
    47          2
    48          1
    49          5
    50         47
    51        116
    52         82
    53        146
    54         69
    55        757
    56        455
    57         23
    58          2
    59          2
    60          0
    61          6
    62         18
    63         51
    64         68
    65        106
    66         87
    67        243
    68        246
    69        833
    70         49
    71          3
    72          5
    73          1
    74          3
    75         17
    76         36
    77        114
    78         97
    79        108
    80         39
    81         47
    82         20
    83          1
    85          0
    86          0
    87          1
    88          7
    89         18
    90         26
    91        168
    92        144
    93         64
    94         59
    95        105
    96         10
    97          1
   100          1
   101          2
   102         12
   103         15
   104         55
   105        139
   106        119
   107         38
   108          4
   109          0
   110          0
   111          0
   113          1
   114          2
   115          5
   116         23
   117         23
   118        113
   119        116
   120         62
   121          4
   127          1
   128         10
   129          4
   130          8
   131         65
   132        115
   133         42
   134          7
   135          0
   141          1
   142          7
   143         13
   144          7
   145        148
   146         15
   157          6
   158          5
   159        114
   160         44
   161          5