##TITLE=Library Entry 66660
##JCAMP-DX=Revision 4.10 
##DATA TYPE=MASS SPECTRUM
##SAMPLE DESCRIPTION=D.HENNEBERG, MAX-PLANCK INSTITUTE, MULHEIM, WEST GERMAN
Y
##NAMES=HP
##CAS NAME=1,2-Cyclopentanedicarboxylic acid, 3-methyl-4-methylene-, dimethy
l ester
##MOLFORM=C11H16O4
##CAS REGISTRY NO=74764-50-4
##MP= -300
##BP= -300
##MW= 212
##$RETENTION INDEX=0
##$CONDENSED SPECTRUM=NO
##NPOINTS= 141
##XYDATA=(XY..XY) 1 
    21          0
    23          0
    25          0
    26          7
    27         80
    28         50
    29         32
    30         10
    31         18
    32          4
    33          7
    34          1
    35          0
    37          3
    38          6
    39        117
    40         24
    41        100
    42          7
    43         28
    44         16
    45         27
    46          3
    47          2
    48          1
    49          1
    50          9
    51         36
    52         21
    53         71
    54         12
    55         35
    56          5
    57          6
    58          1
    59        147
    60          6
    61          7
    62          3
    63         10
    64          8
    65         42
    66         13
    67         29
    68          8
    69         18
    70          2
    71          4
    72          2
    73          1
    74          3
    75          5
    76          4
    77        203
    78         40
    79        101
    80          9
    81         19
    82          5
    83          3
    84          0
    85          5
    86          1
    87          1
    89         18
    91        142
    92        199
    93        999
    94        107
    95         16
    96          3
    97          5
    98          1
    99          1
   100          1
   103          0
   104          1
   105         18
   106          2
   107          8
   108          2
   109         26
   110          4
   111          4
   112          4
   113          6
   114          1
   115          0
   116          0
   118          1
   119         14
   120         35
   121         82
   122         10
   123          7
   124         40
   125         13
   126          2
   127          1
   128          2
   130          1
   131          0
   132          0
   133          1
   134          0
   135          2
   136          1
   137         35
   138          4
   139          1
   140          1
   141          0
   142          0
   145          0
   146          0
   148          1
   149         12
   150          3
   151         13
   152        448
   153         62
   154          5
   155          1
   156          0
   157          0
   163          0
   165          1
   167          0
   177          0
   178          0
   179          0
   180         49
   181         89
   182         11
   183          1
   190          0
   197          0
   206          0
   211          0
   212          2
   213          0