##TITLE=Library Entry 11162
##JCAMP-DX=Revision 4.10 
##DATA TYPE=MASS SPECTRUM
##SAMPLE DESCRIPTION=D.HENNEBERG, MAX-PLANCK INSTITUTE, MULHEIM, WEST GERMAN
Y
##NAMES=HP
##CAS NAME=.alpha.-L-Sorbofuranose, cyclic 2,3:4,6-bis(ethylboronate) 1-acet
ate
##MOLFORM=C12H20B2O7
##CAS REGISTRY NO=74779-77-4
##MP= -300
##BP= -300
##MW= 298
##$RETENTION INDEX=0
##$CONDENSED SPECTRUM=NO
##NPOINTS= 198
##XYDATA=(XY..XY) 1 
    26         36
    27         28
    28        168
    29         44
    30          5
    31          5
    36          0
    37          0
    38          2
    39         16
    40          6
    41         30
    42         34
    43        999
    44         36
    45         17
    47          1
    49          0
    50          2
    51          3
    52          6
    53         11
    54         11
    55         32
    56         33
    57        109
    58          5
    59          7
    60          2
    61          7
    62          1
    63          0
    65          4
    66          3
    67         13
    68         42
    69        134
    70         36
    71         21
    72          3
    73        206
    74          9
    75          4
    76          0
    77          1
    78          2
    79          4
    80          3
    81         24
    82         21
    83         91
    84         21
    85         28
    86         15
    87         15
    88          1
    89          1
    91          1
    93          1
    94          2
    95          7
    96         18
    97         32
    98         93
    99        210
   100         24
   101        525
   102         26
   103          7
   105          1
   107          1
   108          5
   109         37
   110        199
   111        700
   112        124
   113         71
   114         10
   115         17
   116          2
   117          4
   118          0
   119          1
   120          0
   121          1
   122          4
   123         64
   124        252
   125        175
   126         28
   127         46
   128         17
   129         12
   130          2
   131          2
   135          2
   136          5
   137         11
   138         17
   139         49
   140         85
   141         77
   142         64
   143         29
   144          2
   145          1
   148          0
   149          2
   150          6
   151         26
   152         26
   153         75
   154         25
   155         28
   156          9
   157         21
   158          4
   159          1
   162          4
   163          5
   164         39
   165        141
   166         17
   167          9
   168         29
   169         83
   170          9
   171         11
   173          0
   175          0
   177          1
   178          2
   179          8
   180          8
   181         16
   182         21
   183         13
   184          3
   185          1
   190          2
   192          0
   193          2
   194          7
   195         14
   196         17
   197         23
   198          7
   199         14
   200         10
   201         16
   202          1
   205          1
   206         14
   207         38
   208         67
   209        122
   210         20
   211         29
   212         24
   213         51
   214          4
   215          0
   219          1
   220          2
   221          1
   222          1
   223         10
   224         67
   225        141
   226         20
   227         12
   228          1
   236          2
   237          8
   238         23
   239         18
   240          3
   241          4
   242          2
   243          1
   250          0
   251          1
   254          1
   255          3
   256          8
   257          0
   267          5
   268         39
   269         71
   270          6
   271          1
   281          1
   282          5
   283         14
   284          1
   297          3
   298          8
   299          0