##TITLE=Library Entry 11174
##JCAMP-DX=Revision 4.10 
##DATA TYPE=MASS SPECTRUM
##SAMPLE DESCRIPTION=D.HENNEBERG, MAX-PLANCK INSTITUTE, MULHEIM, WEST GERMAN
Y
##NAMES=HP
##CAS NAME=.beta.-D-Ribopyranose, cyclic 2,4-(ethylboronate) 1,3-diacetate
##MOLFORM=C11H17BO7
##CAS REGISTRY NO=74779-74-1
##MP= -300
##BP= -300
##MW= 272
##$RETENTION INDEX=0
##$CONDENSED SPECTRUM=NO
##NPOINTS= 125
##XYDATA=(XY..XY) 1 
    22          1
    24          2
    25          6
    26         33
    27         50
    28        163
    29         83
    30         11
    31         11
    32          0
    34          0
    35          3
    36         27
    37          4
    38         11
    39         40
    40         11
    41         23
    42         77
    43        999
    44        187
    45         24
    46          1
    47          0
    49          1
    50          2
    51          4
    52          4
    53          8
    54          7
    55         19
    56          8
    57         27
    58          3
    59          1
    60         12
    61          4
    62          3
    63          0
    64          1
    65          0
    66          1
    67          4
    68         11
    69         39
    70         18
    71          7
    72          1
    73         10
    74          1
    75          0
    77          0
    78          0
    79          0
    80          2
    81          3
    82         10
    83         36
    84          4
    85          8
    86          3
    87          2
    89          0
    92          0
    94          0
    95         17
    96         25
    97         19
    98         17
    99         15
   100          1
   101          0
   102          1
   103          3
   105          0
   107          0
   108          2
   109          6
   110        152
   111        607
   112         39
   113          9
   114          0
   115          2
   116          0
   117          1
   122          4
   123         51
   124        208
   125         23
   126          2
   127          3
   128          1
   129          1
   131          0
   138          0
   139          4
   140          3
   141          6
   142          1
   143          0
   147          3
   151          0
   152          2
   153          7
   154          0
   155          1
   156          9
   157          0
   167          0
   168          0
   169          3
   170          3
   171          4
   172          0
   182          0
   183          1
   184          0
   201          0
   207          1
   212          5
   213         19
   214          2
   215          0
   221          0