##TITLE=Library Entry 68091
##JCAMP-DX=Revision 4.10 
##DATA TYPE=MASS SPECTRUM
##SAMPLE DESCRIPTION=D.HENNEBERG, MAX-PLANCK INSTITUTE, MULHEIM, WEST GERMAN
Y
##NAMES=HP
##CAS NAME=Cyclopropanecarboxylic acid, 2,2-dimethyl-3-(4-methyl-4-pentenyl)
-
##MOLFORM=C12H20O2
##CAS REGISTRY NO=74779-63-8
##MP= -300
##BP= -300
##MW= 196
##$RETENTION INDEX=0
##$CONDENSED SPECTRUM=NO
##NPOINTS= 136
##XYDATA=(XY..XY) 1 
    27         70
    28         61
    29        401
    30         11
    31          6
    32          6
    38          1
    39         56
    40         16
    41        433
    42         29
    43        147
    44          9
    45         15
    47          3
    48          1
    49          1
    50          4
    51          4
    52          3
    53         87
    54         52
    55        406
    56         51
    57         47
    58          4
    59        110
    60         10
    61         10
    63          2
    64          1
    65         20
    66         15
    67        389
    68        268
    69        553
    70         46
    71         38
    72          3
    73         20
    74          2
    75          2
    77         33
    78          6
    79        101
    80         40
    81        551
    82        494
    83        268
    84         22
    85         57
    86         16
    87         62
    88         27
    89          4
    90          1
    91         29
    92         13
    93        152
    94         90
    95        999
    96        246
    97         54
    98         29
    99         43
   100         42
   101        419
   102         25
   103          4
   104          1
   105         27
   106          7
   107        107
   108         33
   109        194
   110         55
   111         41
   112         13
   113        358
   114         69
   115         35
   116         40
   117          4
   119          7
   120          2
   121         54
   122         62
   123         58
   124          8
   125         36
   126         14
   127         15
   128          6
   129        367
   130         33
   131          3
   133          3
   134          3
   135         91
   136         91
   137        108
   138         14
   139         32
   140         21
   141        177
   142         51
   143         16
   144          1
   145          5
   149          7
   150         54
   151         49
   152          7
   153         37
   154          9
   155         55
   156         22
   157          3
   161          8
   162          1
   163         24
   164          3
   165          1
   167         27
   168         68
   169         10
   170          1
   177          1
   178          9
   179         28
   180          5
   181         73
   182         10
   183          1
   195          3
   196          1