##TITLE=Library Entry 4368
##JCAMP-DX=Revision 4.10 
##DATA TYPE=MASS SPECTRUM
##SAMPLE DESCRIPTION=D.HENNEBERG, MAX-PLANCK INSTITUTE, MULHEIM, WEST GERMAN
Y
##NAMES=HP
##CAS NAME=1-Decene, 7,7,8,8,9,9,10,10-octafluoro-5,10-diiodo-
##MOLFORM=C10H10F8I2
##CAS REGISTRY NO=74779-66-1
##MP= -300
##BP= -300
##MW= 536
##$RETENTION INDEX=0
##$CONDENSED SPECTRUM=NO
##NPOINTS= 247
##XYDATA=(XY..XY) 1 
    26          6
    27         52
    28         83
    29         75
    30          1
    31          2
    32         15
    33          1
    36          1
    38          2
    39         99
    40         21
    41        999
    42         73
    43        216
    44          6
    46          0
    47         25
    50          1
    51         14
    52          2
    53         29
    54         22
    55         83
    56         62
    57         94
    58         59
    59         78
    60          3
    61         23
    62          1
    63          1
    64          2
    65         44
    66          7
    67        120
    68         15
    69          8
    70         39
    71         95
    72          8
    73         18
    74          1
    77         24
    78          4
    79         28
    80         10
    81        113
    82         10
    83          6
    84          3
    85          9
    86          1
    87         46
    88          2
    89          1
    90          3
    91         13
    92          1
    93          1
    94          1
    95         10
    96          2
    97          4
    98          1
    99          0
   100         32
   101          5
   102          2
   103         10
   104          3
   105          2
   107          1
   108          2
   109          9
   110          2
   111         19
   112          7
   113          6
   114          1
   115          8
   116          2
   117          5
   119          2
   120          1
   121         10
   122          4
   123          1
   124          0
   126          1
   127         14
   128         15
   129          9
   130          1
   131         17
   132          2
   133          4
   134          2
   135          1
   137          0
   139          5
   140          1
   141         10
   142          3
   143          2
   144          0
   145          6
   146          0
   147          0
   148          1
   150          3
   151          6
   152          1
   153          5
   154          1
   155          3
   157          2
   158          1
   159          2
   161          5
   162          1
   163          3
   165          2
   166          1
   167          4
   168         11
   169          2
   170          1
   171          5
   173          5
   174          1
   175          2
   177         18
   178          1
   179          0
   181          3
   183          2
   184          0
   185          1
   189          6
   190          0
   191          1
   194          1
   195         23
   196          2
   197          1
   198          1
   201          5
   202          1
   203          3
   207          3
   208          1
   209          1
   213          1
   214          1
   215          1
   219          1
   220          2
   221          6
   222          3
   223          1
   225          1
   227          4
   233          3
   234          4
   235          1
   239          2
   240          2
   241          6
   242          4
   243          1
   247          1
   253          2
   254          4
   255          1
   257          2
   261          2
   262          3
   263          2
   267          1
   271          1
   277          1
   281         10
   282          4
   283          4
   285          2
   299          0
   303          0
   311          1
   312          2
   313          2
   315          1
   323          3
   325          1
   329          3
   333          0
   334          0
   335          3
   336          0
   337          0
   339         12
   340          3
   342          0
   343          5
   344          1
   345          1
   348          0
   349          5
   350          1
   355          3
   358          0
   359          0
   361          6
   362          1
   363          1
   367          3
   368          4
   369         15
   370         11
   374          1
   379          1
   380          1
   381         36
   382          3
   383          1
   384          1
   385          0
   386          1
   387          3
   389        105
   390         13
   391          1
   393          0
   395          0
   399          0
   401          0
   402          0
   404          1
   406          0
   407          3
   408          4
   409        447
   410         48
   411          3
   495          1
   536         25
   537          2