##TITLE=Library Entry 3657
##JCAMP-DX=Revision 4.10 
##DATA TYPE=MASS SPECTRUM
##SAMPLE DESCRIPTION=D.HENNEBERG, MAX-PLANCK INSTITUTE, MULHEIM, WEST GERMAN
Y
##NAMES=HP
##CAS NAME=Borolane, 3-ethyl-4-methyl-1,2,2-tris(1-methylethyl)-
##MOLFORM=C16H33B
##CAS REGISTRY NO=74779-67-2
##MP= -300
##BP= -300
##MW= 236
##$RETENTION INDEX=0
##$CONDENSED SPECTRUM=NO
##NPOINTS= 101
##XYDATA=(XY..XY) 1 
    23          1
    24          0
    25          2
    26         14
    27        104
    31          0
    32          1
    33          1
    34          0
    35          1
    36          0
    37         10
    38          4
    39         54
    40        227
    41        999
    42         39
    43         47
    45          0
    46          1
    47          1
    48          1
    49          2
    50          8
    51         26
    52         45
    53        174
    54         93
    55        145
    56         12
    59          0
    60          0
    61          1
    62          2
    63          4
    64          5
    65         19
    66         62
    67        265
    68         71
    69        208
    70         13
    71          1
    73          4
    75          1
    76          2
    77         13
    78          6
    79         27
    80         69
    81        295
    82         25
    83         47
    84          3
    89          3
    90          1
    91          8
    92          4
    93         17
    94         17
    95         87
    96         52
    97         31
    98          1
   102          0
   103          1
   104          0
   105          3
   106          2
   107         11
   108         21
   109        110
   110         10
   111          2
   112          0
   119          2
   121          4
   122         11
   123        172
   124         13
   125          2
   128          0
   133          0
   134          0
   135          2
   136          4
   137         27
   138          4
   139          4
   147          1
   148          0
   149          1
   150          4
   151         40
   152          6
   165          1
   191          0
   192         16
   193         61
   194          8
   195          0