##TITLE=Library Entry 42931
##JCAMP-DX=Revision 4.10 
##DATA TYPE=MASS SPECTRUM
##SAMPLE DESCRIPTION=Chemical Concepts
##NAMES=HP
##CAS NAME=3,8-Dioxa-2,9-disiladecane, 2,2,9,9-tetramethyl-5,6-bis[[(trimeth
ylsilyl)oxy]methyl]-
##MOLFORM=C18H46O4Si4
##CAS REGISTRY NO=74779-61-6
##MP= -300
##BP= -300
##MW= 438
##$RETENTION INDEX=0
##$CONDENSED SPECTRUM=NO
##NPOINTS= 114
##XYDATA=(XY..XY) 1 
    28         48
    41         29
    43          9
    44          8
    45         33
    47          2
    52          6
    53          1
    55         10
    56          1
    58          4
    59         32
    61          0
    66          7
    67         15
    69         10
    72         21
    73        999
    74         95
    75        136
    76          8
    77         14
    78          8
    79         35
    81          2
    83         24
    85          4
    87          2
    89          6
    91         13
    93          5
    95         22
    96          6
    97          4
    99          6
   101         30
   103        285
   104         30
   105         13
   106          6
   113          8
   115         23
   116         37
   117         30
   119          4
   127          9
   129        121
   130         30
   131         46
   132          4
   133        100
   134         11
   135          2
   140          6
   141         31
   142        369
   143        272
   144         46
   145         18
   147        553
   148         94
   149         72
   150          2
   151          2
   153         17
   154          4
   155        957
   156        174
   157         63
   158          3
   159          4
   161          4
   163         18
   167         32
   168        965
   169        214
   170         59
   171         12
   175          8
   177         45
   178          5
   185          1
   189          3
   191         70
   192          9
   193          4
   203         22
   204         33
   205         10
   207          8
   215          4
   217        139
   218         73
   219         20
   220          2
   221         49
   222          7
   223          2
   229          2
   230          2
   231          6
   243         47
   244         16
   245        174
   246         41
   247         13
   257         12
   258        213
   259         58
   260         17
   261          2
   277          1
   423         18
   424          5