##TITLE=Library Entry 42544
##JCAMP-DX=Revision 4.10 
##DATA TYPE=MASS SPECTRUM
##SAMPLE DESCRIPTION=D.HENNEBERG, MAX-PLANCK INSTITUTE, MULHEIM, WEST GERMAN
Y
##NAMES=HP
##CAS NAME=Arabino-Hexonic acid, 2-deoxy-3,5,6-tris-O-(trimethylsilyl)-, .ga
mma.-lactone
##MOLFORM=C15H34O5Si3
##CAS REGISTRY NO=74778-25-9
##MP= -300
##BP= -300
##MW= 378
##$RETENTION INDEX=1813
##$CONDENSED SPECTRUM=NO
##NPOINTS= 233
##XYDATA=(XY..XY) 1 
    24          1
    26          1
    27          4
    28         23
    29         11
    30          1
    31         13
    32          0
    33          2
    35          2
    36          1
    37          1
    38          2
    39          5
    40          1
    41         17
    42          1
    43         29
    44         24
    45        130
    46         13
    47         50
    48          1
    49          4
    53          6
    54          9
    55         23
    57         11
    58         12
    59         73
    60          6
    61         21
    62          3
    63          1
    64          1
    65          1
    67          5
    68          1
    69          1
    70          2
    71         15
    72         21
    73        999
    74         89
    75        283
    76         28
    77         12
    78          1
    79          1
    81         25
    82          9
    83          6
    84          1
    85          8
    86          1
    87          4
    88          4
    89         14
    90          4
    91          1
    92          3
    93          5
    94          0
    96          2
    97          1
    98          3
    99          3
   100          4
   101         54
   102          2
   103         45
   104          7
   105          1
   106          4
   107          2
   108          3
   109         19
   110          2
   111          0
   113          3
   114          2
   115         18
   116         34
   117        133
   118         16
   119         13
   121          0
   122          1
   124          3
   125          0
   126          3
   127          8
   128          3
   129         53
   130          8
   131         25
   132          3
   133         69
   134         11
   135          4
   136          1
   141          3
   142          2
   143        138
   144         12
   145          7
   146          2
   147        286
   148         50
   149         42
   150          5
   151          5
   152          3
   153          0
   154          3
   155         31
   156          8
   157         49
   158          7
   159          9
   160          4
   161          0
   163          2
   164          0
   165          0
   166          2
   167          0
   168          2
   169         13
   170          5
   171          4
   172          1
   173          2
   174          1
   175          8
   176          3
   177          1
   180          1
   181          0
   183         16
   184          4
   185         19
   186          3
   187          1
   188          2
   189        126
   190         22
   191         14
   192          4
   194          1
   195          1
   196          1
   198          2
   199          7
   201          1
   203         16
   204         11
   205         74
   206         12
   207          7
   209          0
   215          6
   216          4
   217        241
   218         49
   219         19
   220          0
   221          5
   223          2
   224          0
   227          0
   228          1
   229          5
   230          6
   231         21
   232          7
   233          7
   234          1
   235          2
   241          1
   243          4
   244          3
   245         11
   246         26
   247          9
   248          4
   251          1
   257          6
   258          0
   259          3
   261          1
   267          2
   269          0
   271          3
   273         20
   274          8
   275        137
   276         32
   277         16
   278          5
   279          1
   281          2
   282          1
   287          1
   288          3
   289          1
   290          1
   291          4
   293          0
   295          0
   301          1
   303          1
   304          0
   306          2
   307          4
   309          1
   316          0
   317          1
   318          0
   320          1
   321          0
   332          1
   333          1
   340          0
   342          1
   345          1
   349          1
   355          1
   359          1
   362          0
   363          5
   365          1
   369          0