##TITLE=Library Entry 88395
##JCAMP-DX=Revision 4.10 
##DATA TYPE=MASS SPECTRUM
##SAMPLE DESCRIPTION=D.HENNEBERG, MAX-PLANCK INSTITUTE, MULHEIM, WEST GERMAN
Y
##NAMES=HP
##CAS NAME=.beta.-D-Fructopyranose, cyclic 2,3:4,5-bis(ethylboronate) 1-(die
thylborinate)
##MOLFORM=C14H27B3O6
##CAS REGISTRY NO=74779-79-6
##MP= -300
##BP= -300
##MW= 324
##$RETENTION INDEX=0
##$CONDENSED SPECTRUM=NO
##NPOINTS= 185
##XYDATA=(XY..XY) 1 
    26         40
    27         48
    28        124
    29         82
    30          6
    31         31
    37          1
    38          2
    39         23
    40         21
    41         76
    42         34
    43        220
    44         21
    45         22
    47          1
    49          0
    50          3
    51          5
    52          6
    53         27
    54         15
    55         63
    56         67
    57        253
    58         12
    59         20
    60          2
    61          2
    63          1
    64          1
    65          7
    66          9
    67         10
    68         16
    69        124
    70         75
    71         41
    72         13
    73          5
    75          1
    76          1
    77          3
    78          2
    79          8
    80          4
    81         29
    82         39
    83        133
    84         18
    85         32
    86         13
    87          8
    88          2
    89          0
    91          4
    92          2
    93          2
    94          3
    95          6
    96         17
    97         76
    98        193
    99        413
   100         23
   101          7
   102          0
   103          1
   104          2
   105          2
   106          0
   107          1
   108          5
   109         27
   110        255
   111        999
   112         97
   113         90
   114         10
   115          9
   117          1
   118          0
   119          0
   120          1
   121          4
   122          4
   123         27
   124        146
   125        328
   126         35
   127         68
   128         54
   129          7
   130          1
   131          1
   132          0
   133          0
   134          0
   135          2
   136          8
   137         24
   138         14
   139         37
   140         75
   141        193
   142         18
   143          4
   148          1
   149          2
   150         14
   151         47
   152         14
   153         23
   154          8
   155         11
   156          2
   157          1
   162          1
   163          2
   164         15
   165         64
   166         24
   167         35
   168         41
   169        168
   170         14
   171          3
   175          0
   177          1
   178          7
   179         20
   180          8
   181         10
   182         26
   183         43
   184          6
   186          7
   191          1
   192          1
   193          3
   194          7
   195         11
   196         13
   197         27
   198          2
   199          1
   202          1
   203          2
   206          3
   207         11
   208          7
   209         14
   210          4
   211          3
   219          4
   220         33
   221         76
   222          9
   223         25
   224        189
   225        393
   226         41
   227          5
   228          2
   235          1
   236          1
   237          6
   238         38
   239         84
   240          8
   241          1
   250          1
   251          1
   252          8
   253          1
   265          0
   267          1
   276          0
   277          1
   292          2
   293         16
   294         71
   295        108
   296         17
   297          2