##TITLE=Library Entry 79377
##JCAMP-DX=Revision 4.10 
##DATA TYPE=MASS SPECTRUM
##SAMPLE DESCRIPTION=D.HENNEBERG, MAX-PLANCK INSTITUTE, MULHEIM, WEST GERMAN
Y
##NAMES=HP
##CAS NAME=Benzamide, N-(aminocarbonyl)-N-(1-thioxopropoxy)-
##MOLFORM=C11H12N2O3S
##CAS REGISTRY NO=74779-60-5
##MP= -300
##BP= -300
##MW= 252
##$RETENTION INDEX=0
##$CONDENSED SPECTRUM=NO
##NPOINTS= 96
##XYDATA=(XY..XY) 1 
    26         47
    27        184
    28         63
    29        207
    30          4
    31          0
    32          5
    33          9
    34         31
    35         30
    36          3
    37         20
    38         35
    39         31
    40          3
    41          2
    42         48
    43        195
    44         20
    45         38
    46         27
    47        115
    48          4
    49         15
    50        110
    51        234
    52         18
    53          5
    54          1
    56          2
    57         13
    58         21
    59         16
    60         11
    61         43
    62        180
    63         24
    64         27
    65          8
    66          1
    67          0
    69          0
    70         79
    71          1
    72          1
    73          8
    74         34
    75         28
    76         43
    77        627
    78         44
    79          2
    80          0
    85          0
    86          1
    87          1
    88          1
    89          5
    90          4
    91          7
    92          2
    93          1
    94          0
    95          0
    99          0
   100          0
   102          2
   103         19
   104         13
   105        999
   106         75
   107          4
   109          0
   119          0
   120          0
   121         16
   122          2
   130          1
   131          5
   132          0
   133          0
   135          0
   136          0
   146          0
   147        236
   148         22
   149          1
   162          0
   163          1
   164          1
   190          4
   191        210
   192         22
   193          2
   223          0
   252          0