##TITLE=Library Entry 11173
##JCAMP-DX=Revision 4.10 
##DATA TYPE=MASS SPECTRUM
##SAMPLE DESCRIPTION=D.HENNEBERG, MAX-PLANCK INSTITUTE, MULHEIM, WEST GERMAN
Y
##NAMES=HP
##CAS NAME=L-Mannitol, 1-deoxy-, cyclic 3,4:5,6-bis(ethylboronate) 2-acetate
##MOLFORM=C12H22B2O6
##CAS REGISTRY NO=74779-69-4
##MP= -300
##BP= -300
##MW= 284
##$RETENTION INDEX=0
##$CONDENSED SPECTRUM=NO
##NPOINTS= 169
##XYDATA=(XY..XY) 1 
    24          0
    25          2
    26         13
    27         53
    28         74
    29        192
    30          3
    31          9
    33          0
    35          0
    36          2
    37          2
    38          2
    39         46
    40         14
    41         70
    42         34
    43        999
    44         34
    45         47
    46          0
    47          0
    50          1
    51          5
    52          7
    53         37
    54         19
    55         69
    56         45
    57        197
    58         10
    59          4
    60          0
    61          5
    62          4
    63          2
    64          0
    65          5
    66          6
    67         14
    68         13
    69         41
    70         22
    71         28
    72          4
    73         21
    74          5
    75          2
    76          1
    77          1
    78          2
    79          4
    80          2
    81          7
    82         31
    83        128
    84         15
    85         11
    86          5
    87          9
    88          0
    89          4
    90          0
    91          1
    92          0
    93          1
    94          1
    95         18
    96         24
    97         29
    98         52
    99        169
   100         34
   101         98
   102          4
   103         12
   104          0
   105          0
   106          1
   107          2
   108          5
   109         23
   110        224
   111        979
   112        171
   113        196
   114         17
   115          4
   117          1
   119          0
   121          1
   122          4
   123        179
   124        777
   125        168
   126         87
   127         15
   128          2
   129          5
   130          1
   131          7
   133          4
   134          0
   135          1
   136          1
   137          4
   138         12
   139         26
   140         19
   141         11
   142         27
   143         73
   144          4
   150          5
   151         14
   152         16
   153         47
   154         11
   155         19
   156          3
   157          3
   158          0
   159          0
   164          0
   165          0
   166          9
   167         49
   168        119
   169         16
   170          2
   171          1
   177          0
   178          0
   179          2
   180          8
   181          2
   182          1
   183          7
   184          3
   185          1
   187          0
   193          2
   194          6
   195         21
   196         33
   197          3
   198          0
   199          1
   207          0
   208          1
   209          7
   210         14
   211         21
   212          3
   213          0
   222          0
   223          5
   224         14
   225          1
   239          0
   240          1
   241          1
   248          0
   249          0
   253          1
   254         11
   255         23
   256          2
   259          1