##TITLE=Library Entry 13846
##JCAMP-DX=Revision 4.10 
##DATA TYPE=MASS SPECTRUM
##SAMPLE DESCRIPTION=D.HENNEBERG, MAX-PLANCK INSTITUTE, MULHEIM, WEST GERMAN
Y
##NAMES=HP
##CAS NAME=.beta.-D-Fructopyranose, cyclic 2,3:4,5-bis(ethylboronate) 1-acet
ate
##MOLFORM=C12H20B2O7
##CAS REGISTRY NO=74779-80-9
##MP= -300
##BP= -300
##MW= 298
##$RETENTION INDEX=0
##$CONDENSED SPECTRUM=NO
##NPOINTS= 183
##XYDATA=(XY..XY) 1 
    26          3
    27         15
    29         60
    30          7
    31          8
    37          1
    38          2
    39         16
    40          0
    41         30
    42         28
    43        999
    44         14
    45         18
    46          1
    49          0
    50          6
    51          6
    52         14
    53         20
    54         21
    55         30
    56         46
    57        176
    58          9
    59          3
    60          3
    61          1
    62          1
    63          0
    64          0
    65          2
    66          3
    67          7
    68         19
    69        125
    70         67
    71         22
    72          3
    73         82
    74          5
    76          1
    77          3
    79         10
    80          4
    81         19
    82         35
    83        117
    84         23
    85         32
    86         13
    87         12
    89          0
    91          1
    93          1
    94          2
    95          7
    96         17
    97         58
    98        185
    99        276
   100         48
   101         98
   102          4
   103          2
   106          0
   107          1
   108          4
   109         25
   110        202
   111        722
   112        163
   113         94
   114          6
   115          9
   116          1
   117          1
   118          0
   119          0
   120          1
   121          1
   122          5
   123        101
   124        460
   125        449
   126         76
   127        113
   128         33
   129          6
   130          1
   134          0
   135          2
   136          4
   137          7
   138         12
   139         26
   140         36
   141         97
   142         29
   143         25
   144          2
   145          2
   149          3
   150         15
   151         62
   152         19
   153         28
   154         30
   155         32
   156          6
   157          7
   158          1
   159          1
   161          0
   162          2
   163          4
   164          4
   165         16
   166          5
   167          7
   168         77
   169        294
   170         35
   171         12
   172          1
   173          0
   178          2
   179          3
   180          5
   181         17
   182         32
   183         12
   184          4
   185          1
   189          1
   192          1
   193          1
   194          6
   195         10
   196          5
   197          5
   198          4
   199          9
   200          7
   201         11
   202          1
   203          0
   205          7
   206         50
   207        103
   208         19
   209         11
   210          3
   211          6
   212          5
   213         10
   214          1
   219          1
   220          1
   221          0
   222          1
   223         52
   224        367
   225        746
   226         75
   227         14
   228          2
   236          2
   237         16
   238         37
   239          5
   240          0
   242          1
   253          1
   255          1
   256          2
   267          2
   268         13
   269         28
   270          2
   271          0
   281          1
   298          2