##TITLE=Library Entry 88502
##JCAMP-DX=Revision 4.10 
##DATA TYPE=MASS SPECTRUM
##SAMPLE DESCRIPTION=D.HENNEBERG, MAX-PLANCK INSTITUTE, MULHEIM, WEST GERMAN
Y
##NAMES=HP
##CAS NAME=.beta.-D-Xylopyranose, cyclic 1,3:2,4-bis(ethylboronate)
##MOLFORM=C9H16B2O5
##CAS REGISTRY NO=74779-75-2
##MP= -300
##BP= -300
##MW= 226
##$RETENTION INDEX=0
##$CONDENSED SPECTRUM=NO
##NPOINTS= 111
##XYDATA=(XY..XY) 1 
    22          0
    24          2
    25         13
    26         74
    27        133
    28        211
    29        247
    30         27
    31         17
    35          0
    36          5
    37          3
    38          5
    39         57
    40         13
    41         46
    42         30
    43         77
    44        185
    45         31
    48          0
    49          2
    50          2
    51          6
    52          7
    53         24
    54         19
    55         45
    56         24
    57         84
    58          5
    59          3
    61          2
    62          5
    63          2
    64          3
    65          2
    66          3
    67          5
    68         14
    69         40
    70         50
    71         12
    72          1
    73          2
    74          1
    75          0
    77          0
    78          1
    79          2
    80          1
    81          4
    82         35
    83        123
    84          9
    85          6
    86          4
    87          2
    88          0
    92          0
    93          0
    94          1
    95         10
    96         25
    97         29
    98         64
    99         51
   100          3
   101          2
   103          0
   107          2
   108          6
   109         17
   110        235
   111        999
   112         62
   113         15
   114          1
   119          0
   121          0
   122          2
   123        103
   124        410
   125         41
   126          3
   127          8
   128         34
   129         64
   130          2
   136          0
   137          1
   138          3
   139          5
   140          5
   141         13
   142          0
   149          0
   151          0
   152          0
   153          0
   156          9
   165          1
   166          5
   167         10
   168          3
   169          3
   170          2
   196          3
   197          6
   225          1
   226          1