##TITLE=Library Entry 11787
##JCAMP-DX=Revision 4.10 
##DATA TYPE=MASS SPECTRUM
##SAMPLE DESCRIPTION=D.HENNEBERG, MAX-PLANCK INSTITUTE, MULHEIM, WEST GERMAN
Y
##NAMES=HP
##CAS NAME=L-Mannitol, 1-deoxy-, cyclic 3,4-(ethylboronate) 2,5,6-triacetate
##MOLFORM=C14H23BO8
##CAS REGISTRY NO=74779-70-7
##MP= -300
##BP= -300
##MW= 330
##$RETENTION INDEX=0
##$CONDENSED SPECTRUM=NO
##NPOINTS= 129
##XYDATA=(XY..XY) 1 
    25          0
    26          2
    27          7
    28         38
    29         20
    30          0
    31          1
    32          1
    35          0
    36          3
    38          1
    39          8
    40          2
    41         15
    42         15
    43        999
    44         23
    45         11
    50          0
    51          0
    52          0
    53          3
    54          1
    55          9
    56          4
    57         33
    58          4
    59          0
    60          1
    61          2
    65          0
    66          0
    67          2
    68          3
    69         11
    70          9
    71         19
    72          0
    73          3
    74          0
    75          0
    77          0
    78          0
    79          0
    81          1
    82          2
    83          6
    84          2
    85          6
    86          4
    87         29
    88          1
    91          0
    94          3
    95          7
    96          4
    97          4
    98          9
    99         15
   100          3
   101          1
   102          0
   103         17
   104          0
   107          0
   108          0
   109          1
   110          7
   111         28
   112         17
   113         48
   114          3
   115          4
   116          0
   117          2
   122          2
   123         15
   124         57
   125        119
   126         12
   127          9
   128          1
   129          2
   130          0
   132          0
   135          0
   137          1
   138          6
   139         19
   140          9
   141         28
   142          3
   143          1
   145          4
   149          1
   150          4
   151          6
   152          1
   153          2
   154          7
   155         30
   156          3
   157          0
   165          0
   166          4
   167         15
   168         10
   169          1
   171          0
   180          3
   181         15
   182         11
   183         39
   184          7
   185         13
   186          1
   195          0
   197          1
   201          0
   209          1
   210          5
   211          0
   213          0
   218          0
   242          1
   243          5
   244          0
   271          0
   315          1