##TITLE=Library Entry 47985
##JCAMP-DX=Revision 4.10 
##DATA TYPE=MASS SPECTRUM
##SAMPLE DESCRIPTION=Japan AIST/NIMC Database- Spectrum MS-NW-2170
##NAMES=HP
##CAS NAME=[4,4'-Bi-3H-pyrazole]-3,3'-dione, 2,2',4,4'-tetrahydro-5,5'-dimet
hyl-2,2'-diphenyl-
##MOLFORM=C20H18N4O2
##CAS REGISTRY NO=7477-67-0
##MP= -300
##BP= -300
##MW= 346
##$RETENTION INDEX=0
##$CONDENSED SPECTRUM=NO
##NPOINTS= 268
##XYDATA=(XY..XY) 1 
    12          1
    14          2
    15          8
    16          2
    17         10
    18         38
    26          6
    27         30
    28         34
    29          4
    30          2
    36          1
    37          6
    38         16
    39         55
    40         22
    41         54
    42         30
    43         10
    44         30
    45          1
    49          1
    50         33
    51        170
    52         41
    53         12
    54          7
    55          8
    56          3
    57          8
    59          1
    60          2
    61          3
    62          6
    63         25
    64         46
    65         34
    66         17
    67         14
    68          5
    69          7
    70          3
    71          3
    73          3
    74          6
    75          8
    76         20
    77        999
    78        109
    79         13
    80          4
    81          4
    82          3
    83          5
    84          4
    85          2
    87          2
    88          2
    89          6
    90          9
    91        122
    92         42
    93         53
    94         13
    95          4
    96          3
    97          4
    98          4
    99          1
   100          1
   101          3
   102          6
   103         21
   104         16
   105        136
   106         31
   107          6
   108          4
   109          3
   110          2
   111          2
   112          1
   113          2
   114          5
   115         23
   116         10
   117         12
   118         31
   119         45
   120          9
   121          3
   122         18
   123          3
   124          1
   125          1
   126          2
   127          7
   128         40
   129         12
   130          8
   131          6
   132         17
   133          9
   134          4
   135          3
   136          3
   137          1
   138          2
   139          3
   140          8
   141          8
   142         20
   143         61
   144         13
   145          9
   146          5
   147          2
   148          2
   149          3
   150          1
   151          2
   152          7
   153          8
   154          9
   155          8
   156          6
   157          5
   158          6
   159          9
   160          1
   164          1
   165          2
   166          3
   167          7
   168         11
   169         11
   170         19
   171          7
   172         19
   173         43
   174         73
   175          9
   176          1
   178          1
   179          2
   180          2
   181          5
   182          9
   183         16
   184         14
   185         32
   186          9
   187          4
   188          1
   190          1
   191          1
   192          1
   193          2
   194          3
   195          5
   196         15
   197         12
   198         15
   199         10
   200          7
   201          3
   202          1
   203          1
   204          3
   205          2
   206          1
   207          2
   208          2
   209         11
   210         25
   211        124
   212         34
   213         52
   214          9
   215          1
   217          2
   218         64
   219         12
   220          3
   221          1
   222          2
   223          4
   224         51
   225         17
   226         17
   227          9
   228          2
   229          1
   230          2
   231          2
   232          2
   233          1
   234          4
   235          2
   236          1
   237          1
   238          2
   239         68
   240         13
   241         30
   242          6
   243          2
   244          3
   245          3
   246          6
   247          3
   248          1
   250          1
   251          2
   252          6
   253          3
   254          9
   255          3
   256          1
   257          1
   258          3
   259          5
   260          6
   261          7
   262          4
   263          1
   269          1
   270          2
   271          3
   272          2
   273          3
   274         13
   275         24
   276          9
   277          4
   284          1
   285          2
   286          3
   287          7
   288          5
   289          2
   290          2
   298          3
   299          4
   300          3
   301         11
   302         11
   303         16
   304         10
   305          2
   314          6
   315        217
   316        158
   317         35
   318          4
   326          1
   327          2
   328          2
   329          3
   330          4
   331          1
   342          1
   343          9
   344        680
   345        225
   346        217
   347         48
   348          6