##TITLE=Library Entry 72377
##JCAMP-DX=Revision 4.10 
##DATA TYPE=MASS SPECTRUM
##SAMPLE DESCRIPTION=D.HENNEBERG, MAX-PLANCK INSTITUTE, MULHEIM, WEST GERMAN
Y
##NAMES=HP
##CAS NAME=D-Glucitol, cyclic 1,3:2,4:5,6-tris(ethylboronate)
##MOLFORM=C12H23B3O6
##CAS REGISTRY NO=74779-72-9
##MP= -300
##BP= -300
##MW= 296
##$RETENTION INDEX=0
##$CONDENSED SPECTRUM=NO
##NPOINTS= 170
##XYDATA=(XY..XY) 1 
    27          4
    28         13
    29         12
    30          0
    31          1
    32          1
    36          1
    38          0
    39          5
    41         18
    42         15
    43         52
    44          3
    45          2
    50          0
    51          1
    52          0
    53          2
    54          6
    55         25
    56         12
    57         49
    58          2
    59          5
    61          0
    65          1
    66          0
    67          3
    68          4
    69         28
    70         22
    71         17
    72          1
    73          1
    75          0
    77          1
    78          0
    79          1
    80          0
    81          6
    82          6
    83         26
    84          9
    85          5
    86          1
    87          3
    88          0
    89          0
    91          2
    92          0
    93          0
    94          1
    95          2
    96          6
    97         52
    98        426
    99        999
   100         46
   101          7
   102          1
   103          1
   105          1
   106          0
   107          0
   108          0
   109          3
   110         33
   111        125
   112         28
   113         14
   114          1
   115          1
   116          2
   117          1
   121          0
   122          1
   123         12
   124         51
   125         21
   126          3
   127          3
   128          3
   129          6
   130          0
   132          0
   134          0
   135          0
   136          0
   137          5
   138         11
   139          9
   140         11
   141         18
   142          3
   143          2
   144          0
   148          0
   149          1
   150          1
   151          1
   152          1
   153          2
   154          4
   155          7
   156          0
   157          1
   158          0
   163          0
   164          0
   165          4
   166          7
   167          6
   168          6
   169          9
   170          2
   171          3
   172          2
   175          0
   177          0
   178          1
   179          2
   180          2
   181          4
   182          1
   183          1
   184          1
   185          1
   192          0
   193          1
   194          4
   195         22
   196         78
   197        106
   198         14
   199          4
   202          1
   206          1
   207          2
   208          8
   209         17
   210          5
   211          6
   212          0
   220          2
   221          7
   222         13
   223          1
   234          1
   235          0
   236          0
   237          0
   238          0
   239          0
   240          1
   241          0
   248          0
   249          0
   251          0
   252          1
   253          1
   263          0
   264          0
   265          1
   266          2
   267          3
   268          0
   278          0
   295          0
   296          0
   297          0