##TITLE=Library Entry 88388
##JCAMP-DX=Revision 4.10 
##DATA TYPE=MASS SPECTRUM
##SAMPLE DESCRIPTION=D.HENNEBERG, MAX-PLANCK INSTITUTE, MULHEIM, WEST GERMAN
Y
##NAMES=HP
##CAS NAME=.alpha.-L-Sorbofuranose, cyclic 2,3:4,6-bis(ethylboronate) 1-(die
thylborinate)
##MOLFORM=C14H27B3O6
##CAS REGISTRY NO=74779-78-5
##MP= -300
##BP= -300
##MW= 324
##$RETENTION INDEX=0
##$CONDENSED SPECTRUM=NO
##NPOINTS= 148
##XYDATA=(XY..XY) 1 
    26         12
    27         11
    28         44
    29         24
    30          1
    31          3
    39          6
    40         11
    41         55
    42         10
    43         39
    44          2
    45          3
    50          1
    51          1
    52          2
    53          8
    54          4
    55         20
    56         22
    57         93
    58          5
    59         10
    65          3
    66          1
    67          5
    68          9
    69         70
    70         16
    71         27
    72          1
    73          0
    77          1
    78          1
    79          3
    80          1
    81         29
    82         16
    83         60
    84          8
    85         15
    86          3
    87          4
    91          0
    93          1
    94          1
    95          4
    96          9
    97         21
    98         79
    99        290
   100         14
   101          3
   107          1
   108          3
   109         19
   110        239
   111        999
   112         85
   113         81
   114          6
   115          6
   118          0
   121          1
   122          2
   123         10
   124         71
   125        234
   126         21
   127         28
   128          3
   129          1
   135          1
   136          9
   137         36
   138         11
   139         19
   140         18
   141         44
   142          5
   143          1
   149          1
   150          3
   151          6
   152          5
   153         13
   154          7
   155         13
   156          1
   157          1
   163          1
   164         10
   165         46
   166         23
   167         41
   168         12
   169         17
   170          2
   171          2
   178          3
   179         11
   180         50
   181        103
   182         20
   183         32
   184          3
   185          0
   192          1
   193          4
   194         17
   195         37
   196         20
   197         35
   198          3
   203          0
   206          1
   207          2
   208          4
   209          8
   210          3
   211          3
   219          2
   220         21
   221         44
   222          6
   223          2
   224          8
   225         16
   226          3
   227          4
   229          0
   236          0
   237          3
   238         16
   239         29
   240          3
   250          0
   251          1
   264          1
   265          1
   276          0
   277          0
   292          1
   293         11
   294         42
   295         62
   296          8
   297          1