##TITLE=Library Entry 91391
##JCAMP-DX=Revision 4.10 
##DATA TYPE=MASS SPECTRUM
##SAMPLE DESCRIPTION=V.A.Korolev, Moscow, Russia
##NAMES=HP
##CAS NAME=5-(2-Aminoethyl)-1,3,4-thiadiazol-2-amine
##MOLFORM=C4H8N4S
##CAS REGISTRY NO=74784-47-7
##MP= -300
##BP= -300
##MW= 144
##$RETENTION INDEX=0
##$CONDENSED SPECTRUM=NO
##NPOINTS= 58
##XYDATA=(XY..XY) 1 
    29        162
    30        281
    33         35
    34         18
    37          7
    38         29
    39         85
    40         72
    41         95
    42        210
    43        534
    44        100
    45        145
    46         50
    47         69
    48         18
    51         19
    52         29
    53         10
    54         38
    55         21
    56         24
    57         46
    58        107
    59        117
    60        282
    61          8
    62         10
    67          4
    68         27
    69         40
    70         15
    71         73
    72          8
    73         35
    74        284
    75        109
    76         12
    77          6
    85          6
    86          4
    89          3
    95         15
    96          1
    98          8
   102         29
   103          1
   104          1
   114          7
   115        999
   116         56
   117         44
   127        133
   128         19
   129          8
   144         50
   145          5
   146          3