##TITLE=Library Entry 40812
##JCAMP-DX=Revision 4.10 
##DATA TYPE=MASS SPECTRUM
##SAMPLE DESCRIPTION=NIST Mass Spectrometry Data Center, 2009
##NAMES=HP
##CAS NAME=Benzeneacetonitrile, .alpha.-[(1,3-dioxolan-2-ylmethoxy)imino]-
##MOLFORM=C12H12N2O3
##CAS REGISTRY NO=74782-23-3
##MP= -300
##BP= -300
##MW= 232
##$RETENTION INDEX=1921
##$CONDENSED SPECTRUM=NO
##NPOINTS= 64
##XYDATA=(XY..XY) 1 
    14          1
    15          5
    19          4
    26          2
    27         16
    28          5
    29         23
    30          3
    31          9
    37          1
    38          3
    39          7
    41          1
    42          9
    43         26
    44          9
    45        175
    46          4
    49          1
    50         19
    51         54
    52          8
    53          2
    57          7
    58          1
    61          2
    62          6
    63          7
    64          3
    65          6
    71          2
    72         33
    73        999
    74         39
    75         13
    76         21
    77        101
    78          9
    86          9
    87          3
    88         10
    89          6
    90          2
    91          5
    92          1
    93          1
    99          1
   101          3
   102          2
   103         34
   104          7
   114          8
   115         16
   116          3
   117          1
   118          1
   129         14
   130          3
   131          1
   142          2
   143          8
   144          1
   145          2
   231          1