##TITLE=Library Entry 44389
##JCAMP-DX=Revision 4.10 
##DATA TYPE=MASS SPECTRUM
##SAMPLE DESCRIPTION=J. D. HENION, CORNELL UNIVERSITY, ITHACA, NY, USA
##NAMES=HP
##CAS NAME=3H-Pyrazol-3-one, 4-butyl-1,2-dihydro-2-phenyl-5-[(trimethylsilyl
)oxy]-1-[4-[(trimethylsilyl)oxy]phenyl]-
##MOLFORM=C25H36N2O3Si2
##CAS REGISTRY NO=74793-81-0
##MP= -300
##BP= -300
##MW= 468
##$RETENTION INDEX=0
##$CONDENSED SPECTRUM=NO
##NPOINTS= 92
##XYDATA=(XY..XY) 1 
    39         11
    41         61
    43         22
    45        144
    46         10
    47         11
    55         36
    57         99
    58         12
    59         27
    69         11
    73        999
    74         92
    75         90
    77        114
    78         12
    83         12
    91         35
    93         15
   104         30
   105         20
   117         23
   118         15
   119         21
   121         13
   125         93
   128         24
   129         52
   130         20
   132         15
   134         12
   135         29
   136         11
   137         14
   142         10
   143         10
   144         16
   146         11
   147         10
   149         17
   150         24
   151         13
   160         45
   161         11
   163         10
   164         15
   165         30
   166         18
   168         12
   176         13
   180         24
   181         67
   182         16
   192         53
   193         19
   197         73
   198         24
   202         22
   204         14
   205         13
   207         36
   218         93
   219         22
   220         12
   223         10
   232         14
   234         10
   246         77
   247         19
   248         31
   249         11
   253         11
   268         11
   271         21
   288         16
   306         11
   307         12
   333         36
   334         44
   335         21
   336         14
   371         17
   396         26
   397         12
   425         79
   426         43
   427         16
   451         18
   453         21
   468        154
   469         56
   470         23