##TITLE=Library Entry 89587
##JCAMP-DX=Revision 4.10 
##DATA TYPE=MASS SPECTRUM
##SAMPLE DESCRIPTION=Chemical Concepts
##NAMES=HP
##CAS NAME=[1,3,2]Dioxaborino[4,5-d]-1,3,2-dioxaborin, 2,6-diethyltetrahydro
-, (4aS-cis)-
##MOLFORM=C8H16B2O4
##CAS REGISTRY NO=74793-08-1
##MP= -300
##BP= -300
##MW= 198
##$RETENTION INDEX=0
##$CONDENSED SPECTRUM=NO
##NPOINTS= 100
##XYDATA=(XY..XY) 1 
    25         10
    26         18
    27        132
    28        159
    29        235
    30          4
    31         19
    37          2
    38          4
    39         99
    40         34
    41        111
    42         65
    43        173
    44         19
    45         55
    48          4
    49          4
    50          8
    51         11
    52          6
    53         34
    54         27
    55        112
    56         84
    57        241
    58         11
    59         18
    62         10
    63         11
    64          3
    65          5
    66          8
    67         23
    68         45
    69         79
    70        155
    71        357
    72         14
    73          4
    77          0
    79          5
    80          5
    81         12
    82         37
    83        134
    84        191
    85         43
    86          6
    87          7
    88          1
    89          2
    94          2
    95          6
    96         10
    97         49
    98        354
    99        749
   100         27
   101          6
   104          4
   107          1
   108          8
   109         33
   110         95
   111        538
   112        999
   113        197
   114         22
   115          6
   123          5
   124         18
   125         10
   126          6
   127          6
   137         17
   138        138
   139        251
   140         17
   141         10
   142          6
   143          6
   144          2
   145          0
   151          3
   154          7
   155         13
   156          1
   166          6
   167         14
   168         73
   169        107
   170          8
   195          2
   196         21
   197        186
   198        348
   199         29
   200          5
   203          1