##TITLE=Library Entry 88389
##JCAMP-DX=Revision 4.10 
##DATA TYPE=MASS SPECTRUM
##SAMPLE DESCRIPTION=D.HENNEBERG, MAX-PLANCK INSTITUTE, MULHEIM, WEST GERMAN
Y
##NAMES=HP
##CAS NAME=Furo[3,4-d]-1,3,2-dioxaborole, 2-ethyltetrahydro-, cis-
##MOLFORM=C6H11BO3
##CAS REGISTRY NO=74793-57-0
##MP= -300
##BP= -300
##MW= 142
##$RETENTION INDEX=0
##$CONDENSED SPECTRUM=NO
##NPOINTS= 89
##XYDATA=(XY..XY) 1 
    26        151
    27        500
    28        359
    29        618
    30         35
    31        100
    32          1
    35          0
    36          5
    37         23
    38         36
    39        284
    40         65
    41        243
    42        160
    43        296
    44        471
    45        101
    46          1
    47          0
    49          1
    50          6
    51          6
    52         19
    53         77
    54         62
    55        303
    56        224
    57        535
    58         32
    59         19
    60          0
    61          1
    62          5
    63         14
    64          1
    65          3
    66          4
    67         15
    68         22
    69        141
    70         77
    71         25
    72          1
    73          0
    74          0
    77          1
    78          5
    79          1
    80          1
    82         61
    83        360
    84        611
    85         47
    86         63
    87         11
    88          0
    89          1
    90          2
    91          0
    92          0
    94          0
    95          6
    96         24
    97         79
    98        438
    99        976
   100         52
   101          8
   106          1
   107          3
   108          8
   109         33
   110        235
   111        999
   112        738
   113        382
   114         20
   115          3
   117          1
   125          0
   126          1
   127          3
   129          0
   140          2
   141         21
   142         46
   143          3
   144          0