##TITLE=Library Entry 80780
##JCAMP-DX=Revision 4.10 
##DATA TYPE=MASS SPECTRUM
##SAMPLE DESCRIPTION=D.HENNEBERG, MAX-PLANCK INSTITUTE, MULHEIM, WEST GERMAN
Y
##NAMES=HP
##CAS NAME=D-Glucitol, cyclic 2,4:3,5-bis(ethylboronate) 1,6-dibenzoate
##MOLFORM=C24H28B2O8
##CAS REGISTRY NO=74793-53-6
##MP= -300
##BP= -300
##MW= 466
##$RETENTION INDEX=0
##$CONDENSED SPECTRUM=NO
##NPOINTS= 174
##XYDATA=(XY..XY) 1 
    27          1
    28          6
    29          1
    32          0
    39          1
    41          1
    42          0
    43          5
    44          0
    50          0
    51          8
    52          1
    53          1
    54          0
    55          5
    56          2
    57          7
    65          0
    67          0
    68          1
    69          4
    70          3
    71          0
    75          0
    76          2
    77         99
    78          8
    79          1
    80          0
    81          1
    82          3
    83         10
    84          1
    85          0
    91          0
    93          0
    94          0
    95          0
    96          2
    97          4
    98         11
    99          5
   103          0
   104          3
   105        999
   106         75
   107          4
   108          1
   109          3
   110         91
   111        360
   112         26
   113          3
   121          0
   122          5
   123         16
   124         54
   125          9
   126          1
   127          1
   128          0
   133          0
   135          1
   136          2
   137          8
   138          3
   139          2
   140          1
   141          1
   147          0
   148          0
   149          2
   150          1
   151          2
   152          5
   153         14
   154          1
   155          0
   160          0
   161          0
   162          0
   163          0
   164          1
   165          9
   166         25
   167          5
   168          0
   174          1
   175          2
   177          1
   178          2
   179          2
   180          1
   181          2
   182          0
   183          1
   187          0
   190          1
   191          5
   192          2
   193          5
   194          3
   195          3
   196          6
   197          0
   202          2
   203         11
   204          4
   205          5
   206          3
   207          9
   208         34
   209         68
   210          7
   211          1
   215          1
   216          2
   217          5
   218          0
   219          0
   220          9
   221         66
   222        130
   223         15
   224          1
   225          1
   229          0
   230          0
   231          1
   232         15
   233         60
   234          8
   235          0
   236          0
   237          0
   238          1
   239          2
   244          2
   245         11
   246          2
   247          0
   256          1
   257          7
   258          2
   259          3
   269          5
   270         21
   271          5
   272          2
   273          3
   274          0
   285          0
   287          0
   288          0
   300          1
   301          3
   302          0
   313          4
   314         31
   315         70
   316         11
   317          1
   330          1
   331          2
   332          0
   342          0
   343          1
   344          1
   345          0
   435          1
   436          9
   437         21
   438          5
   439          0