##TITLE=Library Entry 47399
##JCAMP-DX=Revision 4.10 
##DATA TYPE=MASS SPECTRUM
##SAMPLE DESCRIPTION=D.HENNEBERG, MAX-PLANCK INSTITUTE, MULHEIM, WEST GERMAN
Y
##NAMES=HP
##CAS NAME=Zinc, 2-butenylphenyl-
##MOLFORM=C10H12Zn
##CAS REGISTRY NO=74793-28-5
##MP= -300
##BP= -300
##MW= 196
##$RETENTION INDEX=0
##$CONDENSED SPECTRUM=NO
##NPOINTS= 89
##XYDATA=(XY..XY) 1 
    27        257
    28         51
    29        265
    30          6
    37          3
    38         13
    39        220
    40         50
    41          4
    49          2
    50         51
    51        253
    52         45
    53        118
    54        142
    55        130
    56          4
    62          2
    63          3
    64         47
    65          0
    66         27
    68         17
    70          0
    74          2
    75          8
    76         33
    77        999
    78        146
    79          8
    83          1
    87          2
    88          3
    89          4
    90          2
    91         29
    92          4
   101          2
   102          3
   103          4
   104         10
   105          4
   111          0
   113          2
   114          2
   115         19
   116          8
   117        331
   118         25
   119          1
   120          2
   121          1
   122          1
   123          1
   126          1
   127          3
   128          4
   129          7
   130          5
   131         39
   132        107
   133         11
   139          1
   140          3
   141        357
   142         34
   143        206
   144         48
   145        134
   146         13
   147          5
   150          0
   151          0
   152          1
   153          3
   154         16
   155          1
   156          0
   167          1
   175          1
   179          0
   180          0
   196        160
   197         17
   198         90
   199         23
   200         59
   201          6
   202          3