##TITLE=Library Entry 11161
##JCAMP-DX=Revision 4.10 
##DATA TYPE=MASS SPECTRUM
##SAMPLE DESCRIPTION=D.HENNEBERG, MAX-PLANCK INSTITUTE, MULHEIM, WEST GERMAN
Y
##NAMES=HP
##CAS NAME=1,3,2-Dioxaborinane-4-methanol, 5-(acetyloxy)-2-ethyl-, acetate,
 trans-
##MOLFORM=C10H17BO6
##CAS REGISTRY NO=74793-15-0
##MP= -300
##BP= -300
##MW= 244
##$RETENTION INDEX=0
##$CONDENSED SPECTRUM=NO
##NPOINTS= 99
##XYDATA=(XY..XY) 1 
    24          0
    26          4
    27         14
    28         27
    29         26
    30          1
    31          4
    36          0
    37          0
    38          0
    39          7
    40          3
    41         11
    42         25
    43        999
    44         26
    45          7
    50          0
    51          0
    52          1
    53          2
    54          2
    55          9
    56          7
    57         16
    58          2
    59          2
    60          1
    61          6
    62          0
    63          0
    67          0
    68          3
    69         17
    70          5
    71          3
    72          1
    73          2
    74          1
    75          0
    80          0
    82          2
    83          9
    84          9
    85          3
    86         14
    87         13
    88          0
    95          0
    96          2
    97          2
    98         20
    99         59
   100          4
   101          1
   103         12
   104          0
   105          0
   108          0
   109          1
   110         18
   111         77
   112         32
   113         42
   114          2
   115          3
   116          1
   117          0
   123         11
   124         44
   125          6
   126          1
   127          3
   128          3
   129          2
   130          0
   131          0
   140          3
   141         22
   142         42
   143          8
   144          0
   145          1
   149          0
   153          1
   154          7
   155          4
   156          0
   157          0
   170          7
   171         28
   172          2
   173          1
   183          0
   184          2
   185          0
   214          2
   215         11
   216          1