##TITLE=Library Entry 36222
##JCAMP-DX=Revision 4.10 
##DATA TYPE=MASS SPECTRUM
##SAMPLE DESCRIPTION=D.HENNEBERG, MAX-PLANCK INSTITUTE, MULHEIM, WEST GERMAN
Y
##NAMES=HP
##CAS NAME=Zinc, bis[2-(1,1-dimethylethyl)-3,3-dimethylcyclopropyl]-, [1.alp
ha.(1R*,2R*),2.beta.]-
##MOLFORM=C18H34Zn
##CAS REGISTRY NO=74793-36-5
##MP= -300
##BP= -300
##MW= 314
##$RETENTION INDEX=0
##$CONDENSED SPECTRUM=NO
##NPOINTS= 156
##XYDATA=(XY..XY) 1 
    26          3
    27         56
    28          4
    29        113
    30          2
    31          0
    37          0
    39         52
    40         13
    41        393
    42         29
    43        188
    44          6
    45          7
    47          0
    48          0
    49          0
    50          2
    51          7
    52          4
    53         55
    54          8
    55        289
    56         19
    57        237
    58         10
    59          1
    62          0
    63          1
    64          3
    65         12
    66          6
    67         94
    68         18
    69        999
    70        134
    71         45
    72          3
    73          0
    75          0
    77         15
    78          3
    79         24
    80          6
    81         57
    82         11
    83        376
    84         26
    85          3
    86          0
    87          1
    89          0
    91         10
    92          1
    93         13
    94          4
    95        120
    96         24
    97         25
    98          1
    99          1
   103          0
   105          4
   106          0
   107          9
   108          2
   109         40
   110         29
   111         10
   112          1
   113          0
   115          0
   117          0
   119          2
   120          0
   121          7
   122          2
   123         16
   124         28
   125        827
   126         83
   127          3
   128          0
   131          3
   132          0
   133          2
   134          0
   135          4
   136          6
   137         40
   138          6
   139          0
   140          0
   145          0
   149          5
   150          1
   151          1
   159          0
   160          0
   161         10
   162          1
   163          6
   164          1
   165          3
   175          1
   177          1
   178          0
   179          0
   188          2
   189          1
   190          3
   191          1
   192          2
   193          1
   194          0
   201          5
   202          0
   203          2
   204          1
   205          6
   206          0
   208          0
   209          2
   217          0
   231          0
   234          0
   235          0
   236          0
   237          0
   238          0
   249          0
   251          0
   255          0
   257          1
   258          0
   259          1
   261          0
   262          0
   265          0
   273          2
   274          0
   282          0
   283          0
   284          0
   299          4
   300          0
   301          3
   302          0
   303          2
   313          0
   314         22
   315          4
   316         13
   317          4
   318          8
   319          1