##TITLE=Library Entry 51901
##JCAMP-DX=Revision 4.10 
##DATA TYPE=MASS SPECTRUM
##SAMPLE DESCRIPTION=D.HENNEBERG, MAX-PLANCK INSTITUTE, MULHEIM, WEST GERMAN
Y
##NAMES=HP
##CAS NAME=2,3-Diazabicyclo[2.2.1]heptane-2,3-dicarboxylic acid, 1-methyl-,
 diethyl ester
##MOLFORM=C12H20N2O4
##CAS REGISTRY NO=74793-69-4
##MP= -300
##BP= -300
##MW= 256
##$RETENTION INDEX=0
##$CONDENSED SPECTRUM=NO
##NPOINTS= 151
##XYDATA=(XY..XY) 1 
    27        205
    28         80
    29        761
    30         29
    31         32
    32         16
    35          0
    36          0
    37          0
    38          2
    39         47
    40         14
    41        126
    42        131
    43         65
    44         23
    45         27
    46          2
    47          2
    48          0
    49          0
    50          1
    51          5
    52          5
    53         47
    54         35
    55         56
    56         62
    57         37
    58          4
    59         43
    60          2
    61          0
    62         11
    63          2
    64          0
    65          9
    66          9
    67        134
    68         27
    69         27
    70         24
    71          5
    72          1
    73          2
    74          1
    75          2
    76         13
    77         19
    78          3
    79         41
    80        136
    81        440
    82         57
    83        999
    84         59
    85          7
    86          1
    87         10
    88          2
    89          2
    90          4
    91          0
    92          1
    93          2
    94         39
    95         18
    96         32
    97         10
    98          3
    99          0
   100          4
   101          5
   102          4
   103         10
   104         61
   105         35
   106          2
   107          5
   108          3
   109          6
   110          6
   111        566
   112         41
   113          2
   114          7
   115         84
   116         15
   117          3
   118          0
   119          0
   122          1
   123          4
   124          2
   125          2
   126          0
   127          9
   128          7
   129         14
   130         15
   131         10
   132          4
   133          1
   134          0
   135          0
   136          0
   137          6
   138          3
   139         53
   140          6
   141          1
   142          2
   143         19
   144          2
   151          0
   153          1
   154          2
   155        274
   156         32
   157          6
   158          0
   161          0
   165          1
   166          0
   167          1
   168          1
   169          4
   170          0
   171          0
   175          1
   176          5
   177          6
   178          0
   179          0
   180          0
   181          0
   183        141
   184        116
   185         12
   186          1
   195          0
   197          3
   198          0
   211         21
   212          3
   213          0
   241          0
   254          0
   256        152
   257         22
   258          2