##TITLE=Library Entry 11176
##JCAMP-DX=Revision 4.10 
##DATA TYPE=MASS SPECTRUM
##SAMPLE DESCRIPTION=D.HENNEBERG, MAX-PLANCK INSTITUTE, MULHEIM, WEST GERMAN
Y
##NAMES=HP
##CAS NAME=1,3,2-Dioxaborolane-4,5-dimethanol, 2-ethyl-, diacetate, cis-
##MOLFORM=C10H17BO6
##CAS REGISTRY NO=74793-17-2
##MP= -300
##BP= -300
##MW= 244
##$RETENTION INDEX=0
##$CONDENSED SPECTRUM=NO
##NPOINTS= 103
##XYDATA=(XY..XY) 1 
    22          0
    24          0
    25          0
    26          4
    27         19
    28         27
    29         39
    30          2
    31          5
    32          1
    36          0
    37          1
    38          0
    39         10
    40          3
    41          9
    42         24
    43        999
    44         25
    45          8
    50          0
    51          0
    52          1
    53          3
    54          4
    55         10
    56          9
    57         24
    58          1
    59          0
    60          1
    61          7
    62          1
    63          0
    67          0
    68          2
    69         15
    70         10
    71          2
    72          1
    73         33
    74          3
    75          0
    77          0
    79          0
    80          0
    81          0
    82          4
    83         14
    84          9
    85          2
    86          5
    87          6
    95          0
    96          1
    97          4
    98         14
    99         34
   100          1
   101          0
   103         12
   104          0
   105          0
   108          1
   109          3
   110         86
   111        353
   112         38
   113         20
   114          1
   115          0
   116          0
   117          0
   122          0
   123         32
   124        142
   125         14
   126          1
   127          2
   128          1
   129          6
   130          0
   131          0
   140          0
   141          3
   142          2
   143          1
   145          0
   147          1
   149          1
   153          0
   154          1
   155          1
   159          0
   169          0
   170          2
   171         12
   172          1
   207          1
   215          0
   221          0
   222          0
   223          0