##TITLE=Library Entry 88255
##JCAMP-DX=Revision 4.10 
##DATA TYPE=MASS SPECTRUM
##SAMPLE DESCRIPTION=Chemical Concepts
##NAMES=HP
##CAS NAME=D-Erythro-Pent-1-enitol, 1,5-anhydro-2-deoxy-, cyclic ethylborona
te
##MOLFORM=C7H11BO3
##CAS REGISTRY NO=74793-26-3
##MP= -300
##BP= -300
##MW= 154
##$RETENTION INDEX=0
##$CONDENSED SPECTRUM=NO
##NPOINTS= 101
##XYDATA=(XY..XY) 1 
    24          0
    25          5
    26         68
    27        355
    28         19
    29        311
    30          5
    31         14
    34          0
    35          0
    36          1
    37         11
    38         25
    39        235
    40         47
    41        114
    42         86
    43        116
    44         36
    45        119
    46          0
    47          0
    48          1
    49          2
    50         23
    51         80
    52         36
    53        602
    54        111
    55        132
    56         84
    57        273
    58          7
    59          3
    60          0
    61          1
    62          5
    63          4
    64          2
    65          8
    66         13
    67         23
    68         81
    69        158
    70        122
    71         46
    72          2
    73          2
    74          1
    75          2
    76          1
    77          2
    78          2
    79          9
    80          7
    81        413
    82        206
    83        653
    84         40
    85          3
    86          0
    87          1
    92          0
    93          1
    94          6
    95         40
    96        102
    97        138
    98        105
    99         84
   100          4
   101          1
   103          0
   106          0
   107          2
   108          8
   109         32
   110        272
   111        999
   112         90
   113          7
   114          0
   120          0
   121          1
   122          3
   123        143
   124        649
   125        394
   126         32
   127          3
   135          1
   136         13
   137         55
   138          4
   139          6
   151          0
   152         20
   153        152
   154        305
   155         24
   156          3