##TITLE=Library Entry 66408
##JCAMP-DX=Revision 4.10 
##DATA TYPE=MASS SPECTRUM
##SAMPLE DESCRIPTION=D.HENNEBERG, MAX-PLANCK INSTITUTE, MULHEIM, WEST GERMAN
Y
##NAMES=HP
##CAS NAME=Spiro[2.4]heptane, 1,2,4,5-tetramethyl-6-methylene-
##MOLFORM=C12H20
##CAS REGISTRY NO=74792-98-6
##MP= -300
##BP= -300
##MW= 164
##$RETENTION INDEX=0
##$CONDENSED SPECTRUM=NO
##NPOINTS= 92
##XYDATA=(XY..XY) 1 
    27         34
    28         10
    29         74
    30          1
    37          0
    38          1
    39         46
    40         11
    41        171
    42         12
    43         49
    44          2
    49          1
    50          2
    51          7
    52          7
    53         66
    54         14
    55        107
    56         18
    57         24
    58          1
    63          1
    64          1
    65         34
    66         13
    67        127
    68         13
    69         48
    70          3
    71          2
    72          0
    75          1
    76          0
    77        119
    78         24
    79        134
    80         30
    81         57
    82         31
    83         13
    84          1
    85          1
    86          0
    88          0
    89          3
    90          2
    91        189
    92         32
    93        999
    94        101
    95         42
    96         15
    97          1
    98          0
   102          0
   103          7
   104          4
   105         71
   106         26
   107        556
   108        716
   109         71
   110          4
   111          0
   112          0
   115          5
   116          2
   117         10
   118          2
   119         30
   120         14
   121         93
   122         37
   123         12
   124          2
   129          1
   131          2
   132          0
   133         10
   134          5
   135        114
   136         13
   137          1
   147          3
   148          1
   149         39
   150          4
   162          0
   163          0
   164         20
   165          1