##TITLE=Library Entry 13296
##JCAMP-DX=Revision 4.10 
##DATA TYPE=MASS SPECTRUM
##SAMPLE DESCRIPTION=D.HENNEBERG, MAX-PLANCK INSTITUTE, MULHEIM, WEST GERMAN
Y
##NAMES=HP
##CAS NAME=1,3-Dioxolo[4,5-e][1,3,2]dioxaborepin, 6-ethyltetrahydro-2,2-dime
thyl-, cis-
##MOLFORM=C9H17BO4
##CAS REGISTRY NO=74793-00-3
##MP= -300
##BP= -300
##MW= 200
##$RETENTION INDEX=0
##$CONDENSED SPECTRUM=NO
##NPOINTS= 95
##XYDATA=(XY..XY) 1 
    27         47
    28         52
    29         72
    30          4
    31         57
    38          2
    39         31
    40         18
    41         91
    42         39
    43        999
    44         37
    45         83
    46          3
    51          4
    52          5
    53         13
    54         14
    55         79
    56         50
    57        130
    58         33
    59        161
    60          8
    61          4
    65          3
    67         10
    68          8
    69        307
    70         52
    71         58
    72         14
    73         18
    74          4
    76          4
    77         10
    78         13
    79         14
    80          3
    81          3
    82         16
    83        125
    84         56
    85         34
    86          9
    87         17
    91         12
    92          5
    93          7
    95          2
    96          8
    97         24
    98         47
    99        127
   100          9
   101         72
   102          2
   103          3
   105         11
   106          2
   109          7
   110         45
   111        158
   112         89
   113        112
   114          6
   115          6
   119          2
   121         27
   123          3
   124         67
   125        274
   126         18
   127         16
   128          3
   129         18
   137         17
   138         39
   139         59
   140          9
   141         21
   142          5
   143         10
   155          2
   157          4
   166         10
   167         26
   168         40
   169          5
   170          2
   171          3
   184        119
   185        468
   186         43
   187          7