##TITLE=Library Entry 65995
##JCAMP-DX=Revision 4.10 
##DATA TYPE=MASS SPECTRUM
##SAMPLE DESCRIPTION=D.HENNEBERG, MAX-PLANCK INSTITUTE, MULHEIM, WEST GERMAN
Y
##NAMES=HP
##CAS NAME=Cyclopentanecarboxamide, 3-ethyl-2-methyl-N-phenyl-
##MOLFORM=C15H21NO
##CAS REGISTRY NO=74793-56-9
##MP= -300
##BP= -300
##MW= 231
##$RETENTION INDEX=0
##$CONDENSED SPECTRUM=NO
##NPOINTS= 80
##XYDATA=(XY..XY) 1 
    27         44
    28          5
    29         49
    30          1
    38          3
    39         46
    40          8
    41        124
    42          9
    43         26
    44          1
    50          3
    51         17
    52          4
    53         22
    54         10
    55        203
    56         10
    57         15
    63          4
    64          5
    65         31
    66         18
    67         30
    68          5
    69        283
    70         16
    71          1
    76          2
    77         57
    78          6
    79          9
    80          2
    81         22
    82          4
    83          6
    90          1
    91          8
    92         24
    93        999
    94         84
    95          9
    96          1
   104          2
   105          1
   106          2
   107          1
   108          1
   109         28
   110         20
   111        111
   112         10
   117          1
   118          1
   119          4
   120         18
   121          2
   123          3
   130          1
   132          1
   134          1
   135          5
   138         10
   139         12
   140          1
   146          1
   148         11
   149          4
   160          1
   161          1
   162          5
   163          1
   176          1
   202          2
   216          2
   229          5
   230          3
   231         72
   232         13
   233          1