##TITLE=Library Entry 41324
##JCAMP-DX=Revision 4.10 
##DATA TYPE=MASS SPECTRUM
##SAMPLE DESCRIPTION=J. D. HENION, CORNELL UNIVERSITY, ITHACA, NY, USA
##NAMES=HP
##CAS NAME=5-Hydroxy-4-(3-hydroxybutyl)-1,2-diphenylpyrazol-3-one, 2TMS deri
vative
##MOLFORM=C25H36N2O3Si2
##CAS REGISTRY NO=74793-80-9
##MP= -300
##BP= -300
##MW= 468
##$RETENTION INDEX=0
##$CONDENSED SPECTRUM=NO
##NPOINTS= 150
##XYDATA=(XY..XY) 1 
    40         21
    41         64
    43         60
    44         13
    45        118
    47         44
    50         11
    51         26
    52         13
    55         81
    57         36
    58         24
    59         41
    60         13
    61         30
    64         15
    65         21
    66         21
    67         26
    68         26
    69         49
    70         12
    71         20
    73        999
    74         95
    75        221
    77        210
    78         17
    79         26
    80         10
    81         20
    82         10
    83         10
    84         10
    85         20
    89         10
    91         30
    92         10
    93        120
    94         20
    95         20
    96         10
    97         10
    99         20
   100         10
   101         20
   102         10
   103         30
   105         50
   106         10
   107         20
   108         12
   109         30
   110         20
   111         24
   113         15
   115         20
   116         27
   117        111
   118         35
   119         26
   120         23
   121         26
   122         16
   123         27
   125         14
   127         19
   128         46
   129         71
   130         52
   131         33
   132         30
   133         27
   134         21
   135         18
   137         21
   139         28
   141         22
   142         18
   143         50
   144         30
   145         30
   146         10
   147         40
   148         10
   149         10
   150         10
   151         10
   152         10
   153         10
   154         10
   155         10
   156         10
   157         20
   158         30
   159         20
   160         10
   161         10
   165         10
   166         20
   167         21
   168         14
   169         26
   170         16
   171         17
   172         16
   173         12
   174         23
   175         15
   179         14
   183         27
   185         13
   188         16
   192         14
   193         17
   196         22
   198         24
   202         21
   203         12
   204         20
   205         15
   209         15
   215         13
   216         15
   217         24
   218         96
   219         30
   220         23
   244         31
   246        160
   247         50
   248         20
   259         30
   261         30
   264         20
   265         20
   266         10
   274         10
   275         10
   323         10
   336         20
   337         20
   338         10
   363         10
   381         10
   406         10
   453         20
   454         10
   467         40
   468         10