##TITLE=Library Entry 48528
##JCAMP-DX=Revision 4.10 
##DATA TYPE=MASS SPECTRUM
##SAMPLE DESCRIPTION=D.HENNEBERG, MAX-PLANCK INSTITUTE, MULHEIM, WEST GERMAN
Y
##NAMES=HP
##CAS NAME=Propanoic acid, chloro-2-hydroxy-
##MOLFORM=C3H5ClO3
##CAS REGISTRY NO=74792-92-0
##MP= -300
##BP= -300
##MW= 124
##$RETENTION INDEX=0
##$CONDENSED SPECTRUM=NO
##NPOINTS= 71
##XYDATA=(XY..XY) 1 
    26         65
    27        156
    28         59
    29        489
    30         47
    31         62
    32          4
    35         30
    36        187
    37         12
    38         61
    39          3
    40          1
    41         12
    42        123
    43        826
    44        325
    45        180
    46         24
    47         20
    48          6
    49         63
    50         32
    51         24
    52          8
    53          3
    54          1
    55         21
    56          3
    57          5
    58         30
    59          3
    60          6
    61         19
    62          5
    63          9
    64          1
    65          2
    68          0
    69          6
    70         17
    71         11
    72         13
    73          3
    74          1
    75        134
    76         10
    77         10
    78         21
    79        999
    80         31
    81        313
    82          7
    83          1
    85          8
    86          0
    87          2
    88          4
    89          7
    90          1
    91          2
    92          1
    93          2
    94          0
    95          3
    97          1
   100          4
   105          0
   106          2
   107          1
   108          2