##TITLE=Library Entry 3227
##JCAMP-DX=Revision 4.10 
##DATA TYPE=MASS SPECTRUM
##SAMPLE DESCRIPTION=D.HENNEBERG, MAX-PLANCK INSTITUTE, MULHEIM, WEST GERMAN
Y
##NAMES=HP
##CAS NAME=1,7-Decadiene, 10-bromo-9,9,10,10-tetrafluoro-
##MOLFORM=C10H13BrF4
##CAS REGISTRY NO=74792-99-7
##MP= -300
##BP= -300
##MW= 288
##$RETENTION INDEX=0
##$CONDENSED SPECTRUM=NO
##NPOINTS= 161
##XYDATA=(XY..XY) 1 
    26         24
    27         98
    28         38
    29        145
    30          3
    31          1
    37          2
    38          3
    39        257
    40         45
    41        999
    42        184
    43         96
    44          4
    47         18
    49          1
    50          5
    51         28
    52          9
    53         99
    54        431
    55        348
    56        382
    57         20
    58          1
    59         25
    61          3
    62          1
    63          1
    64         24
    65         36
    66         25
    67        595
    68        176
    69        354
    70         16
    71         10
    72          3
    73         21
    74          1
    75          8
    76          2
    77        192
    78          9
    79         36
    80         10
    81        298
    82        378
    83         41
    84          7
    85         15
    86          1
    87          3
    88          2
    89         15
    90         62
    91         31
    92          2
    93         12
    94          2
    95         62
    96         10
    97         54
    98          6
    99          6
   100          2
   101         15
   102          6
   103        539
   104         37
   105          5
   106          1
   107          4
   108         28
   109        148
   110         16
   111         21
   112          2
   113          8
   114          4
   115         24
   116          9
   117        185
   118         12
   119         13
   120          6
   121         30
   122          3
   123          2
   125          2
   126          4
   127         24
   128          3
   129         27
   130          3
   131         76
   132          6
   133         18
   134          5
   135          4
   136          1
   137          2
   139         31
   140          9
   141          3
   143          1
   145          9
   146          2
   147         17
   148          4
   149          3
   151          1
   153          5
   154          1
   155          8
   157          9
   158          1
   159         48
   160          7
   161          2
   165          2
   166          2
   167         23
   168          3
   169          5
   170          2
   171          2
   173          2
   175          2
   179          2
   180          1
   181          2
   187         13
   189         15
   193          1
   201          3
   203          2
   205          3
   207          4
   227          1
   229          1
   232          9
   234         12
   235          1
   245          9
   246         23
   247         11
   248         19
   249          2
   258          0
   259         27
   260         24
   261         36
   262         28
   263          1
   273         13
   274          1
   275         15
   288          2
   289          1
   290          2