##TITLE=Library Entry 88001
##JCAMP-DX=Revision 4.10 
##DATA TYPE=MASS SPECTRUM
##SAMPLE DESCRIPTION=D.HENNEBERG, MAX-PLANCK INSTITUTE, MULHEIM, WEST GERMAN
Y
##NAMES=HP
##CAS NAME=.alpha.-D-Glucofuranose, 6-O-methyl-, cyclic 1,2:3,5-bis(ethylbor
onate)
##MOLFORM=C11H20B2O6
##CAS REGISTRY NO=74792-97-5
##MP= -300
##BP= -300
##MW= 270
##$RETENTION INDEX=0
##$CONDENSED SPECTRUM=NO
##NPOINTS= 176
##XYDATA=(XY..XY) 1 
    26          6
    27         20
    28         41
    29         64
    30          4
    31         18
    32          2
    33          1
    37          0
    38          1
    39         12
    40         76
    41         28
    42         20
    43         74
    44          8
    45        478
    46         11
    47          1
    50          1
    51          1
    52          4
    53         11
    54          8
    55         35
    56         42
    57        155
    58         15
    59         22
    60          1
    61          2
    62          0
    65          3
    66          2
    67          7
    68         13
    69        154
    70         46
    71         49
    72          9
    73         19
    74          2
    75          4
    76          0
    77          1
    78          0
    79          4
    80          1
    81         14
    82         24
    83         89
    84         18
    85         44
    86          8
    87         12
    88          2
    89          5
    90          0
    91          1
    93          1
    94          2
    95          7
    96         12
    97         33
    98         84
    99        176
   100         14
   101         12
   102          1
   103          2
   107          1
   108          3
   109         16
   110        250
   111        999
   112        133
   113        107
   114         14
   115         14
   116         15
   117         57
   118          2
   119          0
   121          0
   122          2
   123         15
   124         99
   125        244
   126         34
   127         55
   128         21
   129         35
   130          3
   131          1
   135          0
   136          3
   137          7
   138         12
   139         33
   140         61
   141         84
   142         27
   143         43
   144          3
   145          0
   149          0
   150          5
   151         18
   152          9
   153         24
   154         27
   155         21
   156          4
   157          6
   158          0
   159          1
   162          2
   163          4
   164          3
   165          7
   166          9
   167         19
   168         36
   169         87
   170          9
   171         10
   172         28
   173          4
   174          0
   178          2
   179          4
   180          4
   181          7
   182          6
   183          9
   184          8
   185          7
   186          1
   190          0
   191          0
   192          0
   193          1
   194          5
   195         13
   196         21
   197         24
   198          3
   199          1
   205          1
   206          6
   207         15
   208          8
   209         12
   210         17
   211         26
   212          4
   213          2
   214          1
   220          1
   221          3
   222          6
   223         17
   224        116
   225        240
   226         26
   227          4
   237          1
   238          3
   239         10
   240         26
   241         24
   242          2
   243          0
   269          2
   270          4
   271          0