##TITLE=Library Entry 33955
##JCAMP-DX=Revision 4.10 
##DATA TYPE=MASS SPECTRUM
##SAMPLE DESCRIPTION=D.HENNEBERG, MAX-PLANCK INSTITUTE, MULHEIM, WEST GERMAN
Y
##NAMES=HP
##CAS NAME=2,3-Diazabicyclo[2.2.1]heptane-2,3-dicarboxylic acid, 5-methyl-,
 diethyl ester
##MOLFORM=C12H20N2O4
##CAS REGISTRY NO=74793-70-7
##MP= -300
##BP= -300
##MW= 256
##$RETENTION INDEX=0
##$CONDENSED SPECTRUM=NO
##NPOINTS= 125
##XYDATA=(XY..XY) 1 
    21          0
    22          0
    23          0
    24          0
    25          1
    26          9
    27        154
    28         87
    29        626
    30         19
    31         15
    33          0
    34          2
    36          1
    37          2
    38          2
    39         38
    40         13
    41        110
    42        136
    43        112
    44         52
    45         15
    46          2
    47          1
    48          0
    51          1
    52          4
    53         22
    54         19
    55         33
    56         34
    57         11
    58          1
    59          2
    60          0
    62          3
    63          1
    64          0
    65          7
    66          7
    67         56
    68         22
    69        999
    70         55
    71          6
    72          2
    73          2
    74          0
    76          0
    77          5
    78          2
    79         15
    80         22
    81         95
    82         15
    83          9
    84          7
    86          2
    87          8
    88          2
    89          0
    90          1
    91          0
    92          1
    93          1
    94          7
    95          7
    96         11
    97        216
    98         13
    99          0
   100          2
   101          3
   102          3
   103          2
   104          4
   105          2
   107          3
   108          3
   109          2
   110          5
   111         60
   112          2
   113          7
   114          6
   115         53
   116         12
   117          1
   122          0
   123          2
   124          0
   125          3
   126          0
   128          4
   129          2
   130          3
   131          3
   132          1
   133          1
   135          0
   137          2
   138          1
   139         22
   140          5
   141        224
   142         21
   143         16
   144          1
   155          2
   156          5
   157          2
   165          0
   166          0
   167          0
   169          9
   183         34
   184         78
   185          8
   186          1
   197          2
   211         12
   212          2
   256         53
   257          6