##TITLE=Library Entry 71091
##JCAMP-DX=Revision 4.10 
##DATA TYPE=MASS SPECTRUM
##SAMPLE DESCRIPTION=D.HENNEBERG, MAX-PLANCK INSTITUTE, MULHEIM, WEST GERMAN
Y
##NAMES=HP
##CAS NAME=2H-Pyran-2-one, 5,6-dihydro-3,5,5-trimethyl-
##MOLFORM=C8H12O2
##CAS REGISTRY NO=74793-10-5
##MP= -300
##BP= -300
##MW= 140
##$RETENTION INDEX=0
##$CONDENSED SPECTRUM=NO
##NPOINTS= 88
##XYDATA=(XY..XY) 1 
    22          0
    23          1
    24          1
    25          4
    26         30
    27        307
    28        179
    29        156
    30          9
    31         14
    33          2
    34          1
    35          2
    36          2
    37         20
    38         53
    39        528
    40        127
    41        708
    42         70
    43        696
    44         27
    45          9
    46          4
    47          3
    48          1
    49          6
    50         33
    51         60
    52         34
    53        166
    54        102
    55        388
    56        126
    57        122
    58          7
    59          3
    61          4
    62         11
    63         23
    65         72
    66         43
    67        999
    68         73
    69         74
    70         22
    71         19
    72          2
    73          1
    75          3
    77         40
    78          7
    79        108
    80         15
    81        155
    82        187
    83        347
    84         37
    85         29
    86          1
    91          7
    92          2
    93         10
    94         12
    95        297
    96         42
    97        217
    98        999
    99         57
   100          4
   107          3
   108          4
   109         50
   110        269
   111        119
   112        162
   113         12
   114          0
   122          5
   123          2
   124          0
   125        114
   126          0
   138          0
   139          3
   140        183
   141         14
   142          1