##TITLE=Library Entry 37658
##JCAMP-DX=Revision 4.10 
##DATA TYPE=MASS SPECTRUM
##SAMPLE DESCRIPTION=D.HENNEBERG, MAX-PLANCK INSTITUTE, MULHEIM, WEST GERMAN
Y
##NAMES=HP
##CAS NAME=Bicyclo[2.2.1]heptane, 2-(3-methylbutyl)-
##MOLFORM=C12H22
##CAS REGISTRY NO=74793-73-0
##MP= -300
##BP= -300
##MW= 166
##$RETENTION INDEX=0
##$CONDENSED SPECTRUM=NO
##NPOINTS= 64
##XYDATA=(XY..XY) 1 
    24          1
    26          5
    27        192
    29        219
    30          3
    33          0
    36          0
    37          4
    38          4
    39        180
    40         31
    41        497
    42         86
    43        571
    44          8
    48          4
    50          3
    51         18
    52          9
    53         97
    54         28
    55        354
    56         29
    57         49
    58          1
    62          3
    63          7
    64          3
    65         42
    66        147
    67        465
    68         45
    69        171
    70        999
    71        413
    72         19
    73          1
    75          1
    76          0
    77         48
    78          8
    79         55
    80         16
    81        460
    82         34
    83         33
    84         25
    85          2
    91         25
    92          2
    93         28
    94         67
    95        968
    96         74
    97          7
   107          5
   108          1
   109         40
   110          5
   123          3
   136         15
   137        171
   138         18
   151          5