##TITLE=Library Entry 82740
##JCAMP-DX=Revision 4.10 
##DATA TYPE=MASS SPECTRUM
##SAMPLE DESCRIPTION=D.HENNEBERG, MAX-PLANCK INSTITUTE, MULHEIM, WEST GERMAN
Y
##NAMES=HP
##CAS NAME=Spiro[2.4]heptane, 1-ethenyl-5-(1-propenylidene)-
##MOLFORM=C12H16
##CAS REGISTRY NO=74793-03-6
##MP= -300
##BP= -300
##MW= 160
##$RETENTION INDEX=0
##$CONDENSED SPECTRUM=NO
##NPOINTS= 118
##XYDATA=(XY..XY) 1 
    22          0
    23          0
    24          0
    25          1
    26         11
    27        205
    28         12
    29         38
    30          0
    33          1
    34          1
    35          1
    36          0
    37          7
    38         19
    39        348
    40         53
    41        311
    42         11
    43          1
    44          0
    45          0
    46          1
    47          0
    48          1
    49          2
    50         33
    51        115
    52         59
    53        117
    54         25
    55         27
    56          3
    57          5
    58          8
    59          3
    60          1
    61          2
    62          9
    63         45
    64         24
    65        143
    66         47
    67         63
    68          6
    69          4
    71          7
    72          1
    74          7
    75         15
    76         12
    77        255
    78        384
    79        368
    80        117
    81         18
    82          5
    85          0
    86          1
    87          3
    88          2
    89         13
    90          6
    91        808
    92         84
    93         34
    94          9
    95          1
    98          2
    99          0
   100          1
   101          4
   102          9
   103         50
   104         56
   105        229
   106        999
   107         77
   108          3
   112          0
   113          2
   114          1
   115         46
   116         21
   117         82
   118         25
   119         37
   120          4
   121          0
   124          0
   127          6
   128         17
   129         15
   130         10
   131         47
   132         12
   133          2
   139          0
   140          0
   141          2
   142          1
   143          3
   144          1
   145         26
   146          3
   150          1
   152          1
   153          0
   154          0
   155          0
   156          0
   157          0
   158          1
   159          2
   160         56
   161          5
   162          0
   169          0