##TITLE=Library Entry 55871
##JCAMP-DX=Revision 4.10 
##DATA TYPE=MASS SPECTRUM
##SAMPLE DESCRIPTION=D.HENNEBERG, MAX-PLANCK INSTITUTE, MULHEIM, WEST GERMAN
Y
##NAMES=HP
##CAS NAME=Benzenemethanol, .alpha.-[1-methyl-2-[(1-methylethyl)amino]propyl
]-
##MOLFORM=C14H23NO
##CAS REGISTRY NO=74793-40-1
##MP= -300
##BP= -300
##MW= 221
##$RETENTION INDEX=0
##$CONDENSED SPECTRUM=NO
##NPOINTS= 116
##XYDATA=(XY..XY) 1 
    26          4
    27         35
    28         25
    29         22
    30         15
    31          6
    36          0
    37          0
    38          0
    39         15
    40          2
    41         44
    42         38
    43         50
    44        533
    45         18
    46          2
    49          0
    50          3
    51         13
    52          4
    53          5
    54          2
    55         26
    56         21
    57         14
    58         78
    59         12
    60         44
    61          1
    62          0
    63          2
    64          0
    65          3
    66          0
    67          1
    68          2
    69          2
    70         79
    71          7
    72         41
    73          2
    74          0
    75          1
    76          1
    77         52
    78          9
    79         49
    80          3
    81          0
    82          1
    83          0
    84         19
    85          7
    86        999
    87         60
    88          2
    89          1
    90          0
    91         18
    92          1
    93          0
    94          0
    96          0
    97          0
    98          4
    99          4
   100         33
   101          2
   102          0
   103          2
   104          1
   105         20
   106          2
   107         27
   108          2
   112          0
   113          2
   114          5
   115         33
   116          3
   117          9
   118         10
   119          1
   120          0
   121          0
   126          0
   127          0
   128          1
   129          1
   130          0
   131          0
   132          2
   133          1
   134          0
   135          0
   143          0
   144          1
   145          2
   146          1
   147          6
   148          1
   160          0
   161          2
   162          4
   163          0
   188          2
   189          0
   192          0
   203          0
   206          3
   207          0
   220          0
   221         17
   222          3
   223          0