##TITLE=Library Entry 78025
##JCAMP-DX=Revision 4.10 
##DATA TYPE=MASS SPECTRUM
##SAMPLE DESCRIPTION=D.HENNEBERG, MAX-PLANCK INSTITUTE, MULHEIM, WEST GERMAN
Y
##NAMES=HP
##CAS NAME=1,2,3,4-Butanetetrol, 2,3-diacetate 1,4-dibenzoate, (R*,S*)-
##MOLFORM=C22H22O8
##CAS REGISTRY NO=74793-38-7
##MP= -300
##BP= -300
##MW= 414
##$RETENTION INDEX=0
##$CONDENSED SPECTRUM=NO
##NPOINTS= 104
##XYDATA=(XY..XY) 1 
    27          2
    28          1
    29          0
    31          0
    38          0
    39          2
    40          0
    41          1
    42          1
    43        344
    44          7
    45          1
    50          4
    51         24
    52          1
    53          0
    54          0
    55          2
    57          0
    58          0
    60          1
    61          0
    65          0
    68          1
    69          1
    70          0
    73          0
    74          0
    75          1
    76          5
    77        114
    78          8
    79          2
    85          0
    86          7
    87          0
    91          1
    92          1
    94          0
   102          4
   103          0
   104          2
   105        999
   106         65
   107          3
   115         16
   116          1
   118          0
   121          0
   122          5
   123          5
   124          0
   127          0
   128          8
   129          0
   135          1
   136          0
   144          1
   145          0
   147          0
   148          0
   152          0
   153          0
   160          0
   165         15
   166          1
   170          1
   172          0
   175          0
   177         36
   178          7
   179          1
   181          1
   189          0
   190         35
   191          4
   192          0
   195          0
   207         41
   208          5
   209          0
   219          2
   220          3
   221          0
   225          0
   227          0
   232         35
   233          5
   234          0
   237          0
   249          0
   250          2
   251          0
   269          0
   279         10
   280          1
   281          0
   292          1
   293          1
   294         18
   295          4
   296          0
   354          1
   355          1