##TITLE=Library Entry 22157
##JCAMP-DX=Revision 4.10 
##DATA TYPE=MASS SPECTRUM
##SAMPLE DESCRIPTION=D.HENNEBERG, MAX-PLANCK INSTITUTE, MULHEIM, WEST GERMAN
Y
##NAMES=HP
##CAS NAME=3-Octene, 1-bromo-1,1,2,2-tetrafluoro-
##MOLFORM=C8H11BrF4
##CAS REGISTRY NO=74793-72-9
##MP= -300
##BP= -300
##MW= 262
##$RETENTION INDEX=0
##$CONDENSED SPECTRUM=NO
##NPOINTS= 160
##XYDATA=(XY..XY) 1 
    27        249
    28         40
    29         85
    30          2
    31          9
    32          0
    33          3
    35          4
    36         26
    37          2
    38         11
    39        135
    40         27
    41        444
    42        357
    43        538
    44         17
    45          3
    46          1
    47         10
    48          0
    49          0
    50         10
    51         45
    52          8
    53         25
    54         17
    55        147
    56        999
    57         47
    58          4
    59         22
    60          1
    61         12
    62          2
    63          5
    64         29
    65         17
    66          3
    67         10
    68          2
    69         26
    70          6
    71         10
    72          2
    73         38
    74          2
    75         17
    76          4
    77        185
    78          7
    79          6
    80          1
    81          5
    82          1
    83         20
    84          9
    85          7
    86          0
    87          3
    88          6
    89         13
    90         40
    91         36
    92          1
    93         10
    94          1
    95         14
    96          2
    97          6
    98          0
    99          3
   100          5
   101         17
   102          4
   103         36
   104         10
   105          5
   106          1
   107          2
   108         17
   109          4
   110          0
   111          1
   112          0
   113         85
   114          8
   115          8
   116          1
   117          3
   118          0
   119          4
   120          2
   121         19
   122          3
   123          5
   124          0
   125          0
   126          1
   127          5
   128          0
   129         24
   131         23
   132          1
   133         29
   134          3
   135          3
   136          0
   137          2
   138          0
   139          5
   140          5
   141         12
   142          1
   143          5
   144          0
   145          0
   147          1
   151          0
   153          3
   154          1
   155          3
   157          3
   160          0
   161          0
   162          0
   163         13
   164          1
   167          1
   168          0
   169          1
   171          1
   173          1
   175          1
   179          0
   181          1
   183          1
   187          3
   189          3
   199          0
   200          0
   201          4
   202          0
   203          4
   205          0
   207          0
   215          0
   220          1
   221          0
   222          1
   233          0
   234          2
   235          0
   236          2
   247          0
   249          0
   262         28
   263          2
   264         26
   265          2