##TITLE=Library Entry 78376
##JCAMP-DX=Revision 4.10 
##DATA TYPE=MASS SPECTRUM
##SAMPLE DESCRIPTION=D.HENNEBERG, MAX-PLANCK INSTITUTE, MULHEIM, WEST GERMAN
Y
##NAMES=HP
##CAS NAME=Xylitol, 1-acetate 2,5-dibenzoate
##MOLFORM=C21H22O8
##CAS REGISTRY NO=74793-09-2
##MP= -300
##BP= -300
##MW= 402
##$RETENTION INDEX=0
##$CONDENSED SPECTRUM=NO
##NPOINTS= 100
##XYDATA=(XY..XY) 1 
    27          3
    28          2
    29          2
    31          1
    39          2
    41          1
    42          2
    43         85
    44          4
    45          3
    50          2
    51         14
    52          2
    53          0
    55          4
    56          5
    57          6
    58          0
    60          3
    61          9
    65          1
    68          3
    69          3
    70          1
    71          1
    73         10
    74          1
    75          1
    76          3
    77        111
    78         10
    79          7
    80          0
    81          1
    85         10
    86          3
    91          2
    92          1
    94          0
    97          1
    98         12
    99          1
   103         11
   104          4
   105        999
   106         72
   107          4
   115         30
   116         14
   117          1
   118          0
   121          0
   122         27
   123         32
   124          2
   127          2
   128          2
   133          1
   135          1
   136          1
   140          1
   145         13
   146          1
   148          1
   158          3
   160          1
   165         38
   166          4
   177         70
   178         27
   179          3
   181          0
   189          1
   190          3
   195          8
   196          1
   202          3
   203          0
   207         21
   208          2
   220         11
   221          1
   227          7
   228          1
   237         12
   238          2
   249          7
   250          1
   262          0
   267          4
   268          0
   269          8
   270          1
   282          6
   283          1
   299          3
   300          0
   311          2
   329          0
   341          2