##TITLE=Library Entry 10838
##JCAMP-DX=Revision 4.10 
##DATA TYPE=MASS SPECTRUM
##SAMPLE DESCRIPTION=D.HENNEBERG, MAX-PLANCK INSTITUTE, MULHEIM, WEST GERMAN
Y
##NAMES=HP
##CAS NAME=1,2-Ethanediol, 1-(2-ethyl-1,3,2-dioxaborolan-4-yl)-, diacetate,
 [S-(R*,R*)]-
##MOLFORM=C10H17BO6
##CAS REGISTRY NO=74793-27-4
##MP= -300
##BP= -300
##MW= 244
##$RETENTION INDEX=0
##$CONDENSED SPECTRUM=NO
##NPOINTS= 86
##XYDATA=(XY..XY) 1 
    25          0
    26          2
    27         10
    28         34
    29         21
    30          1
    31          3
    36          0
    37          0
    38          0
    39          8
    40          4
    41         11
    42         25
    43        999
    44         25
    45          7
    50          0
    51          0
    52          0
    53          2
    54          2
    55          7
    56          5
    57         14
    58          0
    59          0
    60          1
    61         18
    62          0
    67          0
    68          3
    69         13
    70          8
    71          4
    72          0
    73          6
    74          1
    82          1
    83          4
    84          3
    85          1
    86         26
    87          7
    95          0
    96          4
    97          4
    98         54
    99        161
   100          7
   101          1
   102          0
   103        161
   104          6
   105          1
   109          0
   110         11
   111         46
   112         13
   113         15
   114          1
   115          3
   116          0
   123          9
   124         36
   125          8
   126          0
   127          1
   128          1
   129          2
   140          2
   141         12
   142         11
   143          1
   145         16
   146          0
   154          1
   155          3
   158          1
   159          3
   170          0
   171          2
   184          1
   200          1
   201          4
   215          0