##TITLE=Library Entry 66663
##JCAMP-DX=Revision 4.10 
##DATA TYPE=MASS SPECTRUM
##SAMPLE DESCRIPTION=D.HENNEBERG, MAX-PLANCK INSTITUTE, MULHEIM, WEST GERMAN
Y
##NAMES=HP
##CAS NAME=1,2-Cyclopentanedicarboxylic acid, 4-ethylidene-, dimethyl ester
##MOLFORM=C11H16O4
##CAS REGISTRY NO=74793-65-0
##MP= -300
##BP= -300
##MW= 212
##$RETENTION INDEX=0
##$CONDENSED SPECTRUM=NO
##NPOINTS= 134
##XYDATA=(XY..XY) 1 
    23          3
    25          0
    26          7
    27        100
    28        126
    29         39
    30         10
    31         24
    32          9
    33          7
    34          0
    35          0
    36          1
    37          2
    38          8
    39        116
    40         24
    41         84
    42          7
    43         18
    44         15
    45         23
    46          6
    47          1
    48          1
    49          1
    50          6
    51         24
    52         16
    53         52
    54          9
    55         41
    56          2
    57          4
    58          1
    59        125
    60          5
    61          8
    62          3
    63         11
    64          8
    65         56
    66         19
    67         33
    68          8
    69          9
    70          1
    72          0
    73          2
    74          2
    75          4
    76          1
    77        170
    78         30
    79         74
    80          8
    81          7
    82          1
    83          2
    84          1
    85          2
    86          1
    87          6
    88          1
    89         16
    90          7
    91        165
    92        207
    93        999
    94         91
    95         14
    96          4
    97          3
    98          0
    99          1
   100          0
   101          1
   102          1
   103          1
   104          0
   105         10
   106          1
   107          5
   108          2
   109         17
   110          2
   111          3
   113          6
   115          1
   116          0
   117          1
   118          2
   119          9
   120         20
   121         72
   122          5
   123          4
   124          6
   125          6
   126          1
   127          0
   130          1
   135          1
   136          1
   137         26
   138          3
   139          0
   141          0
   142          0
   144          0
   145          0
   147          0
   148          2
   149          1
   150          3
   151         13
   152        309
   153         55
   154          4
   155          0
   161          0
   163          0
   166          0
   173          0
   178          0
   180         12
   181         68
   182          6
   183          1
   207          0
   209          0
   212         59
   213          6
   214          1