##TITLE=Library Entry 81477
##JCAMP-DX=Revision 4.10 
##DATA TYPE=MASS SPECTRUM
##SAMPLE DESCRIPTION=D.HENNEBERG, MAX-PLANCK INSTITUTE, MULHEIM, WEST GERMAN
Y
##NAMES=HP
##CAS NAME=1,3,2-Dioxaborolane-4,5-dimethanol, 2-phenyl-, dibenzoate, trans-
##MOLFORM=C24H21BO6
##CAS REGISTRY NO=74793-48-9
##MP= -300
##BP= -300
##MW= 416
##$RETENTION INDEX=0
##$CONDENSED SPECTRUM=NO
##NPOINTS= 92
##XYDATA=(XY..XY) 1 
    27         10
    28          7
    29          2
    31          0
    38          0
    39          6
    40          1
    41          3
    42          2
    43          8
    44          1
    45          0
    50         10
    51         52
    52          5
    53          4
    54          0
    55          5
    56          1
    57          1
    63          1
    65          1
    68          0
    69          3
    74          1
    75          4
    76         14
    77        295
    78         24
    79          3
    88          2
    89          8
    90          5
    91          8
    92          1
    99          0
   101          1
   102          1
   103         11
   104         25
   105        999
   106         72
   107          4
   115          1
   116          0
   117          1
   118          1
   122          3
   123          1
   128          0
   129          0
   130          1
   131          2
   135          0
   145          8
   146         36
   147          9
   148          1
   152          1
   153          2
   154          0
   157          0
   158         74
   159        301
   160         33
   161          3
   165          0
   171        159
   172        673
   173         77
   174          7
   175          0
   181          3
   189          0
   190          0
   203          1
   208          0
   209          0
   216          2
   217          7
   218          0
   251          0
   263          0
   264          2
   279          1
   280          3
   281         14
   282          2
   293          4
   294         17
   295          3
   339          0