##TITLE=Library Entry 7642
##JCAMP-DX=Revision 4.10 
##DATA TYPE=MASS SPECTRUM
##SAMPLE DESCRIPTION=D.HENNEBERG, MAX-PLANCK INSTITUTE, MULHEIM, WEST GERMAN
Y
##NAMES=HP
##CAS NAME=Octane, 1,1,2,2-tetrafluoro-
##MOLFORM=C8H14F4
##CAS REGISTRY NO=74793-58-1
##MP= -300
##BP= -300
##MW= 186
##$RETENTION INDEX=0
##$CONDENSED SPECTRUM=NO
##NPOINTS= 113
##XYDATA=(XY..XY) 1 
    27        284
    28         69
    29        408
    30          8
    31          5
    32          1
    33         13
    37          2
    38          7
    39        156
    40         26
    41        543
    42        360
    43        999
    44         31
    45          7
    46          5
    47        112
    48          2
    49          0
    50          4
    51        121
    52          5
    53         27
    54          7
    55        171
    56        100
    57        581
    58         24
    59         69
    60          3
    61        115
    62          4
    63          2
    64         18
    65         60
    66          2
    67          7
    68          1
    69         20
    70         47
    71         17
    72          2
    73         53
    74          3
    75          9
    76          1
    77        105
    78          7
    79          7
    80          0
    81          1
    82          3
    83          7
    84          2
    85         10
    86          2
    87          5
    88          1
    89         11
    90          4
    91         57
    92          2
    93          0
    95         22
    96          2
    97         14
    98          1
    99          1
   100          1
   101         13
   102          0
   103          7
   104          2
   105         20
   106          1
   107          0
   108          0
   109         22
   110          1
   111          2
   113          0
   115          9
   116          0
   117         15
   118          0
   119          0
   121          0
   122          0
   123          5
   124          0
   125          1
   127          1
   131          2
   135          5
   136          0
   137         15
   138          3
   142          3
   143          2
   151          1
   156         36
   157         47
   158          2
   166          8
   167          0
   170          1
   171          9
   172          0
   184          0
   185          1
   186          9
   187          0