##TITLE=Library Entry 72422
##JCAMP-DX=Revision 4.10 
##DATA TYPE=MASS SPECTRUM
##SAMPLE DESCRIPTION=D.HENNEBERG, MAX-PLANCK INSTITUTE, MULHEIM, WEST GERMAN
Y
##NAMES=HP
##CAS NAME=DL-Xylitol, cyclic 1,4:2,3-bis(ethylboronate)
##MOLFORM=C9H18B2O5
##CAS REGISTRY NO=74793-31-0
##MP= -300
##BP= -300
##MW= 228
##$RETENTION INDEX=0
##$CONDENSED SPECTRUM=NO
##NPOINTS= 132
##XYDATA=(XY..XY) 1 
    26          7
    27         18
    28         25
    29         61
    30          1
    31         51
    32          0
    36          1
    37          0
    38          0
    39         13
    40          7
    41         41
    42         28
    43        121
    44         22
    45         27
    47          0
    49          0
    50          0
    51          1
    52          1
    53          7
    54         12
    55         33
    56         60
    57        118
    58          8
    59         14
    60          1
    61          2
    62          0
    63          0
    65          0
    66          1
    67          4
    68          8
    69         33
    70         37
    71         31
    72          3
    73         11
    74          2
    75          3
    76          2
    77          0
    78          0
    79          0
    80          0
    81          5
    82         15
    83         58
    84         29
    85         24
    86          9
    87         24
    88          0
    89          0
    91          0
    93          0
    94          0
    95          2
    96          8
    97         34
    98        309
    99        999
   100         61
   101         21
   102          1
   103          0
   107          0
   108          1
   109          7
   110        101
   111        425
   112        167
   113         31
   114          2
   115          1
   116          1
   117          1
   122          0
   123         19
   124         81
   125         17
   126          5
   127         10
   128         72
   129        203
   130         12
   131          1
   135          0
   136          0
   137          3
   138          7
   139         13
   140          5
   141          8
   142          4
   143          4
   151          0
   152          1
   153          2
   154          9
   155          4
   156          0
   157          0
   165          1
   166          2
   167          5
   168         13
   169         24
   170          2
   171          0
   179          2
   180          4
   181          2
   182          0
   183          1
   184          1
   185          3
   194          0
   195          3
   196         15
   197         28
   198          4
   199          1
   207          0
   208          0
   209          1
   210          2
   211          0