##TITLE=Library Entry 12757
##JCAMP-DX=Revision 4.10 
##DATA TYPE=MASS SPECTRUM
##SAMPLE DESCRIPTION=D.HENNEBERG, MAX-PLANCK INSTITUTE, MULHEIM, WEST GERMAN
Y
##NAMES=HP
##CAS NAME=dl-Xylitol, cyclic 1,3:2,4-bis(phenylboronate) 5-acetate
##MOLFORM=C19H20B2O6
##CAS REGISTRY NO=74793-45-6
##MP= -300
##BP= -300
##MW= 366
##$RETENTION INDEX=0
##$CONDENSED SPECTRUM=NO
##NPOINTS= 250
##XYDATA=(XY..XY) 1 
    26          6
    27         44
    28         19
    29         25
    30          1
    31          8
    37          1
    38          3
    39         44
    40          9
    41         29
    42         16
    43        999
    44         26
    45         12
    46          1
    49          0
    50         13
    51         46
    52         24
    53         36
    54          7
    55         65
    56         17
    57         22
    58          1
    59          2
    60          2
    61          4
    62          2
    63          8
    64          2
    65         11
    66          3
    67          3
    68          8
    69         23
    70          7
    71          6
    72          0
    73         14
    74          3
    75          2
    76         10
    77         63
    78         27
    79         15
    80          1
    81          7
    82          3
    83          8
    84          5
    85          6
    86         10
    87         18
    88          7
    89         27
    90         13
    91        222
    92         40
    93          3
    94          1
    95          1
    96          1
    97          2
    98          4
    99         12
   100          3
   101          6
   102          9
   103         90
   104        228
   105        329
   106         22
   107          3
   108          0
   109          0
   110          1
   111          2
   112          9
   113          6
   114          7
   115         18
   116         12
   117         28
   118         12
   119          4
   120          3
   121          3
   122          0
   123          0
   124          2
   125         10
   126          1
   127          2
   128          5
   129         12
   130         13
   131         20
   132          4
   133          4
   134          1
   135          0
   137          1
   138          1
   139          1
   140          1
   141          5
   142          4
   143          9
   144          4
   145         23
   146        225
   147        618
   148         57
   149          7
   150          1
   151          1
   153         19
   154          2
   155          2
   156          2
   157          7
   158        198
   159        870
   160        669
   161         69
   162          8
   163          7
   164          5
   165          3
   166          1
   167          2
   168          1
   169          1
   170          1
   171         15
   172         65
   173         29
   174          8
   175          4
   176          4
   177          7
   178          2
   179          2
   180          2
   181          8
   182          1
   183          2
   184         10
   185         41
   186         50
   187         10
   188          4
   189          7
   190          6
   191         11
   192          1
   193          1
   198          0
   199          2
   200          5
   201         47
   202        151
   203         21
   204          2
   205          1
   206          1
   207          2
   208          2
   209          2
   210          1
   211          2
   213          0
   214          2
   215          3
   216          1
   217          2
   218          5
   219         17
   220          2
   221          0
   222          0
   223          1
   224          0
   225          0
   226          1
   227          2
   228          4
   229          4
   230          2
   231          5
   232          2
   233          3
   234          1
   235          1
   236          2
   237          3
   243          2
   244          7
   245          2
   246          1
   247          1
   248          1
   249          3
   250          1
   251          1
   252          0
   258          3
   259          3
   260          1
   261          4
   262         14
   263         23
   264          7
   265          2
   275          1
   276          5
   277          9
   278          2
   279          0
   287          1
   288          8
   289         15
   290          3
   291          3
   292          1
   293          1
   297          0
   299          1
   300          1
   304         15
   305         99
   306        198
   307         38
   308          4
   309          0
   310          0
   311          2
   312          2
   313          0
   322          0
   323          1
   324          1
   364          7
   365         59
   366        132
   367         27
   368          4
   369          0