##TITLE=Library Entry 39811
##JCAMP-DX=Revision 4.10 
##DATA TYPE=MASS SPECTRUM
##SAMPLE DESCRIPTION=NIST Mass Spectrometry Data Center
##NAMES=HP
##CAS NAME=L-Valine, TMS derivative
##MOLFORM=C8H19NO2Si
##CAS REGISTRY NO=7480-78-6
##MP= -300
##BP= -300
##MW= 189
##$RETENTION INDEX=1094
##$CONDENSED SPECTRUM=NO
##NPOINTS= 86
##XYDATA=(XY..XY) 1 
    15          1
    18          1
    26          1
    27         11
    28         20
    29         15
    30         20
    31          2
    38          1
    39         12
    40          2
    41         21
    42         10
    43         39
    44         17
    45         72
    46          6
    47         35
    48          2
    49          1
    51          1
    52          1
    53          5
    54          6
    55        211
    56         56
    57         38
    58         10
    59         19
    60          9
    61         24
    62          2
    63          1
    67          1
    68          1
    69          2
    70         11
    72        999
    73        197
    74         79
    75        172
    76         16
    77          7
    82          3
    83          1
    84          2
    85          3
    86          5
    87         18
    88          4
    89          2
    91         10
    92          1
    93          1
    98          1
    99          1
   100          2
   101          1
   102          9
   103         33
   104          3
   105          2
   112          1
   113          8
   114          2
   115          1
   116          1
   117          2
   118          4
   119          1
   128         29
   129          9
   130         40
   131         10
   132          3
   144          2
   146         67
   147         12
   148          4
   156         43
   157          9
   158          4
   159          1
   174         40
   175          5
   176          2