##TITLE=Library Entry 31182
##JCAMP-DX=Revision 4.10 
##DATA TYPE=MASS SPECTRUM
##SAMPLE DESCRIPTION=D.HENNEBERG, MAX-PLANCK INSTITUTE, MULHEIM, WEST GERMAN
Y
##NAMES=HP
##CAS NAME=1,2-Ethanediol, 1-(2-phenyl-1,3,2-dioxaborolan-4-yl)-, [S-(R*,R*)
]-
##MOLFORM=C10H13BO4
##CAS REGISTRY NO=74807-80-0
##MP= -300
##BP= -300
##MW= 208
##$RETENTION INDEX=0
##$CONDENSED SPECTRUM=NO
##NPOINTS= 145
##XYDATA=(XY..XY) 1 
    26         36
    27        179
    28         98
    29        244
    30         34
    31        514
    32         23
    33          9
    34          0
    35          0
    36          3
    37          3
    38          4
    39         29
    40          4
    41         20
    42        118
    43        738
    44        973
    45        342
    46         12
    47         19
    48          0
    49          3
    50          9
    51         20
    52         10
    53         15
    54          5
    55         63
    56         96
    57         30
    58          8
    59          3
    60        144
    61        999
    62         64
    63          9
    64          1
    65          2
    66          1
    67          1
    68          1
    69          3
    70          1
    71         12
    72          9
    73        111
    74         85
    75          6
    76         10
    77         27
    78         39
    79         11
    80          0
    81          0
    83          1
    84          0
    85          1
    86          6
    87          6
    88          2
    89          8
    90          6
    91        296
    92         18
    93          1
    94          1
    95          0
    96          0
    97          0
    98          1
    99          7
   100          3
   101          2
   102          2
   103         12
   104         92
   105         89
   106          6
   107          1
   110          0
   111          1
   112          0
   113          0
   115          1
   116          1
   117          4
   118          5
   119          1
   120          0
   121          2
   122          3
   123          1
   128          3
   129          0
   131          1
   132          0
   133          0
   134          0
   135          0
   140          0
   141          0
   142          0
   145          6
   146         60
   147        184
   148         19
   149          4
   150          0
   151          0
   152          0
   153          0
   155          0
   158          4
   159         21
   160          9
   161          1
   162          1
   163          5
   164          3
   165          1
   167          0
   172          0
   174          0
   175          0
   176         12
   177         43
   178          5
   179          0
   180          0
   182          0
   185          0
   187          0
   188          0
   189          3
   190          9
   191          0
   192          0
   201          0
   202          0
   207          6
   208         31
   209          3
   210          0