##TITLE=Library Entry 33561
##JCAMP-DX=Revision 4.10 
##DATA TYPE=MASS SPECTRUM
##SAMPLE DESCRIPTION=D.HENNEBERG, MAX-PLANCK INSTITUTE, MULHEIM, WEST GERMAN
Y
##NAMES=HP
##CAS NAME=2-Propenal, 3-(2-ethyl-1,3,2-dioxaborolan-4-yl)-, (E)-
##MOLFORM=C7H11BO3
##CAS REGISTRY NO=74807-48-0
##MP= -300
##BP= -300
##MW= 154
##$RETENTION INDEX=0
##$CONDENSED SPECTRUM=NO
##NPOINTS= 102
##XYDATA=(XY..XY) 1 
    26         50
    27        133
    28        125
    29        112
    30          6
    31         25
    32          1
    35          1
    36          4
    37          3
    38         20
    39        273
    40        135
    41        154
    42        104
    43         93
    44         16
    45         42
    46          4
    47          0
    49          2
    50          8
    51         28
    52         29
    53        120
    54         31
    55         76
    56         36
    57        105
    58          5
    59          4
    62          0
    63          1
    64          1
    65          8
    66         25
    67        100
    68        999
    69        520
    70        194
    71         38
    72          3
    73          6
    74          1
    75          1
    76          0
    77          2
    78          2
    79          7
    80          7
    81         66
    82         20
    83         21
    84          6
    85          6
    86          1
    87          1
    89          0
    91          2
    92          5
    93         20
    94          9
    95         40
    96         98
    97         64
    98        186
    99         54
   100          4
   101          8
   102          1
   103          0
   104          0
   105          0
   107          1
   108          1
   109          5
   110         18
   111         73
   112         40
   113         40
   114          1
   115          1
   122          1
   123         74
   124        351
   125        356
   126         39
   127          6
   133          0
   135          1
   136          1
   137          5
   138          5
   139          6
   140          4
   141          1
   151          1
   152          3
   153         24
   154         87
   155          7
   156          1