##TITLE=Library Entry 90848
##JCAMP-DX=Revision 4.10 
##DATA TYPE=MASS SPECTRUM
##SAMPLE DESCRIPTION=Japan AIST/NIMC Database- Spectrum MS-NW-1875
##NAMES=HP
##CAS NAME=Glycyl-D-threonine
##MOLFORM=C6H12N2O4
##CAS REGISTRY NO=74807-44-6
##MP= -300
##BP= -300
##MW= 176
##$RETENTION INDEX=0
##$CONDENSED SPECTRUM=NO
##NPOINTS= 92
##XYDATA=(XY..XY) 1 
    12          5
    13          2
    14          6
    15         32
    16         28
    17         21
    18         94
    19          4
    26         12
    27         49
    28        175
    29         89
    30        256
    31         19
    32          2
    37          2
    38          6
    39         19
    40          9
    41         26
    42         96
    43         76
    44        381
    45        252
    46         16
    51          4
    52         14
    53          9
    54         50
    55         51
    56         81
    57        416
    58         49
    59         34
    60          8
    66          4
    67         11
    68         20
    69         24
    70         10
    71         31
    72         14
    73         17
    74         11
    75         17
    76          1
    77          2
    80          2
    81          4
    82          9
    83         14
    84          9
    85         70
    86         63
    87          9
    93          3
    94          4
    95          5
    96          6
    97          8
    98          4
    99          9
   100          4
   108          2
   109          2
   110          6
   111          7
   112          5
   113         15
   114        999
   115         71
   116          7
   120          2
   121          3
   122          4
   123          3
   124          3
   125          3
   126          2
   127          4
   128         68
   129          5
   130          2
   134          2
   136          4
   137          6
   138          6
   139          4
   140         52
   141          5
   142          4
   143          6