##TITLE=Library Entry 77406
##JCAMP-DX=Revision 4.10 
##DATA TYPE=MASS SPECTRUM
##SAMPLE DESCRIPTION=K. Kirk, LC, NIDDK, NIH, Bethesda, MD 20892
##NAMES=HP
##CAS NAME=Oxazolidin-2-one, 4-phenyl-
##MOLFORM=C9H9NO2
##CAS REGISTRY NO=7480-32-2
##MP= -300
##BP= -300
##MW= 163
##$RETENTION INDEX=0
##$CONDENSED SPECTRUM=NO
##NPOINTS= 81
##XYDATA=(XY..XY) 1 
    41         96
    42        135
    43         34
    44         27
    45         10
    46          1
    47          2
    48          0
    50        228
    51        318
    52        125
    54          3
    55          3
    56          4
    57          4
    58         43
    59         17
    60          2
    61         14
    62         40
    63         94
    64         34
    65        111
    66         16
    67          1
    68          0
    69          0
    70          2
    73          8
    74         37
    75         29
    76         54
    77        284
    78        250
    79         24
    80          2
    81          0
    83          0
    84          2
    85         15
    86         43
    87          5
    88          1
    89         89
    90         51
    91        317
    92         29
    93          2
    94          0
    95          1
    98          1
    99          1
   100          1
   101          1
   102          7
   103          8
   104        999
   105        746
   106         61
   107          7
   108          0
   115          0
   116          3
   117         10
   118         26
   119         40
   120          7
   121          1
   124          1
   132         49
   133        684
   134         58
   135          4
   146          0
   149          1
   161          1
   162        149
   163        652
   164         81
   165          7
   166          0