##TITLE=Library Entry 83629
##JCAMP-DX=Revision 4.10 
##DATA TYPE=MASS SPECTRUM
##SAMPLE DESCRIPTION=D.HENNEBERG, MAX-PLANCK INSTITUTE, MULHEIM, WEST GERMAN
Y
##NAMES=HP
##CAS NAME=Cyclohexane, 1,5-diethenyl-2,3-dimethyl-, (1.alpha.,2.alpha.,3.al
pha.,5.alpha.)-
##MOLFORM=C12H20
##CAS REGISTRY NO=74806-57-8
##MP= -300
##BP= -300
##MW= 164
##$RETENTION INDEX=0
##$CONDENSED SPECTRUM=NO
##NPOINTS= 91
##XYDATA=(XY..XY) 1 
    26         19
    27         80
    28         31
    29        149
    30          4
    32          4
    36          1
    38          1
    39        137
    40         29
    41        613
    42         51
    43        172
    44          5
    47          1
    50          4
    51         12
    52         12
    53        195
    54        210
    55        475
    56        128
    57         39
    58          2
    59          2
    63          3
    64          3
    65         71
    66        258
    67        649
    68        197
    69        409
    70         82
    71         14
    72          1
    75          5
    76          2
    77        194
    78         73
    79        754
    80        219
    81        526
    82        651
    83         76
    84         12
    85          4
    86          2
    90          2
    91        168
    92         52
    93        596
    94        543
    95        579
    96        115
    97         30
    98          1
   103          5
   104          2
   105         51
   106         57
   107        999
   108        335
   109        209
   110         76
   111          9
   112          2
   115          2
   116          2
   117          5
   118          1
   119         11
   120         11
   121        374
   122        140
   123         64
   124          6
   133          3
   134          3
   135        386
   136        383
   137         41
   138          3
   147          2
   149        185
   150         23
   151          1
   162          1
   163          5
   164        117
   165         18
   166          1