##TITLE=Library Entry 81478
##JCAMP-DX=Revision 4.10 
##DATA TYPE=MASS SPECTRUM
##SAMPLE DESCRIPTION=D.HENNEBERG, MAX-PLANCK INSTITUTE, MULHEIM, WEST GERMAN
Y
##NAMES=HP
##CAS NAME=1,3,2-Dioxaborinane-4-methanol, 5-(benzoyloxy)-2-phenyl-, benzoat
e, cis-
##MOLFORM=C24H21BO6
##CAS REGISTRY NO=74810-26-7
##MP= -300
##BP= -300
##MW= 416
##$RETENTION INDEX=0
##$CONDENSED SPECTRUM=NO
##NPOINTS= 221
##XYDATA=(XY..XY) 1 
    27         36
    28         19
    29         12
    30          0
    31          5
    34          0
    35          2
    36         13
    37          0
    39         32
    40          4
    41         23
    42          6
    43         42
    44          4
    45          5
    48          0
    49          2
    50         26
    51         87
    52         39
    53         29
    54          4
    55         28
    56         12
    57         14
    58          1
    59          1
    60          0
    61          1
    62          1
    63          5
    64          1
    65          7
    66          3
    67          1
    68          1
    69          7
    70          5
    71          6
    72          2
    73          3
    74          4
    75          6
    76         21
    77        310
    78         42
    79         38
    80          2
    81          0
    82          1
    83          3
    84          2
    85          2
    86          2
    87          5
    88          5
    89         20
    90         10
    91        108
    92         10
    93          2
    94          1
    95          0
    96          0
    97          0
    98          0
    99          2
   100          1
   101          3
   102          7
   103         53
   104        167
   105        999
   106         75
   107          5
   108          0
   109          0
   110          0
   111          1
   112          5
   113          6
   114          1
   115          6
   116         10
   117         15
   118         13
   119         15
   120          2
   121          1
   122          5
   123          1
   124          0
   125          1
   126          0
   127          0
   128          1
   129          2
   130          4
   131         11
   132          2
   133          1
   134          0
   135          1
   136          0
   137          0
   138          0
   139          1
   140          0
   141          0
   142          1
   143          1
   144          1
   145         43
   146        269
   147        414
   148         44
   149         23
   150          2
   151          1
   152          2
   153          3
   154          1
   155          0
   156          0
   157          3
   158        111
   159        462
   160        232
   161         22
   162          3
   163          5
   164          1
   165          2
   166          0
   167          8
   168          1
   169          1
   170          1
   171        140
   172        574
   173         71
   174          6
   175          1
   176          0
   177          0
   178          1
   179          1
   180          2
   181          6
   182          1
   183          0
   184          1
   185          6
   186         12
   187          3
   188          1
   189          2
   190          1
   191          1
   192          0
   193          1
   194          0
   198          0
   200          0
   201          0
   202          1
   203          3
   204          0
   205          0
   206          1
   207          2
   208          1
   209          0
   214          0
   215          0
   216          2
   217          7
   218          1
   219          1
   220          0
   221          0
   222          0
   223          0
   226          0
   227          0
   233          0
   234          0
   235          1
   236          1
   237          0
   246          0
   248          0
   249          1
   250          1
   251          2
   252          1
   261          0
   262          0
   263          1
   264          2
   265          0
   278          0
   279          4
   280          4
   281         12
   282          2
   283          0
   289          0
   290          0
   291          0
   292         14
   293        115
   294        253
   295         45
   296          5
   297          0
   312          0
   322          0
   339          0
   416          0