##TITLE=Library Entry 17199
##JCAMP-DX=Revision 4.10 
##DATA TYPE=MASS SPECTRUM
##SAMPLE DESCRIPTION=D.HENNEBERG, MAX-PLANCK INSTITUTE, MULHEIM, WEST GERMAN
Y
##NAMES=HP
##CAS NAME=2-Butanol, 3-(1-methylbutoxy)-
##MOLFORM=C9H20O2
##CAS REGISTRY NO=74810-43-8
##MP= -300
##BP= -300
##MW= 160
##$RETENTION INDEX=0
##$CONDENSED SPECTRUM=NO
##NPOINTS= 63
##XYDATA=(XY..XY) 1 
    27        145
    28         15
    29        157
    30          5
    31         46
    36          0
    39         54
    40         11
    41        133
    42         51
    43        839
    44         50
    45        999
    46         22
    47          6
    50          1
    51          1
    53         14
    54          3
    55        226
    56         15
    57         34
    58          8
    59         25
    60          1
    65          1
    67          0
    68          1
    69         11
    70         45
    71        935
    72         60
    73        468
    74         20
    75         44
    76          2
    77          1
    79          0
    81          1
    82          2
    84          1
    85          1
    86          1
    87          7
    88          2
    89         22
    90          2
    91          0
    93          0
    97         72
    98          5
    99          2
   101          2
   105          1
   112          1
   114          3
   115        364
   116         30
   117         28
   118          1
   127          0
   129          0
   145          1