##TITLE=Library Entry 54687
##JCAMP-DX=Revision 4.10 
##DATA TYPE=MASS SPECTRUM
##SAMPLE DESCRIPTION=D.HENNEBERG, MAX-PLANCK INSTITUTE, MULHEIM, WEST GERMAN
Y
##NAMES=HP
##CAS NAME=2-Butanol, 3-(1,3-dimethylbutoxy)-
##MOLFORM=C10H22O2
##CAS REGISTRY NO=74810-45-0
##MP= -300
##BP= -300
##MW= 174
##$RETENTION INDEX=0
##$CONDENSED SPECTRUM=NO
##NPOINTS= 67
##XYDATA=(XY..XY) 1 
    26          5
    27         96
    28         10
    29         82
    30          2
    31         26
    36          0
    39         38
    40          7
    41        147
    42         43
    43        812
    44         38
    45        418
    46         10
    47          2
    50          0
    51          2
    52          1
    53         10
    54          2
    55        122
    56         28
    57        115
    58          8
    59         14
    60          0
    61          1
    63          0
    65          1
    66          0
    67          4
    68          1
    69         75
    70          5
    71          7
    72          7
    73        353
    74         16
    75          4
    77          0
    79          0
    81          0
    82          0
    83          4
    84         23
    85        999
    86         65
    87         11
    88          1
    89         17
    90          1
    91          1
    92          0
   101          3
   103          0
   105          1
   113          0
   115          0
   116          0
   117         30
   118          2
   120          0
   128          1
   129        128
   130         12
   131          0