##TITLE=Library Entry 78128
##JCAMP-DX=Revision 4.10 
##DATA TYPE=MASS SPECTRUM
##SAMPLE DESCRIPTION=D.HENNEBERG, MAX-PLANCK INSTITUTE, MULHEIM, WEST GERMAN
Y
##NAMES=HP
##CAS NAME=Benzene, (2-ethenyl-1,4,4-trimethylpentyl)-
##MOLFORM=C16H24
##CAS REGISTRY NO=74810-76-7
##MP= -300
##BP= -300
##MW= 216
##$RETENTION INDEX=0
##$CONDENSED SPECTRUM=NO
##NPOINTS= 81
##XYDATA=(XY..XY) 1 
    26         12
    27         48
    28          8
    29         64
    30          2
    32          0
    38          2
    39         43
    40          6
    41        111
    42          7
    43         27
    44          1
    49          1
    50          6
    51         22
    52          7
    53         18
    54         13
    55         31
    56          8
    57        173
    58          7
    59          1
    63          5
    64          1
    65         14
    66          3
    67          7
    68          1
    69         16
    70          1
    71          2
    75          1
    76          3
    77         55
    78         19
    79         51
    80          5
    81         17
    82          1
    83          3
    87          0
    89          4
    90          0
    91         35
    92          3
    93          1
    95          6
    96          2
    97          2
   101          0
   102          4
   103         33
   104         57
   105        999
   106         96
   107          5
   109          1
   110         35
   111          3
   115         11
   116          4
   117         10
   118          6
   119          2
   127          3
   128         10
   129         10
   130          5
   131          3
   139          0
   141          1
   142          1
   143          3
   145         25
   146          3
   160          7
   201          1
   216          6
   217          0