##TITLE=Library Entry 41745
##JCAMP-DX=Revision 4.10 
##DATA TYPE=MASS SPECTRUM
##SAMPLE DESCRIPTION=D.HENNEBERG, MAX-PLANCK INSTITUTE, MULHEIM, WEST GERMAN
Y
##NAMES=HP
##CAS NAME=2-Butanol, 3-(1-methyl-2-phenylethoxy)-
##MOLFORM=C13H20O2
##CAS REGISTRY NO=74810-46-1
##MP= -300
##BP= -300
##MW= 208
##$RETENTION INDEX=0
##$CONDENSED SPECTRUM=NO
##NPOINTS= 96
##XYDATA=(XY..XY) 1 
    27         52
    28         14
    29         54
    30          2
    31         63
    32          0
    37          0
    38          2
    39         52
    40          5
    41        111
    42          6
    43        144
    44         56
    45        220
    46          4
    47          0
    50          6
    51         29
    52          7
    53          8
    54          1
    55        204
    56         14
    57         70
    58          7
    59         15
    60          0
    61          1
    62          2
    63         12
    64          3
    65         53
    66          3
    67          1
    69          3
    70          2
    71          9
    72         29
    73        999
    74         52
    75          5
    76          2
    77         36
    78         34
    79         16
    80          0
    83          3
    84          0
    85          0
    86          0
    87          1
    88          0
    89         18
    90          8
    91        696
    92        124
    93          8
    94          0
    97          0
    99         21
   100          1
   101          2
   102          4
   103         17
   104         11
   105         15
   106          1
   107          2
   108          0
   113          0
   114          0
   115         87
   116         10
   117        420
   118         43
   119        453
   120         48
   121          5
   122          0
   129          1
   131          3
   132          0
   133          1
   134          1
   135          6
   136          0
   143          4
   144          0
   146          0
   147          0
   161          0
   162          0
   163         34
   164          4
   191          0