##TITLE=Library Entry 458
##JCAMP-DX=Revision 4.10 
##DATA TYPE=MASS SPECTRUM
##SAMPLE DESCRIPTION=D.HENNEBERG, MAX-PLANCK INSTITUTE, MULHEIM, WEST GERMAN
Y
##NAMES=HP
##CAS NAME=2-Octene, 1-bromo-1,1,2-trifluoro-
##MOLFORM=C8H12BrF3
##CAS REGISTRY NO=74810-71-2
##MP= -300
##BP= -300
##MW= 244
##$RETENTION INDEX=0
##$CONDENSED SPECTRUM=NO
##NPOINTS= 151
##XYDATA=(XY..XY) 1 
    25          2
    26         70
    27        641
    28        125
    29        999
    30         26
    31         54
    32          8
    33         14
    34          0
    36          0
    37         18
    38         57
    39        615
    40         54
    41        945
    42        356
    43        265
    44         11
    45         21
    46         16
    47         44
    48          1
    49          4
    50         46
    51        131
    52         22
    53         64
    54         17
    55        408
    56         89
    57        473
    58         43
    59        100
    60          4
    61         91
    62          9
    63         22
    64         62
    65         43
    66          7
    67         30
    68         13
    69        152
    70        301
    71         42
    72         36
    73         82
    74          9
    75         75
    76          8
    77         73
    78          4
    79         84
    80          7
    81         68
    82         20
    83         30
    84         15
    85        122
    86         13
    87         21
    88         51
    89         56
    90         14
    91         34
    92          3
    93          8
    94          5
    95        250
    96         13
    97         89
    98          6
    99         62
   100          7
   101         77
   102         15
   103         84
   104          6
   105         73
   106         12
   107         15
   108        466
   109         56
   110          4
   111          4
   112          1
   113          6
   114          6
   115         42
   116          4
   117         43
   118          4
   119         11
   120          2
   121         46
   122         19
   123         44
   124          3
   125        290
   126         25
   127          4
   128          1
   130          0
   131         11
   132          1
   133          4
   134          3
   135         15
   136          3
   137         17
   138          0
   139         11
   140          0
   141          0
   142          0
   143          2
   144          2
   145        196
   146         16
   147          0
   149          3
   150          0
   151          1
   153          0
   155          8
   157          6
   162          0
   163          2
   164          2
   165         24
   166          1
   167          0
   168          6
   169          1
   170          7
   171          0
   175          0
   181          0
   183          0
   187          5
   189          7
   201          1
   202          1
   203          1
   204          1
   216          0
   218          1
   244          8
   245          0
   246          8