##TITLE=Library Entry 18987
##JCAMP-DX=Revision 4.10 
##DATA TYPE=MASS SPECTRUM
##SAMPLE DESCRIPTION=D.HENNEBERG, MAX-PLANCK INSTITUTE, MULHEIM, WEST GERMAN
Y
##NAMES=HP
##CAS NAME=Zinc, [(1,2,3-.eta.)-2-butenyl][(1,2,3-.eta.)-2-methyl-2-propenyl
]-
##MOLFORM=C8H14Zn
##CAS REGISTRY NO=74811-13-5
##MP= -300
##BP= -300
##MW= 174
##$RETENTION INDEX=0
##$CONDENSED SPECTRUM=NO
##NPOINTS= 72
##XYDATA=(XY..XY) 1 
    26         17
    27        184
    28         85
    29        250
    30          6
    31          2
    32          0
    37          3
    38         10
    39        217
    40         66
    41        271
    42         11
    43          4
    44          1
    45          0
    49          0
    50         11
    51         24
    52         15
    53         98
    54        108
    55        999
    56        207
    57         14
    58          0
    64         24
    65          2
    66         13
    67         11
    68         51
    69          9
    70          1
    71          3
    72          1
    77          1
    78          0
    79          2
    80          1
    81         52
    82         12
    83          3
    91          2
    93          2
    94          0
    95        101
    96          7
    97          0
    98          1
   105          1
   109          3
   110         13
   111          2
   114          0
   118          3
   119         19
   120          7
   121         10
   122          5
   123          7
   124          2
   127          0
   133          0
   137          0
   159          0
   167          0
   174         80
   175          8
   176         46
   177         11
   178         29
   179          3