##TITLE=Library Entry 48515
##JCAMP-DX=Revision 4.10 
##DATA TYPE=MASS SPECTRUM
##SAMPLE DESCRIPTION=D.HENNEBERG, MAX-PLANCK INSTITUTE, MULHEIM, WEST GERMAN
Y
##NAMES=HP
##CAS NAME=Rhodium, bis[5,6-bis(.eta.2-ethenyl)cyclooctene]di-.mu.-chlorodi-
, stereoisomer
##MOLFORM=C24H36Cl2Rh2
##CAS REGISTRY NO=74811-03-3
##MP= -300
##BP= -300
##MW= 600
##$RETENTION INDEX=0
##$CONDENSED SPECTRUM=NO
##NPOINTS= 214
##XYDATA=(XY..XY) 1 
    26         45
    27        340
    28         61
    29        160
    30          6
    31         34
    35         29
    36        204
    37         12
    38         68
    39        446
    40         71
    41        582
    42         35
    43         34
    44          2
    45          9
    47          2
    49         10
    50         28
    51        103
    52         71
    53        210
    54        231
    55        167
    56         14
    57          4
    58          5
    59          9
    62          5
    63         35
    64         14
    65        152
    66        128
    67        513
    68         57
    69         23
    70          3
    71          3
    74          6
    75         10
    76          7
    77        354
    78        157
    79        999
    80        510
    81        195
    82         24
    83         12
    84          4
    86          3
    87          1
    88          1
    89         11
    90          5
    91        518
    92        201
    93        537
    94        264
    95        188
    96         35
    97          3
   101          1
   102          5
   103         28
   104         27
   105        282
   106        137
   107        149
   108        147
   109         18
   110          3
   115         27
   116         10
   117         42
   118         14
   119        250
   120        151
   121        132
   122         15
   123          2
   127          4
   128          8
   129          7
   130          4
   131         18
   132         10
   133        265
   134        142
   135         27
   136          4
   138          2
   141          1
   143          2
   145          7
   147        150
   148         21
   149          5
   160         12
   161         12
   162        135
   163         19
   164          6
   168          4
   169          2
   181          6
   182          3
   194          4
   195          3
   196          2
   197          1
   205          3
   206          2
   207          3
   208          3
   209          3
   210          2
   218          4
   219          2
   220          1
   221          1
   222          1
   231          3
   232          3
   233          3
   245          1
   255          2
   257          5
   258          3
   259          9
   260          5
   261         10
   262          8
   263         12
   264         10
   265         12
   266          7
   282          3
   284          3
   295          1
   307          1
   308          5
   309          1
   319          1
   320          2
   331          1
   332          6
   333          4
   334          7
   335          2
   336          2
   356          7
   357          5
   358         15
   359          6
   360         17
   361          4
   362         15
   363          3
   364          8
   365          1
   366          4
   370          2
   394          2
   395          1
   396          6
   397          2
   398         17
   399          5
   400         27
   401          6
   402         25
   403          4
   404          7
   438         11
   440          6
   442          1
   487          1
   488          1
   489          2
   491          2
   492          3
   493          3
   495          2
   496          2
   498          2
   512          2
   514          1
   516          3
   518          5
   519          3
   520          8
   521          3
   524         17
   525          6
   526         13
   527          4
   528          4
   530          1
   558          1
   560          8
   561          3
   562         13
   563          4
   564         14
   565          3
   566          4
   572          3
   574          1
   600         35
   601         11
   602         22
   603          6
   604          4