##TITLE=Library Entry 41527
##JCAMP-DX=Revision 4.10 
##DATA TYPE=MASS SPECTRUM
##SAMPLE DESCRIPTION=D.HENNEBERG, MAX-PLANCK INSTITUTE, MULHEIM, WEST GERMAN
Y
##NAMES=HP
##CAS NAME=Silane, trimethyl[[1-(1-methyl-1-butenyl)cyclohexyl]oxy]-, (Z)-
##MOLFORM=C14H28OSi
##CAS REGISTRY NO=74810-67-6
##MP= -300
##BP= -300
##MW= 240
##$RETENTION INDEX=0
##$CONDENSED SPECTRUM=NO
##NPOINTS= 170
##XYDATA=(XY..XY) 1 
    27         50
    28         76
    29         65
    30          2
    31         19
    32          8
    37          2
    38          4
    39         62
    40          9
    41        197
    42         14
    43         40
    44         40
    45        102
    46          7
    47         43
    48          1
    49          3
    50         18
    51         26
    52         26
    53         47
    54          8
    55        110
    56         10
    57         11
    58         10
    59         35
    60          8
    61         38
    62          4
    63          7
    64          2
    65         16
    66          8
    67         72
    68          9
    69         61
    70          6
    71          5
    72          9
    73        999
    74         88
    75        494
    76         38
    77         82
    78        116
    79         96
    80         12
    81         63
    82         18
    83         14
    84          3
    85          8
    86          1
    87          3
    89          6
    91         51
    92          9
    93         90
    94         16
    95         37
    96          6
    97         10
    98          8
    99          8
   100          1
   101          5
   102          1
   103         12
   104          4
   105         22
   106          3
   107         79
   108         24
   109         19
   110          3
   111          4
   112          2
   113          9
   114          1
   115          5
   116          3
   117         10
   118          2
   119          9
   120          2
   121         64
   122         10
   123          5
   124          1
   125          7
   126          2
   127         11
   128          3
   129         11
   130          8
   131          5
   133          3
   135         40
   136          5
   137          4
   138          4
   139         10
   140          3
   141         10
   142          6
   143         11
   144         18
   145          2
   146          1
   147          1
   149         59
   150         58
   151         14
   152          1
   153          7
   154          3
   155         35
   156         10
   157          9
   158          3
   159          1
   161          2
   162          3
   163          3
   165          6
   166          3
   167          8
   168          6
   169        141
   170         28
   171        215
   172         32
   173          9
   174          1
   177          1
   178          2
   179          3
   180          1
   181          7
   182          4
   183         45
   184         44
   185         20
   186         11
   187          4
   189          1
   194          2
   195          4
   196          3
   197        405
   198         73
   199         21
   200          2
   209          1
   210          2
   211        352
   212         63
   213         17
   214          2
   225         37
   226          7
   227          2
   239          4
   240        429
   241         89
   242         22
   243          4