##TITLE=Library Entry 43463
##JCAMP-DX=Revision 4.10 
##DATA TYPE=MASS SPECTRUM
##SAMPLE DESCRIPTION=D.HENNEBERG, MAX-PLANCK INSTITUTE, MULHEIM, WEST GERMAN
Y
##NAMES=HP
##CAS NAME=Silane, trimethyl[[1-[(trimethylsilyl)ethynyl]cyclohexyl]oxy]-
##MOLFORM=C14H28OSi2
##CAS REGISTRY NO=74810-49-4
##MP= -300
##BP= -300
##MW= 268
##$RETENTION INDEX=0
##$CONDENSED SPECTRUM=NO
##NPOINTS= 191
##XYDATA=(XY..XY) 1 
    25          0
    26          3
    29         30
    30          1
    31         14
    38          1
    39         29
    40          1
    41         57
    42         10
    43        129
    44         29
    45        235
    46         16
    47         77
    48          3
    49          2
    50          1
    51          7
    52          5
    53         36
    54          6
    55        130
    56         12
    57         17
    58         22
    59        122
    60         16
    61         36
    62          2
    63          6
    64          2
    65          8
    66         21
    67         51
    68          9
    69         61
    70         19
    71         17
    72         13
    73        999
    74         91
    75        377
    76         28
    77         30
    78         17
    79         33
    80          6
    81         52
    82         14
    83        128
    84         14
    85         19
    86          1
    87          4
    88          0
    89          4
    90          2
    91         53
    92          8
    93         20
    94          2
    95         24
    96         30
    97        107
    98         17
    99         17
   100          1
   101          3
   102          1
   103         13
   104          3
   105         27
   106         12
   107         34
   108         12
   109         39
   110          8
   111         10
   112          2
   113          5
   114          0
   115          6
   116          1
   117         24
   118          4
   119         67
   120         14
   121         20
   122          4
   123         13
   124          1
   125         17
   126          3
   127          6
   128          1
   129          7
   130          1
   131         31
   132          5
   133        153
   134         23
   135         52
   136          7
   137         20
   138          4
   139          9
   140          6
   141         21
   142          5
   143         14
   144          2
   145          8
   146          3
   147        473
   148         74
   149         47
   150          5
   151         27
   152          6
   153         11
   154          3
   155        224
   156         44
   157         45
   158          6
   159          9
   160          1
   161          3
   162          2
   163        147
   164         27
   165         33
   166          7
   167         12
   168          2
   169          8
   170          5
   171         21
   172          4
   173          5
   174          0
   177          2
   178          3
   179         36
   180         13
   181         11
   182          2
   183          7
   184          1
   185          2
   187          1
   189          0
   193          8
   194         64
   195        272
   196         52
   197         40
   198          6
   199          3
   207          1
   209          5
   210          0
   211          8
   212          2
   213          2
   214          1
   221          0
   223          2
   225        686
   226        169
   227         65
   228          9
   229          2
   237          3
   238          0
   239        141
   240         36
   241         14
   242          2
   251          2
   252          0
   253        136
   254         33
   255         12
   256          1
   267          1
   268        127
   269         36
   270         12
   271          1