##TITLE=Library Entry 6369
##JCAMP-DX=Revision 4.10 
##DATA TYPE=MASS SPECTRUM
##SAMPLE DESCRIPTION=D.HENNEBERG, MAX-PLANCK INSTITUTE, MULHEIM, WEST GERMAN
Y
##NAMES=HP
##CAS NAME=Tricyclo[5.1.0.0(2,4)]octane-5-carboxylic acid, 3,3,8,8-tetrameth
yl-, methyl ester
##MOLFORM=C14H22O2
##CAS REGISTRY NO=74810-39-2
##MP= -300
##BP= -300
##MW= 222
##$RETENTION INDEX=0
##$CONDENSED SPECTRUM=NO
##NPOINTS= 154
##XYDATA=(XY..XY) 1 
    25          1
    26          7
    27        180
    28         20
    29        101
    30          3
    31         11
    33         11
    36          0
    37          3
    38          9
    39        217
    40         35
    41        455
    42         33
    43        999
    44         27
    45         28
    46          1
    47          0
    49          0
    50         14
    51         59
    52         26
    53        109
    54         15
    55        129
    56          9
    57         11
    58          4
    59        120
    60          5
    61          5
    62          3
    63         19
    64          9
    65         70
    66         22
    67         98
    68         12
    69         57
    70          3
    71          6
    72          2
    73         24
    74          6
    75          6
    76          5
    77        181
    78         49
    79        357
    80         35
    81         41
    82          8
    83          8
    84          6
    85          4
    86          1
    87         15
    88          2
    89          8
    90          3
    91        295
    92         34
    93        179
    94         20
    95         34
    96         10
    97          5
    98          1
    99          3
   100          1
   101          3
   102         10
   103         36
   104         13
   105        203
   106         32
   107         90
   108         11
   109         11
   110          2
   111          3
   112          1
   113          5
   114          1
   115         22
   116         10
   117         33
   118         18
   119        407
   120         49
   121        230
   122         25
   123          5
   124          1
   125          9
   126          1
   127          3
   128         26
   129          8
   130          3
   131         18
   132          9
   133         37
   134          7
   135          6
   136         10
   137        121
   138         11
   139          6
   140          3
   141          3
   142          0
   143          1
   144          3
   145          9
   146         12
   147        131
   148         16
   149          4
   150          1
   151          5
   152          1
   153         11
   154          3
   155          0
   157          1
   158          0
   159          2
   160          2
   161          9
   162         27
   163         75
   164          8
   165         14
   166          5
   172          0
   173          0
   174          0
   175          3
   176          0
   177          1
   178          4
   179         87
   180         12
   181          1
   190          0
   191          0
   207          2
   208          0
   220          0
   222          5
   223          1