##TITLE=Library Entry 60548
##JCAMP-DX=Revision 4.10 
##DATA TYPE=MASS SPECTRUM
##SAMPLE DESCRIPTION=J. SHAW, NATIONAL INST. OF HEALTH, BETHESDA, MD, USA
##NAMES=HP
##CAS NAME=Benzene, 2-methoxy-1-(2-nitroethenyl)-3-(phenylmethoxy)-
##MOLFORM=C16H15NO4
##CAS REGISTRY NO=74810-83-6
##MP= -300
##BP= -300
##MW= 285
##$RETENTION INDEX=0
##$CONDENSED SPECTRUM=NO
##NPOINTS= 8
##XYDATA=(XY..XY) 1 
    65         30
    91        999
    92         90
   162         10
   164         10
   242         10
   253         10
   285         30