##TITLE=Library Entry 2899
##JCAMP-DX=Revision 4.10 
##DATA TYPE=MASS SPECTRUM
##SAMPLE DESCRIPTION=D.HENNEBERG, MAX-PLANCK INSTITUTE, MULHEIM, WEST GERMAN
Y
##NAMES=HP
##CAS NAME=Cyclohexane, (2-ethyl-1-methyl-1-butenyl)-
##MOLFORM=C13H24
##CAS REGISTRY NO=74810-42-7
##MP= -300
##BP= -300
##MW= 180
##$RETENTION INDEX=0
##$CONDENSED SPECTRUM=NO
##NPOINTS= 93
##XYDATA=(XY..XY) 1 
    25          3
    26         19
    27        338
    28         32
    29        447
    30          9
    32         19
    34          2
    37          4
    38         12
    39        364
    40         49
    41        999
    42         81
    43        215
    44          2
    49          2
    50         14
    51         56
    52         30
    53        245
    54         62
    55        944
    56        127
    57         90
    58          4
    60          5
    62          5
    63         18
    64          5
    65         89
    66         31
    67        551
    68         92
    69        642
    70         79
    71         20
    74          2
    75          7
    76          2
    77        157
    78         30
    79        166
    80         28
    81        665
    82         95
    83        342
    84         27
    85          8
    89          5
    90          2
    91        114
    92         20
    93        103
    94         15
    95        888
    96        101
    97        120
    98        125
    99          8
   102          1
   103          8
   104          5
   105         34
   106          6
   107         52
   108         20
   109        535
   110         98
   111          9
   115          6
   119          5
   120          2
   121         10
   122          2
   123         92
   124         39
   125          3
   135          4
   136          0
   137         32
   138          7
   147          1
   149          5
   150          4
   151        690
   152         82
   153          3
   165         29
   166          2
   178          2
   180        219
   181         24