##TITLE=Library Entry 19291
##JCAMP-DX=Revision 4.10 
##DATA TYPE=MASS SPECTRUM
##SAMPLE DESCRIPTION=J. SHAW, NATIONAL INST. OF HEALTH, BETHESDA, MD, USA
##NAMES=HP
##CAS NAME=2-Dodecen-1-ol, 12-chloro-
##MOLFORM=C12H23ClO
##CAS REGISTRY NO=74810-78-9
##MP= -300
##BP= -300
##MW= 218
##$RETENTION INDEX=0
##$CONDENSED SPECTRUM=NO
##NPOINTS= 33
##XYDATA=(XY..XY) 1 
    27        220
    28        140
    29        290
    31        160
    39        150
    41        750
    42        250
    43        410
    53         60
    54        100
    55        999
    56        320
    57        160
    67        130
    68        260
    69        590
    70        180
    81        100
    82        160
    83        300
    84         80
    91        460
    92         30
    93        150
    95         50
    96         50
    97        110
   105        320
   106         70
   107        110
   119         70
   133         30
   147         70