##TITLE=Library Entry 83803
##JCAMP-DX=Revision 4.10 
##DATA TYPE=MASS SPECTRUM
##SAMPLE DESCRIPTION=D.HENNEBERG, MAX-PLANCK INSTITUTE, MULHEIM, WEST GERMAN
Y
##NAMES=HP
##CAS NAME=3-Cyclopentene-1-propanoic acid, 5-(methoxycarbonyl)-2,2-dimethyl
-, methyl ester
##MOLFORM=C13H20O4
##CAS REGISTRY NO=74810-51-8
##MP= -300
##BP= -300
##MW= 240
##$RETENTION INDEX=0
##$CONDENSED SPECTRUM=NO
##NPOINTS= 173
##XYDATA=(XY..XY) 1 
    25          2
    26         34
    27        346
    28        110
    29        263
    30         22
    31         64
    32          8
    33         26
    35          0
    36          0
    37         11
    38         44
    39        597
    40         98
    41        732
    42        153
    43        313
    44         14
    45        110
    46          5
    47          3
    48          1
    49          2
    50         42
    51        161
    52         88
    53        363
    54         59
    55        487
    56         40
    57         46
    58         10
    59        563
    60         29
    61         24
    62         13
    63         52
    64         18
    65        236
    66        104
    67        267
    68         66
    69        145
    70         16
    71         38
    72          4
    73         36
    74        127
    75         25
    76         15
    77        642
    78        153
    79        814
    80        114
    81        233
    82         62
    83        190
    84         15
    85         49
    86          6
    87         43
    88         31
    89         18
    90         12
    91        732
    92        160
    93        972
    94        178
    95        150
    96         28
    97         46
    98        774
    99        102
   100         27
   101         18
   102          6
   103         42
   104         19
   105        456
   106        480
   107        999
   108        104
   109        103
   110         22
   111        237
   112         26
   113         12
   114          3
   115         15
   116          9
   117         25
   118          9
   119        132
   120        189
   121        471
   122        134
   123         78
   124         31
   125        182
   126         20
   127         10
   128          4
   129          8
   130         20
   131         57
   132         17
   133        263
   134        190
   135        349
   136         37
   137        139
   138         29
   139         20
   140          4
   141          8
   142          3
   143          2
   144          2
   145          3
   146          5
   147         65
   148        502
   149        232
   150         29
   151         81
   152         18
   153         90
   154         13
   155          4
   156          1
   157          1
   158          7
   159         19
   160          4
   161        249
   162         32
   163          6
   164          4
   165         70
   166         39
   167         19
   168          2
   169          0
   170          1
   171          1
   174          1
   175         16
   176        622
   177        439
   178         49
   179          8
   180        142
   181         29
   182          3
   184          3
   190          3
   191          6
   192          1
   193         34
   194          3
   195          1
   197        336
   198         37
   199          5
   200          0
   207          3
   208        478
   209         80
   210          8
   225          7
   240          4
   241          1