##TITLE=Library Entry 72343
##JCAMP-DX=Revision 4.10 
##DATA TYPE=MASS SPECTRUM
##SAMPLE DESCRIPTION=D.HENNEBERG, MAX-PLANCK INSTITUTE, MULHEIM, WEST GERMAN
Y
##NAMES=HP
##CAS NAME=1,3,2-Dioxaborolane, 4,4'-(1,3-propanediyl)bis[2-ethyl-
##MOLFORM=C11H22B2O4
##CAS REGISTRY NO=74810-64-3
##MP= -300
##BP= -300
##MW= 240
##$RETENTION INDEX=0
##$CONDENSED SPECTRUM=NO
##NPOINTS= 131
##XYDATA=(XY..XY) 1 
    27        170
    28         80
    29        162
    30          7
    31        109
    32          1
    33          0
    36          0
    37          3
    38          7
    39        153
    40         58
    41        343
    42        214
    43        376
    44         58
    45         53
    46          4
    47          1
    48          0
    49          0
    50          3
    51          8
    52          9
    53         58
    54        153
    55        182
    56        104
    57        291
    58         92
    59         67
    60          2
    61          2
    62          1
    63          2
    64          0
    65         12
    66         34
    67        169
    68        116
    69        183
    70        211
    71        169
    72         18
    73          8
    74          2
    75          4
    76          0
    77         13
    78         10
    79         67
    80         60
    81         99
    82         41
    83         78
    84         65
    85         60
    86         21
    87         48
    88          2
    89          2
    91          8
    92         16
    93         35
    94         13
    95         33
    96         32
    97        186
    98        391
    99        999
   100         62
   101         16
   102          0
   103          1
   107          1
   108          3
   109         19
   110         75
   111        150
   112        119
   113         73
   114         12
   115          9
   116          3
   117          1
   120          0
   121          0
   122          2
   123         40
   124        210
   125        226
   126        102
   127         37
   128          9
   129          4
   130          0
   133          0
   135          0
   136         19
   137         89
   138         85
   139         23
   140         11
   141         15
   142          2
   143          1
   150          7
   151         48
   152         86
   153         40
   154         10
   155         20
   156          2
   157          0
   164          1
   165         19
   166         70
   167         16
   168          8
   169          1
   170          0
   171          0
   180          0
   181          2
   182          5
   183          2
   184          3
   196          1
   197          1
   210          0
   211          1