##TITLE=Library Entry 8433
##JCAMP-DX=Revision 4.10 
##DATA TYPE=MASS SPECTRUM
##SAMPLE DESCRIPTION=D.HENNEBERG, MAX-PLANCK INSTITUTE, MULHEIM, WEST GERMAN
Y
##NAMES=HP
##CAS NAME=6-Octen-2-one, (Z)-
##MOLFORM=C8H14O
##CAS REGISTRY NO=74810-53-0
##MP= -300
##BP= -300
##MW= 126
##$RETENTION INDEX=1316
##$CONDENSED SPECTRUM=NO
##NPOINTS= 73
##XYDATA=(XY..XY) 1 
    25          1
    26         33
    27        246
    28         31
    29        151
    30          3
    31          5
    32          2
    36          0
    37          8
    38         24
    39        276
    40         56
    41        248
    42         75
    43        999
    44         19
    45         10
    48          0
    49          2
    50         24
    51         41
    52         20
    53        126
    54         43
    55        268
    56         19
    57         17
    58        253
    59         43
    60          1
    61          1
    62          4
    63          7
    64          1
    65         18
    66         29
    67        340
    68        868
    69        116
    70          5
    71         88
    72          7
    74          2
    75          1
    77         24
    78          2
    79         13
    80          2
    81         10
    82          7
    83         50
    84         19
    85          7
    86          0
    89          0
    91          4
    93         16
    94          1
    95          2
    96          0
    97         47
    98          6
    99          0
   105          0
   107          0
   108         73
   109          7
   111         33
   112          2
   118          0
   126         87
   127          8