##TITLE=Library Entry 68760
##JCAMP-DX=Revision 4.10 
##DATA TYPE=MASS SPECTRUM
##SAMPLE DESCRIPTION=D.HENNEBERG, MAX-PLANCK INSTITUTE, MULHEIM, WEST GERMAN
Y
##NAMES=HP
##CAS NAME=Cyclohexane, (2-ethyl-1-methylbutylidene)-
##MOLFORM=C13H24
##CAS REGISTRY NO=74810-41-6
##MP= -300
##BP= -300
##MW= 180
##$RETENTION INDEX=0
##$CONDENSED SPECTRUM=NO
##NPOINTS= 107
##XYDATA=(XY..XY) 1 
    25          1
    26         20
    27        308
    28         16
    29        468
    30          9
    31          0
    36          0
    37          2
    38          7
    39        271
    40         41
    41        687
    42         48
    43        177
    44          2
    46          0
    49          0
    50         14
    51         59
    52         34
    53        193
    54         36
    55        686
    56         35
    57         41
    58          3
    59          1
    60          6
    61          1
    62          3
    63         21
    64          7
    65         96
    66         34
    67        591
    68         53
    69        562
    70         34
    71         17
    72          1
    74          2
    75          4
    76          3
    77        174
    78         41
    79        241
    80         40
    81        613
    82         53
    83        301
    84         21
    85          5
    87          0
    89          6
    90          1
    91        145
    92         21
    93        131
    94         30
    95        999
    96         81
    97         28
    98         16
    99          1
   102          1
   103         10
   104          5
   105         35
   106          8
   107         77
   108         26
   109        726
   110         93
   111          6
   115          6
   116          1
   117          5
   118          0
   119          5
   120          1
   121         29
   122         10
   123         19
   124          4
   125          0
   127          2
   128          2
   129          0
   131          0
   133          1
   135         13
   136          4
   137          5
   138          2
   146          0
   147          1
   149          8
   150          9
   151        764
   152         90
   153          4
   165          3
   178          0
   180        199
   181         25
   182          1