##TITLE=Library Entry 65974
##JCAMP-DX=Revision 4.10 
##DATA TYPE=MASS SPECTRUM
##SAMPLE DESCRIPTION=D.HENNEBERG, MAX-PLANCK INSTITUTE, MULHEIM, WEST GERMAN
Y
##NAMES=HP
##CAS NAME=Cyclopentanecarboxamide, 3-ethenyl-2-methyl-N-phenyl-
##MOLFORM=C15H19NO
##CAS REGISTRY NO=74810-27-8
##MP= -300
##BP= -300
##MW= 229
##$RETENTION INDEX=0
##$CONDENSED SPECTRUM=NO
##NPOINTS= 107
##XYDATA=(XY..XY) 1 
    27         47
    28          9
    29         45
    30          1
    31          1
    37          0
    38          4
    39         69
    40         12
    41         98
    42          6
    43         24
    44          1
    45          1
    50          4
    51         25
    52          7
    53         34
    54         24
    55        167
    56          8
    57          2
    62          1
    63          6
    64          7
    65         45
    66         24
    67        201
    68         20
    69         26
    70          2
    71          1
    75          1
    76          2
    77         86
    78         10
    79         24
    80          5
    81         40
    82          8
    83          3
    89          0
    90          1
    91         22
    92         34
    93        999
    94         88
    95         42
    96          4
   103          1
   104          3
   105          3
   106          5
   107          8
   108          6
   109         79
   110          8
   111          1
   113          1
   115          1
   116          0
   117          5
   118          3
   119         15
   120         29
   121          8
   122          0
   128          0
   130          3
   131          1
   132          6
   133          1
   134          1
   135          6
   136          8
   137          6
   138          2
   143          0
   144          2
   146          2
   147          1
   148         16
   149          6
   150          0
   156          0
   158          1
   160          3
   161         68
   162         10
   163          1
   167          1
   172          1
   173          0
   174          7
   175          2
   185          0
   186          2
   188          0
   200          2
   201          1
   211          0
   214          2
   227          1
   228          3
   229        124
   230         21
   231          2