##TITLE=Library Entry 76044
##JCAMP-DX=Revision 4.10 
##DATA TYPE=MASS SPECTRUM
##SAMPLE DESCRIPTION=Chemical Concepts
##NAMES=HP
##CAS NAME=Undecanoic acid, 2-ethyl-, methyl ester
##MOLFORM=C14H28O2
##CAS REGISTRY NO=74810-60-9
##MP= -300
##BP= -300
##MW= 228
##$RETENTION INDEX=0
##$CONDENSED SPECTRUM=NO
##NPOINTS= 129
##XYDATA=(XY..XY) 1 
    25          1
    26          5
    27        116
    28          7
    29        209
    30          4
    31         12
    32          1
    33          3
    35          0
    36          0
    37          1
    38          2
    39         67
    40         13
    41        353
    42         80
    43        321
    44          5
    45         23
    46          0
    47          0
    50          0
    51          4
    52          2
    53         25
    54         21
    55        276
    56         77
    57        185
    58          8
    59        105
    60          2
    61          4
    63          0
    65          3
    66          2
    67         27
    68         14
    69        135
    70         49
    71         77
    72         15
    73         24
    74         38
    75          2
    76          0
    77          4
    78          0
    79          6
    80          1
    81         14
    82          8
    83         64
    84         18
    85         40
    86          4
    87        517
    88         27
    89          2
    91          1
    93          1
    94          0
    95          8
    96          3
    97         30
    98         20
    99         12
   100          3
   101         73
   102        999
   103         49
   104          4
   105          0
   107          1
   108          0
   109          3
   110          1
   111         10
   112         13
   113          9
   114          1
   115        271
   116         18
   117          1
   121          0
   122          0
   123          1
   124          1
   125          4
   126          4
   127          3
   128          0
   129         24
   130          2
   135          0
   137          0
   139          1
   140          1
   141          0
   142          0
   143         19
   144          3
   145          0
   153          0
   154          0
   155          0
   157         71
   158          6
   159          0
   167          1
   168          2
   169         10
   170          1
   171         52
   172          6
   180          0
   181          0
   185          2
   195          0
   196          0
   197         14
   198          1
   199         20
   200         35
   201          4
   213          4
   228         21
   229          3