##TITLE=Library Entry 43581
##JCAMP-DX=Revision 4.10 
##DATA TYPE=MASS SPECTRUM
##SAMPLE DESCRIPTION=Tox21 Consortium/NIST Mass Spectrometry Data Center, 20
12
##NAMES=HP
##CAS NAME=3H-Pyrazol-3-one, 4-butyl-1,2-dihydro-1,2-diphenyl-5-[(trimethyls
ilyl)oxy]-
##MOLFORM=C22H28N2O2Si
##CAS REGISTRY NO=74810-87-0
##MP= -300
##BP= -300
##MW= 380
##$RETENTION INDEX=0
##$CONDENSED SPECTRUM=NO
##NPOINTS= 281
##XYDATA=(XY..XY) 1 
    26          2
    27         22
    28          7
    29         40
    30          2
    31          3
    32          1
    37          1
    38          4
    39         23
    40          7
    41         86
    42          7
    43         31
    44         22
    45        172
    46         13
    47         15
    49          1
    50          8
    51         68
    52         11
    53         16
    54          8
    55         38
    56          4
    57        114
    58         19
    59         37
    60          5
    62          1
    63         14
    64         25
    65         24
    66          7
    67         11
    68          6
    69         14
    70          6
    71          5
    72         18
    73        999
    74         89
    75         97
    76         19
    77        443
    78         38
    79          6
    80          3
    81          5
    82          1
    83         15
    84          9
    85         10
    86          4
    87          1
    88          2
    89          8
    90          6
    91         50
    92         16
    93         31
    94          7
    95          8
    96          2
    97          6
    98          3
    99          7
   100          8
   101          4
   102          8
   103         26
   104         67
   105         80
   106         13
   107          5
   108          2
   109          2
   110          2
   111          2
   112          2
   113          3
   114          2
   115         13
   116         16
   117         32
   118         17
   119         30
   120         11
   121          9
   122          3
   123          3
   124          1
   125        125
   126         12
   127         10
   128         65
   129         80
   130         50
   131          7
   132          9
   133          5
   134          7
   135         22
   136          4
   137          3
   139          4
   140          5
   141          8
   142         21
   143         25
   144         49
   145         14
   146         12
   147          5
   148         13
   149         10
   150         18
   151         10
   152         21
   153         10
   154          9
   155          9
   156         11
   157          4
   158          8
   159          4
   160         38
   161          9
   162          5
   163          2
   164          3
   165         16
   166          8
   167         19
   168         35
   169         25
   170         18
   171          6
   172         11
   173          2
   174          5
   175          2
   176          6
   177          2
   178          6
   179          3
   180          6
   181          6
   182          8
   183         52
   184         19
   185          3
   186         17
   187          4
   188          6
   189          6
   190          7
   191          4
   192         10
   193          4
   194          5
   195         22
   196          9
   197        122
   198         41
   199          9
   200          6
   201          2
   202         41
   203         11
   204         27
   205          9
   206          4
   207          2
   208          3
   209          2
   210          2
   211          3
   212          1
   214          2
   215          3
   216         14
   217         11
   218        193
   219        104
   220         25
   221          6
   222          2
   223          1
   228          4
   229          4
   230         11
   231          5
   232         10
   233          4
   234          4
   235          2
   239          7
   240          2
   242          2
   243          2
   244         64
   245         69
   246        478
   247        115
   248         37
   249          6
   250          1
   251          2
   252          4
   253          4
   254          1
   256          2
   258          4
   259          4
   260         14
   261         19
   262          4
   263          3
   264         10
   265          3
   267         10
   268          2
   269          1
   272          4
   273          4
   274          3
   275          4
   276          1
   277          4
   278          1
   279          3
   280          2
   283         74
   284         20
   285          5
   286          2
   287          2
   288         46
   289         21
   290          5
   291          3
   292          2
   293          4
   294          2
   295          3
   296          1
   303          1
   305          1
   306          3
   307         11
   308         19
   309         15
   310          2
   319          1
   320          1
   321         11
   322          3
   323         20
   324          5
   325          2
   335          4
   336          1
   337        166
   338         57
   339         14
   340          3
   351          6
   352          2
   353          1
   363         44
   364         14
   365         45
   366         11
   367          3
   379          8
   380        176
   381         50
   382         14
   383          2