##TITLE=Library Entry 19422
##JCAMP-DX=Revision 4.10 
##DATA TYPE=MASS SPECTRUM
##SAMPLE DESCRIPTION=D.HENNEBERG, MAX-PLANCK INSTITUTE, MULHEIM, WEST GERMAN
Y
##NAMES=HP
##CAS NAME=3-Octanol, 1,1,2,2-tetrafluoro-
##MOLFORM=C8H14F4O
##CAS REGISTRY NO=74810-72-3
##MP= -300
##BP= -300
##MW= 202
##$RETENTION INDEX=0
##$CONDENSED SPECTRUM=NO
##NPOINTS= 118
##XYDATA=(XY..XY) 1 
    25          1
    26         37
    27        504
    28         73
    29        622
    30         18
    31        110
    32         13
    33         26
    34          0
    37          5
    38         18
    39        297
    40         44
    41        837
    42        205
    43        716
    44        174
    45         59
    46          5
    47         22
    48          1
    49         53
    50         12
    51        239
    52         11
    53         54
    54         18
    55        999
    56        649
    57        177
    58         10
    59         91
    60          8
    61         27
    62          5
    63         15
    64         10
    65         36
    66          3
    67         29
    69         49
    70          5
    71         42
    72          7
    73         40
    74          3
    75         13
    76          2
    77         60
    78          3
    79         11
    80         15
    81         20
    82         55
    83        834
    84         58
    85         14
    86          1
    87          9
    88          2
    89         12
    90          4
    91         37
    92          8
    93         14
    94          1
    95         17
    96          1
    97          8
    98          1
    99          5
   100          3
   101        375
   102         22
   103         10
   104          2
   105          8
   106          1
   107          3
   108          0
   109         26
   110          2
   111         32
   112          3
   113          8
   114          1
   115         20
   116          2
   117          2
   121          4
   122          6
   123         10
   125          8
   126          1
   127          6
   128          0
   129          2
   131         10
   133          1
   135          5
   136          0
   137          1
   141          2
   143          1
   144          1
   145          3
   149          1
   155         14
   156          3
   157          0
   163          2
   164          1
   169          3
   173          8
   183          2
   184          9
   185          1