##TITLE=Library Entry 17142
##JCAMP-DX=Revision 4.10 
##DATA TYPE=MASS SPECTRUM
##SAMPLE DESCRIPTION=D.HENNEBERG, MAX-PLANCK INSTITUTE, MULHEIM, WEST GERMAN
Y
##NAMES=HP
##CAS NAME=Ethanol, 2,2'-[1,2-phenylenebis[(2-chloro-2,1-ethanediyl)oxy-2,1-
ethanediyloxy]]bis-
##MOLFORM=C18H28Cl2O6
##CAS REGISTRY NO=74810-54-1
##MP= -300
##BP= -300
##MW= 410
##$RETENTION INDEX=0
##$CONDENSED SPECTRUM=NO
##NPOINTS= 263
##XYDATA=(XY..XY) 1 
    26         12
    27        235
    28         49
    29         39
    30          4
    31         45
    32          1
    33          0
    35          0
    36          4
    38          1
    39         11
    40          2
    41         19
    42          6
    43         98
    44         29
    45        999
    46         23
    47          2
    48          0
    49          3
    50          4
    51         11
    52         33
    53         11
    54          2
    55          7
    56          2
    57          8
    58         11
    59         45
    60          2
    61          2
    62          5
    63        829
    64         27
    65        276
    66          7
    67          2
    68          1
    69          3
    70          4
    71          8
    72          5
    73         24
    74          1
    75          7
    76          5
    77         25
    78          5
    79         12
    80         48
    81         32
    82          6
    83          1
    84          0
    85          0
    86          2
    87         18
    88          4
    89        124
    90          6
    91         15
    92          8
    93         58
    94          6
    95         20
    96          1
    97          0
    98          1
    99          0
   100          0
   101          1
   102          1
   103         12
   104          2
   105          3
   106          8
   107        446
   108         36
   109        178
   110         59
   111          4
   112          0
   113          0
   114          0
   115          2
   116          0
   117          3
   118          0
   119          4
   120          3
   121        104
   122         12
   123          6
   124          1
   125          1
   126          0
   127          0
   128          0
   129          0
   130          0
   131          2
   132          1
   133         69
   134          6
   135         26
   136        254
   137         33
   138          3
   139          1
   140          0
   141          0
   142          0
   143          0
   144          0
   145          0
   146          0
   147          1
   148          0
   149         18
   150          3
   151        236
   152         16
   153         80
   154          9
   155          1
   156          2
   157          0
   158          0
   159          0
   161          2
   162          1
   163          4
   164          1
   165          2
   166          1
   167          2
   168          0
   169          0
   170          0
   171          6
   172          7
   173          2
   174          2
   175          0
   176          0
   177          1
   178          0
   179          1
   180          3
   181          0
   182          0
   183          0
   184          2
   185          0
   187          0
   189          0
   193          4
   194          0
   195          2
   196          0
   197          2
   198          6
   200          0
   205          0
   207          0
   209          0
   210          0
   211          0
   212          0
   213          0
   214          0
   215          0
   216          1
   217          0
   218          0
   219          0
   221          0
   223          0
   224          1
   226          0
   237          1
   238          0
   239          0
   242          4
   244          0
   251          0
   253          0
   254          4
   255          1
   256          0
   257          0
   258          0
   259          0
   260         29
   261          4
   262          9
   263          1
   268          1
   269          0
   271          0
   273          0
   274          0
   275          0
   279          0
   280          0
   281          0
   282          7
   283          1
   284          0
   285          0
   286          1
   288          1
   304          4
   305          0
   306          1
   310          2
   311          1
   312          0
   318          0
   322          2
   323          0
   324          1
   330          3
   331          0
   332          0
   334          2
   335          0
   343          0
   345          0
   348         13
   349          2
   350          4
   351          0
   356          2
   357          0
   358          0
   362          1
   366          1
   367          0
   368          1
   374          1
   375          0
   376          0
   386          0
   390          0
   392         39
   393          8
   394         15
   395          3
   396          1
   397          0
   404          0
   407          0
   410         85
   411         18
   412         58
   413         11
   414         11
   415          2
   416          0