##TITLE=Library Entry 16772
##JCAMP-DX=Revision 4.10 
##DATA TYPE=MASS SPECTRUM
##SAMPLE DESCRIPTION=J. D. HENION, CORNELL UNIVERSITY, ITHACA, NY, USA
##NAMES=HP
##CAS NAME=2,6-Methano-3-benzazocine, 1,2,3,4,5,6-hexahydro-8-methoxy-6,11-d
imethyl-3-(3-methyl-2-butenyl)-, (2.alpha.,6.alpha.,11R*)-
##MOLFORM=C20H29NO
##CAS REGISTRY NO=74810-91-6
##MP= -300
##BP= -300
##MW= 299
##$RETENTION INDEX=0
##$CONDENSED SPECTRUM=NO
##NPOINTS= 119
##XYDATA=(XY..XY) 1 
    39         76
    41        734
    42         98
    43         79
    45        999
    51         19
    53         58
    54         39
    55         67
    56         74
    57         50
    58         46
    63         10
    65         25
    69        341
    70        395
    71         78
    77         42
    78         18
    79         21
    80         15
    81         17
    82         45
    83         15
    84         34
    85         20
    89         13
    91         63
    92         11
    93         13
    94         24
    95         16
    96         38
    97         13
    98         32
   102         18
   103         30
   105         27
   107         20
   108         30
   110        309
   111         33
   112         36
   113         60
   115        136
   116         42
   117         51
   118         17
   119         13
   121        123
   122         41
   124         22
   127         67
   128        145
   129        121
   130         45
   131         50
   132         18
   133         16
   135         31
   138         32
   139         12
   141         66
   142         94
   143         71
   144         63
   145         68
   146         43
   147         40
   148         41
   149         23
   150         22
   153         18
   154         15
   155         24
   156         34
   157         56
   158        112
   159        151
   160        205
   161        117
   162         30
   169         13
   171         70
   172        203
   173        234
   174        133
   175         71
   176         41
   178        130
   179         22
   186        290
   187        268
   188        272
   189         51
   198         15
   199         41
   200         27
   201         35
   202         56
   203         10
   214         53
   216        291
   217         49
   228         12
   230        182
   231        627
   232        102
   233         11
   244         83
   245         13
   256         50
   257         15
   270         14
   284        137
   285         29
   298        118
   299        204
   300         52