##TITLE=Library Entry 12765
##JCAMP-DX=Revision 4.10 
##DATA TYPE=MASS SPECTRUM
##SAMPLE DESCRIPTION=D.HENNEBERG, MAX-PLANCK INSTITUTE, MULHEIM, WEST GERMAN
Y
##NAMES=HP
##CAS NAME=d-Glucitol, cyclic 3,4-(phenylboronate) 1,2,5,6-tetraacetate
##MOLFORM=C20H25BO10
##CAS REGISTRY NO=74810-61-0
##MP= -300
##BP= -300
##MW= 436
##$RETENTION INDEX=0
##$CONDENSED SPECTRUM=NO
##NPOINTS= 204
##XYDATA=(XY..XY) 1 
    27          3
    32          0
    39          4
    40          0
    41          3
    42          6
    43        999
    44         21
    45          3
    50          0
    51          2
    52          1
    53          1
    54          0
    55         12
    56          2
    57          4
    60          3
    61          3
    63          0
    65          0
    66          0
    67          1
    68          3
    69          7
    70          1
    71         33
    72          1
    73          9
    74          1
    75          0
    76          0
    77          3
    78          1
    79          0
    80          0
    81          2
    82          0
    83          2
    84          0
    85         10
    86          8
    87          3
    88          0
    89          3
    90          2
    91          6
    92          0
    93          0
    94          0
    97          4
    98          3
    99          9
   100          1
   101          1
   102          2
   103         45
   104         12
   105         19
   106          1
   107          0
   110          2
   111          4
   112          1
   113          1
   114          0
   115         25
   116          4
   117          8
   118          1
   119          0
   120          0
   121          0
   122          0
   124          0
   125          0
   126          0
   127          8
   128          4
   129          2
   130          0
   131          1
   132          0
   133          1
   136          0
   137          0
   139          2
   140          1
   141          5
   142          1
   143          1
   144          1
   145         32
   146         25
   147         21
   148          2
   149          0
   152          1
   153          5
   154          2
   155          2
   156          0
   157          3
   158         23
   159         98
   160         21
   161         21
   162          2
   163          1
   164          1
   165          1
   166          0
   167          0
   170          4
   171         19
   172         29
   173          8
   174          1
   175          5
   176          2
   177          2
   178          1
   181          0
   182          0
   183          1
   184          2
   185          5
   186          1
   187          5
   188         17
   189         54
   190          7
   191          0
   195          0
   196          3
   197          4
   198          1
   199          1
   200          7
   201         31
   202          6
   203          2
   204          0
   206          1
   212          2
   213         29
   214         95
   215         16
   216          1
   217          4
   218          4
   219         14
   220          1
   221          0
   226          0
   227          0
   228          0
   229          0
   230         21
   231         91
   232         12
   233          2
   239          0
   242          5
   243         24
   244          4
   245          0
   248          0
   249          2
   250          0
   255         19
   256         85
   257         16
   258          2
   259          0
   260          2
   261          9
   262          1
   272          1
   273          3
   274          3
   275          2
   289          1
   290          7
   291         27
   292          4
   293          0
   302          0
   303          1
   304          0
   311          0
   315          4
   316         14
   317          2
   321          0
   333          0
   358          0
   359          1
   363          0
   364          0
   376          0
   377          0
   435          0
   436          1