##TITLE=Library Entry 82252
##JCAMP-DX=Revision 4.10 
##DATA TYPE=MASS SPECTRUM
##SAMPLE DESCRIPTION=J.MOLLER UNIVERSITY OF COPENHAGEN, COPENHAGEN, DENMARK
##NAMES=HP
##CAS NAME=[1,2]Dithiolo[1,5-b][1,2]oxathiole-7-SIV, 2,4,5-triphenyl-
##MOLFORM=C23H16OS2
##CAS REGISTRY NO=74810-17-6
##MP= -300
##BP= -300
##MW= 372
##$RETENTION INDEX=0
##$CONDENSED SPECTRUM=NO
##NPOINTS= 29
##XYDATA=(XY..XY) 1 
    51         84
    77        450
    78         50
    92         35
   105        999
   106         77
   121        180
   122         24
   178         38
   202         67
   203         30
   214         22
   234         67
   235         22
   266         26
   267         95
   268         27
   295        190
   296         33
   297         22
   307         30
   339         25
   340         30
   355        170
   356         36
   371         25
   372        700
   373        200
   374        110