##TITLE=Library Entry 79092
##JCAMP-DX=Revision 4.10 
##DATA TYPE=MASS SPECTRUM
##SAMPLE DESCRIPTION=D.HENNEBERG, MAX-PLANCK INSTITUTE, MULHEIM, WEST GERMAN
Y
##NAMES=HP
##CAS NAME=D-Glucitol, cyclic 3,4-(phenylboronate) 1,2,5,6-tetrabenzoate
##MOLFORM=C40H33BO10
##CAS REGISTRY NO=74810-65-4
##MP= -300
##BP= -300
##MW= 684
##$RETENTION INDEX=0
##$CONDENSED SPECTRUM=NO
##NPOINTS= 87
##XYDATA=(XY..XY) 1 
    26          1
    28          4
    36          1
    39          3
    41          1
    43          2
    44          2
    50          3
    51         15
    52          1
    55          2
    57          1
    68          1
    69          1
    74          1
    75          1
    76          5
    77        118
    78         11
    79          1
    81          1
    90          0
   103          1
   104          4
   105        999
   106         72
   107          4
   122          6
   123          1
   145          1
   146          6
   147          1
   153          0
   158          6
   159         26
   160          2
   171          3
   172          9
   173          1
   177          3
   181          1
   185          1
   196          2
   197          1
   198          1
   199          1
   201          3
   209          1
   213          3
   214          8
   215          2
   231          0
   269         11
   270          2
   280          1
   281          7
   282          2
   292          3
   293         11
   294          6
   295          1
   304          1
   305          7
   306          1
   311          4
   312          1
   317         15
   318         63
   319         14
   320          2
   331          2
   335          2
   336          4
   337          2
   403          7
   404          1
   414          2
   415         10
   416          2
   439          1
   440          4
   441          1
   445          1
   537          4
   538          2
   562          1
   607          1