##TITLE=Library Entry 98164
##JCAMP-DX=Revision 4.10 
##DATA TYPE=MASS SPECTRUM
##SAMPLE DESCRIPTION=D.HENNEBERG, MAX-PLANCK INSTITUTE, MULHEIM, WEST GERMAN
Y
##NAMES=HP
##CAS NAME=Benzene, (3-methyl-1-methylenepentyl)-
##MOLFORM=C13H18
##CAS REGISTRY NO=74810-69-8
##MP= -300
##BP= -300
##MW= 174
##$RETENTION INDEX=0
##$CONDENSED SPECTRUM=NO
##NPOINTS= 81
##XYDATA=(XY..XY) 1 
    27         37
    28         17
    29        127
    30          3
    32          5
    38          2
    39         41
    40          5
    41        103
    42          6
    43         15
    44          2
    45          1
    50          9
    51         37
    52          8
    53         12
    54          1
    55         19
    56          4
    57         84
    58          3
    60          2
    61          1
    62          3
    63         12
    64          4
    65         17
    66          2
    67          6
    68          1
    69          9
    70          2
    71          6
    73          1
    74          3
    75          5
    76          8
    77         66
    78         68
    79          9
    81          6
    83          6
    87          1
    88          6
    89          7
    90          2
    91         68
    92          6
    95          2
    97          4
    99          4
   101          2
   102         17
   103         70
   104         14
   105         39
   106          3
   109          1
   112          2
   113          1
   114          1
   115         59
   116         29
   117        139
   118        999
   119         96
   120         26
   121          2
   144          1
   145         26
   146          3
   147          2
   153          4
   159          7
   160          1
   167          1
   168          1
   174         36
   175          6
   176          2