##TITLE=Library Entry 12759
##JCAMP-DX=Revision 4.10 
##DATA TYPE=MASS SPECTRUM
##SAMPLE DESCRIPTION=D.HENNEBERG, MAX-PLANCK INSTITUTE, MULHEIM, WEST GERMAN
Y
##NAMES=HP
##CAS NAME=.alpha.-D-Ribopyranose, cyclic 2,4-(phenylboronate) 1,3-diacetate
##MOLFORM=C15H17BO7
##CAS REGISTRY NO=74825-23-3
##MP= -300
##BP= -300
##MW= 320
##$RETENTION INDEX=0
##$CONDENSED SPECTRUM=NO
##NPOINTS= 121
##XYDATA=(XY..XY) 1 
    26          4
    27         15
    28         12
    29         12
    30          1
    31          6
    37          0
    38          0
    39         13
    40          3
    41          9
    42         11
    43        999
    44         22
    45          8
    50          4
    51         12
    52          7
    53          9
    54          2
    55         13
    56          1
    57          8
    58          1
    60          4
    61          2
    63          1
    65          1
    68          4
    69         24
    70          1
    71          5
    73          3
    75          0
    76          2
    77         16
    78          7
    79          7
    80          0
    81          1
    83          1
    84          0
    85          7
    86          4
    87          5
    88          2
    89          7
    90          4
    91         10
    92          1
    97          8
    98          6
    99         19
   100          1
   101          2
   102          2
   103         15
   104         29
   105         59
   106          3
   111          1
   112          5
   113          3
   114          1
   115          3
   116          1
   117          6
   118          1
   121          1
   127          1
   128          1
   129          2
   130          1
   131          3
   140          2
   141          5
   144          1
   145          5
   146         21
   147         14
   148          1
   155          0
   157          3
   158        151
   159        656
   160         63
   161          7
   162          0
   163          0
   170          1
   171         75
   172        309
   173         43
   174          6
   175          4
   176          1
   187          1
   188          3
   189          7
   190          1
   200          3
   201         10
   202          1
   206          1
   214          2
   215          1
   216          1
   217          5
   218          2
   219          1
   231          1
   260          9
   261         36
   262          5
   263          0
   276          0
   277          4
   319          9
   320         40
   321          6
   322          1