##TITLE=Library Entry 76733
##JCAMP-DX=Revision 4.10 
##DATA TYPE=MASS SPECTRUM
##SAMPLE DESCRIPTION=ASES Database, Dalian Institute, P.R. China
##NAMES=HP
##CAS NAME=2-Bromo-3-choromethyl-6-phenyl-thiazolo(3,2-b)-1,2,4-triazole
##MOLFORM=C11H7BrClN3S
##CAS REGISTRY NO=74829-42-8
##MP= -300
##BP= -300
##MW= 327
##$RETENTION INDEX=0
##$CONDENSED SPECTRUM=NO
##NPOINTS= 26
##XYDATA=(XY..XY) 1 
    44        279
    45        110
    50        150
    51        215
    70        450
    76        443
    77        507
   103        999
   104        170
   123        107
   125        109
   143        325
   144        228
   146        493
   147        497
   149        149
   151        147
   187        157
   212        138
   213        338
   248        138
   292        638
   294        633
   327        647
   329        804
   331        276