##TITLE=Library Entry 18616
##JCAMP-DX=Revision 4.10 
##DATA TYPE=MASS SPECTRUM
##SAMPLE DESCRIPTION=D.HENNEBERG, MAX-PLANCK INSTITUTE, MULHEIM, WEST GERMAN
Y
##NAMES=HP
##CAS NAME=Rhodium, di-.mu.-chlorobis(.eta.4-1,2-diethenylcyclobutane)di-
##MOLFORM=C16H24Cl2Rh2
##CAS REGISTRY NO=74825-26-6
##MP= -300
##BP= -300
##MW= 492
##$RETENTION INDEX=0
##$CONDENSED SPECTRUM=NO
##NPOINTS= 206
##XYDATA=(XY..XY) 1 
    26         30
    27        230
    28         98
    29         25
    30          0
    31          7
    32          0
    34          2
    35         17
    36        109
    37          6
    38         36
    39        392
    40         28
    41        115
    42          6
    43          2
    44          4
    45          3
    47          0
    48          0
    49          4
    50         34
    51         65
    52         40
    53        123
    54        999
    55         50
    56          1
    57          0
    59         12
    60          0
    61          2
    62          5
    63         13
    64          2
    65         40
    66         62
    67        155
    68          9
    69          0
    73          5
    74          4
    75          4
    76          2
    77         70
    78         46
    79        244
    80        135
    81         11
    82          0
    86          0
    87          0
    88          3
    89          2
    90          1
    91         45
    92          5
    93         93
    94          7
    95          0
    98          0
   101          3
   102          1
   103          5
   104          2
   105          9
   106          8
   107         11
   108          8
   109          0
   113          0
   114          0
   115          0
   118          0
   129          4
   130          0
   140          0
   141          0
   142          2
   143          0
   144          0
   153          0
   154          0
   155          2
   156          2
   157          9
   158          1
   168          2
   169          1
   170          0
   171          0
   179          0
   180          0
   181          1
   182          2
   183          0
   192          1
   193          0
   194          0
   204          0
   205          1
   206          0
   207          1
   208          1
   209          1
   210          2
   211          7
   212          0
   218          3
   219          0
   230          0
   231          1
   232          4
   233          0
   241          1
   243          0
   244          0
   245          0
   246          0
   255          2
   256          1
   257          1
   258          6
   259          0
   269          1
   270          1
   271          0
   272          0
   276          0
   278          0
   280          0
   281          0
   282          4
   283          1
   284          3
   285          0
   286          0
   294          1
   295          0
   296          0
   306          8
   307          2
   308         14
   309          3
   310          8
   311          1
   312          5
   313          0
   319          0
   320          0
   322          0
   332          1
   333          0
   334          0
   336          0
   338          0
   342          0
   343          0
   344          2
   345          1
   346          6
   347          1
   348         22
   349          2
   350          6
   351          0
   356          0
   358          1
   359          0
   360          0
   361          0
   362          1
   363          0
   364          0
   366          0
   372          0
   373          0
   374          0
   376          0
   382          2
   383          0
   384          0
   385          0
   386          1
   387          0
   388          1
   389          0
   390          1
   392          0
   400          0
   401          0
   402          0
   404          0
   408          2
   409          0
   410          1
   411          0
   412          3
   413          1
   414          5
   415          1
   416          7
   417          2
   418         10
   419          2