##TITLE=Library Entry 12766
##JCAMP-DX=Revision 4.10 
##DATA TYPE=MASS SPECTRUM
##SAMPLE DESCRIPTION=D.HENNEBERG, MAX-PLANCK INSTITUTE, MULHEIM, WEST GERMAN
Y
##NAMES=HP
##CAS NAME=D-Glucitol, cyclic 1,3:2,4-bis(phenylboronate) 5,6-diacetate
##MOLFORM=C22H24B2O8
##CAS REGISTRY NO=74825-22-2
##MP= -300
##BP= -300
##MW= 438
##$RETENTION INDEX=0
##$CONDENSED SPECTRUM=NO
##NPOINTS= 300
##XYDATA=(XY..XY) 1 
    26          1
    27         13
    28          5
    29          8
    30          0
    31          3
    37          0
    38          0
    39         11
    40          2
    41         10
    42          6
    43        999
    44         23
    45          4
    50          2
    51          9
    52          5
    53         10
    54          3
    55         21
    56          4
    57         10
    58          1
    59          0
    60          1
    61          2
    62          0
    63          1
    64          0
    65          2
    66          1
    67          1
    68          3
    69         11
    70          1
    71          8
    72          0
    73          8
    74          1
    75          0
    76          2
    77         18
    78         10
    79          4
    80          1
    81          4
    82          1
    83          4
    84          1
    85          4
    86          7
    87          7
    88          2
    89          7
    90          4
    91         77
    92          8
    93          0
    94          0
    95          1
    96          0
    97          2
    98          3
    99         11
   100          1
   101          2
   102          4
   103         75
   104         68
   105        114
   106          8
   107          1
   109          0
   110          0
   111          2
   112          5
   113          3
   114          1
   115         34
   116          5
   117         11
   118          4
   119          1
   120          1
   121          2
   122          0
   123          0
   124          0
   125          3
   126          0
   127          2
   128          2
   129          5
   130          3
   131          6
   132          1
   133          2
   134          0
   135          0
   136          0
   137          1
   138          0
   139          0
   140          1
   141          4
   142          1
   143          2
   144          1
   145         53
   146         65
   147        171
   148         15
   149          3
   150          1
   151          1
   152          1
   153          3
   154          3
   155          3
   156          1
   157          3
   158         73
   159        309
   160        120
   161         16
   162          2
   163          2
   164          2
   165          3
   166          5
   167          3
   168          0
   169          0
   170          1
   171         17
   172         51
   173         14
   174          2
   175          4
   176          3
   177          6
   178          1
   179          1
   180          2
   181          5
   182          0
   183          1
   184          3
   185         11
   186         16
   187          4
   188          8
   189         21
   190          4
   191          3
   192          0
   193          0
   194          0
   195          1
   196          1
   197          1
   198          2
   199          4
   200         62
   201        239
   202         36
   203          6
   204          1
   205          1
   206          0
   207          0
   208          0
   209          1
   210          0
   211          1
   212          0
   213          4
   214         11
   215          5
   216          1
   217          1
   218          1
   219          2
   220          0
   221          0
   222          0
   223          1
   224          0
   226          0
   227          0
   228          0
   229          0
   230          4
   231         15
   232          3
   233          1
   234          0
   235          1
   236          0
   237          1
   239          0
   240          1
   241          3
   242         73
   243        289
   244         44
   245          8
   246          1
   247          0
   248          1
   249          1
   250          1
   251          3
   252          0
   253          0
   255          7
   256         32
   257          7
   258          3
   259          3
   260          1
   261          3
   262          1
   263          1
   264          1
   265          0
   267          0
   268          0
   269          0
   270          0
   271          0
   273          0
   274          1
   275          0
   276          0
   277          0
   278          0
   279          0
   280          0
   281          0
   286          0
   287          0
   288          1
   289          0
   290          2
   291          6
   292          3
   293          3
   294          0
   296          0
   298          1
   299          0
   300          0
   301          1
   302          2
   303          8
   304          3
   305          4
   306          1
   307          0
   311          0
   315          0
   316          2
   317          9
   318         16
   319          7
   320          1
   321          0
   322          2
   323          5
   324          1
   325          0
   326          0
   333          0
   334          2
   335          4
   336          3
   337          0
   348          0
   352          0
   359          2
   360         14
   361         33
   362          5
   363          1
   364          1
   365          2
   366          0
   377          0
   378          1
   379          1
   380          0
   434          0
   436          3
   437         22
   438         48
   439         13
   440          3
   441          1