##TITLE=Library Entry 16728
##JCAMP-DX=Revision 4.10 
##DATA TYPE=MASS SPECTRUM
##SAMPLE DESCRIPTION=Chemical Concepts
##NAMES=HP
##CAS NAME=Bicyclo[2.2.1]heptane-1-carboxylic acid, 2-bromo-
##MOLFORM=C8H11BrO2
##CAS REGISTRY NO=74830-47-0
##MP= -300
##BP= -300
##MW= 218
##$RETENTION INDEX=0
##$CONDENSED SPECTRUM=NO
##NPOINTS= 103
##XYDATA=(XY..XY) 1 
    25        361
    27        636
    28        151
    29        181
    30         21
    31         79
    35          9
    36         28
    37        102
    38        385
    39        916
    40        194
    41        377
    42        142
    43        348
    44         68
    45        999
    46         84
    47         33
    49         32
    50        317
    51        280
    52        340
    53        299
    54        158
    55        343
    56         42
    57         99
    58         13
    59         24
    60         32
    61         52
    62        151
    63        428
    64        154
    65         21
    66        261
    67        562
    68        110
    69         90
    70         31
    71         37
    73        332
    74         47
    75         44
    76         26
    77        322
    78        227
    79        228
    80        121
    81        192
    82        191
    83        129
    84         20
    85         18
    86         17
    87         16
    89         45
    90         35
    91        296
    92        170
    93        292
    94        105
    95        106
    96         16
    97         58
    98         28
    99          8
   102          9
   103         12
   104          8
   105         46
   106         84
   107         51
   108         80
   109         43
   110        152
   111        110
   112         20
   113          8
   117         12
   119         32
   120         15
   121         61
   122          9
   124          8
   125          9
   137         19
   138         50
   139        253
   140         38
   143          7
   145          9
   188         18
   189        153
   190         30
   191        148
   192         14
   217         24
   218        215
   219         32
   220        233
   221         22