##TITLE=Library Entry 70314
##JCAMP-DX=Revision 4.10 
##DATA TYPE=MASS SPECTRUM
##SAMPLE DESCRIPTION=Chemical Concepts
##NAMES=HP
##CAS NAME=6-Methoxy-9-thia-bicyclo[3.3.1]non-2-ene
##MOLFORM=C9H14OS
##CAS REGISTRY NO=74830-37-8
##MP= -300
##BP= -300
##MW= 170
##$RETENTION INDEX=0
##$CONDENSED SPECTRUM=NO
##NPOINTS= 132
##XYDATA=(XY..XY) 1 
    25          1
    26          7
    27         81
    28          5
    29         56
    30          3
    31         14
    33          2
    34          2
    35         11
    36          3
    37          6
    38          8
    39        127
    40         17
    41        182
    42         20
    43         45
    44         18
    45        136
    46          7
    47         46
    48          4
    49         46
    50         14
    51         54
    52         22
    53         74
    54         13
    55         39
    56          9
    57         16
    58         53
    59         32
    60         11
    61          7
    62          4
    63         13
    64          4
    65        120
    66         37
    67         61
    68          9
    69         35
    70          6
    71        241
    72         20
    73         24
    74          3
    75          7
    76          3
    77        116
    78         52
    79        183
    80         22
    81         14
    82          9
    83         12
    84        120
    85        104
    86         67
    87          9
    88         10
    89          4
    90          4
    91         57
    92         12
    93         21
    94         16
    95         14
    96          8
    97        999
    98        119
    99        655
   100         53
   101         35
   102          7
   103         20
   104         11
   105         42
   106          7
   107          3
   108          5
   109         20
   110        285
   111         81
   112         51
   113         11
   114          4
   115          3
   116          3
   117          2
   119          3
   121          6
   122          3
   123         22
   124          3
   125          7
   126          5
   127          7
   128          2
   129          3
   130          0
   131          2
   132          0
   133          1
   134          2
   135          4
   136          7
   137         28
   138         54
   139         20
   140          6
   141          3
   142          2
   143          0
   151          0
   152          0
   153          1
   154          2
   155          5
   156          1
   157          1
   165          1
   166          0
   167          1
   168          1
   169         10
   170        414
   171         55
   172         26
   173          3