##TITLE=Library Entry 10914
##JCAMP-DX=Revision 4.10 
##DATA TYPE=MASS SPECTRUM
##SAMPLE DESCRIPTION=D.HENNEBERG, MAX-PLANCK INSTITUTE, MULHEIM, WEST GERMAN
Y
##NAMES=HP
##CAS NAME=D-Glucitol, 1,3:2,4-bis-O-(phenylmethylene)-, diacetate
##MOLFORM=C24H26O8
##CAS REGISTRY NO=74842-25-4
##MP= -300
##BP= -300
##MW= 442
##$RETENTION INDEX=0
##$CONDENSED SPECTRUM=NO
##NPOINTS= 242
##XYDATA=(XY..XY) 1 
    27         20
    28         14
    31         11
    32          1
    36          0
    37          0
    38          1
    39         13
    40          3
    41         28
    42          8
    43        999
    44         23
    45          4
    47          0
    49          0
    50          6
    51         27
    52          7
    53          7
    54          3
    55         44
    56          6
    57         32
    58          3
    59          2
    60          2
    61          7
    62          1
    63          3
    64          1
    65          5
    66          3
    67          4
    68         19
    69         64
    70         13
    71         13
    72          1
    73         16
    74          2
    75          2
    76          5
    77        150
    78         48
    79        102
    80         20
    81         88
    82         15
    83         13
    84          5
    85        162
    86         36
    87          5
    88          1
    89          9
    90         16
    91        305
    92         33
    93         12
    94         31
    95         22
    96          6
    97         25
    98         87
    99         28
   100          4
   101          5
   102          1
   103         32
   104         20
   105        839
   106        152
   107        155
   108         12
   109          2
   110          4
   111         51
   112         81
   113          9
   114          2
   115         50
   116         26
   117          8
   118         16
   119         15
   120         12
   121          7
   122          2
   123          9
   124          1
   125          1
   126          4
   127         49
   128         25
   129          8
   130          3
   131         11
   132          3
   133         18
   134         11
   135          1
   136          1
   137          0
   138          1
   139          2
   140         11
   141         20
   142          4
   143          2
   144          6
   145         24
   146          5
   147          3
   148          3
   149        408
   150         42
   151          4
   153        133
   154         40
   155          6
   156          0
   157          8
   158         11
   159          3
   160          1
   161          7
   162         67
   163         19
   164          2
   165         18
   166          1
   167          0
   168          0
   169          2
   170          3
   171         18
   172          4
   173          4
   174          2
   175          5
   176          4
   177          4
   178          1
   179          1
   180          1
   181          1
   182          0
   184          0
   185          2
   186          4
   187         97
   188          9
   189          2
   190          4
   191         28
   192          5
   193          1
   195          0
   196          0
   197          0
   198          0
   199          3
   200         11
   201         45
   202          4
   203          3
   204          4
   205          3
   207         10
   208          1
   209          0
   211          1
   213          1
   214          6
   215          5
   216          8
   217          4
   218          0
   219          0
   220         12
   221          2
   222          0
   229          1
   230          0
   231          0
   233         11
   234          2
   235          0
   239          1
   243          2
   245          0
   246          6
   247          1
   249          0
   254          0
   258          0
   259          2
   260          0
   261          0
   263          3
   264          0
   266          0
   267          2
   268          5
   269          1
   275          2
   276          1
   277          3
   278          0
   279          1
   293          4
   294          0
   297          9
   298          1
   299          0
   318          0
   319          2
   320         25
   321          5
   322          2
   323          3
   324          0
   325          0
   335         23
   336          7
   337          1
   365          3
   366          0
   383          0
   400          0
   411          0
   412          0
   413          0
   438          0
   439          0
   441         60
   442        102
   443         27
   444          4
   445          1
   446          0