##TITLE=Library Entry 50717
##JCAMP-DX=Revision 4.10 
##DATA TYPE=MASS SPECTRUM
##SAMPLE DESCRIPTION=D.HENNEBERG, MAX-PLANCK INSTITUTE, MULHEIM, WEST GERMAN
Y
##NAMES=HP
##CAS NAME=Zinc, bis[2,2-dimethyl-3-(2-methyl-2-propenyl)cyclopropyl]-
##MOLFORM=C18H30Zn
##CAS REGISTRY NO=74842-24-3
##MP= -300
##BP= -300
##MW= 310
##$RETENTION INDEX=0
##$CONDENSED SPECTRUM=NO
##NPOINTS= 80
##XYDATA=(XY..XY) 1 
    26         11
    27        101
    29        139
    30          3
    32          2
    37          1
    38          4
    39        136
    40         32
    41        536
    42         29
    43        371
    44         10
    49          1
    50          5
    51         18
    52          9
    53        135
    54         19
    55        260
    56         22
    57        123
    58          5
    62          1
    63          4
    64          7
    65         41
    66         18
    67        275
    68         79
    69        223
    70         13
    71          2
    73          2
    74          1
    75          2
    77         57
    78         11
    79        114
    80         29
    81        999
    82         88
    83         11
    91         71
    92         11
    93         74
    94         20
    95        147
    96         13
    97          2
   103          2
   105         19
   106          5
   107        107
   108         31
   109         55
   110          5
   119          4
   121         21
   122         46
   123        958
   124        106
   125          6
   131          3
   133          3
   135          2
   149          1
   187        180
   188         22
   189        104
   190         26
   191         70
   192          7
   193          3
   310         21
   311          4
   312         13
   313          4
   314          8
   315          1