##TITLE=Library Entry 79523
##JCAMP-DX=Revision 4.10 
##DATA TYPE=MASS SPECTRUM
##SAMPLE DESCRIPTION=D.HENNEBERG, MAX-PLANCK INSTITUTE, MULHEIM, WEST GERMAN
Y
##NAMES=HP
##CAS NAME=DL-Xylitol, 1,2,5-tribenzoate
##MOLFORM=C26H24O8
##CAS REGISTRY NO=74841-64-8
##MP= -300
##BP= -300
##MW= 464
##$RETENTION INDEX=0
##$CONDENSED SPECTRUM=NO
##NPOINTS= 122
##XYDATA=(XY..XY) 1 
    27          5
    28          2
    29          2
    30          0
    31          2
    32          0
    37          0
    38          1
    39          3
    40          0
    41          1
    42          1
    43          4
    44          2
    45          2
    47          0
    49          0
    50          8
    51         32
    52          2
    53          0
    54          0
    55          3
    56          1
    57          3
    58          0
    60          2
    61          0
    62          0
    63          0
    65          1
    66          0
    67          0
    68          3
    69          3
    70          0
    71          0
    72          0
    73          3
    74          2
    75          2
    76          8
    77        176
    78         13
    79          6
    80          0
    81          1
    85          4
    86          1
    91          1
    92          1
    94          0
    97          1
    98          7
    99          0
   103          1
   104          4
   105        999
   106         69
   107          4
   115          0
   116          0
   118          0
   121          0
   122         25
   123         21
   124          1
   135          1
   136          0
   139          0
   147          0
   148          0
   152          0
   153          0
   160          1
   165         41
   166          4
   167          0
   176          0
   177         73
   178         21
   179          2
   181          1
   189          2
   190          4
   191          0
   195          8
   196          1
   202          5
   203          1
   207         21
   208          2
   209          0
   210          0
   220          5
   221          0
   225          0
   227          6
   228          1
   269          6
   270          1
   281          0
   282         19
   283          3
   284          0
   294          2
   295          0
   299          9
   300          1
   301          0
   311          8
   312          2
   313          0
   324          1
   325          0
   329          3
   330          0
   331          0
   403          4
   404          1
   428          0
   433          0