##TITLE=Library Entry 11160
##JCAMP-DX=Revision 4.10 
##DATA TYPE=MASS SPECTRUM
##SAMPLE DESCRIPTION=D.HENNEBERG, MAX-PLANCK INSTITUTE, MULHEIM, WEST GERMAN
Y
##NAMES=HP
##CAS NAME=1,3,2-Dioxaborinane-4-methanol, 5-(acetyloxy)-2-ethyl-, acetate,
 (4S-cis)-
##MOLFORM=C10H17BO6
##CAS REGISTRY NO=74841-62-6
##MP= -300
##BP= -300
##MW= 244
##$RETENTION INDEX=0
##$CONDENSED SPECTRUM=NO
##NPOINTS= 87
##XYDATA=(XY..XY) 1 
    25          0
    26          3
    27         13
    28         34
    29         28
    30          1
    31          4
    32          0
    37          2
    38          0
    39          8
    40          3
    41         10
    42         20
    43        999
    44         20
    45          6
    51          3
    52          1
    53          2
    54          2
    55          9
    56          8
    57         18
    58          1
    59          1
    60          0
    61          8
    62          0
    63          0
    67          0
    68          2
    69         28
    70          5
    71          3
    72          0
    73          7
    74          0
    75          0
    82          2
    83          9
    84          8
    85          2
    86         15
    87         13
    88          0
    95          0
    96          1
    97          3
    98         29
    99         67
   100          3
   101          1
   103         20
   104          0
   105          0
   109          0
   110         22
   111         67
   112         27
   113         25
   114          1
   115          3
   116          0
   123         14
   124         41
   125          4
   126          1
   127          3
   128          1
   129          1
   140          3
   141         23
   142         36
   143          3
   145          1
   153          1
   154          5
   155          2
   157          0
   170          1
   171          6
   172          0
   173          0
   183          0
   184          1
   215          0