##TITLE=Library Entry 81332
##JCAMP-DX=Revision 4.10 
##DATA TYPE=MASS SPECTRUM
##SAMPLE DESCRIPTION=NIST Mass Spectrometry Data Center
##NAMES=HP
##CAS NAME=(+)-Cycloisolongifol-5-ol
##MOLFORM=C15H24O
##CAS REGISTRY NO=74841-81-9
##MP= -300
##BP= -300
##MW= 220
##$RETENTION INDEX=1519
##$CONDENSED SPECTRUM=NO
##NPOINTS= 68
##XYDATA=(XY..XY) 1 
    27         57
    29         70
    39        183
    40         31
    41        422
    42         21
    50         15
    51         85
    52         31
    53        140
    54         22
    55        138
    57         52
    63         37
    64         31
    65        158
    66         17
    67        147
    68         20
    69        319
    71         21
    75         18
    77        222
    78         58
    79        107
    80         18
    81         64
    83         38
    89         24
    91        655
    92        213
    93        134
    95        103
   102         23
   103         96
   104         36
   105        999
   106        134
   109         29
   114          4
   115        295
   116        123
   117        528
   118        231
   119        208
   120         32
   127         37
   128        137
   129        150
   130         78
   131        619
   132        411
   133        194
   134        101
   140          3
   144         38
   145        268
   146         71
   147         18
   159        772
   160        107
   173         48
   174         45
   175          7
   187        397
   188         71
   202        552
   203         98