##TITLE=Library Entry 68001
##JCAMP-DX=Revision 4.10 
##DATA TYPE=MASS SPECTRUM
##SAMPLE DESCRIPTION=D.HENNEBERG, MAX-PLANCK INSTITUTE, MULHEIM, WEST GERMAN
Y
##NAMES=HP
##CAS NAME=Cyclopropanecarboxylic acid, 2-(2-methyl-1-propenyl)-, methyl est
er
##MOLFORM=C9H14O2
##CAS REGISTRY NO=74841-59-1
##MP= -300
##BP= -300
##MW= 154
##$RETENTION INDEX=0
##$CONDENSED SPECTRUM=NO
##NPOINTS= 112
##XYDATA=(XY..XY) 1 
    27        211
    28         38
    29        136
    30          5
    31         32
    32          2
    33          4
    36          2
    37          2
    38          3
    39        244
    40         50
    41        460
    42         37
    43        121
    44          7
    45         33
    47          6
    48          2
    49          2
    50          9
    51         40
    52         38
    53        243
    54        169
    55        450
    56         29
    57         14
    58          4
    59        122
    60          4
    61          3
    63          7
    64          3
    65         67
    66         48
    67        639
    68        106
    69         69
    70          6
    71         23
    72          3
    73         22
    74         15
    75          6
    76          2
    77        211
    78         46
    79        486
    80        166
    81         96
    82         58
    83         39
    84          4
    85         14
    86          2
    87         17
    88         29
    89          4
    90          2
    91         87
    92         16
    93        227
    94        233
    95        999
    96         93
    97         41
    98         85
    99         59
   100          5
   101         10
   103          2
   105         14
   106          5
   107         62
   108         20
   109         15
   110          3
   111        320
   112         65
   113         11
   114          8
   115          7
   117          1
   119         19
   120          2
   121         24
   122        103
   123         91
   124         19
   125         33
   126          3
   127          1
   132          1
   133          3
   135          2
   136          2
   137          7
   138          2
   139         77
   140         12
   141          4
   142          1
   143          3
   147          7
   148          2
   149          1
   152          1
   153          4
   154        257
   155         25
   156          3