##TITLE=Library Entry 42811
##JCAMP-DX=Revision 4.10 
##DATA TYPE=MASS SPECTRUM
##SAMPLE DESCRIPTION=J. D. HENION, CORNELL UNIVERSITY, ITHACA, NY, USA
##NAMES=HP
##CAS NAME=Zearalenone, (E)-, 2TMS derivative
##MOLFORM=C24H38O5Si2
##CAS REGISTRY NO=74841-67-1
##MP= -300
##BP= -300
##MW= 462
##$RETENTION INDEX=0
##$CONDENSED SPECTRUM=NO
##NPOINTS= 107
##XYDATA=(XY..XY) 1 
    39         19
    41        154
    42         64
    43         75
    45        191
    46         13
    47         22
    53         15
    55        233
    56         26
    57         22
    58         22
    59         27
    61         17
    67         22
    69         58
    70         17
    71         19
    73        999
    74        106
    75        141
    76         19
    77         27
    83         30
    91         30
    93         30
    95         30
    97         20
    99         20
   105         20
   107         20
   112         40
   115         50
   117         20
   119         22
   120         11
   121         11
   125        157
   126         24
   127         21
   128         29
   129         38
   130         15
   131         33
   132         10
   133         45
   134         12
   135         19
   137         18
   138         13
   140         13
   141         17
   143         21
   144         11
   145         34
   146         17
   147         52
   149         20
   151        300
   152         40
   159         20
   161         20
   181         20
   185         20
   187         20
   189         20
   201         20
   202         10
   203         22
   205         16
   217         35
   218         13
   219         19
   232         57
   233         32
   234         15
   235         20
   236         14
   247         17
   259         54
   260        119
   261         56
   262         17
   273         13
   274         17
   275         21
   277         14
   289         12
   291         25
   304         13
   305         72
   306         30
   307         40
   308         20
   317         40
   318         20
   320         20
   323         40
   333         10
   334         20
   335         10
   429         40
   430         10
   444         20
   447         20
   462         20
   463         10