##TITLE=Library Entry 93740
##JCAMP-DX=Revision 4.10 
##DATA TYPE=MASS SPECTRUM
##SAMPLE DESCRIPTION=A.A.Kutin, Moscow, Russia
##NAMES=HP
##CAS NAME=Benzene, 2-phenyl-2-propenyl)sulfonyl-
##MOLFORM=C15H14O2S
##CAS REGISTRY NO=74866-37-8
##MP= -300
##BP= -300
##MW= 258
##$RETENTION INDEX=0
##$CONDENSED SPECTRUM=NO
##NPOINTS= 77
##XYDATA=(XY..XY) 1 
    33         48
    34         11
    36          3
    39        413
    40         63
    41         22
    42          1
    43          7
    44         22
    45         15
    48          4
    51        789
    52         44
    53         17
    55          4
    58         16
    60          0
    62         36
    63        109
    65        215
    66          9
    69         12
    71          3
    72          1
    74         47
    75         44
    77        707
    78         99
    79          7
    81          3
    83          1
    86          3
    87          9
    89         94
    91        621
    92         30
    93          0
    94          1
    95          0
    97         24
    99          1
   100          1
   102         78
   103         91
   105         71
   106          3
   108          1
   109          6
   110          9
   113         14
   115        999
   116        446
   117        875
   118         72
   119          3
   125         16
   126         33
   127          2
   128          1
   131          1
   133          4
   141         20
   142          0
   143          0
   151          0
   152          7
   153          3
   154          2
   165          5
   177          2
   179        104
   180         11
   191          8
   194        489
   195         52
   196          4
   258          4