##TITLE=Library Entry 88248
##JCAMP-DX=Revision 4.10 
##DATA TYPE=MASS SPECTRUM
##SAMPLE DESCRIPTION=V.G.Zaikin, TIPS, Russian Acad. Sci.
##NAMES=HP
##CAS NAME=1,1-Di(prop-2-enyl)-1-silacyclobutane
##MOLFORM=C9H16Si
##CAS REGISTRY NO=74861-47-5
##MP= -300
##BP= -300
##MW= 152
##$RETENTION INDEX=0
##$CONDENSED SPECTRUM=NO
##NPOINTS= 28
##XYDATA=(XY..XY) 1 
    53         60
    54         40
    55        310
    56         35
    57         30
    58         15
    67         80
    68         45
    69        305
    70         50
    71         45
    81         70
    82         85
    83        765
    84         98
    85         15
    95         50
    96         75
   109         68
   110         98
   111        999
   112        155
   113         35
   124        260
   125         30
   152         80
   153         12
   154          3