##TITLE=Library Entry 20461
##JCAMP-DX=Revision 4.10 
##DATA TYPE=MASS SPECTRUM
##SAMPLE DESCRIPTION=Div. of Experiment Therapeutics WRAIR, WRAMC, Washingto
n DC 20307
##NAMES=HP
##CAS NAME=Phenyl crotyl sulfone
##MOLFORM=C10H12O2S
##CAS REGISTRY NO=74866-38-9
##MP= -300
##BP= -300
##MW= 196
##$RETENTION INDEX=0
##$CONDENSED SPECTRUM=NO
##NPOINTS= 102
##XYDATA=(XY..XY) 1 
    41         34
    42          7
    43         19
    44          1
    45         13
    47          0
    48          3
    49          5
    50         84
    51        257
    52         25
    53         80
    54        103
    55        999
    56         84
    58          3
    59          2
    61          1
    62          4
    63         11
    64          3
    65         23
    66          9
    67          2
    68          1
    69         21
    70          6
    71         27
    72          1
    73          2
    74         22
    75         17
    76         18
    77        388
    78        236
    79         21
    80          0
    81          5
    82          4
    83          4
    84          5
    85          2
    86          4
    87          1
    88          0
    89          3
    90          0
    91         42
    92          3
    93          4
    94         38
    95          5
    96          1
    97         24
    98          1
    99          2
   102          1
   103          5
   104          3
   105          7
   106          1
   108          2
   109          6
   110          1
   111          1
   113          1
   115         40
   116         10
   117         60
   118          9
   119          1
   123          0
   125         71
   126        233
   127         20
   128         13
   129          6
   130          1
   131         29
   132         16
   133          4
   134          1
   135          2
   139          3
   140          0
   141         42
   142         61
   143        139
   144         12
   145          6
   147          0
   148          3
   149          3
   152          5
   156          4
   157          2
   161          0
   163          2
   195         23
   196         42
   197          6
   198          1