##TITLE=Library Entry 67731
##JCAMP-DX=Revision 4.10 
##DATA TYPE=MASS SPECTRUM
##SAMPLE DESCRIPTION=Chemical Concepts
##NAMES=HP
##CAS NAME=Bicyclo[3.2.1]octan-3-one, 6-(2-hydroxyethyl)-, endo-
##MOLFORM=C10H16O2
##CAS REGISTRY NO=74876-25-8
##MP= -300
##BP= -300
##MW= 168
##$RETENTION INDEX=0
##$CONDENSED SPECTRUM=NO
##NPOINTS= 96
##XYDATA=(XY..XY) 1 
    26          4
    27        112
    28         16
    29        108
    30          3
    31         97
    38          7
    39        195
    40         47
    41        393
    42         54
    43        111
    44          9
    45         12
    50          8
    51         27
    52         18
    53        124
    54         94
    55        277
    56         44
    57         49
    58         17
    59          6
    60          4
    61          3
    63          7
    65         44
    66         73
    67        335
    68        155
    69         99
    70         47
    71         58
    72          6
    73          6
    74          6
    75          2
    77         87
    78         34
    79        231
    80        257
    81        335
    82        131
    83         46
    84         17
    85         14
    86         12
    87          4
    91         86
    92        117
    93        259
    94        212
    95        999
    96        148
    97         83
    98         18
    99         10
   103          3
   104         10
   105         20
   106         46
   107        153
   108        116
   109        164
   110         87
   111         26
   112          9
   113          6
   117         10
   119         10
   120          4
   121         40
   122         71
   123         41
   124        316
   125         52
   126         11
   127          4
   131          2
   132         13
   133          4
   134          2
   135         39
   136          5
   137         31
   138         40
   139         11
   140          7
   149         11
   150         59
   151         13
   153          7
   168        243
   169         35
   170          3