##TITLE=Library Entry 32233
##JCAMP-DX=Revision 4.10 
##DATA TYPE=MASS SPECTRUM
##SAMPLE DESCRIPTION=Chemical Concepts
##NAMES=HP
##CAS NAME=Bicyclo[2.2.1]hept-5-ene-2-acetic acid, ethyl ester, endo-
##MOLFORM=C11H16O2
##CAS REGISTRY NO=74876-17-8
##MP= -300
##BP= -300
##MW= 180
##$RETENTION INDEX=0
##$CONDENSED SPECTRUM=NO
##NPOINTS= 71
##XYDATA=(XY..XY) 1 
    26          3
    27         53
    28          7
    29         83
    30          2
    31          2
    38          5
    39         91
    40         36
    41         85
    42         10
    43         38
    44          1
    45         18
    50          6
    51         23
    52         12
    53         22
    54          3
    55         10
    57          2
    60          8
    61          5
    62          2
    63          8
    64          4
    65         62
    66        999
    67         93
    68          6
    69         11
    73         58
    74          4
    75          1
    77         55
    78         22
    79         96
    80         10
    81          3
    85          4
    86          2
    87         33
    88          4
    89          2
    90          1
    91         83
    92         37
    93         19
    94          2
    95          2
   103          5
   104          2
   105         23
   106         11
   107         90
   108          8
   109          2
   113         10
   114          2
   115        349
   116         20
   117          4
   133          2
   134          1
   135         43
   136          5
   149          1
   151          1
   152          1
   180         25
   181          4