##TITLE=Library Entry 3215
##JCAMP-DX=Revision 4.10 
##DATA TYPE=MASS SPECTRUM
##SAMPLE DESCRIPTION=Chemical Concepts
##NAMES=HP
##CAS NAME=Formic acid, 4-chloro-3-methylbut-2-enyl ester
##MOLFORM=C6H9ClO2
##CAS REGISTRY NO=74885-99-7
##MP= -300
##BP= -300
##MW= 148
##$RETENTION INDEX=0
##$CONDENSED SPECTRUM=NO
##NPOINTS= 83
##XYDATA=(XY..XY) 1 
    26         30
    28         57
    29        365
    30         10
    31        132
    35          4
    36          9
    37         23
    38         63
    39        501
    40        147
    41        999
    42         59
    43        259
    44         81
    45         27
    46         16
    47          4
    48          3
    49         46
    50         58
    51        122
    52         46
    53        403
    54         45
    55        295
    56        288
    57        182
    58         12
    60          3
    61         16
    62         29
    63         46
    64         11
    65        163
    66         95
    67        921
    68        195
    69        222
    70         14
    71        456
    72         17
    73         12
    74         11
    75        203
    76         32
    77         66
    78         11
    79          4
    81         15
    82         21
    83        242
    84        905
    85        400
    86         31
    87         32
    89         23
    90         15
    91          8
    92          6
    95          6
    99         59
   100          3
   101          7
   102        567
   103        228
   104        195
   105         88
   106          4
   107          5
   112        392
   113        504
   114         35
   115          3
   117          5
   118          7
   119         64
   120          7
   121         17
   139          2
   148         10
   149          3
   150          3