##TITLE=Library Entry 82280
##JCAMP-DX=Revision 4.10 
##DATA TYPE=MASS SPECTRUM
##SAMPLE DESCRIPTION=R.A. CADENAS,DEP. QUIM.,FAC. AGRON.,BUENOS AIRES UNIV.,
ARGENT.
##NAMES=HP
##CAS NAME=1,2,3,4,5,6-Hexa-O-benzoyl-L-xylo-hex-1-enitol
##MOLFORM=C48H36O12
##CAS REGISTRY NO=74894-95-4
##MP= -300
##BP= -300
##MW= 804
##$RETENTION INDEX=0
##$CONDENSED SPECTRUM=NO
##NPOINTS= 14
##XYDATA=(XY..XY) 1 
   105        999
   122        165
   269         30
   334        500
   335        120
   403        320
   404        570
   415        695
   416        710
   439        460
   457        470
   474        180
   537        140
   579        515