##TITLE=Library Entry 21360
##JCAMP-DX=Revision 4.10 
##DATA TYPE=MASS SPECTRUM
##SAMPLE DESCRIPTION=Chemical Concepts
##NAMES=HP
##CAS NAME=2-Cyclohexyl-1-tetrazol-2-yl-ethanone
##MOLFORM=C9H14N4O
##CAS REGISTRY NO=74897-66-8
##MP= -300
##BP= -300
##MW= 194
##$RETENTION INDEX=0
##$CONDENSED SPECTRUM=NO
##NPOINTS= 91
##XYDATA=(XY..XY) 1 
    26         10
    27        142
    28         84
    29        158
    30          8
    38          8
    39        210
    40         44
    41        478
    42        145
    43        144
    44         20
    45         45
    46          5
    47          4
    48          2
    50          8
    51         26
    52         15
    53        115
    54        182
    55        999
    56         97
    57         63
    58         11
    59         12
    60         25
    61         13
    62          2
    63          6
    65         22
    66         19
    67        341
    68         85
    69        107
    70         20
    71        361
    72         12
    73          2
    76          3
    77         24
    78          9
    79         65
    80        104
    81        261
    82        374
    83        211
    84        347
    85         34
    86         21
    87          3
    91         10
    92          3
    93         12
    94         33
    95         87
    96        184
    97        381
    98         39
    99          5
   104          2
   105          4
   106          5
   107          6
   108          4
   109         14
   110         18
   111         22
   112         61
   113        681
   114         35
   115          2
   120          2
   121          6
   122         10
   123         44
   124        143
   125        627
   126         72
   127          4
   137         15
   138         12
   139          5
   151          2
   152         44
   153          5
   159          2
   165         15
   166          4
   167          3
   194          3