##TITLE=Library Entry 35291
##JCAMP-DX=Revision 4.10 
##DATA TYPE=MASS SPECTRUM
##SAMPLE DESCRIPTION=Chemical Concepts
##NAMES=HP
##CAS NAME=Acetate, 10,13-dimethyl-17-(1-methyl-4-oxo-4-[1,2,4]triazol-1-yl-
butyl)-2,3,4,7,8,9,10,11,12,13,14,15,16,17-tetradecahydro-1H-cyclopenta[a]ph
enanthrene-3-yl
##MOLFORM=C28H41N3O3
##CAS REGISTRY NO=74897-63-5
##MP= -300
##BP= -300
##MW= 467
##$RETENTION INDEX=0
##$CONDENSED SPECTRUM=NO
##NPOINTS= 284
##XYDATA=(XY..XY) 1 
    26         20
    27        105
    28        556
    29        175
    30         28
    31         43
    36         19
    38         32
    39         89
    40        121
    41        245
    42        663
    43        414
    44        112
    45        132
    50          9
    51         18
    52         14
    53         77
    54         40
    55        487
    56         73
    57        139
    58         26
    59         32
    60        109
    61         14
    63         11
    65         40
    66         21
    67        229
    68         59
    69        999
    70        739
    71         80
    72         19
    73         42
    74         16
    75          9
    76         10
    77        121
    78         40
    79        227
    80         49
    81        368
    82         73
    83        118
    84         75
    85         74
    86         22
    87         16
    89         11
    91        313
    92         95
    93        270
    94         80
    95        226
    96         50
    97         70
    98         46
    99         29
   100         18
   101         18
   102         11
   103         36
   104         39
   105        396
   106        126
   107        356
   108        121
   109        171
   110         41
   111         66
   112         26
   113         21
   114         16
   115         71
   116         38
   117        151
   118         76
   119        209
   120        221
   121        252
   122         71
   123         86
   124         32
   125         46
   126         21
   127         38
   128         66
   129        121
   130         56
   131        187
   132         63
   133        240
   134         73
   135        110
   136         28
   137         38
   138         18
   139         17
   140         14
   141         72
   142         43
   143        173
   144         80
   145        369
   146        121
   147        301
   148         86
   149         81
   150         20
   151         26
   152         21
   153         24
   154         20
   155         48
   156         28
   157        116
   158        114
   159        219
   160        133
   161        142
   162         40
   163         47
   164         17
   165         46
   166         22
   167         24
   168         18
   169         36
   170         23
   171         73
   172         42
   173         83
   174         40
   175         59
   176         23
   177         43
   178         21
   179         22
   180         12
   181         24
   182         13
   183         40
   184         20
   185         66
   186         38
   187         52
   188         22
   189         73
   190         22
   191         23
   192         13
   193         24
   194         19
   195         30
   196         13
   197         59
   198         25
   199        131
   200         45
   201         55
   202         37
   203         31
   204         11
   205         11
   206          9
   207         18
   208         17
   209         24
   210         13
   211         45
   212         34
   213        197
   214         66
   215         63
   216         35
   217        112
   218         25
   219         15
   221         11
   223         13
   224         10
   225         26
   226         20
   227         44
   228         74
   229         45
   230        103
   231         47
   232         14
   233         18
   234         14
   235         77
   236         21
   237         13
   238          9
   239         31
   240         25
   241         19
   242         10
   243         16
   244         11
   245         14
   246          9
   247         19
   248         38
   249         74
   250         19
   251         14
   252         11
   253        109
   254         41
   255        116
   256         35
   257         15
   258         15
   259          9
   261         10
   262         29
   263         20
   264          9
   265         10
   266          9
   267         20
   268         23
   269         12
   277         17
   278         11
   279          9
   280         11
   281         29
   282         33
   283         48
   284         25
   288          9
   294         10
   295         49
   296         47
   297         21
   302          9
   305         25
   306         11
   308          9
   309         11
   310         91
   311         26
   312         18
   313         10
   314          9
   320         14
   321         16
   322         15
   323         94
   324         29
   325         12
   328         10
   336         12
   337         34
   338        450
   339        160
   340         42
   341         59
   342         17
   354         16
   355         87
   356        284
   357         76
   358         20
   364         15
   365         10
   369         10
   370        223
   371         67
   372         14
   378         10
   379         46
   380         14
   392         20
   393          9
   407        541
   408        169
   409         30