##TITLE=Library Entry 42860
##JCAMP-DX=Revision 4.10 
##DATA TYPE=MASS SPECTRUM
##SAMPLE DESCRIPTION=Chemical Concepts
##NAMES=HP
##CAS NAME=3-Ethoxy-1-(2-phenyl-cyclohexyl)-butan-2-ol
##MOLFORM=C18H28O2
##CAS REGISTRY NO=74897-72-6
##MP= -300
##BP= -300
##MW= 276
##$RETENTION INDEX=0
##$CONDENSED SPECTRUM=NO
##NPOINTS= 179
##XYDATA=(XY..XY) 1 
    26          3
    27         27
    28         22
    29         75
    30          3
    31         13
    36          6
    39         27
    40          5
    41         64
    42          8
    43         51
    44         20
    45        591
    46         15
    47          3
    50          3
    51         18
    52          5
    53         20
    54          6
    55         64
    56         11
    57         73
    58         10
    59          6
    60          2
    63          7
    64          4
    65         31
    66          7
    67         51
    68          7
    69         24
    70         11
    71         16
    72         11
    73        999
    74         50
    75         35
    76          8
    77         45
    78         32
    79         62
    80         16
    81        153
    82         15
    83         16
    84          5
    85          8
    86          3
    87          4
    89          9
    90          4
    91        486
    92         53
    93         19
    94          6
    95         19
    96         12
    97         39
    98         31
    99         37
   100          3
   101          6
   102          9
   103         31
   104         77
   105         89
   106         11
   107        176
   108         21
   109          9
   110          3
   111          9
   112          3
   113          4
   115         86
   116         25
   117        238
   118         33
   119         12
   120         39
   121         15
   122          4
   123          5
   124          3
   125         13
   126          3
   127         12
   128         36
   129        123
   130         72
   131         34
   132          7
   133         15
   134          7
   135          8
   137          4
   139          4
   141         46
   142         23
   143        100
   144         28
   145         15
   146          4
   147          6
   148          4
   149          3
   150          2
   151          3
   152          5
   153          6
   154          4
   155         13
   156          9
   157         32
   158        649
   159        125
   160         16
   161          5
   162          4
   163          3
   164          3
   165          5
   166          3
   167         12
   168          5
   169         13
   170         10
   171         15
   172          7
   173          9
   174          4
   175          4
   176          3
   177          3
   178          4
   179          3
   180          4
   181          5
   182          4
   183         31
   184         94
   185        585
   186        123
   187         19
   188          4
   189          3
   191          3
   192          2
   193          3
   195          3
   196          3
   197          9
   198          4
   199          5
   200          4
   201         87
   202        156
   203         80
   204         32
   205         10
   210          5
   211          5
   212         39
   213         14
   214          6
   215          5
   216          3
   217          3
   218          4
   219          4
   220          3
   230         58
   231         13
   232          3
   276         16
   277          4