##TITLE=Library Entry 76472
##JCAMP-DX=Revision 4.10 
##DATA TYPE=MASS SPECTRUM
##SAMPLE DESCRIPTION=Div. of Experiment Therapeutics WRAIR, WRAMC, Washingto
n DC 20307
##NAMES=HP
##CAS NAME=4,6-Diamino-5-[2,2-diethoxyethyl]-2-mercaptopyrimidine
##MOLFORM=C10H18N4O2S
##CAS REGISTRY NO=74895-38-8
##MP= -300
##BP= -300
##MW= 258
##$RETENTION INDEX=0
##$CONDENSED SPECTRUM=NO
##NPOINTS= 133
##XYDATA=(XY..XY) 1 
    41          7
    42          3
    43         98
    44         11
    45         33
    47        276
    48          3
    49          2
    52         49
    53         39
    54        101
    55         13
    56          5
    57          2
    58          2
    59          1
    60         63
    61          2
    62          2
    64          3
    65          2
    66          8
    67         16
    68         18
    69         15
    70         18
    71          3
    72          4
    73          2
    75        300
    76         18
    79        123
    80         16
    81         20
    82         12
    83         10
    84         10
    85         26
    86          8
    87          2
    88          1
    89          2
    91          2
    92          3
    93          2
    94          3
    96        239
    97         15
    98         18
    99          2
   100          1
   101          0
   103        999
   104         61
   105          7
   106          5
   107         10
   108         34
   109         22
   110          5
   111         10
   112         12
   113          6
   114          2
   115          1
   121          7
   122          4
   123          7
   124         14
   125          8
   126          5
   127          3
   128          2
   129          3
   133          9
   134          2
   135          1
   136          1
   138         61
   139         10
   140          6
   141          3
   142          4
   143          1
   149          2
   150         13
   151          4
   152          5
   153          2
   154         10
   155        202
   156         32
   157         12
   158          1
   159          0
   166         18
   167        151
   168         14
   169         13
   170          1
   171          1
   177          0
   179          1
   181          1
   183         49
   184         15
   185          5
   186          1
   195          0
   198          0
   201          1
   210          1
   211          2
   212          9
   213        260
   214         27
   215         13
   216          1
   218          0
   225          1
   226          0
   228          1
   229          4
   230          1
   242          0
   243          1
   244          0
   256          1
   257          1
   258        228
   259         31
   260         12
   261          1