##TITLE=Library Entry 71127
##JCAMP-DX=Revision 4.10 
##DATA TYPE=MASS SPECTRUM
##SAMPLE DESCRIPTION=NIST Mass Spectrometry Data Center, 1998.
##NAMES=HP
##CAS NAME=Piracetam
##MOLFORM=C6H10N2O2
##CAS REGISTRY NO=7491-74-9
##MP= -300
##BP= -300
##MW= 142
##$RETENTION INDEX=1640
##$CONDENSED SPECTRUM=NO
##NPOINTS= 64
##XYDATA=(XY..XY) 1 
    14          4
    15         21
    16          5
    26         18
    27         73
    28        201
    29         24
    30         78
    31          6
    33          1
    34          1
    37          6
    38         17
    39        152
    40         52
    41        542
    42        441
    43        287
    44        204
    45          6
    46          1
    50          1
    51          3
    52          9
    53         17
    54         34
    55         55
    56         62
    57          8
    58         17
    59        114
    60         38
    61          1
    64          1
    66          3
    67          7
    68        155
    69        351
    70        628
    71         66
    72          3
    73          1
    80         11
    81          1
    82          1
    83         37
    84        545
    85         30
    86          3
    87          4
    95          1
    96         16
    97         27
    98        999
    99        168
   100         11
   113          1
   114          4
   123          2
   124          4
   125         27
   126          3
   142        129
   143         10