##TITLE=Library Entry 43182
##JCAMP-DX=Revision 4.10 
##DATA TYPE=MASS SPECTRUM
##SAMPLE DESCRIPTION=James Shoemaker, St. Louis Online Library of Metabolic
 Mass Spectra
##NAMES=HP
##CAS NAME=Aldosterone, bis(O-trimethylsilyl-)
##MOLFORM=C27H44O5Si2
##CAS REGISTRY NO=74915-86-9
##MP= -300
##BP= -300
##MW= 504
##$RETENTION INDEX=0
##$CONDENSED SPECTRUM=NO
##NPOINTS= 127
##XYDATA=(XY..XY) 1 
    55          6
    59          9
    69         28
    71          4
    72          9
    73        999
    74         87
    75        115
    77         24
    83         37
    84          9
    85        209
    86          5
    97         16
    98         68
    99        201
   100         24
   110          3
   111         80
   112          2
   113          6
   115          5
   116         23
   117         10
   124          4
   125         18
   126         10
   127        580
   128         28
   129          3
   130          3
   131          8
   132          2
   133         15
   134          4
   141         32
   142          2
   143          2
   147        120
   148          9
   149          7
   152          2
   153          2
   154          3
   155         10
   156          2
   157         27
   158          6
   167          1
   168          8
   169          1
   170          2
   171        134
   172         17
   173         14
   174          7
   182          4
   183          2
   185         12
   186          4
   187         14
   188          3
   196          3
   198          7
   199         13
   200         25
   201        779
   202        100
   203         16
   207          1
   210          1
   211          6
   212          2
   213          1
   215         22
   216        296
   217         29
   223          1
   225         75
   226          9
   227          2
   229          7
   239          6
   240         41
   241         12
   242          2
   244        149
   245         16
   246          1
   253          3
   254          2
   255          1
   256          5
   267          2
   268          7
   269          9
   270          5
   271          9
   272          1
   273          1
   281          1
   282          1
   283          1
   289         18
   295          2
   297        340
   298         77
   300         20
   301          4
   312         11
   314         52
   315          9
   317          1
   327          2
   341          6
   342          2
   343          5
   358          8
   359          2
   388          5
   389         10
   416        102
   417         17
   418          6
   431         55
   432         11
   433          2