##TITLE=Library Entry 38299
##JCAMP-DX=Revision 4.10 
##DATA TYPE=MASS SPECTRUM
##SAMPLE DESCRIPTION=NIST Mass Spectrometry Data Center, 1992
##NAMES=HP
##CAS NAME=Butanoic acid, 2-butoxy-1-methyl-2-oxoethyl ester
##MOLFORM=C11H20O4
##CAS REGISTRY NO=7492-70-8
##MP= -300
##BP= -300
##MW= 216
##$RETENTION INDEX=1733
##$CONDENSED SPECTRUM=NO
##NPOINTS= 83
##XYDATA=(XY..XY) 1 
    12          0
    13          0
    14          2
    15         22
    16          0
    17          1
    18          4
    19          3
    24          0
    26         22
    27        183
    28         92
    29        187
    30          6
    31         11
    37          1
    39         70
    41        243
    42         93
    43        513
    44         25
    45         69
    46          1
    47          0
    50          0
    51          0
    52          0
    53          4
    55         48
    56         60
    57         93
    58          4
    59          1
    60          5
    61          1
    63          6
    64          0
    66          0
    68          1
    69          8
    71        999
    72         49
    73         18
    74          3
    75          0
    82          0
    83          0
    85          7
    86          5
    87          1
    88          6
    89          7
    90          4
    91         10
    92          0
    98          0
    99          1
   100          3
   101          7
   102          0
   104          1
   105          1
   115        137
   116         12
   117          1
   126          0
   129          1
   132          1
   133         11
   134          0
   143         32
   144          3
   145          0
   146          1
   147          1
   161          9
   162          0
   172         32
   173          3
   174          0
   188          2
   189          0
   217          0