##TITLE=Library Entry 68536
##JCAMP-DX=Revision 4.10 
##DATA TYPE=MASS SPECTRUM
##SAMPLE DESCRIPTION=Exported from NIST MS Search
##NAMES=HP
##CAS NAME=Bicyclo[2.2.1]heptan-2-ol, 1,7,7-trimethyl-, formate, endo-
##MOLFORM=C11H18O2
##CAS REGISTRY NO=7492-41-3
##MP= -300
##BP= -300
##MW= 182
##$RETENTION INDEX=1226
##$CONDENSED SPECTRUM=NO
##NPOINTS= 61
##XYDATA=(XY..XY) 1 
    27         91
    28         23
    29        116
    31          8
    39        103
    40         19
    41        294
    42         22
    43        171
    45          7
    51         20
    52          9
    53         80
    54         14
    55        164
    56         16
    57         38
    65         28
    66         14
    67        105
    68         39
    69        117
    70         25
    71         87
    72         17
    77         63
    78         14
    79         82
    80         95
    81         99
    82         77
    83         52
    84         26
    85          8
    91         53
    92         88
    93        362
    94         61
    95        999
    96         78
    97         12
    98          6
    99         12
   105         25
   106          5
   107         55
   108         60
   109         29
   110        151
   111         32
   113          7
   119          6
   121        363
   122         36
   123         12
   136        342
   137         47
   139         13
   154         18
   167         32
   182          5