##TITLE=Library Entry 25903
##JCAMP-DX=Revision 4.10 
##DATA TYPE=MASS SPECTRUM
##SAMPLE DESCRIPTION=COMPAGNIE FRANCAISE DE RAFFINAGE, FRANCE.
##NAMES=HP
##CAS NAME=4-Octanone, 2-methyl-
##MOLFORM=C9H18O
##CAS REGISTRY NO=7492-38-8
##MP= -300
##BP= -300
##MW= 142
##$RETENTION INDEX=1327
##$CONDENSED SPECTRUM=NO
##NPOINTS= 64
##XYDATA=(XY..XY) 1 
    26         15
    27        159
    28         65
    29        300
    30          7
    31          6
    37          2
    38          8
    39        101
    40         18
    41        350
    42         58
    43        179
    44         17
    45          3
    50          2
    51          6
    52          2
    53         18
    54          5
    55         70
    56         35
    57        999
    58        400
    59         25
    60          1
    65          2
    66          1
    67         11
    68          3
    69         19
    70          3
    71         27
    72         25
    73          2
    77          2
    79          3
    81          6
    82          2
    83         21
    84          9
    85        759
    86         43
    87          2
    91          1
    95          4
    96          1
    97          5
    98          3
   100         57
   101          4
   105          1
   109          2
   111          3
   113         13
   114          2
   123          1
   124          4
   125          1
   126          1
   127         25
   128          2
   142        100
   143         10