##TITLE=Library Entry 33989
##JCAMP-DX=Revision 4.10 
##DATA TYPE=MASS SPECTRUM
##SAMPLE DESCRIPTION=RADIAN CORP
##NAMES=HP
##CAS NAME=2,6-Octadiene, 1,1-diethoxy-3,7-dimethyl-
##MOLFORM=C14H26O2
##CAS REGISTRY NO=7492-66-2
##MP= -300
##BP= -300
##MW= 226
##$RETENTION INDEX=0
##$CONDENSED SPECTRUM=NO
##NPOINTS= 94
##XYDATA=(XY..XY) 1 
    15          3
    26          4
    27         90
    28         20
    29        234
    30          8
    31         32
    39        118
    40         23
    41        614
    42         33
    43        162
    44         15
    45         28
    46          2
    47        178
    51         15
    52          8
    53         86
    54         16
    55        172
    56         45
    57         48
    58          2
    59        220
    60         11
    65         26
    66          9
    67         87
    68         17
    69        999
    70         59
    71         64
    72         10
    73         39
    75        207
    76          9
    77         10
    78          2
    79         13
    80          7
    81         24
    82          7
    83         85
    84         29
    85         29
    86          2
    87        220
    88         13
    89          1
    91         34
    92          7
    93        110
    94         13
    95         32
    96          7
    97        116
    98          9
    99         67
   100         52
   101         18
   103        216
   104         12
   105         11
   106          2
   107         76
   108         16
   109         51
   110          6
   111         11
   112         85
   113         60
   114          3
   115         15
   119         17
   121         16
   123         15
   125          2
   127          8
   129          2
   134          7
   135         36
   136          9
   137         39
   138          5
   139          7
   140          2
   143         32
   151          9
   157         10
   165         17
   180         15
   181         77
   182         10