##TITLE=Library Entry 97241
##JCAMP-DX=Revision 4.10 
##DATA TYPE=MASS SPECTRUM
##SAMPLE DESCRIPTION=V.Zaikin,Topchiev Inst.Petrochem.Synth.,Moscow
##NAMES=HP
##CAS NAME=Benzeneacetic acid, 3-phenyl-2-propenyl ester
##MOLFORM=C17H16O2
##CAS REGISTRY NO=7492-65-1
##MP= -300
##BP= -300
##MW= 252
##$RETENTION INDEX=1820
##$CONDENSED SPECTRUM=NO
##NPOINTS= 142
##XYDATA=(XY..XY) 1 
    22          1
    25          1
    26         11
    27         18
    28          5
    29         11
    30          2
    31          2
    35          4
    36         35
    37          4
    38         10
    39         82
    40          8
    41         22
    42          3
    43          8
    44          2
    45         32
    46          2
    47          2
    49          2
    50         27
    51         59
    52         18
    53          6
    54          2
    55          8
    56          2
    57          8
    58          5
    59          6
    60          2
    61          7
    62         17
    63         55
    64         15
    65        120
    66         10
    67          3
    69          3
    71          2
    73         12
    74         10
    75         17
    76         14
    77        264
    78         48
    79         29
    80          2
    81          2
    82          1
    83          2
    85          2
    86          4
    87          6
    88          3
    89         68
    90         48
    91        945
    92        131
    93         10
    94          2
    95          2
    96          4
    97          2
   101          2
   102         21
   103         35
   104         18
   105         61
   106          9
   107          4
   108          1
   109          2
   110          2
   113          4
   114          4
   115        376
   116        151
   117        999
   118        392
   119         65
   120          6
   121          2
   122          3
   123          1
   126          5
   127          1
   128          4
   129          3
   130          2
   131         19
   132          8
   133        229
   134         44
   135          9
   136         55
   137         11
   139          3
   140          1
   141          2
   144          1
   145          2
   147          4
   148          2
   149          2
   151          9
   152          3
   153          2
   156          1
   160          3
   161         21
   162          2
   163          2
   165          3
   166          1
   167          7
   168         14
   169          7
   170          1
   176          1
   177          4
   178          4
   179          2
   180          4
   181          1
   184          1
   189          1
   191          9
   192          2
   193         13
   194          3
   195          2
   197          1
   203          2
   205          3
   206          2
   251          2
   252        123
   253         24
   254          2