##TITLE=Library Entry 100239
##JCAMP-DX=Revision 4.10 
##DATA TYPE=MASS SPECTRUM
##SAMPLE DESCRIPTION=NIST Mass Spectrometry Data Center, 1998.
##NAMES=HP
##CAS NAME=Benzoic acid, 2-amino-, 2-propenyl ester
##MOLFORM=C10H11NO2
##CAS REGISTRY NO=7493-63-2
##MP= -300
##BP= -300
##MW= 177
##$RETENTION INDEX=0
##$CONDENSED SPECTRUM=NO
##NPOINTS= 94
##XYDATA=(XY..XY) 1 
    15          3
    25          1
    26          8
    27         24
    28          9
    29         17
    30          2
    31          3
    37         11
    38         37
    39        209
    40         21
    41        151
    42         16
    43          1
    44          3
    45          3
    46          4
    49          1
    50         17
    51         18
    52         65
    53         21
    54         16
    55          8
    56         53
    57          8
    58          4
    60          3
    61          8
    62         25
    63         88
    64         93
    65        431
    66         69
    67          5
    68          2
    73          1
    74          8
    75          8
    76         15
    77         28
    78         19
    79         10
    80          7
    81          2
    87          1
    88          2
    89          7
    90         28
    91         96
    92        567
    93        189
    94         14
    95          1
   102          3
   103         20
   104         37
   105         22
   106         11
   107          3
   108          1
   115          7
   116          4
   117         13
   118         10
   119        999
   120        838
   121         91
   122          6
   123          1
   128          3
   130        173
   131         49
   132        136
   133         19
   134          3
   135          4
   136          1
   137          9
   138          1
   144          2
   146          7
   147          1
   148          4
   149          1
   150          2
   156          1
   158         40
   159         21
   160          4
   177        717
   178         83
   179          7