##TITLE=Library Entry 2472
##JCAMP-DX=Revision 4.10 
##DATA TYPE=MASS SPECTRUM
##SAMPLE DESCRIPTION=NIST Mass Spectrometry Data Center, 1990.
##NAMES=HP
##CAS NAME=Allyl nonanoate
##MOLFORM=C12H22O2
##CAS REGISTRY NO=7493-72-3
##MP= -300
##BP= -300
##MW= 198
##$RETENTION INDEX=1376
##$CONDENSED SPECTRUM=NO
##NPOINTS= 74
##XYDATA=(XY..XY) 1 
    15         26
    17          5
    18          1
    26         26
    27        212
    28         70
    29        301
    30         11
    31         13
    37          6
    38         27
    39        284
    40         93
    41        999
    42        168
    43        597
    44         31
    45         19
    51          5
    52          6
    53         30
    54        122
    55        490
    56        166
    57        548
    58         98
    59         28
    60         12
    65          5
    66          8
    67         77
    68         35
    69        194
    70         46
    71        316
    72         30
    73         40
    77          5
    79         19
    81        109
    82         67
    83         68
    84         30
    85         36
    86          4
    87          8
    93         20
    94          7
    95         33
    96         16
    97         93
    98         19
    99         42
   100        208
   101         30
   102          4
   109          4
   111         13
   113        122
   114         10
   115          4
   121         22
   122          5
   123         18
   127         14
   138          3
   139         21
   141        253
   142         26
   155         29
   157          3
   169         22
   170          3
   183          2