##TITLE=Library Entry 8783
##JCAMP-DX=Revision 4.10 
##DATA TYPE=MASS SPECTRUM
##SAMPLE DESCRIPTION=NIST Mass Spectrometry Data Center, 1990.
##NAMES=HP
##CAS NAME=Allyl 2-ethyl butyrate
##MOLFORM=C9H16O2
##CAS REGISTRY NO=7493-69-8
##MP= -300
##BP= -300
##MW= 156
##$RETENTION INDEX=995
##$CONDENSED SPECTRUM=NO
##NPOINTS= 66
##XYDATA=(XY..XY) 1 
    14          2
    15         21
    16          1
    18          1
    26         25
    27        184
    28         45
    29        196
    30          6
    31         12
    32          0
    37          7
    38         27
    39        239
    40         53
    41        486
    42        103
    43        999
    44         35
    45         43
    46          1
    47          1
    50          2
    51          5
    53         19
    55        184
    56         15
    57         47
    58         17
    59          9
    60          1
    63          1
    65          1
    66          1
    67          6
    68          8
    69         70
    70         74
    71        646
    72         35
    73         13
    74          5
    81          5
    82          4
    83         32
    84          2
    85          7
    86          2
    87         13
    88          4
    95          1
    96          1
    97          5
    98          1
    99        215
   100         53
   101          3
   109          1
   113         12
   114          1
   115          1
   117          3
   127          5
   128         36
   129          2
   156          2