##TITLE=Library Entry 17357
##JCAMP-DX=Revision 4.10 
##DATA TYPE=MASS SPECTRUM
##SAMPLE DESCRIPTION=W.Jennings, T.Shibamoto
##NAMES=HP
##CAS NAME=Benzene, [2-(1-propoxyethoxy)ethyl]-
##MOLFORM=C13H20O2
##CAS REGISTRY NO=7493-57-4
##MP= -300
##BP= -300
##MW= 208
##$RETENTION INDEX=0
##$CONDENSED SPECTRUM=NO
##NPOINTS= 30
##XYDATA=(XY..XY) 1 
    23         58
    27         29
    31         18
    39          8
    41         32
    43        495
    44         41
    45        999
    46         38
    58         62
    59          7
    60          8
    61         33
    65          9
    77         52
    78         78
    79        108
    87        653
    88         69
    89         19
    91        242
    92         48
   102         12
   103        128
   104        293
   105        542
   106        158
   117         30
   118         33
   149         69