##TITLE=Library Entry 7242
##JCAMP-DX=Revision 4.10 
##DATA TYPE=MASS SPECTRUM
##SAMPLE DESCRIPTION=H. Fales, LC, NHLBI, NIH, Bethesda, MD 20892
##NAMES=HP
##CAS NAME=26-Nor-5-cholesten-3.beta.-ol-25-one
##MOLFORM=C26H42O2
##CAS REGISTRY NO=7494-34-0
##MP= -300
##BP= -300
##MW= 386
##$RETENTION INDEX=0
##$CONDENSED SPECTRUM=NO
##NPOINTS= 232
##XYDATA=(XY..XY) 1 
    41        131
    42         11
    43        999
    44         28
    45         15
    49          4
    50          3
    51          8
    52          4
    53         37
    54          3
    55        214
    56         14
    57         69
    58        206
    59         13
    60          2
    61          1
    63          2
    65         20
    66          9
    67        107
    68         17
    69         56
    70          7
    71         45
    72          3
    73          2
    74          2
    75          2
    77         72
    78         40
    79        141
    80         19
    81        138
    82         16
    83         27
    84          5
    85         19
    89          5
    91        143
    92         31
    93        101
    94         30
    95        110
    96         14
    97         19
    98          2
    99          4
   102          1
   103         13
   104          9
   105        138
   106         38
   107        121
   108         26
   109         51
   110          8
   111          9
   113         47
   114          4
   115         18
   116          9
   117         48
   118         21
   119         83
   120         50
   121         64
   122         19
   123         23
   124         16
   125         11
   127          5
   128         14
   129         29
   130         14
   131         61
   132         19
   133         66
   134         21
   135         42
   136         10
   137          8
   138          6
   139          5
   141         10
   142          9
   143         48
   144         17
   145         92
   146         23
   147         51
   148         16
   149         26
   150          5
   151          6
   152          3
   153          3
   154          3
   155          7
   156          5
   157         28
   158         31
   159         65
   160         36
   161         60
   162         14
   163         21
   164          5
   165          4
   167          2
   168          1
   169          5
   170          3
   171         29
   172         11
   173         39
   174         12
   175         18
   176          9
   177          9
   178         19
   179          5
   181          2
   183          6
   184          3
   185         27
   186         13
   187         26
   188          6
   189         14
   190          4
   191          5
   192          3
   193          3
   195          2
   197          8
   198          3
   199         30
   200          9
   201         16
   202          4
   203          6
   204          2
   205          4
   206          5
   207          4
   209          1
   211          7
   212          3
   213        105
   214         25
   215         16
   216          4
   217         10
   218          4
   219          5
   220          3
   225          3
   226          1
   227         10
   228         20
   229         16
   230          4
   231         29
   232          8
   233          3
   237          1
   239          5
   240          2
   241          4
   242          1
   243          3
   245          4
   246         12
   247         15
   248          4
   253          4
   254          2
   255         48
   256         10
   257          9
   258          3
   259          3
   260          3
   261          6
   262          3
   269          1
   271          9
   272          5
   273         29
   274         21
   275         58
   276         11
   283          3
   285          1
   287          2
   295          2
   299         11
   300          5
   301         48
   302         11
   303          2
   304          1
   311          2
   313          3
   314          3
   315          1
   316          1
   325          1
   326         11
   327          7
   328          4
   329          4
   335          2
   339          1
   340          1
   342          1
   343          1
   353         42
   354         11
   355          1
   368         80
   369         28
   370          5
   371         33
   372          9
   373          1
   384          4
   386        170
   387         53
   388          9