##TITLE=Library Entry 79659
##JCAMP-DX=Revision 4.10 
##DATA TYPE=MASS SPECTRUM
##SAMPLE DESCRIPTION=Chemical Concepts
##NAMES=HP
##CAS NAME=Acetic acid, diphenylethoxy-
##MOLFORM=C16H16O3
##CAS REGISTRY NO=7495-45-6
##MP= -300
##BP= -300
##MW= 256
##$RETENTION INDEX=0
##$CONDENSED SPECTRUM=NO
##NPOINTS= 46
##XYDATA=(XY..XY) 1 
    39         39
    43         21
    44        146
    45         84
    50         37
    51        109
    52         13
    62         13
    63         24
    65          9
    74         14
    75         17
    77        609
    78         39
    79          8
    82         27
    87          9
    89         16
    91          9
   102          9
   105        999
   106         66
   107          7
   113          8
   115         21
   127          8
   128          9
   133          8
   139         19
   151          9
   152         37
   153         15
   163         19
   164         32
   165        166
   166         65
   167         47
   168          9
   181         24
   182         26
   183        368
   184         50
   209          7
   211        556
   212         95
   213         10