##TITLE=Library Entry 81672
##JCAMP-DX=Revision 4.10 
##DATA TYPE=MASS SPECTRUM
##SAMPLE DESCRIPTION=CHBEAM,111(2)673(1978); H. BRUNNER AND J. DOPPELBERGER
##NAMES=HP
##CAS NAME=Phosphinous amide, P,P-diphenyl-N-(1-phenylethyl)-N-(phenylmethyl
)-, (S)-
##MOLFORM=C27H26NP
##CAS REGISTRY NO=74952-81-1
##MP= -300
##BP= -300
##MW= 395
##$RETENTION INDEX=0
##$CONDENSED SPECTRUM=NO
##NPOINTS= 12
##XYDATA=(XY..XY) 1 
   105        999
   108        260
   109        230
   183        630
   185        650
   196        830
   209        550
   211         70
   214        410
   262        360
   290        170
   395         90