##TITLE=Library Entry 23429
##JCAMP-DX=Revision 4.10 
##DATA TYPE=MASS SPECTRUM
##SAMPLE DESCRIPTION=NIST Mass Spectrometry Data Center, 1990.
##NAMES=HP
##CAS NAME=2-Tridecen-1-ol, (E)-
##MOLFORM=C13H26O
##CAS REGISTRY NO=74962-98-4
##MP= -300
##BP= -300
##MW= 198
##$RETENTION INDEX=1570
##$CONDENSED SPECTRUM=NO
##NPOINTS= 96
##XYDATA=(XY..XY) 1 
    15         12
    17          4
    18         20
    19          3
    27        301
    28         49
    29        525
    30         16
    31        108
    33          0
    39        222
    41        839
    42        204
    43        713
    44        112
    45         30
    46          1
    50          4
    51         14
    52         13
    53         89
    54        207
    55        518
    56        240
    57        999
    58         66
    59          7
    60          0
    63          2
    65         26
    66         57
    67        330
    68        303
    69        292
    70        175
    71        174
    72         39
    73         10
    74          1
    77         17
    78          6
    79         45
    80         32
    81        277
    82        387
    83        212
    84         72
    85         60
    86          9
    87          1
    91          7
    92          1
    93         11
    94         19
    95        186
    96        208
    97        111
    98         34
    99         16
   100          2
   107          2
   109         73
   110         65
   111         37
   112         14
   113          5
   114          1
   115          0
   121          2
   122          4
   123         35
   124         47
   125         13
   126         11
   127          2
   128          0
   135          1
   136          1
   137         16
   138         15
   139          3
   140          1
   141          1
   151          5
   152         17
   153          2
   154          5
   155          1
   165          1
   169          1
   170          0
   180         14
   181          2
   182          1
   198          2
   199          0