##TITLE=Library Entry 84920
##JCAMP-DX=Revision 4.10 
##DATA TYPE=MASS SPECTRUM
##SAMPLE DESCRIPTION=B.J.DOWTY LOUISIANA STATE UNIV., NEW ORLEANS, LOUISIANA
, USA
##NAMES=HP
##CAS NAME=Heptadecanoic acid, phenylmethyl ester
##MOLFORM=C24H40O2
##CAS REGISTRY NO=74978-19-1
##MP= -300
##BP= -300
##MW= 360
##$RETENTION INDEX=0
##$CONDENSED SPECTRUM=NO
##NPOINTS= 56
##XYDATA=(XY..XY) 1 
    71        165
    77         25
    79         35
    81         40
    83        100
    84         35
    85        105
    90         45
    91        950
    92        335
    93         35
    95         45
    96         20
    97         90
    98         40
    99         30
   105         30
   107         55
   108        999
   109        100
   111         55
   112         20
   113         20
   115         20
   123         20
   125         40
   129         25
   139         40
   153         30
   157         20
   163         15
   167         20
   171         15
   177         15
   181         20
   185         20
   191         10
   195         15
   199         10
   206         10
   208         10
   209         10
   213         10
   233         10
   250         30
   251         55
   252        100
   253         20
   254         70
   268         15
   269        200
   270         35
   342         10
   360        110
   361         30
   362         10