##TITLE=Library Entry 83673
##JCAMP-DX=Revision 4.10 
##DATA TYPE=MASS SPECTRUM
##SAMPLE DESCRIPTION=Chemical Concepts
##NAMES=HP
##CAS NAME=Benzenepropanoic acid, .beta.-hydroxy-, methyl ester
##MOLFORM=C10H12O3
##CAS REGISTRY NO=7497-61-2
##MP= -300
##BP= -300
##MW= 180
##$RETENTION INDEX=0
##$CONDENSED SPECTRUM=NO
##NPOINTS= 90
##XYDATA=(XY..XY) 1 
    26          2
    27         17
    29         19
    30          1
    31         10
    33          3
    37          1
    38          4
    39         34
    40          2
    41          9
    42         26
    43        135
    44         11
    45          6
    49          1
    50         34
    51        113
    52         33
    53         13
    54          1
    55          4
    56          1
    57          3
    59         23
    60          2
    61          6
    62          5
    63         17
    64          4
    65         21
    66          3
    67          1
    69          6
    70          1
    71         11
    73          3
    74        158
    75         25
    76         20
    77        349
    78        120
    79        598
    80         47
    81          2
    85          1
    87          2
    88          3
    89          9
    90          3
    91         43
    92          7
    93          2
    94          3
    95          1
   101          4
   102         13
   103         66
   104         49
   105        343
   106        232
   107        999
   108         88
   109          7
   114          1
   115          2
   117          2
   118          2
   119          5
   120        125
   121         28
   122          4
   123          1
   131         22
   132          3
   133         11
   134          4
   137          2
   147         13
   148         22
   149         40
   150          4
   161          6
   162          6
   163          6
   165          3
   179         14
   180        367
   181         42
   182          4