##TITLE=Library Entry 76474
##JCAMP-DX=Revision 4.10 
##DATA TYPE=MASS SPECTRUM
##SAMPLE DESCRIPTION=W.K.ROHWEDDER US DEPT. OF AGRICULT., PEORIA, ILLINOIS,
 USA
##NAMES=HP
##CAS NAME=Nonanoic acid, 9,9-diethoxy-, ethyl ester
##MOLFORM=C15H30O4
##CAS REGISTRY NO=74987-89-6
##MP= -300
##BP= -300
##MW= 274
##$RETENTION INDEX=1758
##$CONDENSED SPECTRUM=NO
##NPOINTS= 120
##XYDATA=(XY..XY) 1 
    26          2
    27         32
    28          1
    29        114
    30          2
    31         39
    32          1
    38          0
    39         16
    40          7
    41         84
    42         21
    43         51
    44         33
    45         42
    46          6
    47        268
    48          3
    49          1
    51          0
    52          0
    53          9
    54         12
    55        113
    56         15
    57        214
    58         14
    59         34
    60         19
    61         14
    64          7
    65          2
    66          1
    67         79
    68         14
    69         35
    70         16
    71         17
    72         42
    73         28
    74          9
    75        325
    76         11
    77          4
    78         19
    79         13
    80          6
    81         29
    82         12
    83         39
    84         10
    85        194
    86         13
    87         10
    88         20
    89          6
    91          5
    92          5
    93         17
    94         25
    95         35
    96          5
    97         16
    98          7
    99         13
   100          2
   101         26
   102          4
   103        999
   104         57
   105          7
   107         10
   108          8
   109        111
   110         12
   111         15
   112          3
   113          4
   114          1
   115          4
   116          2
   117          1
   119         13
   120          2
   121          2
   123          1
   124          2
   125         14
   126          3
   127          3
   129          6
   135          6
   136         12
   137         34
   138          5
   139          2
   140          2
   141          5
   143          3
   149          6
   152          3
   153         46
   154          8
   155        156
   156         18
   157          4
   171          4
   182          2
   183         29
   184          7
   185          3
   199         15
   200          2
   201          3
   228          1
   229        230
   230         35
   231          5
   257          1
   273          2