##TITLE=Library Entry 89031
##JCAMP-DX=Revision 4.10 
##DATA TYPE=MASS SPECTRUM
##SAMPLE DESCRIPTION=V.A.Korolev, Moscow, Russia
##NAMES=HP
##CAS NAME=(3-Nitrophenyl)(thiophen-2-yl)methanone
##MOLFORM=C11H7NO3S
##CAS REGISTRY NO=7499-69-6
##MP= -300
##BP= -300
##MW= 233
##$RETENTION INDEX=0
##$CONDENSED SPECTRUM=NO
##NPOINTS= 99
##XYDATA=(XY..XY) 1 
    30        187
    36          1
    37         14
    38         45
    39        378
    40         19
    41          2
    42          1
    43          1
    44          9
    45         54
    46         10
    47          1
    49          8
    50        223
    51         37
    52          2
    53         27
    55          1
    56          1
    57         54
    58         18
    59          2
    61         10
    62         25
    63         54
    64         23
    65          7
    66          3
    67          2
    69         28
    70          2
    71          2
    73         10
    74         95
    75        121
    76        259
    77         32
    78          1
    79         38
    81         27
    82         40
    83        189
    84         16
    85         13
    86         12
    87         13
    88          7
    89         18
    90          1
    92         21
    93         16
    95          3
    97          1
    98          8
    99          1
   101          1
   103          9
   104        111
   105          9
   106          1
   108          3
   109          3
   110          5
   111        999
   112        129
   113        100
   114         20
   115         61
   116          5
   119          1
   120          2
   121          3
   122          4
   123          3
   126          2
   132          5
   133          1
   147         11
   148          1
   150         86
   151          7
   158         22
   159         11
   160          2
   185          2
   186         19
   187         19
   188          2
   189          1
   202          1
   203          5
   204          1
   216          9
   217          1
   233        495
   234         65
   235         26
   236          1