##TITLE=Library Entry 56775
##JCAMP-DX=Revision 4.10 
##DATA TYPE=MASS SPECTRUM
##SAMPLE DESCRIPTION=L. Tsai, LB, NHLBI, NIH, Bethesda, MD 20892
##NAMES=HP
##CAS NAME=t-Butyl-isopropylacetamide
##MOLFORM=C9H19NO
##CAS REGISTRY NO=7499-16-3
##MP= -300
##BP= -300
##MW= 157
##$RETENTION INDEX=0
##$CONDENSED SPECTRUM=NO
##NPOINTS= 63
##XYDATA=(XY..XY) 1 
    41        356
    42         41
    43        144
    44        100
    45        139
    47         92
    48          8
    49        319
    51        291
    52          6
    53         26
    54          4
    55         84
    56         15
    57        246
    58         47
    59         30
    61          5
    63         40
    65        212
    66          6
    67         14
    68         11
    69         65
    70          7
    71         16
    72         12
    77          9
    79          9
    81          6
    83         69
    84         16
    86        999
    87         23
    91         36
    92         21
    93         15
    97         11
    98          3
   100        258
   101        415
   102        416
   103          7
   106         10
   107         16
   108          2
   109          2
   113         14
   115        104
   116         16
   125         23
   126         21
   127         28
   128          7
   138          2
   140          5
   141         50
   142         36
   143         10
   156          6
   157        645
   158         60
   159          2