##TITLE=Library Entry 31443
##JCAMP-DX=Revision 4.10 
##DATA TYPE=MASS SPECTRUM
##SAMPLE DESCRIPTION=Japan AIST/NIMC Database- Spectrum MS-NW-3851
##NAMES=HP
##CAS NAME=Ethanethiol
##MOLFORM=C2H6S
##CAS REGISTRY NO=75-08-1
##MP= -300
##BP= -300
##MW= 62
##$RETENTION INDEX=517
##$CONDENSED SPECTRUM=NO
##NPOINTS= 39
##XYDATA=(XY..XY) 1 
    12          3
    13          4
    14          7
    15         13
    17          4
    18         21
    24          3
    25         13
    26        120
    27        605
    28        365
    29        941
    30         22
    31          1
    32         21
    33         39
    34        172
    35        108
    36          9
    37          5
    41          3
    42          1
    43          2
    44         19
    45        154
    46        127
    47        686
    48         18
    49         31
    56         10
    57         55
    58         74
    59         65
    60         12
    61        148
    62        999
    63         36
    64         48
    65          1