##TITLE=Library Entry 86
##JCAMP-DX=Revision 4.10 
##DATA TYPE=MASS SPECTRUM
##SAMPLE DESCRIPTION=THE M.W. KELLOGG CO., JERSEY CITY, N.J., USA
##NAMES=HP
##CAS NAME=Ethene, chloro-
##MOLFORM=C2H3Cl
##CAS REGISTRY NO=75-01-4
##MP= -300
##BP= -300
##MW= 62
##$RETENTION INDEX=363
##$CONDENSED SPECTRUM=NO
##NPOINTS= 22
##XYDATA=(XY..XY) 1 
    25        137
    26        340
    27        999
    28         23
    29          0
    35         87
    36         19
    37         28
    38          6
    47         42
    48         17
    49         14
    50          6
    51          0
    52          0
    59         14
    60         46
    61         68
    62        766
    63         38
    64        242
    65          5