##TITLE=Library Entry 16673
##JCAMP-DX=Revision 4.10 
##DATA TYPE=MASS SPECTRUM
##SAMPLE DESCRIPTION=Japan AIST/NIMC Database- Spectrum MS-NW- 540
##NAMES=HP
##CAS NAME=Formamide
##MOLFORM=CH3NO
##CAS REGISTRY NO=75-12-7
##MP= -300
##BP= -300
##MW= 45
##$RETENTION INDEX=1782
##$CONDENSED SPECTRUM=NO
##NPOINTS= 18
##XYDATA=(XY..XY) 1 
    12          3
    13          2
    14          5
    15         10
    16        121
    17        325
    18         67
    26         12
    27         74
    28         62
    29        342
    30          6
    42         18
    43        108
    44        248
    45        999
    46         16
    47          2