##TITLE=Library Entry 4438
##JCAMP-DX=Revision 4.10 
##DATA TYPE=MASS SPECTRUM
##SAMPLE DESCRIPTION=Exported from NIST MS Search
##NAMES=HP
##CAS NAME=Cyclopropane
##MOLFORM=C3H6
##CAS REGISTRY NO=75-19-4
##MP= -300
##BP= -300
##MW= 42
##$RETENTION INDEX=346
##$CONDENSED SPECTRUM=NO
##NPOINTS= 24
##XYDATA=(XY..XY) 1 
     2          2
    12         10
    13         19
    14         60
    15         54
    16          2
    19         23
    20         19
    21          1
    24          3
    25         18
    26        127
    27        350
    28         25
    29          1
    36         15
    37         99
    38        144
    39        672
    40        314
    41        887
    42        999
    43         33
    44          1