##TITLE=Library Entry 46229
##JCAMP-DX=Revision 4.10 
##DATA TYPE=MASS SPECTRUM
##SAMPLE DESCRIPTION=NIST Mass Spectrometry Data Center, 1990.
##NAMES=HP
##CAS NAME=Carbon disulfide
##MOLFORM=CS2
##CAS REGISTRY NO=75-15-0
##MP= -300
##BP= -300
##MW= 76
##$RETENTION INDEX=549
##$CONDENSED SPECTRUM=NO
##NPOINTS= 15
##XYDATA=(XY..XY) 1 
    12         19
    16          0
    32        142
    33          1
    34          8
    38         47
    39          3
    44        163
    45          3
    46          6
    76        999
    77         28
    78         75
    79          1
    80          2