##TITLE=Library Entry 23036
##JCAMP-DX=Revision 4.10 
##DATA TYPE=MASS SPECTRUM
##SAMPLE DESCRIPTION=Chemical Concepts
##NAMES=HP
##CAS NAME=Trimethylaluminum
##MOLFORM=C3H9Al
##CAS REGISTRY NO=75-24-1
##MP= -300
##BP= -300
##MW= 72
##$RETENTION INDEX=0
##$CONDENSED SPECTRUM=NO
##NPOINTS= 49
##XYDATA=(XY..XY) 1 
    27        218
    28         14
    29         25
    30          1
    31          2
    34          0
    35          0
    36          2
    37          5
    38          2
    39         11
    40         24
    41         77
    42         73
    43         34
    44          3
    45          3
    46          0
    47          0
    48          0
    49          0
    50          2
    51          2
    52          3
    53          2
    54          3
    55         12
    56          8
    57        999
    58         21
    59          0
    60          0
    61          1
    63          0
    64          0
    65          0
    66          1
    67          3
    68          0
    69          1
    70          3
    71          1
    72         39
    73          9
    74          0
    75          0
    76          0
    77          1
    78          1