##TITLE=Library Entry 5846
##JCAMP-DX=Revision 4.10 
##DATA TYPE=MASS SPECTRUM
##SAMPLE DESCRIPTION=Exported from NIST MS Search
##NAMES=HP
##CAS NAME=Isobutane
##MOLFORM=C4H10
##CAS REGISTRY NO=75-28-5
##MP= -300
##BP= -300
##MW= 58
##$RETENTION INDEX=366
##$CONDENSED SPECTRUM=NO
##NPOINTS= 34
##XYDATA=(XY..XY) 1 
    12          1
    13          2
    14         10
    15         68
    16          2
    19          1
    20          1
    25          1
    26         22
    27        278
    28         29
    29         62
    30          1
    36          1
    37         11
    38         26
    39        173
    40         27
    41        384
    42        323
    43        999
    44         33
    45          1
    49          2
    50          8
    51          7
    52          2
    53          6
    54          1
    55          5
    56          4
    57         31
    58         26
    59          1