##TITLE=Library Entry 52862
##JCAMP-DX=Revision 4.10 
##DATA TYPE=MASS SPECTRUM
##SAMPLE DESCRIPTION=NIST Mass Spectrometry Data Center
##NAMES=HP
##CAS NAME=Methane, bromodichloro-
##MOLFORM=CHBrCl2
##CAS REGISTRY NO=75-27-4
##MP= -300
##BP= -300
##MW= 162
##$RETENTION INDEX=706
##$CONDENSED SPECTRUM=NO
##NPOINTS= 43
##XYDATA=(XY..XY) 1 
    12          2
    13          7
    35         50
    36          5
    37         17
    38          1
    47        202
    48        143
    49         69
    50         48
    63          1
    64          1
    70          2
    72          1
    79         90
    80          5
    81         87
    82         28
    83        999
    84         26
    85        670
    86         10
    87        113
    88          1
    91         31
    92         12
    93         31
    94         11
   114          7
   116          9
   118          2
   126          6
   127        105
   128         10
   129        135
   130          3
   131         34
   161          2
   162          2
   163          3
   164          4
   165          1
   166          1