##TITLE=Library Entry 39860
##JCAMP-DX=Revision 4.10 
##DATA TYPE=MASS SPECTRUM
##SAMPLE DESCRIPTION=Japan AIST/NIMC Database- Spectrum MS-NW-8856
##NAMES=HP
##CAS NAME=Trimethylamine, compd. with borane (1:1)
##MOLFORM=C3H12BN
##CAS REGISTRY NO=75-22-9
##MP= -300
##BP= -300
##MW= 73
##$RETENTION INDEX=0
##$CONDENSED SPECTRUM=NO
##NPOINTS= 46
##XYDATA=(XY..XY) 1 
    11          2
    12          4
    13         16
    14          3
    15         45
    16          1
    18          5
    24          1
    25          6
    26         38
    27        130
    28        119
    29         65
    30        174
    31          3
    32          1
    36          1
    37          3
    38          9
    39         22
    40         81
    41        141
    42        187
    43         32
    44         34
    45          1
    50          1
    51          5
    52          7
    53         27
    54        100
    55         83
    56        329
    57         32
    58        612
    59        225
    60          9
    65          1
    66          5
    67          9
    68         42
    69         70
    70        199
    71        307
    72        999
    73         40