##TITLE=Library Entry 5717
##JCAMP-DX=Revision 4.10 
##DATA TYPE=MASS SPECTRUM
##SAMPLE DESCRIPTION=Japan AIST/NIMC Database- Spectrum MS-NW-4952
##NAMES=HP
##CAS NAME=Propane, 2-iodo-
##MOLFORM=C3H7I
##CAS REGISTRY NO=75-30-9
##MP= -300
##BP= -300
##MW= 170
##$RETENTION INDEX=670
##$CONDENSED SPECTRUM=NO
##NPOINTS= 24
##XYDATA=(XY..XY) 1 
    14          2
    15         10
    25          1
    26         13
    27        276
    28         15
    29          2
    36          3
    37          9
    38         15
    39        114
    40         19
    41        357
    42         35
    43        999
    44         33
    45          2
   127         57
   128         10
   139          1
   141          1
   155          7
   170        242
   171          9