##TITLE=Library Entry 15219
##JCAMP-DX=Revision 4.10 
##DATA TYPE=MASS SPECTRUM
##SAMPLE DESCRIPTION=NIST Mass Spectrometry Data Center
##NAMES=HP
##CAS NAME=2-Propanamine
##MOLFORM=C3H9N
##CAS REGISTRY NO=75-31-0
##MP= -300
##BP= -300
##MW= 59
##$RETENTION INDEX=477
##$CONDENSED SPECTRUM=NO
##NPOINTS= 29
##XYDATA=(XY..XY) 1 
    14          2
    15         16
    16          1
    17          1
    18         58
    25          1
    26          8
    27         35
    28         40
    29          8
    30         23
    31          1
    37          5
    38         14
    39         56
    40         33
    41        110
    42        165
    43         73
    44        999
    45         32
    51          3
    52          6
    54          4
    56          6
    57          4
    58         83
    59         27
    60          2