##TITLE=Library Entry 31565
##JCAMP-DX=Revision 4.10 
##DATA TYPE=MASS SPECTRUM
##SAMPLE DESCRIPTION=NIST Mass Spectrometry Data Center, 1998.
##NAMES=HP
##CAS NAME=Ethane, 1,1-dichloro-
##MOLFORM=C2H4Cl2
##CAS REGISTRY NO=75-34-3
##MP= -300
##BP= -300
##MW= 98
##$RETENTION INDEX=558
##$CONDENSED SPECTRUM=NO
##NPOINTS= 41
##XYDATA=(XY..XY) 1 
    13          1
    14          1
    15          3
    24          3
    25         19
    26         86
    27        267
    30          1
    35         36
    36         12
    37         13
    38          4
    47         24
    48         18
    49         11
    50          6
    51          1
    59          5
    60         35
    61         87
    62         81
    63        999
    64         44
    65        325
    66          7
    70          2
    72          1
    82          7
    83        130
    84          6
    85         84
    86          2
    87         14
    95          1
    96          1
    97          7
    98         62
    99          5
   100         39
   101          2
   102          7