##TITLE=Library Entry 34856
##JCAMP-DX=Revision 4.10 
##DATA TYPE=MASS SPECTRUM
##SAMPLE DESCRIPTION=Exported from NIST MS Search
##NAMES=HP
##CAS NAME=Fluoroform
##MOLFORM=CHF3
##CAS REGISTRY NO=75-46-7
##MP= -300
##BP= -300
##MW= 70
##$RETENTION INDEX=154
##$CONDENSED SPECTRUM=NO
##NPOINTS= 12
##XYDATA=(XY..XY) 1 
    12          4
    13          2
    19          7
    20          1
    31        240
    32         23
    39          1
    50        121
    51        629
    52          7
    69        999
    70         11