##TITLE=Library Entry 18098
##JCAMP-DX=Revision 4.10 
##DATA TYPE=MASS SPECTRUM
##SAMPLE DESCRIPTION=Exported from NIST MS Search
##NAMES=HP
##CAS NAME=Difluorochloromethane
##MOLFORM=CHClF2
##CAS REGISTRY NO=75-45-6
##MP= -300
##BP= -300
##MW= 86
##$RETENTION INDEX=268
##$CONDENSED SPECTRUM=NO
##NPOINTS= 33
##XYDATA=(XY..XY) 1 
    12         34
    13         40
    14          1
    16          1
    19         19
    20          2
    24          6
    25          2
    31        169
    32         96
    33          2
    34          1
    35        124
    36         15
    37         38
    38          5
    47         27
    48          5
    49          8
    50         58
    51        999
    52         11
    54          1
    56          1
    66         20
    67        150
    68          8
    69         48
    70          1
    85         14
    86         13
    87          5
    88          4