##TITLE=Library Entry 28223
##JCAMP-DX=Revision 4.10 
##DATA TYPE=MASS SPECTRUM
##SAMPLE DESCRIPTION=Japan AIST/NIMC Database- Spectrum MS-IW-4392
##NAMES=HP
##CAS NAME=Methylamine, N,N-dimethyl-
##MOLFORM=C3H9N
##CAS REGISTRY NO=75-50-3
##MP= -300
##BP= -300
##MW= 59
##$RETENTION INDEX=502
##$CONDENSED SPECTRUM=NO
##NPOINTS= 28
##XYDATA=(XY..XY) 1 
    13          1
    14          6
    15         71
    16         16
    26          5
    27         16
    28         98
    29         54
    30        323
    31          5
    38          3
    39          4
    40         21
    41         33
    42        248
    43         91
    44         51
    45         18
    46          1
    51          1
    52          3
    54          4
    55          2
    56         37
    57         88
    58        999
    59        683
    60         26