##TITLE=Library Entry 21925
##JCAMP-DX=Revision 4.10 
##DATA TYPE=MASS SPECTRUM
##SAMPLE DESCRIPTION=NIST Mass Spectrometry Data Center, 1998.
##NAMES=HP
##CAS NAME=Aziridine, 2-methyl-
##MOLFORM=C3H7N
##CAS REGISTRY NO=75-55-8
##MP= -300
##BP= -300
##MW= 57
##$RETENTION INDEX=618
##$CONDENSED SPECTRUM=NO
##NPOINTS= 30
##XYDATA=(XY..XY) 1 
    12          1
    13          2
    14          9
    15         32
    16          1
    24          2
    25         10
    26         88
    27        161
    28        820
    29        230
    30        270
    31          5
    36          3
    37         16
    38         36
    39         78
    40         69
    41        101
    42        237
    43          8
    50          4
    51         22
    52         38
    53          4
    54         49
    55         13
    56        999
    57        561
    58         21