##TITLE=Library Entry 28131
##JCAMP-DX=Revision 4.10 
##DATA TYPE=MASS SPECTRUM
##SAMPLE DESCRIPTION=Chemical Concepts
##NAMES=HP
##CAS NAME=Tetramethylammonium chloride
##MOLFORM=C4H12ClN
##CAS REGISTRY NO=75-57-0
##MP= -300
##BP= -300
##MW= 109
##$RETENTION INDEX=0
##$CONDENSED SPECTRUM=NO
##NPOINTS= 41
##XYDATA=(XY..XY) 1 
    24          7
    25          2
    26         14
    27         37
    28         79
    29         53
    30        260
    31          3
    35         25
    36          8
    37          9
    38          7
    39         13
    40         48
    41         60
    42        396
    43         82
    44         40
    45          0
    47         36
    48         15
    49         42
    50        599
    51         17
    52        180
    53          2
    54          3
    55          1
    56         24
    57         62
    58        999
    59        488
    60         15
    63          0
    65          0
    66          0
    68          0
    69          1
    73          1
    74         12
    75          0