##TITLE=Library Entry 90322
##JCAMP-DX=Revision 4.10 
##DATA TYPE=MASS SPECTRUM
##SAMPLE DESCRIPTION=NIST Mass Spectrometry Data Center, 1994
##NAMES=HP
##CAS NAME=Silane, dichloromethyl-
##MOLFORM=CH4Cl2Si
##CAS REGISTRY NO=75-54-7
##MP= -300
##BP= -300
##MW= 114
##$RETENTION INDEX=534
##$CONDENSED SPECTRUM=NO
##NPOINTS= 48
##XYDATA=(XY..XY) 1 
    12          4
    13         12
    14         27
    15         56
    28         81
    29         33
    30          4
    31          2
    35         55
    36         23
    37         17
    38          7
    40         18
    41         73
    42         83
    43         82
    44         13
    45          4
    47          4
    48          5
    49          8
    63        503
    64         51
    65        181
    66         14
    67          6
    75          7
    76         21
    77         35
    78        114
    79        157
    80         47
    81         54
    82          4
    98        141
    99        434
   100        119
   101        276
   102         28
   103         50
   104          3
   113        999
   114        110
   115        659
   116         58
   117        114
   118          8
   119          3