##TITLE=Library Entry 74709
##JCAMP-DX=Revision 4.10 
##DATA TYPE=MASS SPECTRUM
##SAMPLE DESCRIPTION=KONINKLIJKE/SHELL LAB., AMSTERDAM, THE NETHERLANDS
##NAMES=HP
##CAS NAME=Trichloromonofluoromethane
##MOLFORM=CCl3F
##CAS REGISTRY NO=75-69-4
##MP= -300
##BP= -300
##MW= 136
##$RETENTION INDEX=473
##$CONDENSED SPECTRUM=NO
##NPOINTS= 37
##XYDATA=(XY..XY) 1 
    19          1
    31         82
    32         10
    35        108
    36         18
    37         35
    38          6
    47         85
    48          1
    49         28
    50          4
    54          0
    56          1
    66        130
    67          2
    68         43
    69          0
    70          5
    72          4
    74          0
    82         40
    83          0
    84         25
    85          6
    86          4
    87          1
   101        999
   102         11
   103        657
   104          7
   105        106
   106          1
   117         21
   119         21
   121          6
   123          0
   136          0