##TITLE=Library Entry 23701
##JCAMP-DX=Revision 4.10 
##DATA TYPE=MASS SPECTRUM
##SAMPLE DESCRIPTION=Japan AIST/NIMC Database- Spectrum MS-NW-3796
##NAMES=HP
##CAS NAME=2-Propanethiol, 2-methyl-
##MOLFORM=C4H10S
##CAS REGISTRY NO=75-66-1
##MP= -300
##BP= -300
##MW= 90
##$RETENTION INDEX=602
##$CONDENSED SPECTRUM=NO
##NPOINTS= 53
##XYDATA=(XY..XY) 1 
    14          3
    15         19
    26         13
    27        109
    28         27
    29        485
    30         10
    32          7
    33         14
    34         15
    35          5
    36          1
    37         11
    38         24
    39        198
    40         26
    41        958
    42         45
    43         10
    44          9
    45         37
    46          7
    47         77
    48          3
    49         20
    50         14
    51         11
    52          4
    53         17
    54          4
    55         68
    56         55
    57        999
    58         44
    59         61
    60          4
    61         11
    62          1
    68          1
    69          5
    70          2
    71          6
    73          3
    74          8
    75        226
    76         10
    77         10
    85          1
    89          1
    90        511
    91         29
    92         25
    93          1