##TITLE=Library Entry 31852
##JCAMP-DX=Revision 4.10 
##DATA TYPE=MASS SPECTRUM
##SAMPLE DESCRIPTION=THE M.W. KELLOGG CO., JERSEY CITY, N.J., USA
##NAMES=HP
##CAS NAME=Ethane, 1-chloro-1,1-difluoro-
##MOLFORM=C2H3ClF2
##CAS REGISTRY NO=75-68-3
##MP= -300
##BP= -300
##MW= 100
##$RETENTION INDEX=374
##$CONDENSED SPECTRUM=NO
##NPOINTS= 56
##XYDATA=(XY..XY) 1 
    19          7
    20          1
    21          0
    24         12
    25         35
    26         56
    27         12
    30          0
    31         95
    32          7
    33         20
    34          0
    35         56
    36         12
    37         17
    38          4
    39          0
    40          0
    41          0
    43          7
    44         67
    45        309
    46         20
    47         13
    48          7
    49         17
    50         21
    51         13
    52          0
    59          2
    60          7
    61         36
    62          5
    63         34
    64         81
    65        999
    66         28
    67          4
    68          2
    69          1
    78          1
    79          8
    80          7
    81         43
    82          3
    83         13
    84          0
    85        141
    86          1
    87         45
    88          0
    97          0
    98          1
    99          1
   100          0
   101          0