##TITLE=Library Entry 27719
##JCAMP-DX=Revision 4.10 
##DATA TYPE=MASS SPECTRUM
##SAMPLE DESCRIPTION=CONTINENTAL OIL CO., PONCA CITY, OKLA, USA
##NAMES=HP
##CAS NAME=2-Propanamine, 2-methyl-
##MOLFORM=C4H11N
##CAS REGISTRY NO=75-64-9
##MP= -300
##BP= -300
##MW= 73
##$RETENTION INDEX=482
##$CONDENSED SPECTRUM=NO
##NPOINTS= 43
##XYDATA=(XY..XY) 1 
    13          6
    14         27
    15        151
    16         12
    19          1
    24          0
    25          2
    26         18
    27         66
    28         85
    29         50
    30        113
    31          2
    32          3
    33          0
    36          1
    37          6
    38         14
    39         76
    40         24
    41        201
    42        164
    43         38
    44          5
    45          0
    48          0
    49          1
    50          4
    51          6
    52          6
    53          4
    54          8
    55         15
    56         25
    57         56
    58        999
    59         44
    60          0
    68          0
    70          2
    71          0
    72          0
    73          1