##TITLE=Library Entry 61811
##JCAMP-DX=Revision 4.10 
##DATA TYPE=MASS SPECTRUM
##SAMPLE DESCRIPTION=RADIAN CORP
##NAMES=HP
##CAS NAME=Arsinic acid, dimethyl-
##MOLFORM=C2H7AsO2
##CAS REGISTRY NO=75-60-5
##MP= -300
##BP= -300
##MW= 138
##$RETENTION INDEX=0
##$CONDENSED SPECTRUM=NO
##NPOINTS= 66
##XYDATA=(XY..XY) 1 
    14          1
    15         16
    26          1
    27          7
    29         18
    31          9
    41          4
    42          1
    43          3
    44          7
    45          6
    55          5
    56          2
    57          5
    60          3
    63         20
    65         10
    67          2
    69          4
    71          3
    73          4
    75         49
    76         28
    77         35
    78          6
    79          6
    81          3
    83          4
    84          2
    85          4
    87          2
    88         63
    89        264
    90        163
    91        999
    92        114
    93        271
    95         14
    96          1
    97          4
    98          2
    99          3
   100         11
   101         36
   102         26
   103        107
   105        557
   106        116
   107        348
   108          5
   109        214
   110          2
   111          6
   113          1
   117         17
   119         55
   120         56
   121        628
   122        107
   123        153
   124          4
   135         13
   136         63
   137         29
   138        271
   139         23