##TITLE=Library Entry 97501
##JCAMP-DX=Revision 4.10 
##DATA TYPE=MASS SPECTRUM
##SAMPLE DESCRIPTION=Japan AIST/NIMC Database- Spectrum MS-IW-5645
##NAMES=HP
##CAS NAME=Methane, bromotrichloro-
##MOLFORM=CBrCl3
##CAS REGISTRY NO=75-62-7
##MP= -300
##BP= -300
##MW= 196
##$RETENTION INDEX=757
##$CONDENSED SPECTRUM=NO
##NPOINTS= 45
##XYDATA=(XY..XY) 1 
    12         11
    35         63
    36          3
    37         20
    38          1
    47        193
    48          3
    49         63
    50          1
    70          4
    72          3
    79         91
    80          7
    81         90
    82        286
    83         13
    84        181
    85          9
    86         28
    87          1
    91         36
    93         36
    94          1
   114          9
   116         10
   117        999
   118         12
   119        970
   120          9
   121        313
   122          3
   123         34
   126         37
   127          2
   128         49
   129          3
   130         11
   131          1
   161        377
   162          4
   163        614
   164          7
   165        279
   166          4
   167         37