##TITLE=Library Entry 69251
##JCAMP-DX=Revision 4.10 
##DATA TYPE=MASS SPECTRUM
##SAMPLE DESCRIPTION=Chemical Concepts
##NAMES=HP
##CAS NAME=Methanesulfonic acid
##MOLFORM=CH4O3S
##CAS REGISTRY NO=75-75-2
##MP= -300
##BP= -300
##MW= 96
##$RETENTION INDEX=0
##$CONDENSED SPECTRUM=NO
##NPOINTS= 51
##XYDATA=(XY..XY) 1 
    27          0
    29         87
    30          9
    31        394
    33         15
    34         11
    35          7
    36         40
    37          2
    38         12
    39          1
    41          1
    43          3
    44          8
    45         45
    46         14
    47          6
    48        179
    49         33
    50         14
    51          0
    53          1
    55          1
    56          1
    57          1
    60          1
    62          2
    63         16
    64         85
    65        311
    66         61
    67         13
    68          2
    69          1
    71          1
    78        434
    79        978
    80         41
    81        514
    82         10
    83         25
    86          1
    90          1
    91          1
    93          1
    94          1
    95          1
    96        999
    97         61
    98         46
    99          4