##TITLE=Library Entry 55236
##JCAMP-DX=Revision 4.10 
##DATA TYPE=MASS SPECTRUM
##SAMPLE DESCRIPTION=KONINKLIJKE/SHELL LAB., AMSTERDAM, THE NETHERLANDS
##NAMES=HP
##CAS NAME=Dichlorodifluoromethane
##MOLFORM=CCl2F2
##CAS REGISTRY NO=75-71-8
##MP= -300
##BP= -300
##MW= 120
##$RETENTION INDEX=316
##$CONDENSED SPECTRUM=NO
##NPOINTS= 31
##XYDATA=(XY..XY) 1 
    19          2
    31         68
    32          1
    35         70
    37         23
    38          1
    47         26
    48          0
    49          8
    50        118
    51          1
    54          0
    56          0
    66         36
    67          0
    68         12
    69          0
    70          2
    72          1
    74          0
    82          1
    84          1
    85        999
    86          9
    87        326
   101         87
   103         57
   105          9
   120          2
   122          1
   124          0