##TITLE=Library Entry 35548
##JCAMP-DX=Revision 4.10 
##DATA TYPE=MASS SPECTRUM
##SAMPLE DESCRIPTION=Exported from NIST MS Search
##NAMES=HP
##CAS NAME=Chlorotrifluoromethane
##MOLFORM=CClF3
##CAS REGISTRY NO=75-72-9
##MP= -300
##BP= -300
##MW= 104
##$RETENTION INDEX=190
##$CONDENSED SPECTRUM=NO
##NPOINTS= 22
##XYDATA=(XY..XY) 1 
    12          3
    19          2
    31         18
    32          1
    33          7
    35         31
    37         10
    47          5
    49          2
    50         64
    51          1
    66          3
    68          2
    69        999
    70         12
    85        180
    86          2
    87         57
    88          1
   104          7
   105          1
   106          2