##TITLE=Library Entry 34850
##JCAMP-DX=Revision 4.10 
##DATA TYPE=MASS SPECTRUM
##SAMPLE DESCRIPTION=Exported from NIST MS Search
##NAMES=HP
##CAS NAME=Tetrafluoromethane
##MOLFORM=CF4
##CAS REGISTRY NO=75-73-0
##MP= -300
##BP= -300
##MW= 88
##$RETENTION INDEX=85
##$CONDENSED SPECTRUM=NO
##NPOINTS= 8
##XYDATA=(XY..XY) 1 
    19         67
    31         49
    32          1
    50        118
    51          1
    69        999
    70         11
    88          1