##TITLE=Library Entry 90321
##JCAMP-DX=Revision 4.10 
##DATA TYPE=MASS SPECTRUM
##SAMPLE DESCRIPTION=NIST Mass Spectrometry Data Center, 1994
##NAMES=HP
##CAS NAME=Silane, dichlorodimethyl-
##MOLFORM=C2H6Cl2Si
##CAS REGISTRY NO=75-78-5
##MP= -300
##BP= -300
##MW= 128
##$RETENTION INDEX=610
##$CONDENSED SPECTRUM=NO
##NPOINTS= 69
##XYDATA=(XY..XY) 1 
    12          4
    13         10
    14         32
    15         96
    16          2
    25          1
    26         10
    27         29
    28         29
    29         27
    30          3
    31          2
    35         16
    36          7
    37          5
    38          3
    40          8
    41         30
    42         42
    43         55
    44          4
    45          2
    47          3
    48          4
    49          5
    50          1
    51          2
    52          5
    53         24
    54          4
    55          5
    57          1
    58          5
    63        316
    64         31
    65        136
    66         11
    67         14
    75          3
    76         13
    77         26
    78         15
    79         11
    80          2
    88          1
    92         16
    93        101
    94         14
    95         37
    96          3
    97          1
    98         37
    99         19
   100         25
   101         12
   102          5
   103          2
   113        999
   115        703
   116         41
   117        131
   118          6
   119          3
   128         70
   129          5
   130         47
   131          3
   132          9
   133          0