##TITLE=Library Entry 40598
##JCAMP-DX=Revision 4.10 
##DATA TYPE=MASS SPECTRUM
##SAMPLE DESCRIPTION=R.W.CRAWFORD UNIV. OF CALIFORNIA, LIVERMORE, CALIFORNIA
, USA
##NAMES=HP
##CAS NAME=Silane, tetramethyl-
##MOLFORM=C4H12Si
##CAS REGISTRY NO=75-76-3
##MP= -300
##BP= -300
##MW= 88
##$RETENTION INDEX=428
##$CONDENSED SPECTRUM=NO
##NPOINTS= 55
##XYDATA=(XY..XY) 1 
     2          1
    12          1
    13          2
    14          9
    15         48
    16          1
    25          0
    26          3
    27         10
    28         35
    29         73
    30          7
    31         35
    32          2
    33          1
    36          0
    37          0
    38          0
    39          2
    40          1
    41          9
    42         39
    43        138
    44         36
    45        124
    46          8
    47          4
    48          0
    51          0
    52          1
    53         21
    54          5
    55         21
    56          4
    57         15
    58         15
    59         21
    60          1
    61          0
    64          0
    65          2
    66          3
    67          2
    68          0
    69          1
    70          2
    71          5
    72         11
    73        999
    74         84
    75         35
    76          1
    88          7
    89          0
    90          0