##TITLE=Library Entry 7837
##JCAMP-DX=Revision 4.10 
##DATA TYPE=MASS SPECTRUM
##SAMPLE DESCRIPTION=Japan AIST/NIMC Database- Spectrum MS-NW-1294
##NAMES=HP
##CAS NAME=Butane, 2,2-dimethyl-
##MOLFORM=C6H14
##CAS REGISTRY NO=75-83-2
##MP= -300
##BP= -300
##MW= 86
##$RETENTION INDEX=537
##$CONDENSED SPECTRUM=NO
##NPOINTS= 39
##XYDATA=(XY..XY) 1 
    14          1
    15         15
    16          1
    26         10
    27        171
    28         11
    29        335
    30          8
    31          1
    37          3
    38          9
    39        135
    40         17
    41        490
    42         55
    43        999
    44         30
    49          1
    50          8
    51         10
    52          4
    53         24
    54          4
    55        112
    56        279
    57        982
    58         46
    59          1
    62          1
    63          2
    65          2
    67          3
    69          7
    70         32
    71        766
    72         44
    73          1
    85          2
    86          1