##TITLE=Library Entry 97918
##JCAMP-DX=Revision 4.10 
##DATA TYPE=MASS SPECTRUM
##SAMPLE DESCRIPTION=Exported from NIST MS Search
##NAMES=HP
##CAS NAME=Ethane, 2-chloro-1,1,1-trifluoro-
##MOLFORM=C2H2ClF3
##CAS REGISTRY NO=75-88-7
##MP= -300
##BP= -300
##MW= 118
##$RETENTION INDEX=370
##$CONDENSED SPECTRUM=NO
##NPOINTS= 46
##XYDATA=(XY..XY) 1 
    13          2
    14         10
    25          3
    31         28
    33        231
    34          3
    35          7
    36          3
    37          2
    40          6
    43          4
    44         17
    45          4
    47         22
    48         32
    49        199
    50         21
    51         85
    52          1
    62          2
    63         61
    64         36
    65          1
    66          4
    67         43
    68          2
    69        111
    78          2
    79         84
    80          4
    81         29
    82          8
    83        542
    84         12
    85          4
    97          2
    98         42
    99        138
   100         17
   101         47
   116          1
   117          4
   118        999
   119         24
   120        318
   121          7