##TITLE=Library Entry 23334
##JCAMP-DX=Revision 4.10 
##DATA TYPE=MASS SPECTRUM
##SAMPLE DESCRIPTION=Japan AIST/NIMC Database- Spectrum MS-NW-1453
##NAMES=HP
##CAS NAME=Propanoic acid, 2,2-dimethyl-
##MOLFORM=C5H10O2
##CAS REGISTRY NO=75-98-9
##MP= -300
##BP= -300
##MW= 102
##$RETENTION INDEX=864
##$CONDENSED SPECTRUM=NO
##NPOINTS= 43
##XYDATA=(XY..XY) 1 
    14          3
    15         19
    18          2
    26          9
    27         80
    28         12
    29        292
    30          7
    31         17
    32          1
    37          6
    38         11
    39         99
    40         13
    41        436
    42         24
    43         29
    44          1
    45         38
    46          1
    49          1
    50          4
    51          4
    52          1
    53          6
    54          1
    55         25
    56         60
    57        999
    58         44
    59         56
    60          2
    61          1
    68          2
    69         12
    70          2
    71          1
    85          2
    86          5
    87         47
    88          2
   102         17
   103          2