##TITLE=Library Entry 31440
##JCAMP-DX=Revision 4.10 
##DATA TYPE=MASS SPECTRUM
##SAMPLE DESCRIPTION=Japan AIST/NIMC Database- Spectrum MS-NW-4939
##NAMES=HP
##CAS NAME=Propanoic acid, 2,2-dichloro-
##MOLFORM=C3H4Cl2O2
##CAS REGISTRY NO=75-99-0
##MP= -300
##BP= -300
##MW= 142
##$RETENTION INDEX=0
##$CONDENSED SPECTRUM=NO
##NPOINTS= 87
##XYDATA=(XY..XY) 1 
    12          9
    13         12
    14         33
    15        102
    16          3
    17          7
    18         12
    24          8
    25         43
    26        210
    27        675
    28        105
    29         36
    30          1
    31          2
    35         53
    36        248
    37         17
    38         79
    39          2
    40          3
    41         12
    42         44
    43        229
    44         39
    45        253
    46          6
    47         21
    48         37
    49         30
    50         15
    51          8
    52          5
    53         27
    54          6
    55         12
    56          3
    59          4
    60         32
    61        315
    62        999
    63        162
    64        318
    65         27
    66          3
    67          1
    68          1
    69          1
    71         26
    72          9
    73          1
    76          3
    77          1
    78          3
    79         55
    80          2
    81         17
    82          5
    83         18
    84         19
    85         11
    86         11
    87          2
    88          2
    89         55
    90         13
    91         19
    92          5
    93          2
    95          1
    96         31
    97        602
    98         76
    99        392
   100         40
   101         66
   102          6
   103          1
   106         37
   107        213
   108         18
   109         70
   110          3
   125          1
   127          8
   129          5
   131          1