##TITLE=Library Entry 23327
##JCAMP-DX=Revision 4.10 
##DATA TYPE=MASS SPECTRUM
##SAMPLE DESCRIPTION=Japan AIST/NIMC Database- Spectrum MS-NW- 893
##NAMES=HP
##CAS NAME=2-Butanone, 3,3-dimethyl-
##MOLFORM=C6H12O
##CAS REGISTRY NO=75-97-8
##MP= -300
##BP= -300
##MW= 100
##$RETENTION INDEX=678
##$CONDENSED SPECTRUM=NO
##NPOINTS= 35
##XYDATA=(XY..XY) 1 
    14          5
    15         43
    18          2
    26          4
    27         49
    28         10
    29        361
    30          7
    31          1
    37          4
    38          9
    39        112
    40         13
    41        556
    42          9
    43        320
    44          6
    45          6
    49          1
    50          8
    51          9
    52          2
    53          8
    54          1
    55         29
    56         40
    57        999
    58         43
    59          2
    63          1
    65          1
    67          8
    85         40
   100        148
   101         10