##TITLE=Library Entry 24030
##JCAMP-DX=Revision 4.10 
##DATA TYPE=MASS SPECTRUM
##SAMPLE DESCRIPTION=NIST Mass Spectrometry Data Center
##NAMES=HP
##CAS NAME=tert-Butyl Hydroperoxide
##MOLFORM=C4H10O2
##CAS REGISTRY NO=75-91-2
##MP= -300
##BP= -300
##MW= 90
##$RETENTION INDEX=0
##$CONDENSED SPECTRUM=NO
##NPOINTS= 38
##XYDATA=(XY..XY) 1 
    14          4
    15         35
    16          1
    17          2
    18          6
    25          1
    26         16
    27         82
    29        226
    30          6
    31        106
    32          1
    33          6
    37          9
    38         19
    39        146
    40         19
    41        603
    42         81
    43        650
    44         20
    45         12
    49          2
    50         13
    51         11
    52          2
    53         13
    54          2
    55         45
    56         29
    57        999
    58        265
    59        583
    60         22
    61          1
    75         86
    76          3
    90         15