##TITLE=Library Entry 81047
##JCAMP-DX=Revision 4.10 
##DATA TYPE=MASS SPECTRUM
##SAMPLE DESCRIPTION=Japan AIST/NIMC Database- Spectrum MS-NW-7354
##NAMES=HP
##CAS NAME=1,2-Phenylenediacetic acid
##MOLFORM=C10H10O4
##CAS REGISTRY NO=7500-53-0
##MP= -300
##BP= -300
##MW= 194
##$RETENTION INDEX=0
##$CONDENSED SPECTRUM=NO
##NPOINTS= 127
##XYDATA=(XY..XY) 1 
    15          1
    17          2
    18          7
    26          5
    27         41
    28          9
    29         10
    37          8
    38         22
    39        114
    40         10
    41         21
    42          6
    43          9
    44         10
    45         77
    46          2
    47          1
    49          6
    50         71
    51        199
    52         72
    53         45
    54          4
    55          9
    56          1
    57          2
    58          1
    59          3
    60          4
    61         11
    62         40
    63         99
    64         20
    65         94
    66         12
    67          3
    68          2
    69          3
    71          1
    72          1
    73          5
    74         32
    75         35
    76         39
    77        560
    78        225
    79         80
    80          5
    81          3
    82          1
    83          1
    84          1
    85          3
    86          7
    87          9
    88          2
    89         38
    90         14
    91        493
    92         54
    93        353
    94         29
    95          2
    97          2
    98          6
    99          2
   100          1
   101         11
   102        116
   103        378
   104        609
   105        999
   106        112
   107         19
   108          4
   109          2
   110          1
   111          1
   113          1
   114          4
   115          4
   116          1
   118          5
   119        139
   120         82
   121        171
   122         15
   123          1
   126          1
   127          1
   129          3
   130        716
   131        129
   132         86
   133          9
   134          4
   135          4
   137          2
   138          1
   139          1
   142          2
   146          1
   147         93
   148        121
   149         62
   150        183
   151         19
   152          2
   154          1
   158        289
   159         34
   160          5
   161          1
   165          1
   166          1
   169          1
   174          1
   175          1
   176        401
   177         49
   178          6
   179          1
   193          1
   194        142
   195         16
   196          2