##TITLE=Library Entry 48829
##JCAMP-DX=Revision 4.10 
##DATA TYPE=MASS SPECTRUM
##SAMPLE DESCRIPTION=RADIAN CORP
##NAMES=HP
##CAS NAME=4-Cyclohexene-1,2-dicarboxylic acid, dimethyl ester
##MOLFORM=C10H14O4
##CAS REGISTRY NO=7500-55-2
##MP= -300
##BP= -300
##MW= 198
##$RETENTION INDEX=1369
##$CONDENSED SPECTRUM=NO
##NPOINTS= 57
##XYDATA=(XY..XY) 1 
    15        112
    26          7
    27         54
    29         50
    30         14
    31         31
    33         28
    38          2
    39         74
    41         31
    42          4
    43          5
    45         37
    50         15
    51         54
    52         36
    53         58
    54         18
    55         32
    56          2
    59        155
    60         10
    61         11
    65          7
    66          6
    67         20
    69          1
    71          7
    77        243
    78        332
    79        999
    80         95
    81         26
    82          3
    83          2
    85          4
    91          9
    93          8
    94          2
    97          3
   105         18
   106         38
   107         98
   108          8
   109          3
   110         13
   111         13
   113          3
   121          2
   123          2
   124          2
   137         48
   138        294
   139         30
   166         75
   167         93
   168          8