##TITLE=Library Entry 88525
##JCAMP-DX=Revision 4.10 
##DATA TYPE=MASS SPECTRUM
##SAMPLE DESCRIPTION=ATLAS OF MASS SPECTRA OF ORGANIC COMPOUNDS, V. A. KOPTY
UG, ED.
##NAMES=HP
##CAS NAME=1H-Pyrazole, 3-ethyl-4,5-dihydro-1,4-dimethyl-
##MOLFORM=C7H14N2
##CAS REGISTRY NO=75011-91-5
##MP= -300
##BP= -300
##MW= 126
##$RETENTION INDEX=943
##$CONDENSED SPECTRUM=NO
##NPOINTS= 37
##XYDATA=(XY..XY) 1 
    26         17
    27        104
    28        161
    29         88
    30         44
    39         94
    40         21
    41        166
    42        301
    43        203
    44         52
    51          9
    52         12
    53         24
    54         62
    55        140
    56        171
    57         17
    67         21
    68         78
    69         30
    70         26
    81         14
    82         44
    83        306
    84         60
    95         32
    96         35
    97        119
    98         10
   109         25
   110         16
   111        999
   112         73
   125        208
   126        519
   127         47