##TITLE=Library Entry 85664
##JCAMP-DX=Revision 4.10 
##DATA TYPE=MASS SPECTRUM
##SAMPLE DESCRIPTION=NIST Mass Spectrometry Data Center, 1994
##NAMES=HP
##CAS NAME=4-(Hexadecyloxy)aniline
##MOLFORM=C22H39NO
##CAS REGISTRY NO=7502-06-9
##MP= -300
##BP= -300
##MW= 333
##$RETENTION INDEX=0
##$CONDENSED SPECTRUM=NO
##NPOINTS= 67
##XYDATA=(XY..XY) 1 
    17          0
    18          2
    27         23
    28         14
    29         74
    30          1
    32          0
    39         21
    41        153
    42         25
    43        171
    44          5
    50          0
    51          2
    52          7
    53         24
    54         10
    55         79
    56         12
    57         53
    58          2
    63          2
    64          2
    65         17
    66          3
    67          7
    68          3
    69         29
    70          4
    71         12
    77          5
    78          1
    80         58
    81         15
    82          4
    83         11
    84          1
    85          4
    91          2
    92         17
    93          7
    94         21
    95          1
    97          5
    98          0
   106          3
   108        106
   109        999
   110         90
   111          6
   119          0
   120          1
   122         19
   123          1
   135          3
   136          1
   149          1
   163          1
   177          1
   191          1
   205          1
   219          1
   233          1
   247          0
   333        154
   334         38
   335          5