##TITLE=Library Entry 33693
##JCAMP-DX=Revision 4.10 
##DATA TYPE=MASS SPECTRUM
##SAMPLE DESCRIPTION=R.H. Scheffrahn, Ft. Lauderdale Res. Educ. Cent., Univ.
 Florida, Florida, USA
##NAMES=HP
##CAS NAME=1,5-Cyclodecadiene, 1,5-dimethyl-8-(1-methylethenyl)-, [S-(Z,E)]-
##MOLFORM=C15H24
##CAS REGISTRY NO=75023-40-4
##MP= -300
##BP= -300
##MW= 204
##$RETENTION INDEX=0
##$CONDENSED SPECTRUM=NO
##NPOINTS= 38
##XYDATA=(XY..XY) 1 
    40         80
    41        330
    43         80
    53        270
    55        260
    65         70
    67        550
    68        999
    69        180
    77        190
    79        420
    80        130
    81        570
    91        300
    92        140
    93        920
    94        310
    95        290
   105        370
   106        120
   107        580
   108        320
   109        160
   119        300
   120        110
   121        460
   122        120
   133        250
   134        120
   135        150
   147        600
   148        170
   161        320
   162         90
   175         70
   189        330
   204        210
   205         35