##TITLE=Library Entry 84240
##JCAMP-DX=Revision 4.10 
##DATA TYPE=MASS SPECTRUM
##SAMPLE DESCRIPTION=H. ENDO, FAC. ENG., YOKOHAMA NATL. UNIV., YOKOHAMA, JAP
A.
##NAMES=HP
##CAS NAME=.alpha.-Ethyl-o-methoxybenzyl alcohol
##MOLFORM=C10H14O2
##CAS REGISTRY NO=75038-24-3
##MP= -300
##BP= -300
##MW= 166
##$RETENTION INDEX=0
##$CONDENSED SPECTRUM=NO
##NPOINTS= 18
##XYDATA=(XY..XY) 1 
    39        483
    43        138
    51        100
    65        362
    77        897
    91        448
   103        100
   105        379
   107        999
   109        310
   115        190
   119        310
   121        379
   133        155
   135        276
   137        948
   148        138
   166         34