##TITLE=Library Entry 23443
##JCAMP-DX=Revision 4.10 
##DATA TYPE=MASS SPECTRUM
##SAMPLE DESCRIPTION=NIST Mass Spectrometry Data Center
##NAMES=HP
##CAS NAME=trans-2-Undecen-1-ol
##MOLFORM=C11H22O
##CAS REGISTRY NO=75039-84-8
##MP= -300
##BP= -300
##MW= 170
##$RETENTION INDEX=1899
##$CONDENSED SPECTRUM=NO
##NPOINTS= 66
##XYDATA=(XY..XY) 1 
    14          6
    15         18
    16          2
    18          6
    19          5
    27        366
    28         89
    29        549
    30         23
    31        123
    37          5
    39        295
    41        837
    42        188
    43        602
    44        125
    45         28
    50          7
    51         24
    52         19
    53        106
    54        199
    55        455
    56        227
    57        999
    58         70
    59          1
    63          3
    65         29
    66         51
    67        321
    68        281
    69        260
    70        168
    71        176
    72         39
    73         10
    77         15
    78          5
    79         41
    81        243
    82        315
    83        142
    84         55
    85         55
    86         10
    91          7
    93          9
    95        184
    96        148
    97         65
    98         26
    99         15
   100          3
   109         71
   110         55
   111         11
   112          5
   113          6
   123         30
   124         37
   125          4
   126          8
   127          4
   152         13
   170          2