##TITLE=Library Entry 65841
##JCAMP-DX=Revision 4.10 
##DATA TYPE=MASS SPECTRUM
##SAMPLE DESCRIPTION=A.A.Kutin, Moscow, Russia
##NAMES=HP
##CAS NAME=Carbamic acid, phenyl-, decyl ester
##MOLFORM=C17H27NO2
##CAS REGISTRY NO=7504-86-1
##MP= -300
##BP= -300
##MW= 277
##$RETENTION INDEX=0
##$CONDENSED SPECTRUM=NO
##NPOINTS= 112
##XYDATA=(XY..XY) 1 
    33          1
    36          0
    37          2
    39         71
    41        219
    43        301
    44         10
    45          1
    46          0
    50         11
    51         33
    52         12
    53         16
    55        169
    56         43
    57        212
    58          8
    59          1
    61          2
    62          6
    63         23
    64         40
    65        108
    66         48
    67         19
    69         65
    70         21
    71         76
    73          4
    74          2
    75          4
    77        135
    78         11
    79          6
    80          3
    81          6
    82          6
    83         25
    85         68
    86          3
    87          1
    88          0
    91         78
    93        999
    94         56
    96          4
    97         11
    98          3
    99          3
   100          0
   101          0
   104          3
   106         37
   107          3
   108          3
   109          1
   110          1
   111          2
   112          2
   113          0
   115          0
   117          2
   119         77
   120         94
   121          6
   122          0
   124          0
   125          0
   126          1
   127          5
   128          0
   129          2
   130          0
   132          4
   133          2
   134         17
   137        286
   138         91
   139          7
   140          1
   141          0
   146          0
   148          9
   149          0
   150          1
   151          0
   153          0
   154          0
   162          6
   163          0
   164          0
   166          0
   167          0
   168          1
   169          1
   170          0
   171          1
   176          5
   177          0
   181          0
   182          0
   185          2
   189          0
   190          4
   191          0
   204          5
   205          0
   274          0
   275          1
   277         80
   278         12
   279          1