##TITLE=Library Entry 23259
##JCAMP-DX=Revision 4.10 
##DATA TYPE=MASS SPECTRUM
##SAMPLE DESCRIPTION=K. LEVSEN, INST. PHYS. CHEM., UNIV. BONN, W. GER
##NAMES=HP
##CAS NAME=Dibromophenyl-tert-butyltin
##MOLFORM=C10H14Br2Sn
##CAS REGISTRY NO=75042-60-3
##MP= -300
##BP= -300
##MW= 412
##$RETENTION INDEX=0
##$CONDENSED SPECTRUM=NO
##NPOINTS= 58
##XYDATA=(XY..XY) 1 
    15         10
    27         80
    28         40
    29        310
    38         20
    39        140
    40         50
    41        480
    42         20
    50         50
    51        190
    52         20
    53         10
    55         30
    56         80
    57        999
    58         10
    76         20
    77        170
    78         30
   116         40
   117         30
   118         70
   119         40
   120         90
   122         10
   124         20
   143         10
   145         20
   152         10
   153         10
   154         20
   192         10
   193         80
   194         70
   195        180
   196        110
   197        280
   198        100
   199        200
   200         50
   201        140
   203         30
   205         20
   329         10
   331         10
   347         10
   348         10
   349         80
   350         60
   351        180
   352        110
   353        230
   354         80
   355        150
   356         20
   357         40
   359         20