##TITLE=Library Entry 14165
##JCAMP-DX=Revision 4.10 
##DATA TYPE=MASS SPECTRUM
##SAMPLE DESCRIPTION=A.A.Kutin, Moscow, Russia
##NAMES=HP
##CAS NAME=Pent-3-en-2-one, 4-(2,3-dihydro-1-acetylindol-5-yl)amino-
##MOLFORM=C15H18N2O2
##CAS REGISTRY NO=75054-66-9
##MP= -300
##BP= -300
##MW= 258
##$RETENTION INDEX=0
##$CONDENSED SPECTRUM=NO
##NPOINTS= 179
##XYDATA=(XY..XY) 1 
    34          2
    36          1
    37          1
    38         11
    39        107
    40         61
    41         53
    42        132
    43        999
    44         40
    45         13
    50         15
    51         55
    52         39
    53         35
    54         18
    55         15
    56         16
    57          7
    58          7
    59          0
    60          6
    61          1
    62         15
    63         66
    64         28
    65         62
    66         19
    67         21
    68         10
    69         13
    70          2
    71          6
    72          2
    73          1
    74          4
    75         12
    76         21
    77        110
    78         57
    79         68
    80         15
    81          4
    82         13
    84        596
    85         36
    87         10
    88         12
    89        167
    90         86
    91         72
    92         12
    93         10
    94          4
    95          0
    96          1
    97          1
    98          2
    99          3
   100         14
   101          8
   102         18
   103         34
   104         56
   105         32
   106         41
   107          8
   108          3
   109          0
   110          0
   111          0
   112          0
   113          1
   114          8
   115         40
   116        164
   117        163
   118         95
   119         38
   120          5
   121          0
   122          0
   124         10
   125          1
   126          4
   127         11
   128         30
   129         43
   130        137
   131        124
   132        391
   133        267
   134        128
   135         15
   136          1
   139          0
   140          5
   141          7
   142         19
   143         44
   144        126
   145         47
   146         25
   147          5
   148          1
   149          0
   151          0
   152          2
   153          2
   154         17
   155         19
   156        107
   157        124
   158        138
   159        110
   160         22
   161          3
   162          0
   165          2
   166          1
   167          7
   168          9
   169         26
   170         21
   171         98
   172         80
   173        367
   174        106
   175         57
   176         34
   177          3
   178          0
   179          1
   180          0
   181          3
   182         10
   183          9
   184          8
   185         14
   186          8
   187          6
   188          2
   189          6
   190          0
   195          1
   196          3
   197         53
   198         38
   199        140
   200         33
   201        241
   202         35
   203          2
   204          0
   211          0
   213          9
   214         13
   215        285
   216        123
   217         23
   218          3
   225          0
   227          0
   228          1
   229          2
   230          0
   239          1
   241         86
   242         17
   243        241
   244         42
   245          3
   255          2
   256          8
   257         37
   258        957
   259        167
   260         16
   261          0