##TITLE=Library Entry 17476
##JCAMP-DX=Revision 4.10 
##DATA TYPE=MASS SPECTRUM
##SAMPLE DESCRIPTION=Exported from NIST MS Search
##NAMES=HP
##CAS NAME=d-Glucopyranose, 2,3,4,6-tetramethyl-
##MOLFORM=C10H20O6
##CAS REGISTRY NO=7506-68-5
##MP= -300
##BP= -300
##MW= 236
##$RETENTION INDEX=0
##$CONDENSED SPECTRUM=NO
##NPOINTS= 38
##XYDATA=(XY..XY) 1 
    45        999
    53         80
    55        210
    59         90
    68         80
    69         90
    71        190
    75        430
    83        140
    85        330
    88        280
    95        100
    98         90
    99        120
   101        480
   110         50
   111        280
   112         50
   113         50
   114         50
   115         60
   127         80
   129         90
   130        170
   131         70
   139         60
   141        140
   142         60
   143         50
   154         60
   159         20
   173        110
   186          3
   187          4
   191          5
   205          3
   218          2
   234          1