##TITLE=Library Entry 88688
##JCAMP-DX=Revision 4.10 
##DATA TYPE=MASS SPECTRUM
##SAMPLE DESCRIPTION=A.A.Kutin, Moscow, Russia
##NAMES=HP
##CAS NAME=Acetamide, N-(1,3-dimethyl-1H-5-pyrazolyl)-
##MOLFORM=C7H11N3O
##CAS REGISTRY NO=75092-37-4
##MP= -300
##BP= -300
##MW= 153
##$RETENTION INDEX=0
##$CONDENSED SPECTRUM=NO
##NPOINTS= 54
##XYDATA=(XY..XY) 1 
    34          0
    36          0
    37          4
    38         18
    39        108
    40         50
    41        138
    42        151
    43        540
    44         22
    45         14
    46          3
    49          0
    52         43
    53         25
    54         34
    55         16
    56         12
    57         19
    58          1
    63          0
    64          3
    65          5
    66         66
    67         71
    68         72
    69         43
    70         17
    71          4
    79          2
    80          6
    81         16
    82         25
    83        122
    84          8
    85          0
    93          7
    94          4
    95          5
    96        121
    97          8
   108          4
   110        499
   111        999
   112         79
   113          1
   122          1
   124          2
   136          3
   137          3
   138          3
   153        544
   154         43
   155          3