##TITLE=Library Entry 114659
##JCAMP-DX=Revision 4.10 
##DATA TYPE=MASS SPECTRUM
##SAMPLE DESCRIPTION=ASES Database, Dalian Institute, P.R. China
##NAMES=HP
##CAS NAME=2,4,6-Tris(2,2,4-trimethylpenyloxy)-s-triazine
##MOLFORM=C27H51N3O3
##CAS REGISTRY NO=751-27-9
##MP= -300
##BP= -300
##MW= 465
##$RETENTION INDEX=0
##$CONDENSED SPECTRUM=NO
##NPOINTS= 46
##XYDATA=(XY..XY) 1 
    54         42
    55        250
    56         96
    57        726
    58         42
    69        104
    70         20
    71        149
    72         21
    81         25
    82         24
    83         57
    87         38
    97         25
    98         24
    99         50
   113        113
   114         33
   130        999
   131         41
   143        281
   144         62
   154          8
   156          8
   167          8
   168          8
   184        158
   185          7
   197          7
   198         16
   226         59
   227          7
   242        122
   243         16
   255         17
   256          7
   296         13
   310          7
   338          8
   354         37
   355          8
   367          3
   408          4
   409          4
   465         28
   466          7