##TITLE=Library Entry 97395
##JCAMP-DX=Revision 4.10 
##DATA TYPE=MASS SPECTRUM
##SAMPLE DESCRIPTION=ASES Database, Dalian Institute, P.R. China
##NAMES=HP
##CAS NAME=2-(4-Methoxy-phenylthio)-indan
##MOLFORM=C16H16OS
##CAS REGISTRY NO=75102-59-9
##MP= -300
##BP= -300
##MW= 256
##$RETENTION INDEX=0
##$CONDENSED SPECTRUM=NO
##NPOINTS= 25
##XYDATA=(XY..XY) 1 
    39         74
    43         31
    45         32
    51         30
    63         51
    65         62
    77         32
    89         38
    91        183
    95         37
    96         50
    97         43
   115        517
   116        279
   117        999
   118         95
   125        145
   139         81
   140        203
   141         62
   142         31
   148         38
   256        511
   257         94
   258         31