##TITLE=Library Entry 84562
##JCAMP-DX=Revision 4.10 
##DATA TYPE=MASS SPECTRUM
##SAMPLE DESCRIPTION=PYTCAS, 16(7)1013(1977); S. HUNECK AND K. SCHREIBER
##NAMES=HP
##CAS NAME=Benzoic acid, 2,3-dihydroxy-6-(2-phenylethyl)-, methyl ester
##MOLFORM=C16H16O4
##CAS REGISTRY NO=75112-82-2
##MP= -300
##BP= -300
##MW= 272
##$RETENTION INDEX=0
##$CONDENSED SPECTRUM=NO
##NPOINTS= 10
##XYDATA=(XY..XY) 1 
   107        999
   108        520
   121         70
   134        500
   147         90
   165        200
   166        220
   212         40
   240        340
   272        630