##TITLE=Library Entry 73303
##JCAMP-DX=Revision 4.10 
##DATA TYPE=MASS SPECTRUM
##SAMPLE DESCRIPTION=H.ADLERCREUTZ, UNIV. OF HELSINKI, HELSINKI, FINLAND
##NAMES=HP
##CAS NAME=Pregnan-20-one, 3-hydroxy-, O-methyloxime, (3.beta.,5.beta.)-
##MOLFORM=C22H37NO2
##CAS REGISTRY NO=75112-90-2
##MP= -300
##BP= -300
##MW= 347
##$RETENTION INDEX=0
##$CONDENSED SPECTRUM=NO
##NPOINTS= 174
##XYDATA=(XY..XY) 1 
    58         16
    59          8
    65         11
    67          9
    68         10
    69          8
    70        257
    71         23
    73          5
    74         65
    75          7
    77          2
    78          5
    79          9
    80          6
    81         27
    82         10
    83         32
    84         11
    85          3
    86          4
    87        624
    88         64
    89          6
    90          7
    91        162
    92        172
    93         30
    94         16
    95         27
    96         11
    97          9
    98          7
    99         19
   100        999
   101         65
   102          6
   105         15
   106         10
   107         33
   108         20
   109         13
   110          9
   111          5
   112          5
   113         63
   114         29
   115         14
   117          8
   119         20
   120         11
   121         22
   122         15
   123         11
   124         12
   125          6
   126         20
   127         10
   128          4
   131         14
   132          4
   133         25
   134         28
   135         25
   136         12
   137          9
   143          5
   145         15
   146          9
   147         33
   148         19
   149         20
   150          6
   154          6
   157          5
   159         15
   160          9
   161         17
   162         10
   163          7
   164          4
   165          4
   166          5
   171          8
   173         33
   174         12
   175         10
   176          9
   177          4
   185          7
   187         11
   188          8
   189          7
   190          7
   191          5
   199         10
   201         10
   202          7
   203          6
   204          4
   206          4
   207          8
   208          4
   209          4
   213          9
   215         25
   216          8
   217          8
   219          5
   220          5
   224          4
   225          7
   226          4
   227          6
   228          4
   229          5
   230         12
   231          6
   233         10
   234          6
   239          5
   241         44
   242         18
   243         13
   244          9
   245          4
   248         28
   249          5
   256          6
   257          8
   258          7
   259         31
   260         20
   261          6
   267          4
   268          4
   269          4
   272          5
   273          4
   274          7
   275          4
   281         12
   282          8
   283         18
   284          8
   285          4
   286          4
   287          5
   288          5
   289          4
   290          4
   292          4
   296          4
   297          4
   298         78
   299         38
   300         23
   301          9
   302         11
   303          4
   313          4
   314         26
   315         14
   316        446
   317        124
   318         17
   329         11
   330          6
   332         18
   333          5
   345          5
   346          7
   347         46
   348         15