##TITLE=Library Entry 60862
##JCAMP-DX=Revision 4.10 
##DATA TYPE=MASS SPECTRUM
##SAMPLE DESCRIPTION=G.D. Roberts, E. White V, SmithKline Corp., Phila., PA,
 USA
##NAMES=HP
##CAS NAME=Benzenepropanoic acid, silver(1+) salt
##MOLFORM=C9H9AgO2
##CAS REGISTRY NO=75112-79-7
##MP= -300
##BP= -300
##MW= 256
##$RETENTION INDEX=0
##$CONDENSED SPECTRUM=NO
##NPOINTS= 57
##XYDATA=(XY..XY) 1 
    27         23
    28         10
    38         11
    39         72
    44         71
    45         31
    50         65
    51        164
    52         43
    53         17
    55         13
    62         20
    63         60
    64         12
    65        125
    66         11
    73         16
    74         29
    75         22
    76         22
    77        215
    78        218
    79        109
    89         35
    90         14
    91        999
    92         93
   102         30
   103        179
   104        648
   105        304
   106         30
   107         20
   131         36
   132         18
   133         31
   150        310
   151         36
   203          1
   204          1
   205          4
   206          1
   211          0
   213          0
   214          0
   215          0
   216          1
   217          1
   218          0
   219          5
   257          1
   259          1
   279          1
   281          1
   363          3
   365          6
   367          3