##TITLE=Library Entry 62718
##JCAMP-DX=Revision 4.10 
##DATA TYPE=MASS SPECTRUM
##SAMPLE DESCRIPTION=PYTCAS, 16(7)947(1977); R. W. MILLER ET AL
##NAMES=HP
##CAS NAME=17-Octadecene-9,11-diynoic acid, 8-oxo-, methyl ester
##MOLFORM=C19H26O3
##CAS REGISTRY NO=75112-83-3
##MP= -300
##BP= -300
##MW= 302
##$RETENTION INDEX=0
##$CONDENSED SPECTRUM=NO
##NPOINTS= 21
##XYDATA=(XY..XY) 1 
    91        999
    92        170
    93        240
   103        220
   104        220
   105        260
   115        230
   116        340
   117        440
   129        200
   131        480
   132        250
   145        200
   159        580
   160        160
   171        260
   174        100
   243          3
   271         20
   287         20
   302          5