##TITLE=Library Entry 89877
##JCAMP-DX=Revision 4.10 
##DATA TYPE=MASS SPECTRUM
##SAMPLE DESCRIPTION=Japan AIST/NIMC Database- Spectrum MS-IW-5219
##NAMES=HP
##CAS NAME=3-(4-Methyl-2,5-dioxo-4-imidazolidinyl)propionic acid
##MOLFORM=C7H10N2O4
##CAS REGISTRY NO=7511-46-8
##MP= -300
##BP= -300
##MW= 186
##$RETENTION INDEX=0
##$CONDENSED SPECTRUM=NO
##NPOINTS= 111
##XYDATA=(XY..XY) 1 
    12          1
    14          4
    15         18
    16          3
    17         36
    18        183
    20          4
    25          4
    26         38
    27         95
    28        175
    29         23
    30         14
    31          2
    33          1
    34          1
    35          1
    36         21
    37          5
    38         14
    39         50
    40         33
    41         77
    42        495
    43        145
    44         72
    45         22
    46          2
    48          3
    49          5
    50         24
    51         25
    52         63
    53         41
    54         68
    55         61
    56        246
    57         13
    58          2
    60         12
    61          2
    62          2
    63          2
    64          3
    65          3
    66          5
    67         10
    68         17
    69         50
    70         73
    71          8
    72         21
    73         17
    74         72
    75          7
    76          9
    77         15
    78          9
    79         50
    80         21
    81         18
    82         65
    83         24
    84          6
    85          3
    86          2
    89          1
    91          3
    92          1
    93          1
    94          4
    95         19
    96         16
    97        308
    98         91
    99         15
   100          9
   101          1
   103          1
   104          1
   105          1
   106          1
   107          3
   109          2
   110          9
   111          1
   112        204
   113        999
   114         79
   115         40
   116          3
   117          2
   123          1
   124          1
   125         94
   126          8
   127          3
   140          8
   141          3
   142          1
   153         30
   154          2
   158          4
   168        150
   169         17
   170          2
   171         14
   172          1
   186         83
   187          9
   188          1